<?xml version="1.0"?>
<VTKFile type="UnstructuredGrid" version="0.1" byte_order="LittleEndian">
<UnstructuredGrid>
<Piece NumberOfPoints="30618" NumberOfCells="10744">
<Points>
<DataArray type="Float64" NumberOfComponents="3" format="ascii">
-0.49427958746526202 -0.49999999999999512 0 -0.4943900888896422 -0.47349089190363358 0 -0.49427958746526202 -0.49999999999999512 0 -0.5 -0.5 0 -0.4943900888896422 -0.47349089190363358 0 -0.5 -0.5 0 -0.4943900888896422 -0.47349089190363358 0 -0.5 -0.44150235328842258 0 -0.49427958746526202 -0.49999999999999512 0 -0.4943900888896422 -0.47349089190363358 0 -0.48436842240857858 -0.48714093788813112 0 -0.49427958746526202 -0.49999999999999512 0 -0.47650045540741742 -0.5 0 -0.48436842240857858 -0.48714093788813112 0 -0.4943900888896422 -0.47349089190363358 0 -0.47066899942757451 -0.47576530412887819 0 -0.48436842240857858 -0.48714093788813112 0 -0.47066899942757451 -0.47576530412887819 0 -0.47650045540741742 -0.5 0 -0.48436842240857858 -0.48714093788813112 0 -0.47066899942757451 -0.47576530412887819 0 -0.45872132334957288 -0.49999999999999928 0 -0.45242967983978871 -0.4846708604340636 0 -0.47066899942757451 -0.47576530412887819 0 -0.47650045540741742 -0.5 0 -0.45872132334957288 -0.49999999999999928 0 -0.47066899942757451 -0.47576530412887819 0 -0.45872132334957288 -0.49999999999999928 0 -0.47066899942757451 -0.47576530412887819 0 -0.45242967983978871 -0.4846708604340636 0 -0.45249717469141032 -0.46588444847215849 0 -0.43763952177061649 -0.47770500498713542 0 -0.45242967983978871 -0.4846708604340636 0 -0.45249717469141032 -0.46588444847215849 0 -0.43763952177061649 -0.47770500498713542 0 -0.44291044788006362 -0.49999999999999939 0 -0.45242967983978871 -0.4846708604340636 0 -0.43763952177061649 -0.47770500498713542 0 -0.44291044788006362 -0.49999999999999939 0 -0.45872132334957288 -0.49999999999999928 0 -0.44291044788006362 -0.49999999999999939 0 -0.45242967983978871 -0.4846708604340636 0 -0.44838221886832419 -0.4464230337388379 0 -0.4323685956611692 -0.45541000997427139 0 -0.435988539966085 -0.44148905847597392 0 -0.44838221886832419 -0.4464230337388379 0 -0.44213238819953832 -0.43491600865963681 0 -0.435988539966085 -0.44148905847597392 0 -0.44838221886832419 -0.4464230337388379 0 -0.45249717469141032 -0.46588444847215849 0 -0.45755175660874181 -0.45423607616472811 0 -0.44838221886832419 -0.4464230337388379 0 -0.45249717469141032 -0.46588444847215849 0 -0.4323685956611692 -0.45541000997427139 0 -0.43763952177061649 -0.47770500498713542 0 -0.45249717469141032 -0.46588444847215849 0 -0.4323685956611692 -0.45541000997427139 0 -0.47066899942757451 -0.47576530412887819 0 -0.45249717469141032 -0.46588444847215849 0 -0.4675747862741928 -0.45726336772241771 0 -0.45249717469141032 -0.46588444847215849 0 -0.45755175660874181 -0.45423607616472811 0 -0.4675747862741928 -0.45726336772241771 0 -0.44838221886832419 -0.4464230337388379 0 -0.46897642374787268 -0.44262015471777721 0 -0.45660235518767722 -0.42786105997071933 0 -0.44838221886832419 -0.4464230337388379 0 -0.45755175660874181 -0.45423607616472811 0 -0.46897642374787268 -0.44262015471777721 0 -0.45755175660874181 -0.45423607616472811 0 -0.4675747862741928 -0.45726336772241771 0 -0.46897642374787268 -0.44262015471777721 0 -0.4943900888896422 -0.47349089190363358 0 -0.5 -0.44150235328842258 0 -0.49450059031402238 -0.44698178380727199 0 -0.46897642374787268 -0.44262015471777721 0 -0.48473746643246862 -0.43972512984246093 0 -0.48043585850414389 -0.43127077967876992 0 -0.46897642374787268 -0.44262015471777721 0 -0.4826166755055763 -0.45153060825775743 0 -0.48473746643246862 -0.43972512984246093 0 -0.4675747862741928 -0.45726336772241771 0 -0.46897642374787268 -0.44262015471777721 0 -0.4826166755055763 -0.45153060825775743 0 -0.47066899942757451 -0.47576530412887819 0 -0.4826166755055763 -0.45153060825775743 0 -0.4943900888896422 -0.47349089190363358 0 -0.47066899942757451 -0.47576530412887819 0 -0.4826166755055763 -0.45153060825775743 0 -0.47066899942757451 -0.47576530412887819 0 -0.4675747862741928 -0.45726336772241771 0 -0.4826166755055763 -0.45153060825775743 0 -0.4943900888896422 -0.47349089190363358 0 -0.49450059031402238 -0.44698178380727199 0 -0.4943900888896422 -0.47349089190363358 0 -0.4826166755055763 -0.45153060825775743 0 -0.49450059031402238 -0.44698178380727199 0 -0.4826166755055763 -0.45153060825775743 0 -0.48473746643246862 -0.43972512984246093 0 -0.49450059031402238 -0.44698178380727199 0 -0.5 -0.44150235328842258 0 -0.49461109173840262 -0.42047267571091063 0 -0.5 -0.39656953661894012 0 -0.49450059031402238 -0.44698178380727199 0 -0.49461109173840262 -0.42047267571091063 0 -0.48473746643246862 -0.43972512984246093 0 -0.49461109173840262 -0.42047267571091063 0 -0.48043585850414389 -0.43127077967876992 0 -0.5 -0.44150235328842258 0 -0.49450059031402238 -0.44698178380727199 0 -0.49461109173840262 -0.42047267571091063 0 -0.48473746643246862 -0.43972512984246093 0 -0.49450059031402238 -0.44698178380727199 0 -0.49461109173840262 -0.42047267571091063 0 -0.49461109173840262 -0.42047267571091063 0 -0.4947215931627828 -0.39396356761454909 0 -0.49461109173840262 -0.42047267571091063 0 -0.48393842445605872 -0.40713040098299402 0 -0.4947215931627828 -0.39396356761454909 0 -0.49461109173840262 -0.42047267571091063 0 -0.48393842445605872 -0.40713040098299402 0 -0.47214510592166908 -0.41939033492402211 0 -0.48393842445605872 -0.40713040098299402 0 -0.47214510592166908 -0.41939033492402211 0 -0.47427590700138023 -0.39469502568249409 0 -0.46897642374787268 -0.44262015471777721 0 -0.47214510592166908 -0.41939033492402211 0 -0.48043585850414389 -0.43127077967876992 0 -0.49461109173840262 -0.42047267571091063 0 -0.47214510592166908 -0.41939033492402211 0 -0.48043585850414389 -0.43127077967876992 0 -0.5 -0.39656953661894012 0 -0.4947215931627828 -0.39396356761454909 0 -0.48030453056746109 -0.36861144308094029 0 -0.49461109173840262 -0.42047267571091063 0 -0.5 -0.39656953661894012 0 -0.4947215931627828 -0.39396356761454909 0 -0.48393842445605872 -0.40713040098299402 0 -0.4947215931627828 -0.39396356761454909 0 -0.47427590700138023 -0.39469502568249409 0 -0.47427590700138023 -0.39469502568249409 0 -0.48030453056746109 -0.36861144308094029 0 -0.4947215931627828 -0.39396356761454909 0 -0.47427590700138023 -0.39469502568249409 0 -0.48030453056746109 -0.36861144308094029 0 -0.47427590700138023 -0.39469502568249409 0 -0.46334377193483078 -0.37842983215876019 0 -0.48030453056746109 -0.36861144308094029 0 -0.46334377193483078 -0.37842983215876019 0 -0.45726543839001688 -0.40541672899881109 0 -0.44416021803808919 -0.38243724496113263 0 -0.47427590700138023 -0.39469502568249409 0 -0.46334377193483078 -0.37842983215876019 0 -0.45726543839001688 -0.40541672899881109 0 -0.45726543839001688 -0.40541672899881109 0 -0.43814282409564848 -0.40387353522152758 0 -0.44416021803808919 -0.38243724496113263 0 -0.43814282409564848 -0.40387353522152758 0 -0.44416021803808919 -0.38243724496113263 0 -0.4329908326547659 -0.40007252460533121 0 -0.43814282409564848 -0.40387353522152758 0 -0.44416021803808919 -0.38243724496113263 0 -0.46897642374787268 -0.44262015471777721 0 -0.47214510592166908 -0.41939033492402211 0 -0.45660235518767722 -0.42786105997071933 0 -0.47214510592166908 -0.41939033492402211 0 -0.47427590700138023 -0.39469502568249409 0 -0.45726543839001688 -0.40541672899881109 0 -0.47214510592166908 -0.41939033492402211 0 -0.45726543839001688 -0.40541672899881109 0 -0.45660235518767722 -0.42786105997071933 0 -0.45726543839001688 -0.40541672899881109 0 -0.45660235518767722 -0.42786105997071933 0 -0.44309263043645408 -0.41812298423377797 0 -0.45726543839001688 -0.40541672899881109 0 -0.43814282409564848 -0.40387353522152758 0 -0.44309263043645408 -0.41812298423377797 0 -0.43814282409564848 -0.40387353522152758 0 -0.44309263043645408 -0.41812298423377797 0 -0.43209373842114163 -0.42530092927673752 0 -0.44838221886832419 -0.4464230337388379 0 -0.45660235518767722 -0.42786105997071933 0 -0.44213238819953832 -0.43491600865963681 0 -0.45660235518767722 -0.42786105997071933 0 -0.44213238819953832 -0.43491600865963681 0 -0.43132710435572019 -0.42815377149591122 0 -0.45660235518767722 -0.42786105997071933 0 -0.44309263043645408 -0.41812298423377797 0 -0.43132710435572019 -0.42815377149591122 0 -0.45660235518767722 -0.42786105997071933 0 -0.43132710435572019 -0.42815377149591122 0 -0.44213238819953832 -0.43491600865963681 0 -0.42986244815509678 -0.43337144475258638 0 -0.435988539966085 -0.44148905847597392 0 -0.44213238819953832 -0.43491600865963681 0 -0.42986244815509678 -0.43337144475258638 0 -0.43132710435572019 -0.42815377149591122 0 -0.42986244815509678 -0.43337144475258638 0 -0.43132710435572019 -0.42815377149591122 0 -0.42986244815509678 -0.43337144475258638 0 -0.42494843276815808 -0.42822764260015772 0 -0.42026026496879931 -0.43681168621285732 0 -0.42986244815509678 -0.43337144475258638 0 -0.42494843276815808 -0.42822764260015772 0 -0.43132710435572019 -0.42815377149591122 0 -0.42494843276815808 -0.42822764260015772 0 -0.43209373842114163 -0.42530092927673752 0 -0.42214799869492048 -0.41876725226122891 0 -0.42494843276815808 -0.42822764260015772 0 -0.43209373842114163 -0.42530092927673752 0 -0.42494843276815808 -0.42822764260015772 0 -0.43209373842114163 -0.42530092927673752 0 -0.43132710435572019 -0.42815377149591122 0 -0.42494843276815808 -0.42822764260015772 0 -0.43132710435572019 -0.42815377149591122 0 -0.44309263043645408 -0.41812298423377797 0 -0.43209373842114163 -0.42530092927673752 0 -0.43132710435572019 -0.42815377149591122 0 -0.43209373842114163 -0.42530092927673752 0 -0.43132710435572019 -0.42815377149591122 0 -0.43814282409564848 -0.40387353522152758 0 -0.43209373842114163 -0.42530092927673752 0 -0.43814282409564848 -0.40387353522152758 0 -0.43209373842114163 -0.42530092927673752 0 -0.42736227186559528 -0.41250939947999687 0 -0.43814282409564848 -0.40387353522152758 0 -0.42736227186559528 -0.41250939947999687 0 -0.42798743510346321 -0.40461924019690898 0 -0.42736227186559528 -0.41250939947999687 0 -0.42214799869492048 -0.41876725226122891 0 -0.41643936301280282 -0.409986040443582 0 -0.42736227186559528 -0.41250939947999687 0 -0.41643936301280282 -0.409986040443582 0 -0.42798743510346321 -0.40461924019690898 0 -0.43209373842114163 -0.42530092927673752 0 -0.42736227186559528 -0.41250939947999687 0 -0.42214799869492048 -0.41876725226122891 0 -0.41643936301280282 -0.409986040443582 0 -0.41319678457753078 -0.41966526467231158 0 -0.40068754056194861 -0.4128492080837643 0 -0.41643936301280282 -0.409986040443582 0 -0.40443020735863072 -0.40194112054031811 0 -0.40068754056194861 -0.4128492080837643 0 -0.42214799869492048 -0.41876725226122891 0 -0.41643936301280282 -0.409986040443582 0 -0.41319678457753078 -0.41966526467231158 0 -0.42494843276815808 -0.42822764260015772 0 -0.42026026496879931 -0.43681168621285732 0 -0.40375973713816599 -0.43690652084804732 0 -0.42494843276815808 -0.42822764260015772 0 -0.40375973713816599 -0.43690652084804732 0 -0.42494843276815808 -0.42822764260015772 0 -0.40375973713816599 -0.43690652084804732 0 -0.40176058784982421 -0.42849617997282502 0 -0.42494843276815808 -0.42822764260015772 0 -0.40176058784982421 -0.42849617997282502 0 -0.42494843276815808 -0.42822764260015772 0 -0.41319678457753078 -0.41966526467231158 0 -0.40176058784982421 -0.42849617997282502 0 -0.42494843276815808 -0.42822764260015772 0 -0.42214799869492048 -0.41876725226122891 0 -0.41319678457753078 -0.41966526467231158 0 -0.4329908326547659 -0.40007252460533121 0 -0.41903857325144328 -0.37691094697715488 0 -0.4329908326547659 -0.40007252460533121 0 -0.4179168883199279 -0.39116430956604842 0 -0.41903857325144328 -0.37691094697715488 0 -0.4326994291400702 -0.38209416684564063 0 -0.4329908326547659 -0.40007252460533121 0 -0.41903857325144328 -0.37691094697715488 0 -0.44416021803808919 -0.38243724496113263 0 -0.4326994291400702 -0.38209416684564063 0 -0.4329908326547659 -0.40007252460533121 0 -0.4326994291400702 -0.38209416684564063 0 -0.41903857325144328 -0.37691094697715488 0 -0.43460809261598232 -0.36895595083894339 0 -0.44416021803808919 -0.38243724496113263 0 -0.4326994291400702 -0.38209416684564063 0 -0.43460809261598232 -0.36895595083894339 0 -0.4329908326547659 -0.40007252460533121 0 -0.42169055226689678 -0.40123550737599678 0 -0.4179168883199279 -0.39116430956604842 0 -0.43814282409564848 -0.40387353522152758 0 -0.4329908326547659 -0.40007252460533121 0 -0.42798743510346321 -0.40461924019690898 0 -0.4329908326547659 -0.40007252460533121 0 -0.42798743510346321 -0.40461924019690898 0 -0.42169055226689678 -0.40123550737599678 0 -0.41643936301280282 -0.409986040443582 0 -0.42798743510346321 -0.40461924019690898 0 -0.42169055226689678 -0.40123550737599678 0 -0.40637138740796802 -0.39517449182144659 0 -0.4179168883199279 -0.39116430956604842 0 -0.40139199175968793 -0.38592718468705428 0 -0.41643936301280282 -0.409986040443582 0 -0.42169055226689678 -0.40123550737599678 0 -0.41336967967324528 -0.3999002939494784 0 -0.41643936301280282 -0.409986040443582 0 -0.41336967967324528 -0.3999002939494784 0 -0.40443020735863072 -0.40194112054031811 0 -0.41336967967324528 -0.3999002939494784 0 -0.40637138740796802 -0.39517449182144659 0 -0.40443020735863072 -0.40194112054031811 0 -0.41336967967324528 -0.3999002939494784 0 -0.40637138740796802 -0.39517449182144659 0 -0.4179168883199279 -0.39116430956604842 0 -0.42169055226689678 -0.40123550737599678 0 -0.41336967967324528 -0.3999002939494784 0 -0.4179168883199279 -0.39116430956604842 0 -0.4179168883199279 -0.39116430956604842 0 -0.40139199175968793 -0.38592718468705428 0 -0.4179168883199279 -0.39116430956604842 0 -0.41012997258942652 -0.38146265356513281 0 -0.40139199175968793 -0.38592718468705428 0 -0.4179168883199279 -0.39116430956604842 0 -0.41596140559408717 -0.38148427669336471 0 -0.41903857325144328 -0.37691094697715488 0 -0.4179168883199279 -0.39116430956604842 0 -0.41264357953851821 -0.38144664688815172 0 -0.41596140559408717 -0.38148427669336471 0 -0.4179168883199279 -0.39116430956604842 0 -0.41264357953851821 -0.38144664688815172 0 -0.41012997258942652 -0.38146265356513281 0 -0.41404820471788178 -0.37946069571912022 0 -0.41012997258942652 -0.38146265356513281 0 -0.41264357953851821 -0.38144664688815172 0 -0.41404820471788178 -0.37946069571912022 0 -0.41012997258942652 -0.38146265356513281 0 -0.41404820471788178 -0.37946069571912022 0 -0.41012997258942652 -0.38146265356513281 0 -0.40173768300816198 -0.36643993149899518 0 -0.41264357953851821 -0.38144664688815172 0 -0.41012997258942652 -0.38146265356513281 0 -0.41404820471788178 -0.37946069571912022 0 -0.41903857325144328 -0.37691094697715488 0 -0.41404820471788178 -0.37946069571912022 0 -0.41596140559408717 -0.38148427669336471 0 -0.41903857325144328 -0.37691094697715488 0 -0.41264357953851821 -0.38144664688815172 0 -0.41404820471788178 -0.37946069571912022 0 -0.41596140559408717 -0.38148427669336471 0 -0.41404820471788178 -0.37946069571912022 0 -0.41596140559408717 -0.38148427669336471 0 -0.41012997258942652 -0.38146265356513281 0 -0.39138945824891558 -0.38158199336868193 0 -0.40139199175968793 -0.38592718468705428 0 -0.39138945824891558 -0.38158199336868193 0 -0.40139199175968793 -0.38592718468705428 0 -0.38146018706309692 -0.39611102053173108 0 -0.41012997258942652 -0.38146265356513281 0 -0.39138945824891558 -0.38158199336868193 0 -0.40173768300816198 -0.36643993149899518 0 -0.41012997258942652 -0.38146265356513281 0 -0.39138945824891558 -0.38158199336868193 0 -0.41012997258942652 -0.38146265356513281 0 -0.40139199175968793 -0.38592718468705428 0 -0.39138945824891558 -0.38158199336868193 0 -0.40139199175968793 -0.38592718468705428 0 -0.40139199175968793 -0.38592718468705428 0 -0.39499960735806972 -0.39650442224569948 0 -0.38146018706309692 -0.39611102053173108 0 -0.40139199175968793 -0.38592718468705428 0 -0.38146018706309692 -0.39611102053173108 0 -0.40637138740796802 -0.39517449182144659 0 -0.39499960735806972 -0.39650442224569948 0 -0.40443020735863072 -0.40194112054031811 0 -0.40637138740796802 -0.39517449182144659 0 -0.40139199175968793 -0.38592718468705428 0 -0.39499960735806972 -0.39650442224569948 0 -0.39499960735806972 -0.39650442224569948 0 -0.40443020735863072 -0.40194112054031811 0 -0.39652584119055362 -0.40342912424259242 0 -0.40443020735863072 -0.40194112054031811 0 -0.39652584119055362 -0.40342912424259242 0 -0.40068754056194861 -0.4128492080837643 0 -0.39652584119055362 -0.40342912424259242 0 -0.38735877636819388 -0.40059869056111858 0 -0.38983809416569087 -0.40758335385593009 0 -0.39499960735806972 -0.39650442224569948 0 -0.39652584119055362 -0.40342912424259242 0 -0.38735877636819388 -0.40059869056111858 0 -0.38156916822041892 -0.40603200008561519 0 -0.38178229459812563 -0.40298695858946171 0 -0.38983809416569087 -0.40758335385593009 0 -0.38178229459812563 -0.40298695858946171 0 -0.38012172885428602 -0.39806952235009457 0 -0.38983809416569087 -0.40758335385593009 0 -0.38735877636819388 -0.40059869056111858 0 -0.38012172885428602 -0.39806952235009457 0 -0.38983809416569087 -0.40758335385593009 0 -0.38012172885428602 -0.39806952235009457 0 -0.38983809416569087 -0.40758335385593009 0 -0.38012172885428602 -0.39806952235009457 0 -0.37209094330423159 -0.40089808531996213 0 -0.37629487057870992 -0.40149067916431569 0 -0.38012172885428602 -0.39806952235009457 0 -0.37209094330423159 -0.40089808531996213 0 -0.38156916822041892 -0.40603200008561519 0 -0.38178229459812563 -0.40298695858946171 0 -0.37856432677971441 -0.40327293704996398 0 -0.38156916822041892 -0.40603200008561519 0 -0.37602613074463359 -0.40570926791912437 0 -0.37856432677971441 -0.40327293704996398 0 -0.37602613074463359 -0.40570926791912437 0 -0.37856432677971441 -0.40327293704996398 0 -0.37629487057870992 -0.40149067916431569 0 -0.37856432677971441 -0.40327293704996398 0 -0.37629487057870992 -0.40149067916431569 0 -0.37881815497051818 -0.39997697960570461 0 -0.37629487057870992 -0.40149067916431569 0 -0.37881815497051818 -0.39997697960570461 0 -0.38012172885428602 -0.39806952235009457 0 -0.37881815497051818 -0.39997697960570461 0 -0.38012172885428602 -0.39806952235009457 0 -0.38178229459812563 -0.40298695858946171 0 -0.37881815497051818 -0.39997697960570461 0 -0.38012172885428602 -0.39806952235009457 0 -0.38178229459812563 -0.40298695858946171 0 -0.37856432677971441 -0.40327293704996398 0 -0.37881815497051818 -0.39997697960570461 0 -0.38012172885428602 -0.39806952235009457 0 -0.37610551335983561 -0.39413702328477918 0 -0.37209094330423159 -0.40089808531996213 0 -0.38146018706309692 -0.39611102053173108 0 -0.37610551335983561 -0.39413702328477918 0 -0.38353069879127127 -0.38163203803623119 0 -0.38146018706309692 -0.39611102053173108 0 -0.38012172885428602 -0.39806952235009457 0 -0.37610551335983561 -0.39413702328477918 0 -0.38146018706309692 -0.39611102053173108 0 -0.38012172885428602 -0.39806952235009457 0 -0.38012172885428602 -0.39806952235009457 0 -0.37610551335983561 -0.39413702328477918 0 -0.39499960735806972 -0.39650442224569948 0 -0.38735877636819388 -0.40059869056111858 0 -0.38146018706309692 -0.39611102053173108 0 -0.38735877636819388 -0.40059869056111858 0 -0.38146018706309692 -0.39611102053173108 0 -0.38012172885428602 -0.39806952235009457 0 -0.39138945824891558 -0.38158199336868193 0 -0.38146018706309692 -0.39611102053173108 0 -0.38146018706309692 -0.39611102053173108 0 -0.38353069879127127 -0.38163203803623119 0 -0.38775448495095949 -0.38160514091903242 0 -0.39138945824891558 -0.38158199336868193 0 -0.38146018706309692 -0.39611102053173108 0 -0.38775448495095949 -0.38160514091903242 0 -0.37610551335983561 -0.39413702328477918 0 -0.38353069879127127 -0.38163203803623119 0 -0.38353069879127127 -0.38163203803623119 0 -0.36791003929668897 -0.37531597356073781 0 -0.38353069879127127 -0.38163203803623119 0 -0.37576852049830373 -0.37424143402576782 0 -0.36791003929668897 -0.37531597356073781 0 -0.38353069879127127 -0.38163203803623119 0 -0.38775448495095949 -0.38160514091903242 0 -0.39138945824891558 -0.38158199336868193 0 -0.38775448495095949 -0.38160514091903242 0 -0.39082733033514372 -0.43553780059387093 0 -0.40375973713816599 -0.43690652084804732 0 -0.40176058784982421 -0.42849617997282502 0 -0.41319678457753078 -0.41966526467231158 0 -0.40176058784982421 -0.42849617997282502 0 -0.40068754056194861 -0.4128492080837643 0 -0.40176058784982421 -0.42849617997282502 0 -0.40068754056194861 -0.4128492080837643 0 -0.38796072571873202 -0.41787067674187572 0 -0.40068754056194861 -0.4128492080837643 0 -0.38796072571873202 -0.41787067674187572 0 -0.38983809416569087 -0.40758335385593009 0 -0.39652584119055362 -0.40342912424259242 0 -0.40068754056194861 -0.4128492080837643 0 -0.38983809416569087 -0.40758335385593009 0 -0.38156916822041892 -0.40603200008561519 0 -0.38983809416569087 -0.40758335385593009 0 -0.38249496913699632 -0.41100015469591239 0 -0.38796072571873202 -0.41787067674187572 0 -0.38983809416569087 -0.40758335385593009 0 -0.38249496913699632 -0.41100015469591239 0 -0.38156916822041892 -0.40603200008561519 0 -0.37602613074463359 -0.40570926791912437 0 -0.38249496913699632 -0.41100015469591239 0 -0.38796072571873202 -0.41787067674187572 0 -0.38249496913699632 -0.41100015469591239 0 -0.37441041966644201 -0.41853044649732968 0 -0.38796072571873202 -0.41787067674187572 0 -0.37857274293149029 -0.42876471734549271 0 -0.37441041966644201 -0.41853044649732968 0 -0.39082733033514372 -0.43553780059387093 0 -0.37857274293149029 -0.42876471734549271 0 -0.38257104150817378 -0.44558539909593659 0 -0.40176058784982421 -0.42849617997282502 0 -0.38796072571873202 -0.41787067674187572 0 -0.37857274293149029 -0.42876471734549271 0 -0.40176058784982421 -0.42849617997282502 0 -0.37857274293149029 -0.42876471734549271 0 -0.39082733033514372 -0.43553780059387093 0 -0.40176058784982421 -0.42849617997282502 0 -0.37857274293149029 -0.42876471734549271 0 -0.37857274293149029 -0.42876471734549271 0 -0.38257104150817378 -0.44558539909593659 0 -0.36466736862266619 -0.43929361107495862 0 -0.40375973713816599 -0.43690652084804732 0 -0.38257104150817378 -0.44558539909593659 0 -0.40375973713816599 -0.43690652084804732 0 -0.38257104150817378 -0.44558539909593659 0 -0.39873322217020901 -0.44879301705899238 0 -0.38257104150817378 -0.44558539909593659 0 -0.39873322217020901 -0.44879301705899238 0 -0.39185116602312342 -0.46040899195533008 0 -0.39082733033514372 -0.43553780059387093 0 -0.40375973713816599 -0.43690652084804732 0 -0.38257104150817378 -0.44558539909593659 0 -0.39873322217020901 -0.44879301705899238 0 -0.40884565752670138 -0.44739205870809717 0 -0.40642776429331862 -0.45699343118294727 0 -0.40375973713816599 -0.43690652084804732 0 -0.39873322217020901 -0.44879301705899238 0 -0.40884565752670138 -0.44739205870809717 0 -0.39185116602312342 -0.46040899195533008 0 -0.40182839360969391 -0.46973105278735439 0 -0.40642776429331862 -0.45699343118294727 0 -0.39873322217020901 -0.44879301705899238 0 -0.39185116602312342 -0.46040899195533008 0 -0.40642776429331862 -0.45699343118294727 0 -0.38257104150817378 -0.44558539909593659 0 -0.39185116602312342 -0.46040899195533008 0 -0.3749125057523493 -0.4641870694620962 0 -0.39185116602312342 -0.46040899195533008 0 -0.38739682711329992 -0.47637139398093842 0 -0.3749125057523493 -0.4641870694620962 0 -0.38739682711329992 -0.47637139398093842 0 -0.36650464836053492 -0.47758333459014829 0 -0.3749125057523493 -0.4641870694620962 0 -0.38739682711329992 -0.47637139398093842 0 -0.38649563617076049 -0.5 0 -0.36650464836053492 -0.47758333459014829 0 -0.38649563617076049 -0.5 0 -0.40221786754911548 -0.48468690862955621 0 -0.41470304202541208 -0.5 0 -0.38739682711329992 -0.47637139398093842 0 -0.38649563617076049 -0.5 0 -0.40221786754911548 -0.48468690862955621 0 -0.39185116602312342 -0.46040899195533008 0 -0.38739682711329992 -0.47637139398093842 0 -0.40182839360969391 -0.46973105278735439 0 -0.38739682711329992 -0.47637139398093842 0 -0.40221786754911548 -0.48468690862955621 0 -0.40182839360969391 -0.46973105278735439 0 -0.40221786754911548 -0.48468690862955621 0 -0.40182839360969391 -0.46973105278735439 0 -0.41640034518153801 -0.4710884416934209 0 -0.40221786754911548 -0.48468690862955621 0 -0.41640034518153801 -0.4710884416934209 0 -0.41470304202541208 -0.5 0 -0.43763952177061649 -0.47770500498713542 0 -0.44291044788006362 -0.49999999999999939 0 -0.41470304202541208 -0.5 0 -0.43763952177061649 -0.47770500498713542 0 -0.41640034518153801 -0.4710884416934209 0 -0.41470304202541208 -0.5 0 -0.43763952177061649 -0.47770500498713542 0 -0.41640034518153801 -0.4710884416934209 0 -0.4323685956611692 -0.45541000997427139 0 -0.43763952177061649 -0.47770500498713542 0 -0.4323685956611692 -0.45541000997427139 0 -0.41640034518153801 -0.4710884416934209 0 -0.4323685956611692 -0.45541000997427139 0 -0.41872867018542492 -0.45179192289975101 0 -0.4323685956611692 -0.45541000997427139 0 -0.435988539966085 -0.44148905847597392 0 -0.42615181293618792 -0.44307742131274741 0 -0.42986244815509678 -0.43337144475258638 0 -0.435988539966085 -0.44148905847597392 0 -0.42615181293618792 -0.44307742131274741 0 -0.42986244815509678 -0.43337144475258638 0 -0.42026026496879931 -0.43681168621285732 0 -0.42615181293618792 -0.44307742131274741 0 -0.4323685956611692 -0.45541000997427139 0 -0.42615181293618792 -0.44307742131274741 0 -0.41872867018542492 -0.45179192289975101 0 -0.41872867018542492 -0.45179192289975101 0 -0.41657889384638791 -0.4424754015507481 0 -0.40884565752670138 -0.44739205870809717 0 -0.42026026496879931 -0.43681168621285732 0 -0.40375973713816599 -0.43690652084804732 0 -0.41657889384638791 -0.4424754015507481 0 -0.42615181293618792 -0.44307742131274741 0 -0.41872867018542492 -0.45179192289975101 0 -0.41657889384638791 -0.4424754015507481 0 -0.42026026496879931 -0.43681168621285732 0 -0.42615181293618792 -0.44307742131274741 0 -0.41657889384638791 -0.4424754015507481 0 -0.40375973713816599 -0.43690652084804732 0 -0.41657889384638791 -0.4424754015507481 0 -0.40884565752670138 -0.44739205870809717 0 -0.41872867018542492 -0.45179192289975101 0 -0.40884565752670138 -0.44739205870809717 0 -0.40642776429331862 -0.45699343118294727 0 -0.41640034518153801 -0.4710884416934209 0 -0.41872867018542492 -0.45179192289975101 0 -0.40642776429331862 -0.45699343118294727 0 -0.40182839360969391 -0.46973105278735439 0 -0.41640034518153801 -0.4710884416934209 0 -0.40642776429331862 -0.45699343118294727 0 -0.45211818340539273 -0.26309076008929921 0 -0.44165736388207272 -0.25360003737878889 0 -0.46465652818918263 -0.24483730068029039 0 -0.45211818340539273 -0.26309076008929921 0 -0.44165736388207272 -0.25360003737878889 0 -0.43680511815892142 -0.2660007677910407 0 -0.45211818340539273 -0.26309076008929921 0 -0.43957983862160288 -0.2813442194983079 0 -0.45211818340539273 -0.26309076008929921 0 -0.45386615352933152 -0.26317791563468229 0 -0.44300193479902689 -0.28147468360283379 0 -0.45211818340539273 -0.26309076008929921 0 -0.43957983862160288 -0.2813442194983079 0 -0.44300193479902689 -0.28147468360283379 0 -0.45386615352933152 -0.26317791563468229 0 -0.44300193479902689 -0.28147468360283379 0 -0.45211818340539273 -0.26309076008929921 0 -0.43957983862160288 -0.2813442194983079 0 -0.43680511815892142 -0.2660007677910407 0 -0.46540099386590911 -0.27613459344745273 0 -0.45386615352933152 -0.26317791563468229 0 -0.47789920225856231 -0.2654141115859287 0 -0.46540099386590911 -0.27613459344745273 0 -0.45386615352933152 -0.26317791563468229 0 -0.44300193479902689 -0.28147468360283379 0 -0.45211818340539273 -0.26309076008929921 0 -0.45386615352933152 -0.26317791563468229 0 -0.46465652818918263 -0.24483730068029039 0 -0.45211818340539273 -0.26309076008929921 0 -0.46465652818918263 -0.24483730068029039 0 -0.45386615352933152 -0.26317791563468229 0 -0.46465652818918263 -0.24483730068029039 0 -0.45386615352933152 -0.26317791563468229 0 -0.47789920225856231 -0.2654141115859287 0 -0.46465652818918263 -0.24483730068029039 0 -0.47789920225856231 -0.2654141115859287 0 -0.48570939693172899 -0.24902992718248729 0 -0.46465652818918263 -0.24483730068029039 0 -0.47789920225856231 -0.2654141115859287 0 -0.4909021497975728 -0.26136593096020788 0 -0.48570939693172899 -0.24902992718248729 0 -0.4909021497975728 -0.26136593096020788 0 -0.5 -0.25150281007534703 0 -0.5 -0.27951687499706851 0 -0.4909021497975728 -0.26136593096020788 0 -0.5 -0.25150281007534703 0 -0.48570939693172899 -0.24902992718248729 0 -0.47789920225856231 -0.2654141115859287 0 -0.5 -0.27951687499706851 0 -0.48508449486424082 -0.28732415172015657 0 -0.47789920225856231 -0.2654141115859287 0 -0.4909021497975728 -0.26136593096020788 0 -0.5 -0.27951687499706851 0 -0.46540099386590911 -0.27613459344745273 0 -0.47789920225856231 -0.2654141115859287 0 -0.48508449486424082 -0.28732415172015657 0 -0.46540099386590911 -0.27613459344745273 0 -0.4692524708352519 -0.29304891184013099 0 -0.48508449486424082 -0.28732415172015657 0 -0.4692524708352519 -0.29304891184013099 0 -0.48508449486424082 -0.28732415172015657 0 -0.48342094646859679 -0.29729694551662461 0 -0.5 -0.27951687499706851 0 -0.5 -0.30753093991878988 0 -0.49616219239740023 -0.30000131546641939 0 -0.5 -0.27951687499706851 0 -0.48508449486424082 -0.28732415172015657 0 -0.49616219239740023 -0.30000131546641939 0 -0.48508449486424082 -0.28732415172015657 0 -0.49616219239740023 -0.30000131546641939 0 -0.48342094646859679 -0.29729694551662461 0 -0.49616219239740023 -0.30000131546641939 0 -0.47988752038114357 -0.30743937284698208 0 -0.49124767326547109 -0.32126458797290303 0 -0.49616219239740023 -0.30000131546641939 0 -0.47988752038114357 -0.30743937284698208 0 -0.48342094646859679 -0.29729694551662461 0 -0.49616219239740023 -0.30000131546641939 0 -0.49124767326547109 -0.32126458797290303 0 -0.5 -0.30753093991878988 0 -0.49616219239740023 -0.30000131546641939 0 -0.49124767326547109 -0.32126458797290303 0 -0.4692524708352519 -0.29304891184013099 0 -0.47988752038114357 -0.30743937284698208 0 -0.46289418455034459 -0.31569959279366661 0 -0.4692524708352519 -0.29304891184013099 0 -0.47988752038114357 -0.30743937284698208 0 -0.48342094646859679 -0.29729694551662461 0 -0.4692524708352519 -0.29304891184013099 0 -0.46289418455034459 -0.31569959279366661 0 -0.4692524708352519 -0.29304891184013099 0 -0.45610231338702439 -0.30058860430122147 0 -0.46289418455034459 -0.31569959279366661 0 -0.45610231338702439 -0.30058860430122147 0 -0.44586848524951039 -0.31314063422893113 0 -0.46289418455034459 -0.31569959279366661 0 -0.46540099386590911 -0.27613459344745273 0 -0.45701344915610581 -0.28694014007387803 0 -0.44300193479902689 -0.28147468360283379 0 -0.46540099386590911 -0.27613459344745273 0 -0.4692524708352519 -0.29304891184013099 0 -0.45701344915610581 -0.28694014007387803 0 -0.4692524708352519 -0.29304891184013099 0 -0.45610231338702439 -0.30058860430122147 0 -0.45701344915610581 -0.28694014007387803 0 -0.45610231338702439 -0.30058860430122147 0 -0.44300193479902689 -0.28147468360283379 0 -0.43213771606872631 -0.29977145157098772 0 -0.43957983862160288 -0.2813442194983079 0 -0.44300193479902689 -0.28147468360283379 0 -0.43213771606872631 -0.29977145157098772 0 -0.45610231338702439 -0.30058860430122147 0 -0.45701344915610581 -0.28694014007387803 0 -0.44300193479902689 -0.28147468360283379 0 -0.44300193479902689 -0.28147468360283379 0 -0.43213771606872631 -0.29977145157098772 0 -0.45610231338702439 -0.30058860430122147 0 -0.43213771606872631 -0.29977145157098772 0 -0.45610231338702439 -0.30058860430122147 0 -0.44586848524951039 -0.31314063422893113 0 -0.43213771606872631 -0.29977145157098772 0 -0.44586848524951039 -0.31314063422893113 0 -0.44476508916493912 -0.32800798766852468 0 -0.46289418455034459 -0.31569959279366661 0 -0.44586848524951039 -0.31314063422893113 0 -0.44476508916493912 -0.32800798766852468 0 -0.43268999707831379 -0.32114889215997511 0 -0.44476508916493912 -0.32800798766852468 0 -0.45653589826543722 -0.33835027374720222 0 -0.43854709093312078 -0.34551838447463762 0 -0.44476508916493912 -0.32800798766852468 0 -0.43854709093312078 -0.34551838447463762 0 -0.43403437847741988 -0.33354869747312299 0 -0.45653589826543722 -0.33835027374720222 0 -0.47228809685679413 -0.34052311598912072 0 -0.46825538305703029 -0.35176440759005828 0 -0.45653589826543722 -0.33835027374720222 0 -0.47506093156469842 -0.3287229684348516 0 -0.47228809685679413 -0.34052311598912072 0 -0.44476508916493912 -0.32800798766852468 0 -0.45653589826543722 -0.33835027374720222 0 -0.46289418455034459 -0.31569959279366661 0 -0.45653589826543722 -0.33835027374720222 0 -0.46289418455034459 -0.31569959279366661 0 -0.47506093156469842 -0.3287229684348516 0 -0.45653589826543722 -0.33835027374720222 0 -0.46289418455034459 -0.31569959279366661 0 -0.4772725774404144 -0.31828163051210079 0 -0.49124767326547109 -0.32126458797290303 0 -0.47506093156469842 -0.3287229684348516 0 -0.47988752038114357 -0.30743937284698208 0 -0.46289418455034459 -0.31569959279366661 0 -0.4772725774404144 -0.31828163051210079 0 -0.46289418455034459 -0.31569959279366661 0 -0.4772725774404144 -0.31828163051210079 0 -0.47506093156469842 -0.3287229684348516 0 -0.47988752038114357 -0.30743937284698208 0 -0.4772725774404144 -0.31828163051210079 0 -0.49124767326547109 -0.32126458797290303 0 -0.5 -0.30753093991878988 0 -0.49124767326547109 -0.32126458797290303 0 -0.49999999999999961 -0.33554500484051131 0 -0.49124767326547109 -0.32126458797290303 0 -0.48633315413354011 -0.3425278604793861 0 -0.49124767326547109 -0.32126458797290303 0 -0.49999999999999961 -0.33554500484051131 0 -0.48633315413354011 -0.3425278604793861 0 -0.49999999999999961 -0.33554500484051131 0 -0.48633315413354011 -0.3425278604793861 0 -0.48633315413354011 -0.3425278604793861 0 -0.47506093156469842 -0.3287229684348516 0 -0.47228809685679413 -0.34052311598912072 0 -0.49124767326547109 -0.32126458797290303 0 -0.48633315413354011 -0.3425278604793861 0 -0.47506093156469842 -0.3287229684348516 0 -0.48633315413354011 -0.3425278604793861 0 -0.47228809685679413 -0.34052311598912072 0 -0.46825538305703029 -0.35176440759005828 0 -0.49999999999999961 -0.33554500484051131 0 -0.48633315413354011 -0.3425278604793861 0 -0.48030453056746109 -0.36861144308094029 0 -0.48633315413354011 -0.3425278604793861 0 -0.48030453056746109 -0.36861144308094029 0 -0.46825538305703029 -0.35176440759005828 0 -0.48633315413354011 -0.3425278604793861 0 -0.46825538305703029 -0.35176440759005828 0 -0.48633315413354011 -0.3425278604793861 0 -0.48030453056746109 -0.36861144308094029 0 -0.5 -0.39656953661894012 0 -0.49999999999999961 -0.33554500484051131 0 -0.48030453056746109 -0.36861144308094029 0 -0.46334377193483078 -0.37842983215876019 0 -0.48030453056746109 -0.36861144308094029 0 -0.46825538305703029 -0.35176440759005828 0 -0.46334377193483078 -0.37842983215876019 0 -0.46825538305703029 -0.35176440759005828 0 -0.45017761198052331 -0.36100095470073579 0 -0.45653589826543722 -0.33835027374720222 0 -0.45017761198052331 -0.36100095470073579 0 -0.45653589826543722 -0.33835027374720222 0 -0.46825538305703029 -0.35176440759005828 0 -0.45017761198052331 -0.36100095470073579 0 -0.46825538305703029 -0.35176440759005828 0 -0.45017761198052331 -0.36100095470073579 0 -0.45653589826543722 -0.33835027374720222 0 -0.43854709093312078 -0.34551838447463762 0 -0.45017761198052331 -0.36100095470073579 0 -0.43854709093312078 -0.34551838447463762 0 -0.45017761198052331 -0.36100095470073579 0 -0.43688840964749209 -0.35781554759345557 0 -0.45017761198052331 -0.36100095470073579 0 -0.43460809261598232 -0.36895595083894339 0 -0.43688840964749209 -0.35781554759345557 0 -0.45017761198052331 -0.36100095470073579 0 -0.43460809261598232 -0.36895595083894339 0 -0.44416021803808919 -0.38243724496113263 0 -0.45017761198052331 -0.36100095470073579 0 -0.43460809261598232 -0.36895595083894339 0 -0.44416021803808919 -0.38243724496113263 0 -0.45017761198052331 -0.36100095470073579 0 -0.46334377193483078 -0.37842983215876019 0 -0.44416021803808919 -0.38243724496113263 0 -0.45017761198052331 -0.36100095470073579 0 -0.41903857325144328 -0.37691094697715488 0 -0.43460809261598232 -0.36895595083894339 0 -0.42422084306034402 -0.35578690035950972 0 -0.41903857325144328 -0.37691094697715488 0 -0.43460809261598232 -0.36895595083894339 0 -0.43460809261598232 -0.36895595083894339 0 -0.43688840964749209 -0.35781554759345557 0 -0.42422084306034402 -0.35578690035950972 0 -0.43854709093312078 -0.34551838447463762 0 -0.42422084306034402 -0.35578690035950972 0 -0.42013533673330578 -0.33951952558935461 0 -0.43854709093312078 -0.34551838447463762 0 -0.43688840964749209 -0.35781554759345557 0 -0.42422084306034402 -0.35578690035950972 0 -0.40758067638829881 -0.35789015901873489 0 -0.42013533673330578 -0.33951952558935461 0 -0.42422084306034402 -0.35578690035950972 0 -0.40758067638829881 -0.35789015901873489 0 -0.42013533673330578 -0.33951952558935461 0 -0.40758067638829881 -0.35789015901873489 0 -0.4025685708709531 -0.34956976676792401 0 -0.42013533673330578 -0.33951952558935461 0 -0.41903857325144328 -0.37691094697715488 0 -0.40758067638829881 -0.35789015901873489 0 -0.40173768300816198 -0.36643993149899518 0 -0.41404820471788178 -0.37946069571912022 0 -0.41903857325144328 -0.37691094697715488 0 -0.40173768300816198 -0.36643993149899518 0 -0.41903857325144328 -0.37691094697715488 0 -0.42422084306034402 -0.35578690035950972 0 -0.40758067638829881 -0.35789015901873489 0 -0.41903857325144328 -0.37691094697715488 0 -0.40758067638829881 -0.35789015901873489 0 -0.41404820471788178 -0.37946069571912022 0 -0.40173768300816198 -0.36643993149899518 0 -0.39138945824891558 -0.38158199336868193 0 -0.38775448495095949 -0.38160514091903242 0 -0.39609514899832238 -0.36047185746617882 0 -0.39138945824891558 -0.38158199336868193 0 -0.40173768300816198 -0.36643993149899518 0 -0.39609514899832238 -0.36047185746617882 0 -0.40758067638829881 -0.35789015901873489 0 -0.40173768300816198 -0.36643993149899518 0 -0.40758067638829881 -0.35789015901873489 0 -0.40173768300816198 -0.36643993149899518 0 -0.39609514899832238 -0.36047185746617882 0 -0.40173768300816198 -0.36643993149899518 0 -0.39609514899832238 -0.36047185746617882 0 -0.39138945824891558 -0.38158199336868193 0 -0.40173768300816198 -0.36643993149899518 0 -0.38353069879127127 -0.38163203803623119 0 -0.38775448495095949 -0.38160514091903242 0 -0.39609514899832238 -0.36047185746617882 0 -0.38353069879127127 -0.38163203803623119 0 -0.39609514899832238 -0.36047185746617882 0 -0.37576852049830373 -0.37424143402576782 0 -0.37576852049830373 -0.37424143402576782 0 -0.38980029292032681 -0.3538138263344407 0 -0.39609514899832238 -0.36047185746617882 0 -0.37576852049830373 -0.37424143402576782 0 -0.38980029292032681 -0.3538138263344407 0 -0.38353069879127127 -0.38163203803623119 0 -0.39609514899832238 -0.36047185746617882 0 -0.37576852049830373 -0.37424143402576782 0 -0.38980029292032681 -0.3538138263344407 0 -0.37245563567842283 -0.36342144099550278 0 -0.37501505732771462 -0.35270295609204683 0 -0.38980029292032681 -0.3538138263344407 0 -0.37245563567842283 -0.36342144099550278 0 -0.37501505732771462 -0.35270295609204683 0 -0.38980029292032681 -0.3538138263344407 0 -0.37630104444955431 -0.33953575302191552 0 -0.38980029292032681 -0.3538138263344407 0 -0.3874425906513701 -0.34245666632481359 0 -0.37630104444955431 -0.33953575302191552 0 -0.38980029292032681 -0.3538138263344407 0 -0.37630104444955431 -0.33953575302191552 0 -0.38980029292032681 -0.3538138263344407 0 -0.39796499687501963 -0.34192756105832428 0 -0.3874425906513701 -0.34245666632481359 0 -0.38980029292032681 -0.3538138263344407 0 -0.39796499687501963 -0.34192756105832428 0 -0.38980029292032681 -0.3538138263344407 0 -0.4025685708709531 -0.34956976676792401 0 -0.39796499687501963 -0.34192756105832428 0 -0.39609514899832238 -0.36047185746617882 0 -0.38980029292032681 -0.3538138263344407 0 -0.4025685708709531 -0.34956976676792401 0 -0.39609514899832238 -0.36047185746617882 0 -0.38980029292032681 -0.3538138263344407 0 -0.40758067638829881 -0.35789015901873489 0 -0.4025685708709531 -0.34956976676792401 0 -0.39609514899832238 -0.36047185746617882 0 -0.4025685708709531 -0.34956976676792401 0 -0.40758067638829881 -0.35789015901873489 0 -0.39609514899832238 -0.36047185746617882 0 -0.4025685708709531 -0.34956976676792401 0 -0.4025685708709531 -0.34956976676792401 0 -0.39796499687501963 -0.34192756105832428 0 -0.39796499687501963 -0.34192756105832428 0 -0.38707883306085727 -0.32310268074594539 0 -0.39302444192435521 -0.32665020523696531 0 -0.39796499687501963 -0.34192756105832428 0 -0.41250324535641603 -0.32076261998282041 0 -0.39796499687501963 -0.34192756105832428 0 -0.38707883306085727 -0.32310268074594539 0 -0.39796499687501963 -0.34192756105832428 0 -0.39861901303234393 -0.32526976222302811 0 -0.41250324535641603 -0.32076261998282041 0 -0.4025685708709531 -0.34956976676792401 0 -0.39796499687501963 -0.34192756105832428 0 -0.4173531434698371 -0.32467060916945428 0 -0.39796499687501963 -0.34192756105832428 0 -0.39302444192435521 -0.32665020523696531 0 -0.39861901303234393 -0.32526976222302811 0 -0.39796499687501963 -0.34192756105832428 0 -0.3874425906513701 -0.34245666632481359 0 -0.38570402836057949 -0.33454952488457412 0 -0.39796499687501963 -0.34192756105832428 0 -0.38570402836057949 -0.33454952488457412 0 -0.38707883306085727 -0.32310268074594539 0 -0.3874425906513701 -0.34245666632481359 0 -0.38570402836057949 -0.33454952488457412 0 -0.37630104444955431 -0.33953575302191552 0 -0.38570402836057949 -0.33454952488457412 0 -0.38257566477560778 -0.32750665689071978 0 -0.38707883306085727 -0.32310268074594539 0 -0.38570402836057949 -0.33454952488457412 0 -0.37746168828861648 -0.32880316406910598 0 -0.37630104444955431 -0.33953575302191552 0 -0.38570402836057949 -0.33454952488457412 0 -0.37746168828861648 -0.32880316406910598 0 -0.38257566477560778 -0.32750665689071978 0 -0.38707883306085727 -0.32310268074594539 0 -0.37576395745092178 -0.3050725196501074 0 -0.38707883306085727 -0.32310268074594539 0 -0.37576395745092178 -0.3050725196501074 0 -0.37719713711566749 -0.31197748083789167 0 -0.37972485618422192 -0.31952152903519548 0 -0.38707883306085727 -0.32310268074594539 0 -0.37719713711566749 -0.31197748083789167 0 -0.37972485618422192 -0.31952152903519548 0 -0.37719713711566749 -0.31197748083789167 0 -0.37456534516798468 -0.31943469669369101 0 -0.37972485618422192 -0.31952152903519548 0 -0.38027246529026432 -0.32317389825498388 0 -0.37456534516798468 -0.31943469669369101 0 -0.37746168828861648 -0.32880316406910598 0 -0.38027246529026432 -0.32317389825498388 0 -0.37456534516798468 -0.31943469669369101 0 -0.37746168828861648 -0.32880316406910598 0 -0.38257566477560778 -0.32750665689071978 0 -0.38027246529026432 -0.32317389825498388 0 -0.37972485618422192 -0.31952152903519548 0 -0.38027246529026432 -0.32317389825498388 0 -0.38707883306085727 -0.32310268074594539 0 -0.38257566477560778 -0.32750665689071978 0 -0.38027246529026432 -0.32317389825498388 0 -0.38707883306085727 -0.32310268074594539 0 -0.3895493280880703 -0.32181092315052368 0 -0.38707883306085727 -0.32310268074594539 0 -0.39302444192435521 -0.32665020523696531 0 -0.3895493280880703 -0.32181092315052368 0 -0.38817922209955419 -0.31487003622919818 0 -0.39292420471281692 -0.32089260507692741 0 -0.3895493280880703 -0.32181092315052368 0 -0.3854068594836183 -0.31441721296606712 0 -0.38817922209955419 -0.31487003622919818 0 -0.3895493280880703 -0.32181092315052368 0 -0.38707883306085727 -0.32310268074594539 0 -0.3854068594836183 -0.31441721296606712 0 -0.38817922209955419 -0.31487003622919818 0 -0.39233623022453079 -0.31589900304218349 0 -0.38828454910218052 -0.30906118598004451 0 -0.39233623022453079 -0.31589900304218349 0 -0.39756756003884308 -0.31679974746756201 0 -0.39292420471281692 -0.32089260507692741 0 -0.38817922209955419 -0.31487003622919818 0 -0.39233623022453079 -0.31589900304218349 0 -0.39292420471281692 -0.32089260507692741 0 -0.39233623022453079 -0.31589900304218349 0 -0.39756756003884308 -0.31679974746756201 0 -0.39384318992161488 -0.31092517799495939 0 -0.39756756003884308 -0.31679974746756201 0 -0.39292420471281692 -0.32089260507692741 0 -0.39861901303234393 -0.32526976222302811 0 -0.3895493280880703 -0.32181092315052368 0 -0.39302444192435521 -0.32665020523696531 0 -0.39292420471281692 -0.32089260507692741 0 -0.39302444192435521 -0.32665020523696531 0 -0.39292420471281692 -0.32089260507692741 0 -0.39861901303234393 -0.32526976222302811 0 -0.39756756003884308 -0.31679974746756201 0 -0.39861901303234393 -0.32526976222302811 0 -0.41250324535641603 -0.32076261998282041 0 -0.39756756003884308 -0.31679974746756201 0 -0.41250324535641603 -0.32076261998282041 0 -0.39943253357619768 -0.3092473730742562 0 -0.4173531434698371 -0.32467060916945428 0 -0.41250324535641603 -0.32076261998282041 0 -0.42704149383781292 -0.2995976789073167 0 -0.39796499687501963 -0.34192756105832428 0 -0.4173531434698371 -0.32467060916945428 0 -0.41250324535641603 -0.32076261998282041 0 -0.4025685708709531 -0.34956976676792401 0 -0.4173531434698371 -0.32467060916945428 0 -0.42013533673330578 -0.33951952558935461 0 -0.4025685708709531 -0.34956976676792401 0 -0.4173531434698371 -0.32467060916945428 0 -0.4173531434698371 -0.32467060916945428 0 -0.42013533673330578 -0.33951952558935461 0 -0.43268999707831379 -0.32114889215997511 0 -0.42013533673330578 -0.33951952558935461 0 -0.43268999707831379 -0.32114889215997511 0 -0.42013533673330578 -0.33951952558935461 0 -0.43403437847741988 -0.33354869747312299 0 -0.43268999707831379 -0.32114889215997511 0 -0.43854709093312078 -0.34551838447463762 0 -0.42013533673330578 -0.33951952558935461 0 -0.43403437847741988 -0.33354869747312299 0 -0.44476508916493912 -0.32800798766852468 0 -0.43403437847741988 -0.33354869747312299 0 -0.43268999707831379 -0.32114889215997511 0 -0.4173531434698371 -0.32467060916945428 0 -0.43268999707831379 -0.32114889215997511 0 -0.43213771606872631 -0.29977145157098772 0 -0.44586848524951039 -0.31314063422893113 0 -0.43268999707831379 -0.32114889215997511 0 -0.43213771606872631 -0.29977145157098772 0 -0.4173531434698371 -0.32467060916945428 0 -0.43213771606872631 -0.29977145157098772 0 -0.4173531434698371 -0.32467060916945428 0 -0.42704149383781292 -0.2995976789073167 0 -0.43213771606872631 -0.29977145157098772 0 -0.42704149383781292 -0.2995976789073167 0 -0.43213771606872631 -0.29977145157098772 0 -0.43957983862160288 -0.2813442194983079 0 -0.42704149383781292 -0.2995976789073167 0 -0.41620122749958632 -0.28481054703811581 0 -0.43957983862160288 -0.2813442194983079 0 -0.42704149383781292 -0.2995976789073167 0 -0.43213771606872631 -0.29977145157098772 0 -0.43957983862160288 -0.2813442194983079 0 -0.42704149383781292 -0.2995976789073167 0 -0.42704149383781292 -0.2995976789073167 0 -0.40925521843592683 -0.29219363385722402 0 -0.40193077426190232 -0.29874144532295899 0 -0.42704149383781292 -0.2995976789073167 0 -0.41620122749958632 -0.28481054703811581 0 -0.40925521843592683 -0.29219363385722402 0 -0.41620122749958632 -0.28481054703811581 0 -0.4064106314034665 -0.28786033749410611 0 -0.40925521843592683 -0.29219363385722402 0 -0.41620122749958632 -0.28481054703811581 0 -0.4064106314034665 -0.28786033749410611 0 -0.40459857025975621 -0.28097081354976228 0 -0.42704149383781292 -0.2995976789073167 0 -0.40193077426190232 -0.29874144532295899 0 -0.41250324535641603 -0.32076261998282041 0 -0.42704149383781292 -0.2995976789073167 0 -0.40193077426190232 -0.29874144532295899 0 -0.41250324535641603 -0.32076261998282041 0 -0.42704149383781292 -0.2995976789073167 0 -0.41250324535641603 -0.32076261998282041 0 -0.39943253357619768 -0.3092473730742562 0 -0.40193077426190232 -0.29874144532295899 0 -0.40193077426190232 -0.29874144532295899 0 -0.39397115466413868 -0.30315074537586811 0 -0.37682005468599161 -0.29788521173860111 0 -0.39943253357619768 -0.3092473730742562 0 -0.40193077426190232 -0.29874144532295899 0 -0.39397115466413868 -0.30315074537586811 0 -0.39756756003884308 -0.31679974746756201 0 -0.39943253357619768 -0.3092473730742562 0 -0.39384318992161488 -0.31092517799495939 0 -0.39943253357619768 -0.3092473730742562 0 -0.39515669063330172 -0.30691697672544133 0 -0.39384318992161488 -0.31092517799495939 0 -0.39943253357619768 -0.3092473730742562 0 -0.39397115466413868 -0.30315074537586811 0 -0.39515669063330172 -0.30691697672544133 0 -0.39515669063330172 -0.30691697672544133 0 -0.39384318992161488 -0.31092517799495939 0 -0.39024404857921102 -0.30572650089527997 0 -0.39397115466413868 -0.30315074537586811 0 -0.39515669063330172 -0.30691697672544133 0 -0.39024404857921102 -0.30572650089527997 0 -0.39384318992161488 -0.31092517799495939 0 -0.38828454910218052 -0.30906118598004451 0 -0.39024404857921102 -0.30572650089527997 0 -0.39233623022453079 -0.31589900304218349 0 -0.39384318992161488 -0.31092517799495939 0 -0.38828454910218052 -0.30906118598004451 0 -0.38817922209955419 -0.31487003622919818 0 -0.38828454910218052 -0.30906118598004451 0 -0.37682005468599161 -0.29788521173860111 0 -0.3854068594836183 -0.31441721296606712 0 -0.38817922209955419 -0.31487003622919818 0 -0.37682005468599161 -0.29788521173860111 0 -0.39397115466413868 -0.30315074537586811 0 -0.39024404857921102 -0.30572650089527997 0 -0.37682005468599161 -0.29788521173860111 0 -0.40193077426190232 -0.29874144532295899 0 -0.37682005468599161 -0.29788521173860111 0 -0.38707883306085727 -0.32310268074594539 0 -0.3854068594836183 -0.31441721296606712 0 -0.37682005468599161 -0.29788521173860111 0 -0.38707883306085727 -0.32310268074594539 0 -0.37682005468599161 -0.29788521173860111 0 -0.37576395745092178 -0.3050725196501074 0 -0.38707883306085727 -0.32310268074594539 0 -0.37682005468599161 -0.29788521173860111 0 -0.38828454910218052 -0.30906118598004451 0 -0.39024404857921102 -0.30572650089527997 0 -0.37682005468599161 -0.29788521173860111 0 -0.40193077426190232 -0.29874144532295899 0 -0.37682005468599161 -0.29788521173860111 0 -0.38727793942999461 -0.29143138054805301 0 -0.37682005468599161 -0.29788521173860111 0 -0.37992505739110077 -0.285327891268156 0 -0.37089355010314762 -0.28331705945197572 0 -0.37682005468599161 -0.29788521173860111 0 -0.37992505739110077 -0.285327891268156 0 -0.38727793942999461 -0.29143138054805301 0 -0.38727793942999461 -0.29143138054805301 0 -0.3924898948206727 -0.28599182426682918 0 -0.38684870024465262 -0.28019709009285709 0 -0.37992505739110077 -0.285327891268156 0 -0.38727793942999461 -0.29143138054805301 0 -0.38684870024465262 -0.28019709009285709 0 -0.3924898948206727 -0.28599182426682918 0 -0.39318539860325191 -0.27833553320660309 0 -0.38684870024465262 -0.28019709009285709 0 -0.3924898948206727 -0.28599182426682918 0 -0.39946484360203771 -0.29301209464503369 0 -0.39318539860325191 -0.27833553320660309 0 -0.38727793942999461 -0.29143138054805301 0 -0.3924898948206727 -0.28599182426682918 0 -0.39529086302865168 -0.29229418619571867 0 -0.40193077426190232 -0.29874144532295899 0 -0.38727793942999461 -0.29143138054805301 0 -0.39529086302865168 -0.29229418619571867 0 -0.3924898948206727 -0.28599182426682918 0 -0.39529086302865168 -0.29229418619571867 0 -0.39946484360203771 -0.29301209464503369 0 -0.4064106314034665 -0.28786033749410611 0 -0.40925521843592683 -0.29219363385722402 0 -0.39946484360203771 -0.29301209464503369 0 -0.40925521843592683 -0.29219363385722402 0 -0.40193077426190232 -0.29874144532295899 0 -0.39946484360203771 -0.29301209464503369 0 -0.40193077426190232 -0.29874144532295899 0 -0.39529086302865168 -0.29229418619571867 0 -0.39946484360203771 -0.29301209464503369 0 -0.4064106314034665 -0.28786033749410611 0 -0.39946484360203771 -0.29301209464503369 0 -0.40459857025975621 -0.28097081354976228 0 -0.40459857025975621 -0.28097081354976228 0 -0.39871653422275 -0.26477063034798642 0 -0.40644367116261759 -0.26933550009943341 0 -0.39946484360203771 -0.29301209464503369 0 -0.40459857025975621 -0.28097081354976228 0 -0.39871653422275 -0.26477063034798642 0 -0.39946484360203771 -0.29301209464503369 0 -0.39871653422275 -0.26477063034798642 0 -0.39946484360203771 -0.29301209464503369 0 -0.39318539860325191 -0.27833553320660309 0 -0.39871653422275 -0.26477063034798642 0 -0.39318539860325191 -0.27833553320660309 0 -0.38840702012614647 -0.26770602668030929 0 -0.39871653422275 -0.26477063034798642 0 -0.39318539860325191 -0.27833553320660309 0 -0.38684870024465262 -0.28019709009285709 0 -0.38840702012614647 -0.26770602668030929 0 -0.38684870024465262 -0.28019709009285709 0 -0.38840702012614647 -0.26770602668030929 0 -0.37812768531643998 -0.2740521224023964 0 -0.38840702012614647 -0.26770602668030929 0 -0.37812768531643998 -0.2740521224023964 0 -0.37969836118369482 -0.26041778922000308 0 -0.37992505739110077 -0.285327891268156 0 -0.37812768531643998 -0.2740521224023964 0 -0.37089355010314762 -0.28331705945197572 0 -0.37992505739110077 -0.285327891268156 0 -0.38684870024465262 -0.28019709009285709 0 -0.37812768531643998 -0.2740521224023964 0 -0.37969836118369482 -0.26041778922000308 0 -0.39442967684708991 -0.25208667127465478 0 -0.37872015884544641 -0.2435614714605657 0 -0.37969836118369482 -0.26041778922000308 0 -0.36999160380854529 -0.25160890498862648 0 -0.37872015884544641 -0.2435614714605657 0 -0.38840702012614647 -0.26770602668030929 0 -0.37969836118369482 -0.26041778922000308 0 -0.39442967684708991 -0.25208667127465478 0 -0.37969836118369482 -0.26041778922000308 0 -0.39442967684708991 -0.25208667127465478 0 -0.39442967684708991 -0.25208667127465478 0 -0.39871653422275 -0.26477063034798642 0 -0.39796822484346261 -0.23652916605093899 0 -0.40220594800304021 -0.25293233307518609 0 -0.39871653422275 -0.26477063034798642 0 -0.40644367116261759 -0.26933550009943341 0 -0.40220594800304021 -0.25293233307518609 0 -0.39871653422275 -0.26477063034798642 0 -0.39796822484346261 -0.23652916605093899 0 -0.40220594800304021 -0.25293233307518609 0 -0.40644367116261759 -0.26933550009943341 0 -0.39871653422275 -0.26477063034798642 0 -0.39796822484346261 -0.23652916605093899 0 -0.38840702012614647 -0.26770602668030929 0 -0.39442967684708991 -0.25208667127465478 0 -0.39871653422275 -0.26477063034798642 0 -0.40220594800304021 -0.25293233307518609 0 -0.41459928595597673 -0.25790967448939001 0 -0.40644367116261759 -0.26933550009943341 0 -0.40220594800304021 -0.25293233307518609 0 -0.41459928595597673 -0.25790967448939001 0 -0.41466813127082142 -0.24184035413310251 0 -0.41459928595597673 -0.25790967448939001 0 -0.42775875008346192 -0.25507980811954323 0 -0.41466813127082142 -0.24184035413310251 0 -0.41459928595597673 -0.25790967448939001 0 -0.42191992925994232 -0.27036037701968468 0 -0.42775875008346192 -0.25507980811954323 0 -0.40644367116261759 -0.26933550009943341 0 -0.41206191028808969 -0.27659566112432887 0 -0.42191992925994232 -0.27036037701968468 0 -0.40459857025975621 -0.28097081354976228 0 -0.40644367116261759 -0.26933550009943341 0 -0.41206191028808969 -0.27659566112432887 0 -0.41620122749958632 -0.28481054703811581 0 -0.40459857025975621 -0.28097081354976228 0 -0.41206191028808969 -0.27659566112432887 0 -0.41620122749958632 -0.28481054703811581 0 -0.41206191028808969 -0.27659566112432887 0 -0.42191992925994232 -0.27036037701968468 0 -0.41459928595597673 -0.25790967448939001 0 -0.40644367116261759 -0.26933550009943341 0 -0.42191992925994232 -0.27036037701968468 0 -0.43957983862160288 -0.2813442194983079 0 -0.42191992925994232 -0.27036037701968468 0 -0.43680511815892142 -0.2660007677910407 0 -0.43957983862160288 -0.2813442194983079 0 -0.41620122749958632 -0.28481054703811581 0 -0.42191992925994232 -0.27036037701968468 0 -0.44165736388207272 -0.25360003737878889 0 -0.43680511815892142 -0.2660007677910407 0 -0.42775875008346192 -0.25507980811954323 0 -0.42191992925994232 -0.27036037701968468 0 -0.43680511815892142 -0.2660007677910407 0 -0.42775875008346192 -0.25507980811954323 0 -0.32577683519746242 -0.25897579210934468 0 -0.30798481169360081 -0.26465381523239789 0 -0.31421725341188372 -0.24977587129631751 0 -0.32577683519746242 -0.25897579210934468 0 -0.31511343508082401 -0.27781322935613839 0 -0.33065211668571071 -0.27437360408278932 0 -0.32577683519746242 -0.25897579210934468 0 -0.31511343508082401 -0.27781322935613839 0 -0.30798481169360081 -0.26465381523239789 0 -0.31511343508082401 -0.27781322935613839 0 -0.33065211668571071 -0.27437360408278932 0 -0.32673865940135971 -0.29036850998253821 0 -0.33065211668571071 -0.27437360408278932 0 -0.3425640544848888 -0.26114950363554529 0 -0.3458528524608297 -0.27955870857394483 0 -0.32577683519746242 -0.25897579210934468 0 -0.33065211668571071 -0.27437360408278932 0 -0.3425640544848888 -0.26114950363554529 0 -0.32577683519746242 -0.25897579210934468 0 -0.3425640544848888 -0.26114950363554529 0 -0.34161545739809862 -0.2441761224370865 0 -0.3425640544848888 -0.26114950363554529 0 -0.35707845064694121 -0.24935767075674509 0 -0.34161545739809862 -0.2441761224370865 0 -0.3425640544848888 -0.26114950363554529 0 -0.3649670455202999 -0.26874890716535171 0 -0.35707845064694121 -0.24935767075674509 0 -0.3649670455202999 -0.26874890716535171 0 -0.35707845064694121 -0.24935767075674509 0 -0.37969836118369482 -0.26041778922000308 0 -0.36999160380854529 -0.25160890498862648 0 -0.3649670455202999 -0.26874890716535171 0 -0.36999160380854529 -0.25160890498862648 0 -0.3649670455202999 -0.26874890716535171 0 -0.35707845064694121 -0.24935767075674509 0 -0.37969836118369482 -0.26041778922000308 0 -0.3649670455202999 -0.26874890716535171 0 -0.3649670455202999 -0.26874890716535171 0 -0.3458528524608297 -0.27955870857394483 0 -0.37089355010314762 -0.28331705945197572 0 -0.37812768531643998 -0.2740521224023964 0 -0.3649670455202999 -0.26874890716535171 0 -0.37089355010314762 -0.28331705945197572 0 -0.3649670455202999 -0.26874890716535171 0 -0.37089355010314762 -0.28331705945197572 0 -0.37812768531643998 -0.2740521224023964 0 -0.37969836118369482 -0.26041778922000308 0 -0.3649670455202999 -0.26874890716535171 0 -0.3649670455202999 -0.26874890716535171 0 -0.3458528524608297 -0.27955870857394483 0 -0.3425640544848888 -0.26114950363554529 0 -0.3649670455202999 -0.26874890716535171 0 -0.3458528524608297 -0.27955870857394483 0 -0.3458528524608297 -0.27955870857394483 0 -0.35490209917173382 -0.29713784607450577 0 -0.33298414365747597 -0.29639048041041038 0 -0.3458528524608297 -0.27955870857394483 0 -0.37089355010314762 -0.28331705945197572 0 -0.35490209917173382 -0.29713784607450577 0 -0.35490209917173382 -0.29713784607450577 0 -0.33298414365747597 -0.29639048041041038 0 -0.37682005468599161 -0.29788521173860111 0 -0.37089355010314762 -0.28331705945197572 0 -0.35490209917173382 -0.29713784607450577 0 -0.37682005468599161 -0.29788521173860111 0 -0.37089355010314762 -0.28331705945197572 0 -0.37682005468599161 -0.29788521173860111 0 -0.35490209917173382 -0.29713784607450577 0 -0.37682005468599161 -0.29788521173860111 0 -0.36188894867209143 -0.31041699320339777 0 -0.35490209917173382 -0.29713784607450577 0 -0.37576395745092178 -0.3050725196501074 0 -0.36188894867209143 -0.31041699320339777 0 -0.37031507652163809 -0.31287943285871039 0 -0.37576395745092178 -0.3050725196501074 0 -0.37719713711566749 -0.31197748083789167 0 -0.37031507652163809 -0.31287943285871039 0 -0.37682005468599161 -0.29788521173860111 0 -0.37576395745092178 -0.3050725196501074 0 -0.36188894867209143 -0.31041699320339777 0 -0.36188894867209143 -0.31041699320339777 0 -0.35490209917173382 -0.29713784607450577 0 -0.34709214139205768 -0.31270838654372951 0 -0.35490209917173382 -0.29713784607450577 0 -0.34179204247812539 -0.30372858581904438 0 -0.34709214139205768 -0.31270838654372951 0 -0.35490209917173382 -0.29713784607450577 0 -0.34179204247812539 -0.30372858581904438 0 -0.33298414365747597 -0.29639048041041038 0 -0.33218978569123447 -0.30867763024753198 0 -0.34179204247812539 -0.30372858581904438 0 -0.34709214139205768 -0.31270838654372951 0 -0.33218978569123447 -0.30867763024753198 0 -0.34179204247812539 -0.30372858581904438 0 -0.33298414365747597 -0.29639048041041038 0 -0.33218978569123447 -0.30867763024753198 0 -0.33298414365747597 -0.29639048041041038 0 -0.32551389594434832 -0.29891105756718273 0 -0.3458528524608297 -0.27955870857394483 0 -0.32673865940135971 -0.29036850998253821 0 -0.3458528524608297 -0.27955870857394483 0 -0.33298414365747597 -0.29639048041041038 0 -0.32673865940135971 -0.29036850998253821 0 -0.33065211668571071 -0.27437360408278932 0 -0.3458528524608297 -0.27955870857394483 0 -0.32673865940135971 -0.29036850998253821 0 -0.33298414365747597 -0.29639048041041038 0 -0.32673865940135971 -0.29036850998253821 0 -0.32551389594434832 -0.29891105756718273 0 -0.32673865940135971 -0.29036850998253821 0 -0.31615320843671613 -0.29356321322440693 0 -0.32551389594434832 -0.29891105756718273 0 -0.31511343508082401 -0.27781322935613839 0 -0.32673865940135971 -0.29036850998253821 0 -0.31615320843671613 -0.29356321322440693 0 -0.31615320843671613 -0.29356321322440693 0 -0.31950368253495531 -0.30555545397102613 0 -0.30878428388507118 -0.30170417431472779 0 -0.31950368253495531 -0.30555545397102613 0 -0.3116392313269683 -0.31227800665128408 0 -0.30878428388507118 -0.30170417431472779 0 -0.31950368253495531 -0.30555545397102613 0 -0.32244955285570731 -0.31946983399639112 0 -0.3116392313269683 -0.31227800665128408 0 -0.33218978569123447 -0.30867763024753198 0 -0.31950368253495531 -0.30555545397102613 0 -0.32244955285570731 -0.31946983399639112 0 -0.33218978569123447 -0.30867763024753198 0 -0.31950368253495531 -0.30555545397102613 0 -0.32551389594434832 -0.29891105756718273 0 -0.31615320843671613 -0.29356321322440693 0 -0.31950368253495531 -0.30555545397102613 0 -0.32551389594434832 -0.29891105756718273 0 -0.32244955285570731 -0.31946983399639112 0 -0.30629799224095122 -0.32640742927921629 0 -0.3116392313269683 -0.31227800665128408 0 -0.32244955285570731 -0.31946983399639112 0 -0.32074380139974629 -0.33343701228721029 0 -0.30629799224095122 -0.32640742927921629 0 -0.32244955285570731 -0.31946983399639112 0 -0.32074380139974629 -0.33343701228721029 0 -0.33561670872011118 -0.32538867032004731 0 -0.32074380139974629 -0.33343701228721029 0 -0.33040605641151349 -0.34939015350577979 0 -0.304947043925899 -0.34335287533409059 0 -0.32074380139974629 -0.33343701228721029 0 -0.33267344648675012 -0.33694306544023261 0 -0.33040605641151349 -0.34939015350577979 0 -0.32074380139974629 -0.33343701228721029 0 -0.33267344648675012 -0.33694306544023261 0 -0.33561670872011118 -0.32538867032004731 0 -0.33267344648675012 -0.33694306544023261 0 -0.34392721941562959 -0.33955642564789279 0 -0.33040605641151349 -0.34939015350577979 0 -0.33561670872011118 -0.32538867032004731 0 -0.349287455364583 -0.32600753078393868 0 -0.34392721941562959 -0.33955642564789279 0 -0.33267344648675012 -0.33694306544023261 0 -0.33561670872011118 -0.32538867032004731 0 -0.34392721941562959 -0.33955642564789279 0 -0.33218978569123447 -0.30867763024753198 0 -0.33561670872011118 -0.32538867032004731 0 -0.34709214139205768 -0.31270838654372951 0 -0.33218978569123447 -0.30867763024753198 0 -0.32244955285570731 -0.31946983399639112 0 -0.33561670872011118 -0.32538867032004731 0 -0.33561670872011118 -0.32538867032004731 0 -0.34709214139205768 -0.31270838654372951 0 -0.349287455364583 -0.32600753078393868 0 -0.36188894867209143 -0.31041699320339777 0 -0.349287455364583 -0.32600753078393868 0 -0.36280179597878331 -0.32525767970938912 0 -0.36188894867209143 -0.31041699320339777 0 -0.34709214139205768 -0.31270838654372951 0 -0.349287455364583 -0.32600753078393868 0 -0.36188894867209143 -0.31041699320339777 0 -0.36280179597878331 -0.32525767970938912 0 -0.37031507652163809 -0.31287943285871039 0 -0.37746168828861648 -0.32880316406910598 0 -0.36280179597878331 -0.32525767970938912 0 -0.37456534516798468 -0.31943469669369101 0 -0.36280179597878331 -0.32525767970938912 0 -0.37456534516798468 -0.31943469669369101 0 -0.37031507652163809 -0.31287943285871039 0 -0.37719713711566749 -0.31197748083789167 0 -0.37456534516798468 -0.31943469669369101 0 -0.37031507652163809 -0.31287943285871039 0 -0.37630104444955431 -0.33953575302191552 0 -0.36280179597878331 -0.32525767970938912 0 -0.35900277781907919 -0.33873387737807908 0 -0.37630104444955431 -0.33953575302191552 0 -0.35900277781907919 -0.33873387737807908 0 -0.3662355090989915 -0.348226851570058 0 -0.37746168828861648 -0.32880316406910598 0 -0.37630104444955431 -0.33953575302191552 0 -0.36280179597878331 -0.32525767970938912 0 -0.37630104444955431 -0.33953575302191552 0 -0.36280179597878331 -0.32525767970938912 0 -0.349287455364583 -0.32600753078393868 0 -0.36280179597878331 -0.32525767970938912 0 -0.35900277781907919 -0.33873387737807908 0 -0.349287455364583 -0.32600753078393868 0 -0.35900277781907919 -0.33873387737807908 0 -0.34392721941562959 -0.33955642564789279 0 -0.34392721941562959 -0.33955642564789279 0 -0.34378478126742867 -0.35168705731137051 0 -0.35474622765707731 -0.3530842238088211 0 -0.34378478126742867 -0.35168705731137051 0 -0.35474622765707731 -0.3530842238088211 0 -0.34605962158549469 -0.3647174262829882 0 -0.35474622765707731 -0.3530842238088211 0 -0.34605962158549469 -0.3647174262829882 0 -0.35474622765707731 -0.3530842238088211 0 -0.3645004591251928 -0.35797240650737622 0 -0.3557305472228397 -0.36248105220686111 0 -0.35900277781907919 -0.33873387737807908 0 -0.34392721941562959 -0.33955642564789279 0 -0.35474622765707731 -0.3530842238088211 0 -0.35900277781907919 -0.33873387737807908 0 -0.35474622765707731 -0.3530842238088211 0 -0.3662355090989915 -0.348226851570058 0 -0.35474622765707731 -0.3530842238088211 0 -0.3662355090989915 -0.348226851570058 0 -0.3645004591251928 -0.35797240650737622 0 -0.37501505732771462 -0.35270295609204683 0 -0.3662355090989915 -0.348226851570058 0 -0.3645004591251928 -0.35797240650737622 0 -0.37501505732771462 -0.35270295609204683 0 -0.3645004591251928 -0.35797240650737622 0 -0.37245563567842283 -0.36342144099550278 0 -0.37501505732771462 -0.35270295609204683 0 -0.37630104444955431 -0.33953575302191552 0 -0.3662355090989915 -0.348226851570058 0 -0.35160698284412462 -0.37014915498247181 0 -0.36791003929668897 -0.37531597356073781 0 -0.3617394449023093 -0.36648204945264778 0 -0.35160698284412462 -0.37014915498247181 0 -0.36791003929668897 -0.37531597356073781 0 -0.37245563567842283 -0.36342144099550278 0 -0.3617394449023093 -0.36648204945264778 0 -0.36791003929668897 -0.37531597356073781 0 -0.37576852049830373 -0.37424143402576782 0 -0.37245563567842283 -0.36342144099550278 0 -0.36791003929668897 -0.37531597356073781 0 -0.3645004591251928 -0.35797240650737622 0 -0.3617394449023093 -0.36648204945264778 0 -0.3557305472228397 -0.36248105220686111 0 -0.3645004591251928 -0.35797240650737622 0 -0.37245563567842283 -0.36342144099550278 0 -0.3617394449023093 -0.36648204945264778 0 -0.35474622765707731 -0.3530842238088211 0 -0.3557305472228397 -0.36248105220686111 0 -0.34605962158549469 -0.3647174262829882 0 -0.3617394449023093 -0.36648204945264778 0 -0.35160698284412462 -0.37014915498247181 0 -0.3557305472228397 -0.36248105220686111 0 -0.35160698284412462 -0.37014915498247181 0 -0.3557305472228397 -0.36248105220686111 0 -0.34605962158549469 -0.3647174262829882 0 -0.34605962158549469 -0.3647174262829882 0 -0.34384142010082153 -0.36768806715090302 0 -0.34148886242004811 -0.36564807466747679 0 -0.34605962158549469 -0.3647174262829882 0 -0.34384142010082153 -0.36768806715090302 0 -0.35160698284412462 -0.37014915498247181 0 -0.34384142010082153 -0.36768806715090302 0 -0.3473193197300139 -0.3757558619871843 0 -0.35160698284412462 -0.37014915498247181 0 -0.34384142010082153 -0.36768806715090302 0 -0.35160698284412462 -0.37014915498247181 0 -0.34605962158549469 -0.3647174262829882 0 -0.35160698284412462 -0.37014915498247181 0 -0.34605962158549469 -0.3647174262829882 0 -0.34384142010082153 -0.36768806715090302 0 -0.34384142010082153 -0.36768806715090302 0 -0.3394050004453173 -0.36792428240374231 0 -0.33667947897576161 -0.37727942084292682 0 -0.34384142010082153 -0.36768806715090302 0 -0.33667947897576161 -0.37727942084292682 0 -0.34384142010082153 -0.36768806715090302 0 -0.3473193197300139 -0.3757558619871843 0 -0.33667947897576161 -0.37727942084292682 0 -0.32081326145083022 -0.36031614808850881 0 -0.33667947897576161 -0.37727942084292682 0 -0.3394050004453173 -0.36792428240374231 0 -0.33336643958396978 -0.36601612799497002 0 -0.33667947897576161 -0.37727942084292682 0 -0.33336643958396978 -0.36601612799497002 0 -0.32081326145083022 -0.36031614808850881 0 -0.33667947897576161 -0.37727942084292682 0 -0.33132451367914112 -0.3606866026678322 0 -0.33336643958396978 -0.36601612799497002 0 -0.32081326145083022 -0.36031614808850881 0 -0.33132451367914112 -0.3606866026678322 0 -0.33336643958396978 -0.36601612799497002 0 -0.33697234037925838 -0.36236486777317728 0 -0.34605962158549469 -0.3647174262829882 0 -0.33697234037925838 -0.36236486777317728 0 -0.34148886242004811 -0.36564807466747679 0 -0.3394050004453173 -0.36792428240374231 0 -0.33697234037925838 -0.36236486777317728 0 -0.34148886242004811 -0.36564807466747679 0 -0.3394050004453173 -0.36792428240374231 0 -0.33336643958396978 -0.36601612799497002 0 -0.33697234037925838 -0.36236486777317728 0 -0.34384142010082153 -0.36768806715090302 0 -0.3394050004453173 -0.36792428240374231 0 -0.34148886242004811 -0.36564807466747679 0 -0.34605962158549469 -0.3647174262829882 0 -0.33040605641151349 -0.34939015350577979 0 -0.34378478126742867 -0.35168705731137051 0 -0.34605962158549469 -0.3647174262829882 0 -0.33040605641151349 -0.34939015350577979 0 -0.34605962158549469 -0.3647174262829882 0 -0.33697234037925838 -0.36236486777317728 0 -0.33040605641151349 -0.34939015350577979 0 -0.34392721941562959 -0.33955642564789279 0 -0.34378478126742867 -0.35168705731137051 0 -0.33040605641151349 -0.34939015350577979 0 -0.33132451367914112 -0.3606866026678322 0 -0.33697234037925838 -0.36236486777317728 0 -0.33040605641151349 -0.34939015350577979 0 -0.33040605641151349 -0.34939015350577979 0 -0.32081326145083022 -0.36031614808850881 0 -0.304947043925899 -0.34335287533409059 0 -0.32081326145083022 -0.36031614808850881 0 -0.304947043925899 -0.34335287533409059 0 -0.33132451367914112 -0.3606866026678322 0 -0.33040605641151349 -0.34939015350577979 0 -0.32081326145083022 -0.36031614808850881 0 -0.32440986188565729 -0.37270080156259489 0 -0.32081326145083022 -0.36031614808850881 0 -0.31106328263090982 -0.36800475596674848 0 -0.32440986188565729 -0.37270080156259489 0 -0.32081326145083022 -0.36031614808850881 0 -0.33667947897576161 -0.37727942084292682 0 -0.32440986188565729 -0.37270080156259489 0 -0.31106328263090982 -0.36800475596674848 0 -0.31317375432424149 -0.38208007184035081 0 -0.31106328263090982 -0.36800475596674848 0 -0.30477466129399572 -0.35837215094430408 0 -0.2945929359319488 -0.36760614731534108 0 -0.32081326145083022 -0.36031614808850881 0 -0.31106328263090982 -0.36800475596674848 0 -0.30477466129399572 -0.35837215094430408 0 -0.2945929359319488 -0.36760614731534108 0 -0.31317375432424149 -0.38208007184035081 0 -0.31106328263090982 -0.36800475596674848 0 -0.2945929359319488 -0.36760614731534108 0 -0.31317375432424149 -0.38208007184035081 0 -0.30477466129399572 -0.35837215094430408 0 -0.29245678253039098 -0.35258082801683138 0 -0.2945929359319488 -0.36760614731534108 0 -0.32081326145083022 -0.36031614808850881 0 -0.30477466129399572 -0.35837215094430408 0 -0.304947043925899 -0.34335287533409059 0 -0.30477466129399572 -0.35837215094430408 0 -0.29245678253039098 -0.35258082801683138 0 -0.304947043925899 -0.34335287533409059 0 -0.29245678253039098 -0.35258082801683138 0 -0.27601211753965582 -0.35313222279033191 0 -0.28440521569258082 -0.34149228361744682 0 -0.29245678253039098 -0.35258082801683138 0 -0.2945929359319488 -0.36760614731534108 0 -0.27601211753965582 -0.35313222279033191 0 -0.29245678253039098 -0.35258082801683138 0 -0.28440521569258082 -0.34149228361744682 0 -0.304947043925899 -0.34335287533409059 0 -0.2945929359319488 -0.36760614731534108 0 -0.27987861861344199 -0.36674592141788198 0 -0.27601211753965582 -0.35313222279033191 0 -0.2945929359319488 -0.36760614731534108 0 -0.27601211753965582 -0.35313222279033191 0 -0.2945929359319488 -0.36760614731534108 0 -0.27987861861344199 -0.36674592141788198 0 -0.2808665902171914 -0.38228580422035652 0 -0.26678221966742222 -0.3646399338773868 0 -0.2808665902171914 -0.38228580422035652 0 -0.27987861861344199 -0.36674592141788198 0 -0.26678221966742222 -0.3646399338773868 0 -0.2808665902171914 -0.38228580422035652 0 -0.27987861861344199 -0.36674592141788198 0 -0.26678221966742222 -0.3646399338773868 0 -0.27601211753965582 -0.35313222279033191 0 -0.26678221966742222 -0.3646399338773868 0 -0.25938421221386299 -0.38242260424217978 0 -0.2452998416640946 -0.36477673389921211 0 -0.25269784911765092 -0.34699406353441858 0 -0.27601211753965582 -0.35313222279033191 0 -0.25743129914736268 -0.33865829826532268 0 -0.26678221966742222 -0.3646399338773868 0 -0.25269784911765092 -0.34699406353441858 0 -0.27601211753965582 -0.35313222279033191 0 -0.26678221966742222 -0.3646399338773868 0 -0.25269784911765092 -0.34699406353441858 0 -0.26678221966742222 -0.3646399338773868 0 -0.25269784911765092 -0.34699406353441858 0 -0.2452998416640946 -0.36477673389921211 0 -0.27601211753965582 -0.35313222279033191 0 -0.25743129914736268 -0.33865829826532268 0 -0.27601211753965582 -0.35313222279033191 0 -0.27044436538280059 -0.34111632069956299 0 -0.25743129914736268 -0.33865829826532268 0 -0.27601211753965582 -0.35313222279033191 0 -0.27044436538280059 -0.34111632069956299 0 -0.28440521569258082 -0.34149228361744682 0 -0.27621603835147168 -0.33027839755104138 0 -0.27044436538280059 -0.34111632069956299 0 -0.28440521569258082 -0.34149228361744682 0 -0.27621603835147168 -0.33027839755104138 0 -0.26858322842119509 -0.33433735121453573 0 -0.26421331744216298 -0.32943061110636401 0 -0.27621603835147168 -0.33027839755104138 0 -0.26858322842119509 -0.33433735121453573 0 -0.27044436538280059 -0.34111632069956299 0 -0.26858322842119509 -0.33433735121453573 0 -0.27044436538280059 -0.34111632069956299 0 -0.26348614366539269 -0.33464536090729041 0 -0.25269784911765092 -0.34699406353441858 0 -0.2601150759189611 -0.3291651954159735 0 -0.25269784911765092 -0.34699406353441858 0 -0.2601150759189611 -0.3291651954159735 0 -0.25743129914736268 -0.33865829826532268 0 -0.27044436538280059 -0.34111632069956299 0 -0.26348614366539269 -0.33464536090729041 0 -0.25743129914736268 -0.33865829826532268 0 -0.26348614366539269 -0.33464536090729041 0 -0.2601150759189611 -0.3291651954159735 0 -0.25743129914736268 -0.33865829826532268 0 -0.26858322842119509 -0.33433735121453573 0 -0.26348614366539269 -0.33464536090729041 0 -0.26421331744216298 -0.32943061110636401 0 -0.26348614366539269 -0.33464536090729041 0 -0.26421331744216298 -0.32943061110636401 0 -0.2601150759189611 -0.3291651954159735 0 -0.25993101682886932 -0.31889206187407287 0 -0.25469452373499762 -0.30722313484128749 0 -0.2494260049788683 -0.31746489113439402 0 -0.2601150759189611 -0.3291651954159735 0 -0.25993101682886932 -0.31889206187407287 0 -0.2494260049788683 -0.31746489113439402 0 -0.26421331744216298 -0.32943061110636401 0 -0.2601150759189611 -0.3291651954159735 0 -0.25993101682886932 -0.31889206187407287 0 -0.26421331744216298 -0.32943061110636401 0 -0.25993101682886932 -0.31889206187407287 0 -0.27321460887603632 -0.30942632982525498 0 -0.27621603835147168 -0.33027839755104138 0 -0.28908082640096788 -0.32638960257967248 0 -0.27321460887603632 -0.30942632982525498 0 -0.26421331744216298 -0.32943061110636401 0 -0.27321460887603632 -0.30942632982525498 0 -0.28908082640096788 -0.32638960257967248 0 -0.27321460887603632 -0.30942632982525498 0 -0.27621603835147168 -0.33027839755104138 0 -0.26421331744216298 -0.32943061110636401 0 -0.27321460887603632 -0.30942632982525498 0 -0.28908082640096788 -0.32638960257967248 0 -0.29608772242085762 -0.30837888524759871 0 -0.27321460887603632 -0.30942632982525498 0 -0.28908082640096788 -0.32638960257967248 0 -0.28440521569258082 -0.34149228361744682 0 -0.304947043925899 -0.34335287533409059 0 -0.27621603835147168 -0.33027839755104138 0 -0.28908082640096788 -0.32638960257967248 0 -0.28440521569258082 -0.34149228361744682 0 -0.28908082640096788 -0.32638960257967248 0 -0.304947043925899 -0.34335287533409059 0 -0.32074380139974629 -0.33343701228721029 0 -0.304947043925899 -0.34335287533409059 0 -0.30629799224095122 -0.32640742927921629 0 -0.28908082640096788 -0.32638960257967248 0 -0.304947043925899 -0.34335287533409059 0 -0.30629799224095122 -0.32640742927921629 0 -0.30629799224095122 -0.32640742927921629 0 -0.3116392313269683 -0.31227800665128408 0 -0.29608772242085762 -0.30837888524759871 0 -0.28908082640096788 -0.32638960257967248 0 -0.30629799224095122 -0.32640742927921629 0 -0.29608772242085762 -0.30837888524759871 0 -0.30878428388507118 -0.30170417431472779 0 -0.30257535950331932 -0.29121923704559499 0 -0.29608772242085762 -0.30837888524759871 0 -0.3116392313269683 -0.31227800665128408 0 -0.30878428388507118 -0.30170417431472779 0 -0.29608772242085762 -0.30837888524759871 0 -0.31511343508082401 -0.27781322935613839 0 -0.31615320843671613 -0.29356321322440693 0 -0.30257535950331932 -0.29121923704559499 0 -0.31615320843671613 -0.29356321322440693 0 -0.30878428388507118 -0.30170417431472779 0 -0.30257535950331932 -0.29121923704559499 0 -0.31511343508082401 -0.27781322935613839 0 -0.30257535950331932 -0.29121923704559499 0 -0.30186967514470631 -0.27796386812733742 0 -0.30257535950331932 -0.29121923704559499 0 -0.28167541002104313 -0.29062322282537112 0 -0.29608772242085762 -0.30837888524759871 0 -0.30257535950331932 -0.29121923704559499 0 -0.28167541002104313 -0.29062322282537112 0 -0.30186967514470631 -0.27796386812733742 0 -0.28167541002104313 -0.29062322282537112 0 -0.29608772242085762 -0.30837888524759871 0 -0.27321460887603632 -0.30942632982525498 0 -0.28167541002104313 -0.29062322282537112 0 -0.27321460887603632 -0.30942632982525498 0 -0.28167541002104313 -0.29062322282537112 0 -0.27321460887603632 -0.30942632982525498 0 -0.25754389589834492 -0.29267207960278718 0 -0.27321460887603632 -0.30942632982525498 0 -0.25469452373499762 -0.30722313484128749 0 -0.25754389589834492 -0.29267207960278718 0 -0.27321460887603632 -0.30942632982525498 0 -0.25754389589834492 -0.29267207960278718 0 -0.25469452373499762 -0.30722313484128749 0 -0.25754389589834492 -0.29267207960278718 0 -0.24072416822125611 -0.30184362229434508 0 -0.25993101682886932 -0.31889206187407287 0 -0.27321460887603632 -0.30942632982525498 0 -0.25469452373499762 -0.30722313484128749 0 -0.28167541002104313 -0.29062322282537112 0 -0.25754389589834492 -0.29267207960278718 0 -0.26609549321717318 -0.27038600033383992 0 -0.28167541002104313 -0.29062322282537112 0 -0.26609549321717318 -0.27038600033383992 0 -0.29013621116605032 -0.27182011582548737 0 -0.25754389589834492 -0.29267207960278718 0 -0.26609549321717318 -0.27038600033383992 0 -0.24718685023563691 -0.27875123027958087 0 -0.26609549321717318 -0.27038600033383992 0 -0.2483490975252734 -0.26098873334868322 0 -0.24718685023563691 -0.27875123027958087 0 -0.26609549321717318 -0.27038600033383992 0 -0.2483490975252734 -0.26098873334868322 0 -0.2582168116042447 -0.2439014490639565 0 -0.26609549321717318 -0.27038600033383992 0 -0.28073519909821221 -0.25162370631188929 0 -0.2582168116042447 -0.2439014490639565 0 -0.26609549321717318 -0.27038600033383992 0 -0.28073519909821221 -0.25162370631188929 0 -0.29013621116605032 -0.27182011582548737 0 -0.28073519909821221 -0.25162370631188929 0 -0.29013621116605032 -0.27182011582548737 0 -0.29859701231105729 -0.25301700882560368 0 -0.29013621116605032 -0.27182011582548737 0 -0.29859701231105729 -0.25301700882560368 0 -0.28167541002104313 -0.29062322282537112 0 -0.29013621116605032 -0.27182011582548737 0 -0.28167541002104313 -0.29062322282537112 0 -0.29013621116605032 -0.27182011582548737 0 -0.30186967514470631 -0.27796386812733742 0 -0.29013621116605032 -0.27182011582548737 0 -0.30186967514470631 -0.27796386812733742 0 -0.30798481169360081 -0.26465381523239789 0 -0.31511343508082401 -0.27781322935613839 0 -0.30186967514470631 -0.27796386812733742 0 -0.30798481169360081 -0.26465381523239789 0 -0.29013621116605032 -0.27182011582548737 0 -0.30798481169360081 -0.26465381523239789 0 -0.29859701231105729 -0.25301700882560368 0 -0.30798481169360081 -0.26465381523239789 0 -0.29859701231105729 -0.25301700882560368 0 -0.31421725341188372 -0.24977587129631751 0 -0.33796228302189513 -0.4595255727132167 0 -0.33234589271538922 -0.44480996408757179 0 -0.32640026466812011 -0.46081896178250181 0 -0.33796228302189513 -0.4595255727132167 0 -0.33234589271538922 -0.44480996408757179 0 -0.35319602351827412 -0.45776170704885039 0 -0.33796228302189513 -0.4595255727132167 0 -0.32640026466812011 -0.46081896178250181 0 -0.33318196746883988 -0.47121638454265508 0 -0.33796228302189513 -0.4595255727132167 0 -0.33318196746883988 -0.47121638454265508 0 -0.34642386304625039 -0.46572223054776302 0 -0.33234589271538922 -0.44480996408757179 0 -0.35319602351827412 -0.45776170704885039 0 -0.34417399017822298 -0.44321594322297297 0 -0.33234589271538922 -0.44480996408757179 0 -0.35319602351827412 -0.45776170704885039 0 -0.33234589271538922 -0.44480996408757179 0 -0.34417399017822298 -0.44321594322297297 0 -0.3357600199570368 -0.42926052953436999 0 -0.33234589271538922 -0.44480996408757179 0 -0.3114957619125025 -0.43185822112629579 0 -0.33234589271538922 -0.44480996408757179 0 -0.31256905993156642 -0.45599936109409522 0 -0.3094409967240645 -0.4445248742670016 0 -0.33234589271538922 -0.44480996408757179 0 -0.3114957619125025 -0.43185822112629579 0 -0.3094409967240645 -0.4445248742670016 0 -0.31256905993156642 -0.45599936109409522 0 -0.32640026466812011 -0.46081896178250181 0 -0.31594212020290968 -0.47254352647497072 0 -0.32640026466812011 -0.46081896178250181 0 -0.31594212020290968 -0.47254352647497072 0 -0.33318196746883988 -0.47121638454265508 0 -0.33234589271538922 -0.44480996408757179 0 -0.31256905993156642 -0.45599936109409522 0 -0.32640026466812011 -0.46081896178250181 0 -0.31594212020290968 -0.47254352647497072 0 -0.32571643119753041 -0.48341426386358383 0 -0.33318196746883988 -0.47121638454265508 0 -0.31594212020290968 -0.47254352647497072 0 -0.32571643119753041 -0.48341426386358383 0 -0.3142379471820072 -0.49087834217350051 0 -0.32571643119753041 -0.48341426386358383 0 -0.3142379471820072 -0.49087834217350051 0 -0.33008082446145748 -0.5 0 -0.3142379471820072 -0.49087834217350051 0 -0.33008082446145748 -0.5 0 -0.30187341860680589 -0.5 0 -0.33008082446145748 -0.5 0 -0.33835912005968188 -0.48593346247900621 0 -0.35828823031610901 -0.5 0 -0.32571643119753041 -0.48341426386358383 0 -0.33008082446145748 -0.5 0 -0.33835912005968188 -0.48593346247900621 0 -0.33835912005968188 -0.48593346247900621 0 -0.33318196746883988 -0.47121638454265508 0 -0.35033712925844102 -0.47766396546025452 0 -0.33318196746883988 -0.47121638454265508 0 -0.35033712925844102 -0.47766396546025452 0 -0.34642386304625039 -0.46572223054776302 0 -0.32571643119753041 -0.48341426386358383 0 -0.33835912005968188 -0.48593346247900621 0 -0.33318196746883988 -0.47121638454265508 0 -0.35033712925844102 -0.47766396546025452 0 -0.36650464836053492 -0.47758333459014829 0 -0.36063794808603339 -0.46630538924086617 0 -0.35033712925844102 -0.47766396546025452 0 -0.36063794808603339 -0.46630538924086617 0 -0.34642386304625039 -0.46572223054776302 0 -0.33835912005968188 -0.48593346247900621 0 -0.35033712925844102 -0.47766396546025452 0 -0.35828823031610901 -0.5 0 -0.35033712925844102 -0.47766396546025452 0 -0.35828823031610901 -0.5 0 -0.36650464836053492 -0.47758333459014829 0 -0.38649563617076049 -0.5 0 -0.35828823031610901 -0.5 0 -0.36650464836053492 -0.47758333459014829 0 -0.36650464836053492 -0.47758333459014829 0 -0.3749125057523493 -0.4641870694620962 0 -0.36063794808603339 -0.46630538924086617 0 -0.38257104150817378 -0.44558539909593659 0 -0.3749125057523493 -0.4641870694620962 0 -0.36138234587818158 -0.45426427734382602 0 -0.3749125057523493 -0.4641870694620962 0 -0.36138234587818158 -0.45426427734382602 0 -0.36063794808603339 -0.46630538924086617 0 -0.36063794808603339 -0.46630538924086617 0 -0.35319602351827412 -0.45776170704885039 0 -0.34642386304625039 -0.46572223054776302 0 -0.36138234587818158 -0.45426427734382602 0 -0.35319602351827412 -0.45776170704885039 0 -0.35413130606104948 -0.44909707738868448 0 -0.36138234587818158 -0.45426427734382602 0 -0.36063794808603339 -0.46630538924086617 0 -0.35319602351827412 -0.45776170704885039 0 -0.33796228302189513 -0.4595255727132167 0 -0.35319602351827412 -0.45776170704885039 0 -0.34642386304625039 -0.46572223054776302 0 -0.34917789899954887 -0.43960621791601218 0 -0.34417399017822298 -0.44321594322297297 0 -0.3478317041277888 -0.43428891422125909 0 -0.34417399017822298 -0.44321594322297297 0 -0.35413130606104948 -0.44909707738868448 0 -0.35160182111049931 -0.44318126090920129 0 -0.34917789899954887 -0.43960621791601218 0 -0.34417399017822298 -0.44321594322297297 0 -0.35160182111049931 -0.44318126090920129 0 -0.34917789899954887 -0.43960621791601218 0 -0.35160182111049931 -0.44318126090920129 0 -0.35310408058168441 -0.43773875331061518 0 -0.35319602351827412 -0.45776170704885039 0 -0.34417399017822298 -0.44321594322297297 0 -0.35413130606104948 -0.44909707738868448 0 -0.36138234587818158 -0.45426427734382602 0 -0.35413130606104948 -0.44909707738868448 0 -0.3593008871480341 -0.44528990622411457 0 -0.35413130606104948 -0.44909707738868448 0 -0.35597289875446148 -0.442541016596669 0 -0.3593008871480341 -0.44528990622411457 0 -0.35597289875446148 -0.442541016596669 0 -0.3593008871480341 -0.44528990622411457 0 -0.35811375488379049 -0.43887755417772267 0 -0.35413130606104948 -0.44909707738868448 0 -0.35597289875446148 -0.442541016596669 0 -0.35160182111049931 -0.44318126090920129 0 -0.35597289875446148 -0.442541016596669 0 -0.35160182111049931 -0.44318126090920129 0 -0.35310408058168441 -0.43773875331061518 0 -0.35597289875446148 -0.442541016596669 0 -0.35310408058168441 -0.43773875331061518 0 -0.35811375488379049 -0.43887755417772267 0 -0.3593008871480341 -0.44528990622411457 0 -0.35811375488379049 -0.43887755417772267 0 -0.36466736862266619 -0.43929361107495862 0 -0.38257104150817378 -0.44558539909593659 0 -0.36138234587818158 -0.45426427734382602 0 -0.36466736862266619 -0.43929361107495862 0 -0.38257104150817378 -0.44558539909593659 0 -0.36138234587818158 -0.45426427734382602 0 -0.36138234587818158 -0.45426427734382602 0 -0.3593008871480341 -0.44528990622411457 0 -0.36466736862266619 -0.43929361107495862 0 -0.37857274293149029 -0.42876471734549271 0 -0.37441041966644201 -0.41853044649732968 0 -0.35538489801315631 -0.42903325471815951 0 -0.37857274293149029 -0.42876471734549271 0 -0.36466736862266619 -0.43929361107495862 0 -0.35538489801315631 -0.42903325471815951 0 -0.37857274293149029 -0.42876471734549271 0 -0.35538489801315631 -0.42903325471815951 0 -0.35811375488379049 -0.43887755417772267 0 -0.36466736862266619 -0.43929361107495862 0 -0.35620302754573391 -0.43383251126704991 0 -0.34839752669874718 -0.41300385642212029 0 -0.37209094330423159 -0.40089808531996213 0 -0.37441041966644201 -0.41853044649732968 0 -0.36549953895739912 -0.41199887396496521 0 -0.35538489801315631 -0.42903325471815951 0 -0.38249496913699632 -0.41100015469591239 0 -0.36549953895739912 -0.41199887396496521 0 -0.37602613074463359 -0.40570926791912437 0 -0.38249496913699632 -0.41100015469591239 0 -0.36549953895739912 -0.41199887396496521 0 -0.38249496913699632 -0.41100015469591239 0 -0.37441041966644201 -0.41853044649732968 0 -0.36549953895739912 -0.41199887396496521 0 -0.36549953895739912 -0.41199887396496521 0 -0.35538489801315631 -0.42903325471815951 0 -0.36549953895739912 -0.41199887396496521 0 -0.34839752669874718 -0.41300385642212029 0 -0.37209094330423159 -0.40089808531996213 0 -0.36549953895739912 -0.41199887396496521 0 -0.37209094330423159 -0.40089808531996213 0 -0.36549953895739912 -0.41199887396496521 0 -0.34839752669874718 -0.41300385642212029 0 -0.35538489801315631 -0.42903325471815951 0 -0.36549953895739912 -0.41199887396496521 0 -0.34839752669874718 -0.41300385642212029 0 -0.34839752669874718 -0.41300385642212029 0 -0.35538489801315631 -0.42903325471815951 0 -0.3357600199570368 -0.42926052953436999 0 -0.3478317041277888 -0.43428891422125909 0 -0.35538489801315631 -0.42903325471815951 0 -0.3357600199570368 -0.42926052953436999 0 -0.35538489801315631 -0.42903325471815951 0 -0.3357600199570368 -0.42926052953436999 0 -0.34917789899954887 -0.43960621791601218 0 -0.35310408058168441 -0.43773875331061518 0 -0.3478317041277888 -0.43428891422125909 0 -0.35310408058168441 -0.43773875331061518 0 -0.3478317041277888 -0.43428891422125909 0 -0.35306161513742162 -0.43384008959340059 0 -0.3478317041277888 -0.43428891422125909 0 -0.35306161513742162 -0.43384008959340059 0 -0.35538489801315631 -0.42903325471815951 0 -0.36466736862266619 -0.43929361107495862 0 -0.35620302754573391 -0.43383251126704991 0 -0.35538489801315631 -0.42903325471815951 0 -0.35306161513742162 -0.43384008959340059 0 -0.35620302754573391 -0.43383251126704991 0 -0.35538489801315631 -0.42903325471815951 0 -0.35310408058168441 -0.43773875331061518 0 -0.35306161513742162 -0.43384008959340059 0 -0.35620302754573391 -0.43383251126704991 0 -0.35310408058168441 -0.43773875331061518 0 -0.35811375488379049 -0.43887755417772267 0 -0.35620302754573391 -0.43383251126704991 0 -0.38353069879127127 -0.38163203803623119 0 -0.36346481754360999 -0.38175981779097429 0 -0.36791003929668897 -0.37531597356073781 0 -0.38353069879127127 -0.38163203803623119 0 -0.36346481754360999 -0.38175981779097429 0 -0.35160698284412462 -0.37014915498247181 0 -0.36346481754360999 -0.38175981779097429 0 -0.36791003929668897 -0.37531597356073781 0 -0.37610551335983561 -0.39413702328477918 0 -0.38353069879127127 -0.38163203803623119 0 -0.36346481754360999 -0.38175981779097429 0 -0.37610551335983561 -0.39413702328477918 0 -0.36346481754360999 -0.38175981779097429 0 -0.37610551335983561 -0.39413702328477918 0 -0.36346481754360999 -0.38175981779097429 0 -0.36560529781313122 -0.39247463880062672 0 -0.36346481754360999 -0.38175981779097429 0 -0.36560529781313122 -0.39247463880062672 0 -0.35703052239811178 -0.39769881565512172 0 -0.36560529781313122 -0.39247463880062672 0 -0.37209094330423159 -0.40089808531996213 0 -0.35703052239811178 -0.39769881565512172 0 -0.37610551335983561 -0.39413702328477918 0 -0.36560529781313122 -0.39247463880062672 0 -0.37209094330423159 -0.40089808531996213 0 -0.37610551335983561 -0.39413702328477918 0 -0.37209094330423159 -0.40089808531996213 0 -0.37602613074463359 -0.40570926791912437 0 -0.36549953895739912 -0.41199887396496521 0 -0.37209094330423159 -0.40089808531996213 0 -0.37602613074463359 -0.40570926791912437 0 -0.37629487057870992 -0.40149067916431569 0 -0.37209094330423159 -0.40089808531996213 0 -0.34839752669874718 -0.41300385642212029 0 -0.37209094330423159 -0.40089808531996213 0 -0.35703052239811178 -0.39769881565512172 0 -0.34839752669874718 -0.41300385642212029 0 -0.3475034212371978 -0.3977809036938752 0 -0.34022546423947331 -0.40183860272453797 0 -0.34839752669874718 -0.41300385642212029 0 -0.3475034212371978 -0.3977809036938752 0 -0.35703052239811178 -0.39769881565512172 0 -0.3475034212371978 -0.3977809036938752 0 -0.35703052239811178 -0.39769881565512172 0 -0.34623045780510991 -0.38749079344634257 0 -0.3475034212371978 -0.3977809036938752 0 -0.34623045780510991 -0.38749079344634257 0 -0.34159335278245839 -0.39476168625962771 0 -0.36346481754360999 -0.38175981779097429 0 -0.35703052239811178 -0.39769881565512172 0 -0.34623045780510991 -0.38749079344634257 0 -0.36346481754360999 -0.38175981779097429 0 -0.3473193197300139 -0.3757558619871843 0 -0.34100389918575219 -0.38190284916864559 0 -0.35160698284412462 -0.37014915498247181 0 -0.36346481754360999 -0.38175981779097429 0 -0.3473193197300139 -0.3757558619871843 0 -0.36346481754360999 -0.38175981779097429 0 -0.34100389918575219 -0.38190284916864559 0 -0.36346481754360999 -0.38175981779097429 0 -0.34623045780510991 -0.38749079344634257 0 -0.34100389918575219 -0.38190284916864559 0 -0.35160698284412462 -0.37014915498247181 0 -0.36346481754360999 -0.38175981779097429 0 -0.32440986188565729 -0.37270080156259489 0 -0.33318997219566882 -0.38195260834254191 0 -0.33667947897576161 -0.37727942084292682 0 -0.33318997219566882 -0.38195260834254191 0 -0.33667947897576161 -0.37727942084292682 0 -0.33318997219566882 -0.38195260834254191 0 -0.33667947897576161 -0.37727942084292682 0 -0.34100389918575219 -0.38190284916864559 0 -0.33318997219566882 -0.38195260834254191 0 -0.34100389918575219 -0.38190284916864559 0 -0.3473193197300139 -0.3757558619871843 0 -0.33667947897576161 -0.37727942084292682 0 -0.34100389918575219 -0.38190284916864559 0 -0.33667947897576161 -0.37727942084292682 0 -0.34100389918575219 -0.38190284916864559 0 -0.34623045780510991 -0.38749079344634257 0 -0.34100389918575219 -0.38190284916864559 0 -0.33841102596855821 -0.38947760426078792 0 -0.34623045780510991 -0.38749079344634257 0 -0.33841102596855821 -0.38947760426078792 0 -0.34159335278245839 -0.39476168625962771 0 -0.33318997219566882 -0.38195260834254191 0 -0.34100389918575219 -0.38190284916864559 0 -0.33841102596855821 -0.38947760426078792 0 -0.34623045780510991 -0.38749079344634257 0 -0.34100389918575219 -0.38190284916864559 0 -0.33318997219566882 -0.38195260834254191 0 -0.33841102596855821 -0.38947760426078792 0 -0.33274337939295218 -0.39158473010557698 0 -0.33318997219566882 -0.38195260834254191 0 -0.32576874152179608 -0.39189120557203078 0 -0.33318997219566882 -0.38195260834254191 0 -0.33274337939295218 -0.39158473010557698 0 -0.32576874152179608 -0.39189120557203078 0 -0.32912841244855839 -0.39450829284968242 0 -0.33559639466195301 -0.39722052717259471 0 -0.32788006366677641 -0.40250098545199881 0 -0.32912841244855839 -0.39450829284968242 0 -0.33274337939295218 -0.39158473010557698 0 -0.32576874152179608 -0.39189120557203078 0 -0.32912841244855839 -0.39450829284968242 0 -0.33559639466195301 -0.39722052717259471 0 -0.33274337939295218 -0.39158473010557698 0 -0.33841102596855821 -0.38947760426078792 0 -0.33559639466195301 -0.39722052717259471 0 -0.33274337939295218 -0.39158473010557698 0 -0.33841102596855821 -0.38947760426078792 0 -0.33559639466195301 -0.39722052717259471 0 -0.34159335278245839 -0.39476168625962771 0 -0.3475034212371978 -0.3977809036938752 0 -0.34159335278245839 -0.39476168625962771 0 -0.34022546423947331 -0.40183860272453797 0 -0.33559639466195301 -0.39722052717259471 0 -0.34159335278245839 -0.39476168625962771 0 -0.34022546423947331 -0.40183860272453797 0 -0.33559639466195301 -0.39722052717259471 0 -0.34022546423947331 -0.40183860272453797 0 -0.32788006366677641 -0.40250098545199881 0 -0.34022546423947331 -0.40183860272453797 0 -0.32788006366677641 -0.40250098545199881 0 -0.32831963194254171 -0.41418371360508938 0 -0.32788006366677641 -0.40250098545199881 0 -0.32576874152179608 -0.39189120557203078 0 -0.3082417371863363 -0.41536357078805991 0 -0.32576874152179608 -0.39189120557203078 0 -0.3082417371863363 -0.41536357078805991 0 -0.31067345205079122 -0.40297304657430971 0 -0.32576874152179608 -0.39189120557203078 0 -0.3082417371863363 -0.41536357078805991 0 -0.32576874152179608 -0.39189120557203078 0 -0.31035600328023122 -0.39454309529492188 0 -0.31067345205079122 -0.40297304657430971 0 -0.32912841244855839 -0.39450829284968242 0 -0.32788006366677641 -0.40250098545199881 0 -0.32576874152179608 -0.39189120557203078 0 -0.32912841244855839 -0.39450829284968242 0 -0.32576874152179608 -0.39189120557203078 0 -0.33318997219566882 -0.38195260834254191 0 -0.31317375432424149 -0.38208007184035081 0 -0.32440986188565729 -0.37270080156259489 0 -0.33318997219566882 -0.38195260834254191 0 -0.31317375432424149 -0.38208007184035081 0 -0.33318997219566882 -0.38195260834254191 0 -0.32576874152179608 -0.39189120557203078 0 -0.31317375432424149 -0.38208007184035081 0 -0.32576874152179608 -0.39189120557203078 0 -0.31317375432424149 -0.38208007184035081 0 -0.31035600328023122 -0.39454309529492188 0 -0.32576874152179608 -0.39189120557203078 0 -0.31317375432424149 -0.38208007184035081 0 -0.34417399017822298 -0.44321594322297297 0 -0.3478317041277888 -0.43428891422125909 0 -0.3357600199570368 -0.42926052953436999 0 -0.34839752669874718 -0.41300385642212029 0 -0.34022546423947331 -0.40183860272453797 0 -0.32831963194254171 -0.41418371360508938 0 -0.34839752669874718 -0.41300385642212029 0 -0.33226633429983238 -0.42124583038635088 0 -0.34839752669874718 -0.41300385642212029 0 -0.3357600199570368 -0.42926052953436999 0 -0.33226633429983238 -0.42124583038635088 0 -0.34839752669874718 -0.41300385642212029 0 -0.32831963194254171 -0.41418371360508938 0 -0.33226633429983238 -0.42124583038635088 0 -0.34839752669874718 -0.41300385642212029 0 -0.32831963194254171 -0.41418371360508938 0 -0.32831963194254171 -0.41418371360508938 0 -0.33226633429983238 -0.42124583038635088 0 -0.32271744639311822 -0.42156188657798022 0 -0.32788006366677641 -0.40250098545199881 0 -0.32831963194254171 -0.41418371360508938 0 -0.3082417371863363 -0.41536357078805991 0 -0.32831963194254171 -0.41418371360508938 0 -0.3142906732686378 -0.42168422233663161 0 -0.3082417371863363 -0.41536357078805991 0 -0.32831963194254171 -0.41418371360508938 0 -0.3082417371863363 -0.41536357078805991 0 -0.32831963194254171 -0.41418371360508938 0 -0.32271744639311822 -0.42156188657798022 0 -0.3142906732686378 -0.42168422233663161 0 -0.33234589271538922 -0.44480996408757179 0 -0.31613514190091718 -0.42948780435058093 0 -0.3114957619125025 -0.43185822112629579 0 -0.33234589271538922 -0.44480996408757179 0 -0.3357600199570368 -0.42926052953436999 0 -0.31613514190091718 -0.42948780435058093 0 -0.3142906732686378 -0.42168422233663161 0 -0.31613514190091718 -0.42948780435058093 0 -0.30783454039896002 -0.42958393323736038 0 -0.32271744639311822 -0.42156188657798022 0 -0.3142906732686378 -0.42168422233663161 0 -0.31613514190091718 -0.42948780435058093 0 -0.3357600199570368 -0.42926052953436999 0 -0.31613514190091718 -0.42948780435058093 0 -0.33226633429983238 -0.42124583038635088 0 -0.32271744639311822 -0.42156188657798022 0 -0.31613514190091718 -0.42948780435058093 0 -0.3357600199570368 -0.42926052953436999 0 -0.33226633429983238 -0.42124583038635088 0 -0.31613514190091718 -0.42948780435058093 0 -0.33226633429983238 -0.42124583038635088 0 -0.31613514190091718 -0.42948780435058093 0 -0.31613514190091718 -0.42948780435058093 0 -0.3114957619125025 -0.43185822112629579 0 -0.3114957619125025 -0.43185822112629579 0 -0.30783454039896002 -0.42958393323736038 0 -0.29634270858520939 -0.43960043062412468 0 -0.31613514190091718 -0.42948780435058093 0 -0.3114957619125025 -0.43185822112629579 0 -0.30783454039896002 -0.42958393323736038 0 -0.30331343782522491 -0.42196360581309772 0 -0.30783454039896002 -0.42958393323736038 0 -0.29157272882734891 -0.41634310820889481 0 -0.3114957619125025 -0.43185822112629579 0 -0.30783454039896002 -0.42958393323736038 0 -0.3114957619125025 -0.43185822112629579 0 -0.29634270858520939 -0.43960043062412468 0 -0.31613514190091718 -0.42948780435058093 0 -0.30783454039896002 -0.42958393323736038 0 -0.3142906732686378 -0.42168422233663161 0 -0.30331343782522491 -0.42196360581309772 0 -0.30783454039896002 -0.42958393323736038 0 -0.3142906732686378 -0.42168422233663161 0 -0.30331343782522491 -0.42196360581309772 0 -0.3082417371863363 -0.41536357078805991 0 -0.3082417371863363 -0.41536357078805991 0 -0.29157272882734891 -0.41634310820889481 0 -0.30331343782522491 -0.42196360581309772 0 -0.3082417371863363 -0.41536357078805991 0 -0.29157272882734891 -0.41634310820889481 0 -0.3082417371863363 -0.41536357078805991 0 -0.30512179815010648 -0.41267440077236472 0 -0.29157272882734891 -0.41634310820889481 0 -0.30331343782522491 -0.42196360581309772 0 -0.3082417371863363 -0.41536357078805991 0 -0.3082417371863363 -0.41536357078805991 0 -0.30512179815010648 -0.41267440077236472 0 -0.31067345205079122 -0.40297304657430971 0 -0.30512179815010648 -0.41267440077236472 0 -0.29157272882734891 -0.41634310820889481 0 -0.29482814950023328 -0.40830219942147938 0 -0.30783454039896002 -0.42958393323736038 0 -0.29157272882734891 -0.41634310820889481 0 -0.28412874470879912 -0.41485830032050902 0 -0.28962387683982849 -0.40671118620829788 0 -0.28412874470879912 -0.41485830032050902 0 -0.27887794756246431 -0.39894882893499961 0 -0.29157272882734891 -0.41634310820889481 0 -0.28962387683982849 -0.40671118620829788 0 -0.29482814950023328 -0.40830219942147938 0 -0.29157272882734891 -0.41634310820889481 0 -0.28962387683982849 -0.40671118620829788 0 -0.28412874470879912 -0.41485830032050902 0 -0.30783454039896002 -0.42958393323736038 0 -0.28525385456372598 -0.42984543912842699 0 -0.30783454039896002 -0.42958393323736038 0 -0.28412874470879912 -0.41485830032050902 0 -0.28525385456372598 -0.42984543912842699 0 -0.30783454039896002 -0.42958393323736038 0 -0.28525385456372598 -0.42984543912842699 0 -0.29634270858520939 -0.43960043062412468 0 -0.30783454039896002 -0.42958393323736038 0 -0.28412874470879912 -0.41485830032050902 0 -0.2945929359319488 -0.36760614731534108 0 -0.31317375432424149 -0.38208007184035081 0 -0.29702017227071648 -0.3821829380303548 0 -0.31317375432424149 -0.38208007184035081 0 -0.29702017227071648 -0.3821829380303548 0 -0.30212301116225498 -0.3917042965809297 0 -0.31317375432424149 -0.38208007184035081 0 -0.29702017227071648 -0.3821829380303548 0 -0.31317375432424149 -0.38208007184035081 0 -0.30212301116225498 -0.3917042965809297 0 -0.31035600328023122 -0.39454309529492188 0 -0.29702017227071648 -0.3821829380303548 0 -0.30212301116225498 -0.3917042965809297 0 -0.29299419418364941 -0.39748010249636018 0 -0.30212301116225498 -0.3917042965809297 0 -0.3038789801154857 -0.40039296044417289 0 -0.29299419418364941 -0.39748010249636018 0 -0.30212301116225498 -0.3917042965809297 0 -0.31035600328023122 -0.39454309529492188 0 -0.3038789801154857 -0.40039296044417289 0 -0.31035600328023122 -0.39454309529492188 0 -0.31067345205079122 -0.40297304657430971 0 -0.3038789801154857 -0.40039296044417289 0 -0.30512179815010648 -0.41267440077236472 0 -0.31067345205079122 -0.40297304657430971 0 -0.3038789801154857 -0.40039296044417289 0 -0.30512179815010648 -0.41267440077236472 0 -0.29482814950023328 -0.40830219942147938 0 -0.29299419418364941 -0.39748010249636018 0 -0.30512179815010648 -0.41267440077236472 0 -0.3038789801154857 -0.40039296044417289 0 -0.29299419418364941 -0.39748010249636018 0 -0.30512179815010648 -0.41267440077236472 0 -0.29299419418364941 -0.39748010249636018 0 -0.29299419418364941 -0.39748010249636018 0 -0.2808665902171914 -0.38228580422035652 0 -0.27887794756246431 -0.39894882893499961 0 -0.28962387683982849 -0.40671118620829788 0 -0.29482814950023328 -0.40830219942147938 0 -0.29299419418364941 -0.39748010249636018 0 -0.28962387683982849 -0.40671118620829788 0 -0.29299419418364941 -0.39748010249636018 0 -0.27887794756246431 -0.39894882893499961 0 -0.2945929359319488 -0.36760614731534108 0 -0.29702017227071648 -0.3821829380303548 0 -0.2808665902171914 -0.38228580422035652 0 -0.29702017227071648 -0.3821829380303548 0 -0.29299419418364941 -0.39748010249636018 0 -0.2808665902171914 -0.38228580422035652 0 -0.29702017227071648 -0.3821829380303548 0 -0.2808665902171914 -0.38228580422035652 0 -0.29299419418364941 -0.39748010249636018 0 -0.2808665902171914 -0.38228580422035652 0 -0.2808665902171914 -0.38228580422035652 0 -0.25938421221386299 -0.38242260424217978 0 -0.2808665902171914 -0.38228580422035652 0 -0.26988792475303891 -0.39094747620029929 0 -0.25938421221386299 -0.38242260424217978 0 -0.26678221966742222 -0.3646399338773868 0 -0.2808665902171914 -0.38228580422035652 0 -0.25938421221386299 -0.38242260424217978 0 -0.2808665902171914 -0.38228580422035652 0 -0.26988792475303891 -0.39094747620029929 0 -0.27887794756246431 -0.39894882893499961 0 -0.26988792475303891 -0.39094747620029929 0 -0.27887794756246431 -0.39894882893499961 0 -0.26042294901863672 -0.40013266740365983 0 -0.28412874470879912 -0.41485830032050902 0 -0.27887794756246431 -0.39894882893499961 0 -0.26042294901863672 -0.40013266740365983 0 -0.26988792475303891 -0.39094747620029929 0 -0.26042294901863672 -0.40013266740365983 0 -0.25938421221386299 -0.38242260424217978 0 -0.26042294901863672 -0.40013266740365983 0 -0.25613810139819221 -0.41434132836670989 0 -0.2431093376423632 -0.40266188506415568 0 -0.26042294901863672 -0.40013266740365983 0 -0.25938421221386299 -0.38242260424217978 0 -0.23671715332847421 -0.38540703448681102 0 -0.28525385456372598 -0.42984543912842699 0 -0.26866387832805422 -0.43084198424433162 0 -0.28118965525791628 -0.44734264012195318 0 -0.28525385456372598 -0.42984543912842699 0 -0.26866387832805422 -0.43084198424433162 0 -0.27009367185483962 -0.41675208124042978 0 -0.28412874470879912 -0.41485830032050902 0 -0.28525385456372598 -0.42984543912842699 0 -0.27009367185483962 -0.41675208124042978 0 -0.28412874470879912 -0.41485830032050902 0 -0.26042294901863672 -0.40013266740365983 0 -0.28412874470879912 -0.41485830032050902 0 -0.26042294901863672 -0.40013266740365983 0 -0.27009367185483962 -0.41675208124042978 0 -0.26866387832805422 -0.43084198424433162 0 -0.27009367185483962 -0.41675208124042978 0 -0.25613810139819221 -0.41434132836670989 0 -0.25613810139819221 -0.41434132836670989 0 -0.25359928648481211 -0.43037401697981981 0 -0.24230037244337599 -0.4175018590364884 0 -0.26042294901863672 -0.40013266740365983 0 -0.27009367185483962 -0.41675208124042978 0 -0.25613810139819221 -0.41434132836670989 0 -0.26866387832805422 -0.43084198424433162 0 -0.25613810139819221 -0.41434132836670989 0 -0.26866387832805422 -0.43084198424433162 0 -0.25613810139819221 -0.41434132836670989 0 -0.25359928648481211 -0.43037401697981981 0 -0.26866387832805422 -0.43084198424433162 0 -0.25359928648481211 -0.43037401697981981 0 -0.2656706707878026 -0.4425776952979022 0 -0.25359928648481211 -0.43037401697981981 0 -0.25354060653463212 -0.44613406553729051 0 -0.2656706707878026 -0.4425776952979022 0 -0.25359928648481211 -0.43037401697981981 0 -0.25354060653463212 -0.44613406553729051 0 -0.2438451496940687 -0.43907002470141299 0 -0.25354060653463212 -0.44613406553729051 0 -0.26694214283005818 -0.45462217802476412 0 -0.2656706707878026 -0.4425776952979022 0 -0.25354060653463212 -0.44613406553729051 0 -0.25269463040220203 -0.46190171592757828 0 -0.26694214283005818 -0.45462217802476412 0 -0.25269463040220203 -0.46190171592757828 0 -0.26694214283005818 -0.45462217802476412 0 -0.27127733714919139 -0.47586075624730118 0 -0.25269463040220203 -0.46190171592757828 0 -0.26694214283005818 -0.45462217802476412 0 -0.26694214283005818 -0.45462217802476412 0 -0.28051910777735523 -0.46464962051151848 0 -0.27127733714919139 -0.47586075624730118 0 -0.26694214283005818 -0.45462217802476412 0 -0.28051910777735523 -0.46464962051151848 0 -0.28118965525791628 -0.44734264012195318 0 -0.26866387832805422 -0.43084198424433162 0 -0.2656706707878026 -0.4425776952979022 0 -0.28118965525791628 -0.44734264012195318 0 -0.26866387832805422 -0.43084198424433162 0 -0.28118965525791628 -0.44734264012195318 0 -0.26694214283005818 -0.45462217802476412 0 -0.2656706707878026 -0.4425776952979022 0 -0.28118965525791628 -0.44734264012195318 0 -0.26694214283005818 -0.45462217802476412 0 -0.28118965525791628 -0.44734264012195318 0 -0.28525385456372598 -0.42984543912842699 0 -0.28118965525791628 -0.44734264012195318 0 -0.29634270858520939 -0.43960043062412468 0 -0.28118965525791628 -0.44734264012195318 0 -0.29634270858520939 -0.43960043062412468 0 -0.28118965525791628 -0.44734264012195318 0 -0.29634270858520939 -0.43960043062412468 0 -0.29945124434374348 -0.45131555945098001 0 -0.28118965525791628 -0.44734264012195318 0 -0.2977138012199616 -0.4691104911477269 0 -0.28118965525791628 -0.44734264012195318 0 -0.29945124434374348 -0.45131555945098001 0 -0.2977138012199616 -0.4691104911477269 0 -0.28051910777735523 -0.46464962051151848 0 -0.28118965525791628 -0.44734264012195318 0 -0.2977138012199616 -0.4691104911477269 0 -0.31256905993156642 -0.45599936109409522 0 -0.29945124434374348 -0.45131555945098001 0 -0.2977138012199616 -0.4691104911477269 0 -0.31256905993156642 -0.45599936109409522 0 -0.31594212020290968 -0.47254352647497072 0 -0.2977138012199616 -0.4691104911477269 0 -0.31256905993156642 -0.45599936109409522 0 -0.3094409967240645 -0.4445248742670016 0 -0.29945124434374348 -0.45131555945098001 0 -0.3114957619125025 -0.43185822112629579 0 -0.29634270858520939 -0.43960043062412468 0 -0.3094409967240645 -0.4445248742670016 0 -0.29634270858520939 -0.43960043062412468 0 -0.3094409967240645 -0.4445248742670016 0 -0.29945124434374348 -0.45131555945098001 0 -0.3142379471820072 -0.49087834217350051 0 -0.29783156266692112 -0.48522413338081982 0 -0.30187341860680589 -0.5 0 -0.3142379471820072 -0.49087834217350051 0 -0.29783156266692112 -0.48522413338081982 0 -0.2977138012199616 -0.4691104911477269 0 -0.31594212020290968 -0.47254352647497072 0 -0.3142379471820072 -0.49087834217350051 0 -0.2977138012199616 -0.4691104911477269 0 -0.3142379471820072 -0.49087834217350051 0 -0.2977138012199616 -0.4691104911477269 0 -0.28051910777735523 -0.46464962051151848 0 -0.2977138012199616 -0.4691104911477269 0 -0.28547260242964922 -0.47631203701584812 0 -0.29783156266692112 -0.48522413338081982 0 -0.2977138012199616 -0.4691104911477269 0 -0.28547260242964922 -0.47631203701584812 0 -0.28547260242964922 -0.47631203701584812 0 -0.28986004389618147 -0.48981979656702318 0 -0.27127733714919139 -0.47586075624730118 0 -0.29783156266692112 -0.48522413338081982 0 -0.28547260242964922 -0.47631203701584812 0 -0.28986004389618147 -0.48981979656702318 0 -0.30187341860680589 -0.5 0 -0.28986004389618147 -0.48981979656702318 0 -0.2736660127521543 -0.5 0 -0.29783156266692112 -0.48522413338081982 0 -0.30187341860680589 -0.5 0 -0.28986004389618147 -0.48981979656702318 0 -0.28986004389618147 -0.48981979656702318 0 -0.2736660127521543 -0.5 0 -0.27127733714919139 -0.47586075624730118 0 -0.2736660127521543 -0.5 0 -0.27127733714919139 -0.47586075624730118 0 -0.25894985238314572 -0.48237709588318323 0 -0.28986004389618147 -0.48981979656702318 0 -0.27127733714919139 -0.47586075624730118 0 -0.28051910777735523 -0.46464962051151848 0 -0.28547260242964922 -0.47631203701584812 0 -0.27127733714919139 -0.47586075624730118 0 -0.25269463040220203 -0.46190171592757828 0 -0.25894985238314572 -0.48237709588318323 0 -0.2452663440960669 -0.48013845744446582 0 -0.25269463040220203 -0.46190171592757828 0 -0.27127733714919139 -0.47586075624730118 0 -0.25269463040220203 -0.46190171592757828 0 -0.27127733714919139 -0.47586075624730118 0 -0.25894985238314572 -0.48237709588318323 0 -0.2736660127521543 -0.5 0 -0.25894985238314572 -0.48237709588318323 0 -0.2518449375161152 -0.49398454979657291 0 -0.2736660127521543 -0.5 0 -0.2518449375161152 -0.49398454979657291 0 -0.24545860689750271 -0.5 0 -0.25894985238314572 -0.48237709588318323 0 -0.2518449375161152 -0.49398454979657291 0 -0.2452663440960669 -0.48013845744446582 0 -0.2518449375161152 -0.49398454979657291 0 -0.2307928657777267 -0.48891641965364391 0 -0.2518449375161152 -0.49398454979657291 0 -0.2452663440960669 -0.48013845744446582 0 -0.2307928657777267 -0.48891641965364391 0 -0.2518449375161152 -0.49398454979657291 0 -0.24545860689750271 -0.5 0 -0.2307928657777267 -0.48891641965364391 0 -0.2452663440960669 -0.48013845744446582 0 -0.23121771222076951 -0.4728750027191454 0 -0.2307928657777267 -0.48891641965364391 0 -0.25269463040220203 -0.46190171592757828 0 -0.2452663440960669 -0.48013845744446582 0 -0.23121771222076951 -0.4728750027191454 0 -0.23121771222076951 -0.4728750027191454 0 -0.2307928657777267 -0.48891641965364391 0 -0.20974079403933829 -0.48384828951071468 0 -0.23121771222076951 -0.4728750027191454 0 -0.2159840481136181 -0.46956363033528908 0 -0.20974079403933829 -0.48384828951071468 0 -0.23121771222076951 -0.4728750027191454 0 -0.20974079403933829 -0.48384828951071468 0 -0.24545860689750271 -0.5 0 -0.2307928657777267 -0.48891641965364391 0 -0.21725120104285109 -0.5 0 -0.2307928657777267 -0.48891641965364391 0 -0.20974079403933829 -0.48384828951071468 0 -0.2307928657777267 -0.48891641965364391 0 -0.21725120104285109 -0.5 0 -0.20974079403933829 -0.48384828951071468 0 -0.25354060653463212 -0.44613406553729051 0 -0.25269463040220203 -0.46190171592757828 0 -0.23721599773282709 -0.450274407782012 0 -0.25354060653463212 -0.44613406553729051 0 -0.2438451496940687 -0.43907002470141299 0 -0.23721599773282709 -0.450274407782012 0 -0.2438451496940687 -0.43907002470141299 0 -0.23721599773282709 -0.450274407782012 0 -0.2347235744381061 -0.43699032632131868 0 -0.25269463040220203 -0.46190171592757828 0 -0.23721599773282709 -0.450274407782012 0 -0.23097902662785419 -0.46071537305467791 0 -0.25269463040220203 -0.46190171592757828 0 -0.23121771222076951 -0.4728750027191454 0 -0.23097902662785419 -0.46071537305467791 0 -0.25269463040220203 -0.46190171592757828 0 -0.23121771222076951 -0.4728750027191454 0 -0.25269463040220203 -0.46190171592757828 0 -0.23721599773282709 -0.450274407782012 0 -0.23097902662785419 -0.46071537305467791 0 -0.22320557245757189 -0.45136192584780271 0 -0.2159840481136181 -0.46956363033528908 0 -0.23121771222076951 -0.4728750027191454 0 -0.23097902662785419 -0.46071537305467791 0 -0.2159840481136181 -0.46956363033528908 0 -0.23721599773282709 -0.450274407782012 0 -0.23097902662785419 -0.46071537305467791 0 -0.22320557245757189 -0.45136192584780271 0 -0.22320557245757189 -0.45136192584780271 0 -0.22173736506345271 -0.43864709963644488 0 -0.21698213822720461 -0.43284430329106749 0 -0.22320557245757189 -0.45136192584780271 0 -0.21698213822720461 -0.43284430329106749 0 -0.23721599773282709 -0.450274407782012 0 -0.22320557245757189 -0.45136192584780271 0 -0.22173736506345271 -0.43864709963644488 0 -0.23721599773282709 -0.450274407782012 0 -0.22173736506345271 -0.43864709963644488 0 -0.23721599773282709 -0.450274407782012 0 -0.22173736506345271 -0.43864709963644488 0 -0.2347235744381061 -0.43699032632131868 0 -0.22320557245757189 -0.45136192584780271 0 -0.20700894554624619 -0.45681697418164519 0 -0.21698213822720461 -0.43284430329106749 0 -0.20700894554624619 -0.45681697418164519 0 -0.19303707249135671 -0.43059430015364047 0 -0.21698213822720461 -0.43284430329106749 0 -0.20700894554624619 -0.45681697418164519 0 -0.21698213822720461 -0.43284430329106749 0 -0.22320557245757189 -0.45136192584780271 0 -0.20700894554624619 -0.45681697418164519 0 -0.2159840481136181 -0.46956363033528908 0 -0.20700894554624619 -0.45681697418164519 0 -0.19703575286528649 -0.48078964507222238 0 -0.18502875603026461 -0.46494473610867582 0 -0.20700894554624619 -0.45681697418164519 0 -0.18502875603026461 -0.46494473610867582 0 -0.18271469687031749 -0.44845454828740711 0 -0.20700894554624619 -0.45681697418164519 0 -0.18271469687031749 -0.44845454828740711 0 -0.19303707249135671 -0.43059430015364047 0 -0.21725120104285109 -0.5 0 -0.20974079403933829 -0.48384828951071468 0 -0.19199021277984149 -0.49291766423347888 0 -0.20700894554624619 -0.45681697418164519 0 -0.2159840481136181 -0.46956363033528908 0 -0.19703575286528649 -0.48078964507222238 0 -0.2159840481136181 -0.46956363033528908 0 -0.20974079403933829 -0.48384828951071468 0 -0.19703575286528649 -0.48078964507222238 0 -0.20974079403933829 -0.48384828951071468 0 -0.19703575286528649 -0.48078964507222238 0 -0.20700894554624619 -0.45681697418164519 0 -0.19703575286528649 -0.48078964507222238 0 -0.21725120104285109 -0.5 0 -0.19199021277984149 -0.49291766423347888 0 -0.18904379518819939 -0.49999999999999578 0 -0.20974079403933829 -0.48384828951071468 0 -0.19703575286528649 -0.48078964507222238 0 -0.19199021277984149 -0.49291766423347888 0 -0.20974079403933829 -0.48384828951071468 0 -0.19199021277984149 -0.49291766423347888 0 -0.19703575286528649 -0.48078964507222238 0 -0.19199021277984149 -0.49291766423347888 0 -0.1806501400470899 -0.48733198327772198 0 -0.19703575286528649 -0.48078964507222238 0 -0.19199021277984149 -0.49291766423347888 0 -0.19199021277984149 -0.49291766423347888 0 -0.18904379518819939 -0.49999999999999578 0 -0.19199021277984149 -0.49291766423347888 0 -0.17812866439603481 -0.49999999999999267 0 -0.19199021277984149 -0.49291766423347888 0 -0.18904379518819939 -0.49999999999999578 0 -0.17812866439603481 -0.49999999999999267 0 -0.19199021277984149 -0.49291766423347888 0 -0.1806501400470899 -0.48733198327772198 0 -0.17812866439603481 -0.49999999999999267 0 -0.1806501400470899 -0.48733198327772198 0 -0.17812866439603481 -0.49999999999999267 0 -0.16526627315450881 -0.48681942287300078 0 -0.17812866439603481 -0.49999999999999267 0 -0.16526627315450881 -0.48681942287300078 0 -0.15384562597277671 -0.5 0 -0.16526627315450881 -0.48681942287300078 0 -0.15867829181438209 -0.47351517086903511 0 -0.14808882950896779 -0.48760950596642599 0 -0.16526627315450881 -0.48681942287300078 0 -0.15867829181438209 -0.47351517086903511 0 -0.17205258504960549 -0.47477513270279981 0 -0.15867829181438209 -0.47351517086903511 0 -0.17205258504960549 -0.47477513270279981 0 -0.1689107827671488 -0.46150338438528649 0 -0.19703575286528649 -0.48078964507222238 0 -0.17205258504960549 -0.47477513270279981 0 -0.19703575286528649 -0.48078964507222238 0 -0.17205258504960549 -0.47477513270279981 0 -0.18502875603026461 -0.46494473610867582 0 -0.19703575286528649 -0.48078964507222238 0 -0.1806501400470899 -0.48733198327772198 0 -0.17205258504960549 -0.47477513270279981 0 -0.1806501400470899 -0.48733198327772198 0 -0.16526627315450881 -0.48681942287300078 0 -0.17205258504960549 -0.47477513270279981 0 -0.17205258504960549 -0.47477513270279981 0 -0.18502875603026461 -0.46494473610867582 0 -0.1689107827671488 -0.46150338438528649 0 -0.18502875603026461 -0.46494473610867582 0 -0.18271469687031749 -0.44845454828740711 0 -0.1689107827671488 -0.46150338438528649 0 -0.18271469687031749 -0.44845454828740711 0 -0.16138963394859521 -0.44868252298987232 0 -0.1689107827671488 -0.46150338438528649 0 -0.18271469687031749 -0.44845454828740711 0 -0.16138963394859521 -0.44868252298987232 0 -0.16224644553901921 -0.42839564420087312 0 -0.16138963394859521 -0.44868252298987232 0 -0.1689107827671488 -0.46150338438528649 0 -0.15360073288972831 -0.45864819535392959 0 -0.15867829181438209 -0.47351517086903511 0 -0.1689107827671488 -0.46150338438528649 0 -0.15360073288972831 -0.45864819535392959 0 -0.15867829181438209 -0.47351517086903511 0 -0.14088984691242101 -0.46372891927135518 0 -0.15360073288972831 -0.45864819535392959 0 -0.14088984691242101 -0.46372891927135518 0 -0.15360073288972831 -0.45864819535392959 0 -0.14071409195337639 -0.4434269833400809 0 -0.16138963394859521 -0.44868252298987232 0 -0.15360073288972831 -0.45864819535392959 0 -0.14071409195337639 -0.4434269833400809 0 -0.16138963394859521 -0.44868252298987232 0 -0.14071409195337639 -0.4434269833400809 0 -0.16224644553901921 -0.42839564420087312 0 -0.14071409195337639 -0.4434269833400809 0 -0.11918173836773351 -0.45845832247928869 0 -0.14071409195337639 -0.4434269833400809 0 -0.11918173836773351 -0.45845832247928869 0 -0.1184149235461696 -0.43970471758753887 0 -0.14088984691242101 -0.46372891927135518 0 -0.14071409195337639 -0.4434269833400809 0 -0.11918173836773351 -0.45845832247928869 0 -0.14088984691242101 -0.46372891927135518 0 -0.1272556728232932 -0.47013049556587211 0 -0.11918173836773351 -0.45845832247928869 0 -0.13278436477725561 -0.4823434472460234 0 -0.1272556728232932 -0.47013049556587211 0 -0.1161667412357628 -0.47599129326682099 0 -0.14088984691242101 -0.46372891927135518 0 -0.13278436477725561 -0.4823434472460234 0 -0.1272556728232932 -0.47013049556587211 0 -0.13278436477725561 -0.4823434472460234 0 -0.12956258754951869 -0.5 0 -0.14808882950896779 -0.48760950596642599 0 -0.12956258754951869 -0.5 0 -0.15384562597277671 -0.5 0 -0.14808882950896779 -0.48760950596642599 0 -0.16526627315450881 -0.48681942287300078 0 -0.15384562597277671 -0.5 0 -0.14808882950896779 -0.48760950596642599 0 -0.15867829181438209 -0.47351517086903511 0 -0.14088984691242101 -0.46372891927135518 0 -0.13278436477725561 -0.4823434472460234 0 -0.15867829181438209 -0.47351517086903511 0 -0.13278436477725561 -0.4823434472460234 0 -0.14808882950896779 -0.48760950596642599 0 -0.15867829181438209 -0.47351517086903511 0 -0.13278436477725561 -0.4823434472460234 0 -0.15300746566076209 -0.38310001254620968 0 -0.12942966304821441 -0.38325015625522552 0 -0.14208280055258729 -0.40634727148710198 0 -0.15300746566076209 -0.38310001254620968 0 -0.14208280055258729 -0.40634727148710198 0 -0.1624749046322673 -0.40200193298372783 0 -0.15300746566076209 -0.38310001254620968 0 -0.12942966304821441 -0.38325015625522552 0 -0.15300746566076209 -0.38310001254620968 0 -0.12942966304821441 -0.38325015625522552 0 -0.13644034466196819 -0.36544341997203661 0 -0.12942966304821441 -0.38325015625522552 0 -0.14208280055258729 -0.40634727148710198 0 -0.1246151037146196 -0.40215144471962733 0 -0.13370262722300191 -0.42485153358840111 0 -0.14208280055258729 -0.40634727148710198 0 -0.1246151037146196 -0.40215144471962733 0 -0.14071409195337639 -0.4434269833400809 0 -0.13370262722300191 -0.42485153358840111 0 -0.1184149235461696 -0.43970471758753887 0 -0.14071409195337639 -0.4434269833400809 0 -0.13370262722300191 -0.42485153358840111 0 -0.16224644553901921 -0.42839564420087312 0 -0.14071409195337639 -0.4434269833400809 0 -0.16224644553901921 -0.42839564420087312 0 -0.14208280055258729 -0.40634727148710198 0 -0.16224644553901921 -0.42839564420087312 0 -0.1624749046322673 -0.40200193298372783 0 -0.13370262722300191 -0.42485153358840111 0 -0.14208280055258729 -0.40634727148710198 0 -0.16224644553901921 -0.42839564420087312 0 -0.16224644553901921 -0.42839564420087312 0 -0.180697604208819 -0.40923231675122879 0 -0.1624749046322673 -0.40200193298372783 0 -0.18271469687031749 -0.44845454828740711 0 -0.16224644553901921 -0.42839564420087312 0 -0.19303707249135671 -0.43059430015364047 0 -0.16224644553901921 -0.42839564420087312 0 -0.180697604208819 -0.40923231675122879 0 -0.19303707249135671 -0.43059430015364047 0 -0.180697604208819 -0.40923231675122879 0 -0.1624749046322673 -0.40200193298372783 0 -0.17658526827330981 -0.3829498688371939 0 -0.180697604208819 -0.40923231675122879 0 -0.17658526827330981 -0.3829498688371939 0 -0.19000778267581911 -0.39514046875386671 0 -0.15300746566076209 -0.38310001254620968 0 -0.1624749046322673 -0.40200193298372783 0 -0.17658526827330981 -0.3829498688371939 0 -0.15300746566076209 -0.38310001254620968 0 -0.17658526827330981 -0.3829498688371939 0 -0.17658526827330981 -0.3829498688371939 0 -0.20016307088585741 -0.38279972512817662 0 -0.19000778267581911 -0.39514046875386671 0 -0.17658526827330981 -0.3829498688371939 0 -0.20016307088585741 -0.38279972512817662 0 -0.20016307088585741 -0.38279972512817662 0 -0.19000778267581911 -0.39514046875386671 0 -0.2085726045565329 -0.4078220142096215 0 -0.180697604208819 -0.40923231675122879 0 -0.19000778267581911 -0.39514046875386671 0 -0.2085726045565329 -0.4078220142096215 0 -0.20016307088585741 -0.38279972512817662 0 -0.2085726045565329 -0.4078220142096215 0 -0.20016307088585741 -0.38279972512817662 0 -0.2161772785324636 -0.38269774647594651 0 -0.2085726045565329 -0.4078220142096215 0 -0.2161772785324636 -0.38269774647594651 0 -0.2085726045565329 -0.4078220142096215 0 -0.22410163367487609 -0.3935296463770066 0 -0.20016307088585741 -0.38279972512817662 0 -0.2161772785324636 -0.38269774647594651 0 -0.20016307088585741 -0.38279972512817662 0 -0.2161772785324636 -0.38269774647594651 0 -0.2146411550785581 -0.37365584976636601 0 -0.2161772785324636 -0.38269774647594651 0 -0.22424182443051541 -0.37765757455433779 0 -0.2146411550785581 -0.37365584976636601 0 -0.180697604208819 -0.40923231675122879 0 -0.19303707249135671 -0.43059430015364047 0 -0.2085726045565329 -0.4078220142096215 0 -0.2085726045565329 -0.4078220142096215 0 -0.21698213822720461 -0.43284430329106749 0 -0.2268496457778397 -0.40912566888893942 0 -0.2085726045565329 -0.4078220142096215 0 -0.21698213822720461 -0.43284430329106749 0 -0.19303707249135671 -0.43059430015364047 0 -0.2085726045565329 -0.4078220142096215 0 -0.21698213822720461 -0.43284430329106749 0 -0.21698213822720461 -0.43284430329106749 0 -0.22992583861702739 -0.42769779631454868 0 -0.2268496457778397 -0.40912566888893942 0 -0.22173736506345271 -0.43864709963644488 0 -0.22992583861702739 -0.42769779631454868 0 -0.2347235744381061 -0.43699032632131868 0 -0.22173736506345271 -0.43864709963644488 0 -0.21698213822720461 -0.43284430329106749 0 -0.22992583861702739 -0.42769779631454868 0 -0.22992583861702739 -0.42769779631454868 0 -0.2268496457778397 -0.40912566888893942 0 -0.24230037244337599 -0.4175018590364884 0 -0.21698213822720461 -0.43284430329106749 0 -0.2268496457778397 -0.40912566888893942 0 -0.2268496457778397 -0.40912566888893942 0 -0.24230037244337599 -0.4175018590364884 0 -0.2431093376423632 -0.40266188506415568 0 -0.25613810139819221 -0.41434132836670989 0 -0.24230037244337599 -0.4175018590364884 0 -0.2431093376423632 -0.40266188506415568 0 -0.22992583861702739 -0.42769779631454868 0 -0.24230037244337599 -0.4175018590364884 0 -0.24089352108315501 -0.42926230317217479 0 -0.25359928648481211 -0.43037401697981981 0 -0.24230037244337599 -0.4175018590364884 0 -0.24089352108315501 -0.42926230317217479 0 -0.25359928648481211 -0.43037401697981981 0 -0.2438451496940687 -0.43907002470141299 0 -0.24089352108315501 -0.42926230317217479 0 -0.22992583861702739 -0.42769779631454868 0 -0.24089352108315501 -0.42926230317217479 0 -0.2347235744381061 -0.43699032632131868 0 -0.2438451496940687 -0.43907002470141299 0 -0.24089352108315501 -0.42926230317217479 0 -0.2347235744381061 -0.43699032632131868 0 -0.2161772785324636 -0.38269774647594651 0 -0.23219148617906979 -0.38259576782371391 0 -0.22424182443051541 -0.37765757455433779 0 -0.2161772785324636 -0.38269774647594651 0 -0.23219148617906979 -0.38259576782371391 0 -0.22410163367487609 -0.3935296463770066 0 -0.2161772785324636 -0.38269774647594651 0 -0.23219148617906979 -0.38259576782371391 0 -0.23219148617906979 -0.38259576782371391 0 -0.22410163367487609 -0.3935296463770066 0 -0.23671715332847421 -0.38540703448681102 0 -0.23219148617906979 -0.38259576782371391 0 -0.22424182443051541 -0.37765757455433779 0 -0.23334431644894679 -0.37067442711117121 0 -0.23219148617906979 -0.38259576782371391 0 -0.22424182443051541 -0.37765757455433779 0 -0.2268496457778397 -0.40912566888893942 0 -0.23671715332847421 -0.38540703448681102 0 -0.2268496457778397 -0.40912566888893942 0 -0.22410163367487609 -0.3935296463770066 0 -0.23671715332847421 -0.38540703448681102 0 -0.2085726045565329 -0.4078220142096215 0 -0.2268496457778397 -0.40912566888893942 0 -0.22410163367487609 -0.3935296463770066 0 -0.2268496457778397 -0.40912566888893942 0 -0.2431093376423632 -0.40266188506415568 0 -0.23671715332847421 -0.38540703448681102 0 -0.26042294901863672 -0.40013266740365983 0 -0.2431093376423632 -0.40266188506415568 0 -0.23671715332847421 -0.38540703448681102 0 -0.26042294901863672 -0.40013266740365983 0 -0.23671715332847421 -0.38540703448681102 0 -0.25938421221386299 -0.38242260424217978 0 -0.23671715332847421 -0.38540703448681102 0 -0.23790183421053479 -0.38255940426400398 0 -0.25938421221386299 -0.38242260424217978 0 -0.23790183421053479 -0.38255940426400398 0 -0.25938421221386299 -0.38242260424217978 0 -0.23790183421053479 -0.38255940426400398 0 -0.2452998416640946 -0.36477673389921211 0 -0.23219148617906979 -0.38259576782371391 0 -0.23671715332847421 -0.38540703448681102 0 -0.23790183421053479 -0.38255940426400398 0 -0.23219148617906979 -0.38259576782371391 0 -0.23671715332847421 -0.38540703448681102 0 -0.23671715332847421 -0.38540703448681102 0 -0.23790183421053479 -0.38255940426400398 0 -0.23219148617906979 -0.38259576782371391 0 -0.23790183421053479 -0.38255940426400398 0 -0.23334431644894679 -0.37067442711117121 0 -0.23219148617906979 -0.38259576782371391 0 -0.23790183421053479 -0.38255940426400398 0 -0.2452998416640946 -0.36477673389921211 0 -0.23334431644894679 -0.37067442711117121 0 -0.236612272716479 -0.35196393625907768 0 -0.23790183421053479 -0.38255940426400398 0 -0.2452998416640946 -0.36477673389921211 0 -0.23790183421053479 -0.38255940426400398 0 -0.2452998416640946 -0.36477673389921211 0 -0.23334431644894679 -0.37067442711117121 0 -0.22424182443051541 -0.37765757455433779 0 -0.23334431644894679 -0.37067442711117121 0 -0.2233560944082246 -0.363712965125564 0 -0.23334431644894679 -0.37067442711117121 0 -0.2233560944082246 -0.363712965125564 0 -0.236612272716479 -0.35196393625907768 0 -0.22424182443051541 -0.37765757455433779 0 -0.2233560944082246 -0.363712965125564 0 -0.2146411550785581 -0.37365584976636601 0 -0.2233560944082246 -0.363712965125564 0 -0.22090871978274521 -0.34750939462453567 0 -0.236612272716479 -0.35196393625907768 0 -0.25269784911765092 -0.34699406353441858 0 -0.2452998416640946 -0.36477673389921211 0 -0.25269784911765092 -0.34699406353441858 0 -0.2452998416640946 -0.36477673389921211 0 -0.236612272716479 -0.35196393625907768 0 -0.25269784911765092 -0.34699406353441858 0 -0.2601150759189611 -0.3291651954159735 0 -0.2357068878863986 -0.32570661601735368 0 -0.25269784911765092 -0.34699406353441858 0 -0.236612272716479 -0.35196393625907768 0 -0.2357068878863986 -0.32570661601735368 0 -0.25269784911765092 -0.34699406353441858 0 -0.2357068878863986 -0.32570661601735368 0 -0.2601150759189611 -0.3291651954159735 0 -0.2357068878863986 -0.32570661601735368 0 -0.2494260049788683 -0.31746489113439402 0 -0.2357068878863986 -0.32570661601735368 0 -0.2494260049788683 -0.31746489113439402 0 -0.24072416822125611 -0.30184362229434508 0 -0.2357068878863986 -0.32570661601735368 0 -0.2119173650848751 -0.32804843985645959 0 -0.21871592665514519 -0.30441916850028972 0 -0.2357068878863986 -0.32570661601735368 0 -0.21871592665514519 -0.30441916850028972 0 -0.22090871978274521 -0.34750939462453567 0 -0.236612272716479 -0.35196393625907768 0 -0.2357068878863986 -0.32570661601735368 0 -0.22090871978274521 -0.34750939462453567 0 -0.2357068878863986 -0.32570661601735368 0 -0.2119173650848751 -0.32804843985645959 0 -0.22090871978274521 -0.34750939462453567 0 -0.2119173650848751 -0.32804843985645959 0 -0.20038300345158319 -0.34252625431289602 0 -0.2119173650848751 -0.32804843985645959 0 -0.19064882261902269 -0.32209845877770238 0 -0.21871592665514519 -0.30441916850028972 0 -0.2119173650848751 -0.32804843985645959 0 -0.19064882261902269 -0.32209845877770238 0 -0.20038300345158319 -0.34252625431289602 0 -0.19064882261902269 -0.32209845877770238 0 -0.20038300345158319 -0.34252625431289602 0 -0.1786038551756757 -0.34069824763179102 0 -0.20038300345158319 -0.34252625431289602 0 -0.19095175091145111 -0.35539174743908392 0 -0.20926750713572939 -0.36141123754780358 0 -0.20038300345158319 -0.34252625431289602 0 -0.19095175091145111 -0.35539174743908392 0 -0.1786038551756757 -0.34069824763179102 0 -0.20016307088585741 -0.38279972512817662 0 -0.19095175091145111 -0.35539174743908392 0 -0.20926750713572939 -0.36141123754780358 0 -0.17658526827330981 -0.3829498688371939 0 -0.20016307088585741 -0.38279972512817662 0 -0.19095175091145111 -0.35539174743908392 0 -0.20016307088585741 -0.38279972512817662 0 -0.19095175091145111 -0.35539174743908392 0 -0.20016307088585741 -0.38279972512817662 0 -0.20926750713572939 -0.36141123754780358 0 -0.2146411550785581 -0.37365584976636601 0 -0.2233560944082246 -0.363712965125564 0 -0.20926750713572939 -0.36141123754780358 0 -0.2146411550785581 -0.37365584976636601 0 -0.2233560944082246 -0.363712965125564 0 -0.22090871978274521 -0.34750939462453567 0 -0.20926750713572939 -0.36141123754780358 0 -0.22090871978274521 -0.34750939462453567 0 -0.20038300345158319 -0.34252625431289602 0 -0.20926750713572939 -0.36141123754780358 0 -0.23269942211958819 -0.26632599736311829 0 -0.2113475615474098 -0.26183595308539898 0 -0.22937054978906041 -0.24331512362502869 0 -0.2483490975252734 -0.26098873334868322 0 -0.23269942211958819 -0.26632599736311829 0 -0.22937054978906041 -0.24331512362502869 0 -0.2483490975252734 -0.26098873334868322 0 -0.24718685023563691 -0.27875123027958087 0 -0.23269942211958819 -0.26632599736311829 0 -0.24718685023563691 -0.27875123027958087 0 -0.23269942211958819 -0.26632599736311829 0 -0.22621925119092889 -0.28512311723799683 0 -0.23269942211958819 -0.26632599736311829 0 -0.22621925119092889 -0.28512311723799683 0 -0.2113475615474098 -0.26183595308539898 0 -0.24718685023563691 -0.27875123027958087 0 -0.22621925119092889 -0.28512311723799683 0 -0.24072416822125611 -0.30184362229434508 0 -0.25754389589834492 -0.29267207960278718 0 -0.24718685023563691 -0.27875123027958087 0 -0.24072416822125611 -0.30184362229434508 0 -0.25469452373499762 -0.30722313484128749 0 -0.2494260049788683 -0.31746489113439402 0 -0.24072416822125611 -0.30184362229434508 0 -0.22621925119092889 -0.28512311723799683 0 -0.24072416822125611 -0.30184362229434508 0 -0.21871592665514519 -0.30441916850028972 0 -0.2357068878863986 -0.32570661601735368 0 -0.24072416822125611 -0.30184362229434508 0 -0.21871592665514519 -0.30441916850028972 0 -0.21871592665514519 -0.30441916850028972 0 -0.20172496542389179 -0.28313172098322592 0 -0.18547182867621881 -0.29890397395307688 0 -0.19064882261902269 -0.32209845877770238 0 -0.21871592665514519 -0.30441916850028972 0 -0.18547182867621881 -0.29890397395307688 0 -0.20172496542389179 -0.28313172098322592 0 -0.17865973542483601 -0.28159672660659713 0 -0.18547182867621881 -0.29890397395307688 0 -0.22621925119092889 -0.28512311723799683 0 -0.21871592665514519 -0.30441916850028972 0 -0.20172496542389179 -0.28313172098322592 0 -0.21871592665514519 -0.30441916850028972 0 -0.20172496542389179 -0.28313172098322592 0 -0.22621925119092889 -0.28512311723799683 0 -0.20172496542389179 -0.28313172098322592 0 -0.2113475615474098 -0.26183595308539898 0 -0.20172496542389179 -0.28313172098322592 0 -0.2113475615474098 -0.26183595308539898 0 -0.18473400419263841 -0.26184427346616201 0 -0.20172496542389179 -0.28313172098322592 0 -0.18473400419263841 -0.26184427346616201 0 -0.20172496542389179 -0.28313172098322592 0 -0.18473400419263841 -0.26184427346616201 0 -0.17865973542483601 -0.28159672660659713 0 -0.2113475615474098 -0.26183595308539898 0 -0.18473400419263841 -0.26184427346616201 0 -0.1994177047143332 -0.2432145052078287 0 -0.18473400419263841 -0.26184427346616201 0 -0.15229660666407671 -0.25401824511238591 0 -0.16774304296138501 -0.24055682594909811 0 -0.18473400419263841 -0.26184427346616201 0 -0.1593348892574955 -0.27433293932196051 0 -0.15229660666407671 -0.25401824511238591 0 -0.18473400419263841 -0.26184427346616201 0 -0.16774304296138501 -0.24055682594909811 0 -0.18473400419263841 -0.26184427346616201 0 -0.1593348892574955 -0.27433293932196051 0 -0.17865973542483601 -0.28159672660659713 0 -0.1593348892574955 -0.27433293932196051 0 -0.17865973542483601 -0.28159672660659713 0 -0.1628273235241636 -0.29929742573166879 0 -0.17865973542483601 -0.28159672660659713 0 -0.18547182867621881 -0.29890397395307688 0 -0.1628273235241636 -0.29929742573166879 0 -0.18547182867621881 -0.29890397395307688 0 -0.1628273235241636 -0.29929742573166879 0 -0.16388410446163609 -0.32460269768425593 0 -0.1628273235241636 -0.29929742573166879 0 -0.13242221189995379 -0.30543756500551722 0 -0.16388410446163609 -0.32460269768425593 0 -0.13242221189995379 -0.30543756500551722 0 -0.14127367617284931 -0.28459822767558379 0 -0.1188334035936548 -0.28113848219864679 0 -0.1628273235241636 -0.29929742573166879 0 -0.13242221189995379 -0.30543756500551722 0 -0.14127367617284931 -0.28459822767558379 0 -0.1593348892574955 -0.27433293932196051 0 -0.1628273235241636 -0.29929742573166879 0 -0.14127367617284931 -0.28459822767558379 0 -0.1593348892574955 -0.27433293932196051 0 -0.14127367617284931 -0.28459822767558379 0 -0.132950552588979 -0.26278472612012599 0 -0.14127367617284931 -0.28459822767558379 0 -0.132950552588979 -0.26278472612012599 0 -0.1188334035936548 -0.28113848219864679 0 -0.132950552588979 -0.26278472612012599 0 -0.1192340303868117 -0.24478318800158869 0 -0.13450504990001219 -0.2438564190910647 0 -0.132950552588979 -0.26278472612012599 0 -0.15229660666407671 -0.25401824511238591 0 -0.13450504990001219 -0.2438564190910647 0 -0.1593348892574955 -0.27433293932196051 0 -0.132950552588979 -0.26278472612012599 0 -0.15229660666407671 -0.25401824511238591 0 -0.15300746566076209 -0.38310001254620968 0 -0.17658526827330981 -0.3829498688371939 0 -0.16187875486605491 -0.35541355732776547 0 -0.17658526827330981 -0.3829498688371939 0 -0.19095175091145111 -0.35539174743908392 0 -0.16187875486605491 -0.35541355732776547 0 -0.19095175091145111 -0.35539174743908392 0 -0.16187875486605491 -0.35541355732776547 0 -0.1786038551756757 -0.34069824763179102 0 -0.19064882261902269 -0.32209845877770238 0 -0.1786038551756757 -0.34069824763179102 0 -0.16388410446163609 -0.32460269768425593 0 -0.19064882261902269 -0.32209845877770238 0 -0.18547182867621881 -0.29890397395307688 0 -0.16388410446163609 -0.32460269768425593 0 -0.16187875486605491 -0.35541355732776547 0 -0.1786038551756757 -0.34069824763179102 0 -0.16388410446163609 -0.32460269768425593 0 -0.13242221189995379 -0.30543756500551722 0 -0.16388410446163609 -0.32460269768425593 0 -0.13821757510299509 -0.3384513750534191 0 -0.13242221189995379 -0.30543756500551722 0 -0.13821757510299509 -0.3384513750534191 0 -0.1101747460075988 -0.32953608121607292 0 -0.16187875486605491 -0.35541355732776547 0 -0.16388410446163609 -0.32460269768425593 0 -0.13821757510299509 -0.3384513750534191 0 -0.13821757510299509 -0.3384513750534191 0 -0.13644034466196819 -0.36544341997203661 0 -0.1196241940514999 -0.3542658853942362 0 -0.16187875486605491 -0.35541355732776547 0 -0.13821757510299509 -0.3384513750534191 0 -0.13644034466196819 -0.36544341997203661 0 -0.15300746566076209 -0.38310001254620968 0 -0.16187875486605491 -0.35541355732776547 0 -0.13644034466196819 -0.36544341997203661 0 -0.12942966304821441 -0.38325015625522552 0 -0.13644034466196819 -0.36544341997203661 0 -0.1177797586078463 -0.37381446098417098 0 -0.13644034466196819 -0.36544341997203661 0 -0.1177797586078463 -0.37381446098417098 0 -0.1196241940514999 -0.3542658853942362 0 -0.1177797586078463 -0.37381446098417098 0 -0.10407214500130089 -0.36661499140206938 0 -0.1196241940514999 -0.3542658853942362 0 -0.1177797586078463 -0.37381446098417098 0 -0.10407214500130089 -0.36661499140206938 0 -0.1034929330021967 -0.38313049756236911 0 -0.10407214500130089 -0.36661499140206938 0 -0.092143069441117886 -0.37288061806212591 0 -0.1034929330021967 -0.38313049756236911 0 -0.10407214500130089 -0.36661499140206938 0 -0.092143069441117886 -0.37288061806212591 0 -0.090292011953311629 -0.3597231114641114 0 -0.10407214500130089 -0.36661499140206938 0 -0.10297576120334009 -0.35054559799579871 0 -0.1196241940514999 -0.3542658853942362 0 -0.10297576120334009 -0.35054559799579871 0 -0.091874738774876785 -0.34065851114568052 0 -0.090292011953311629 -0.3597231114641114 0 -0.10407214500130089 -0.36661499140206938 0 -0.10297576120334009 -0.35054559799579871 0 -0.090292011953311629 -0.3597231114641114 0 -0.10297576120334009 -0.35054559799579871 0 -0.1196241940514999 -0.3542658853942362 0 -0.1101747460075988 -0.32953608121607292 0 -0.13821757510299509 -0.3384513750534191 0 -0.1196241940514999 -0.3542658853942362 0 -0.1101747460075988 -0.32953608121607292 0 -0.1101747460075988 -0.32953608121607292 0 -0.085227450549862166 -0.32028838060126541 0 -0.10233633129899709 -0.29788694174330338 0 -0.1101747460075988 -0.32953608121607292 0 -0.091874738774876785 -0.34065851114568052 0 -0.085227450549862166 -0.32028838060126541 0 -0.10297576120334009 -0.35054559799579871 0 -0.1101747460075988 -0.32953608121607292 0 -0.091874738774876785 -0.34065851114568052 0 -0.091874738774876785 -0.34065851114568052 0 -0.085227450549862166 -0.32028838060126541 0 -0.076063335717399538 -0.33750887212749098 0 -0.085227450549862166 -0.32028838060126541 0 -0.063011241542060503 -0.32804507108198161 0 -0.072947339386401744 -0.29815403057856332 0 -0.063011241542060503 -0.32804507108198161 0 -0.076063335717399538 -0.33750887212749098 0 -0.056103847272524453 -0.34401699257208418 0 -0.085227450549862166 -0.32028838060126541 0 -0.063011241542060503 -0.32804507108198161 0 -0.076063335717399538 -0.33750887212749098 0 -0.076063335717399538 -0.33750887212749098 0 -0.071250752086046532 -0.35335887697158019 0 -0.056103847272524453 -0.34401699257208418 0 -0.071250752086046532 -0.35335887697158019 0 -0.076899216694667677 -0.36865863427987439 0 -0.059008804616476777 -0.3736816009534113 0 -0.071250752086046532 -0.35335887697158019 0 -0.076899216694667677 -0.36865863427987439 0 -0.090292011953311629 -0.3597231114641114 0 -0.076899216694667677 -0.36865863427987439 0 -0.092143069441117886 -0.37288061806212591 0 -0.090292011953311629 -0.3597231114641114 0 -0.091874738774876785 -0.34065851114568052 0 -0.071250752086046532 -0.35335887697158019 0 -0.090292011953311629 -0.3597231114641114 0 -0.091874738774876785 -0.34065851114568052 0 -0.076063335717399538 -0.33750887212749098 0 -0.071250752086046532 -0.35335887697158019 0 -0.10928029933534041 -0.25911330461652088 0 -0.093765691765433312 -0.25258281812082478 0 -0.1064059993424292 -0.23999004584722569 0 -0.10928029933534041 -0.25911330461652088 0 -0.093765691765433312 -0.25258281812082478 0 -0.091378819945462819 -0.27405960529517892 0 -0.132950552588979 -0.26278472612012599 0 -0.10928029933534041 -0.25911330461652088 0 -0.1192340303868117 -0.24478318800158869 0 -0.132950552588979 -0.26278472612012599 0 -0.10928029933534041 -0.25911330461652088 0 -0.1188334035936548 -0.28113848219864679 0 -0.10928029933534041 -0.25911330461652088 0 -0.1188334035936548 -0.28113848219864679 0 -0.091378819945462819 -0.27405960529517892 0 -0.13242221189995379 -0.30543756500551722 0 -0.1101747460075988 -0.32953608121607292 0 -0.10233633129899709 -0.29788694174330338 0 -0.1188334035936548 -0.28113848219864679 0 -0.10233633129899709 -0.29788694174330338 0 -0.091378819945462819 -0.27405960529517892 0 -0.13242221189995379 -0.30543756500551722 0 -0.1188334035936548 -0.28113848219864679 0 -0.10233633129899709 -0.29788694174330338 0 -0.085227450549862166 -0.32028838060126541 0 -0.10233633129899709 -0.29788694174330338 0 -0.072947339386401744 -0.29815403057856332 0 -0.10233633129899709 -0.29788694174330338 0 -0.072947339386401744 -0.29815403057856332 0 -0.072947339386401744 -0.29815403057856332 0 -0.068721828444096633 -0.2698787542887045 0 -0.051386271478722378 -0.27925540101153468 0 -0.10233633129899709 -0.29788694174330338 0 -0.072947339386401744 -0.29815403057856332 0 -0.091378819945462819 -0.27405960529517892 0 -0.091378819945462819 -0.27405960529517892 0 -0.068721828444096633 -0.2698787542887045 0 -0.079465288233698042 -0.25846821731041458 0 -0.072947339386401744 -0.29815403057856332 0 -0.091378819945462819 -0.27405960529517892 0 -0.068721828444096633 -0.2698787542887045 0 -0.068721828444096633 -0.2698787542887045 0 -0.065421878849430556 -0.25167039592025259 0 -0.079465288233698042 -0.25846821731041458 0 -0.093765691765433312 -0.25258281812082478 0 -0.091378819945462819 -0.27405960529517892 0 -0.079465288233698042 -0.25846821731041458 0 -0.093765691765433312 -0.25258281812082478 0 -0.079465288233698042 -0.25846821731041458 0 -0.078278243085297239 -0.23951664672932549 0 -0.036856198389287782 -0.25899730250271491 0 -0.027326811110253871 -0.25121816526868662 0 -0.040785035177160277 -0.24958968680164759 0 -0.036856198389287782 -0.25899730250271491 0 -0.03708476385319625 -0.2699613192856723 0 -0.027769846617742091 -0.26444130564156609 0 -0.036856198389287782 -0.25899730250271491 0 -0.051314535188086402 -0.25977603551600209 0 -0.03708476385319625 -0.2699613192856723 0 -0.036856198389287782 -0.25899730250271491 0 -0.051314535188086402 -0.25977603551600209 0 -0.040785035177160277 -0.24958968680164759 0 -0.051314535188086402 -0.25977603551600209 0 -0.052406799216804557 -0.24459198769464191 0 -0.040785035177160277 -0.24958968680164759 0 -0.068721828444096633 -0.2698787542887045 0 -0.065421878849430556 -0.25167039592025259 0 -0.051314535188086402 -0.25977603551600209 0 -0.065421878849430556 -0.25167039592025259 0 -0.051314535188086402 -0.25977603551600209 0 -0.052406799216804557 -0.24459198769464191 0 -0.068721828444096633 -0.2698787542887045 0 -0.051314535188086402 -0.25977603551600209 0 -0.051386271478722378 -0.27925540101153468 0 -0.051386271478722378 -0.27925540101153468 0 -0.03708476385319625 -0.2699613192856723 0 -0.030508603843899348 -0.2838920637904252 0 -0.051314535188086402 -0.25977603551600209 0 -0.051386271478722378 -0.27925540101153468 0 -0.03708476385319625 -0.2699613192856723 0 -0.051386271478722378 -0.27925540101153468 0 -0.043558347473806387 -0.2984211194138231 0 -0.030508603843899348 -0.2838920637904252 0 -0.072947339386401744 -0.29815403057856332 0 -0.051386271478722378 -0.27925540101153468 0 -0.043558347473806387 -0.2984211194138231 0 -0.072947339386401744 -0.29815403057856332 0 -0.043558347473806387 -0.2984211194138231 0 -0.072947339386401744 -0.29815403057856332 0 -0.043558347473806387 -0.2984211194138231 0 -0.051420852876661483 -0.31380047181538612 0 -0.043558347473806387 -0.2984211194138231 0 -0.051420852876661483 -0.31380047181538612 0 -0.030582351458593698 -0.31403506648659951 0 -0.014169355561211039 -0.29868820824908299 0 -0.030582351458593698 -0.31403506648659951 0 -0.0093546214437348063 -0.3154421594820554 0 -0.043558347473806387 -0.2984211194138231 0 -0.014169355561211039 -0.29868820824908299 0 -0.030582351458593698 -0.31403506648659951 0 -0.043558347473806387 -0.2984211194138231 0 -0.014169355561211039 -0.29868820824908299 0 -0.014169355561211039 -0.29868820824908299 0 -0.0093546214437348063 -0.3154421594820554 0 0.0025702240157044749 -0.30194718224499639 0 -0.014169355561211039 -0.29868820824908299 0 0.0025702240157044749 -0.30194718224499639 0 0.001953977901653102 -0.28749824366549498 0 -0.014169355561211039 -0.29868820824908299 0 -0.01355692824822796 -0.28271954505438091 0 0.001953977901653102 -0.28749824366549498 0 -0.01355692824822796 -0.28271954505438091 0 -0.002131649244152236 -0.27375645946249172 0 0.001953977901653102 -0.28749824366549498 0 -0.014169355561211039 -0.29868820824908299 0 -0.01355692824822796 -0.28271954505438091 0 -0.030508603843899348 -0.2838920637904252 0 -0.043558347473806387 -0.2984211194138231 0 -0.014169355561211039 -0.29868820824908299 0 -0.030508603843899348 -0.2838920637904252 0 -0.01355692824822796 -0.28271954505438091 0 -0.030508603843899348 -0.2838920637904252 0 -0.0232959564482321 -0.27430678972805739 0 -0.03708476385319625 -0.2699613192856723 0 -0.030508603843899348 -0.2838920637904252 0 -0.0232959564482321 -0.27430678972805739 0 -0.03708476385319625 -0.2699613192856723 0 -0.0232959564482321 -0.27430678972805739 0 -0.027769846617742091 -0.26444130564156609 0 -0.0232959564482321 -0.27430678972805739 0 -0.01453475649827142 -0.26699160201657218 0 -0.027769846617742091 -0.26444130564156609 0 -0.0232959564482321 -0.27430678972805739 0 -0.01264771782334753 -0.27382178896806042 0 -0.01453475649827142 -0.26699160201657218 0 -0.01355692824822796 -0.28271954505438091 0 -0.0232959564482321 -0.27430678972805739 0 -0.01264771782334753 -0.27382178896806042 0 -0.01355692824822796 -0.28271954505438091 0 -0.01264771782334753 -0.27382178896806042 0 -0.002131649244152236 -0.27375645946249172 0 -0.002131649244152236 -0.27375645946249172 0 -0.0028944004114581372 -0.26277522582270341 0 0.0049597396345670026 -0.26452376434945218 0 -0.002131649244152236 -0.27375645946249172 0 -0.0081433199175628083 -0.26887389345264789 0 -0.0028944004114581372 -0.26277522582270341 0 -0.01264771782334753 -0.27382178896806042 0 -0.002131649244152236 -0.27375645946249172 0 -0.0081433199175628083 -0.26887389345264789 0 -0.01264771782334753 -0.27382178896806042 0 -0.0081433199175628083 -0.26887389345264789 0 -0.01453475649827142 -0.26699160201657218 0 -0.0081433199175628083 -0.26887389345264789 0 -0.01453475649827142 -0.26699160201657218 0 -0.012379740604400009 -0.25371681360357518 0 -0.0081433199175628083 -0.26887389345264789 0 -0.012379740604400009 -0.25371681360357518 0 -0.0081433199175628083 -0.26887389345264789 0 -0.0050603712554523096 -0.25502580822232418 0 -0.012379740604400009 -0.25371681360357518 0 -0.0081433199175628083 -0.26887389345264789 0 -0.0028944004114581372 -0.26277522582270341 0 -0.0050603712554523096 -0.25502580822232418 0 -0.0028944004114581372 -0.26277522582270341 0 -0.0050603712554523096 -0.25502580822232418 0 0.0049597396345670026 -0.26452376434945218 0 -0.0050603712554523096 -0.25502580822232418 0 -0.012379740604400009 -0.25371681360357518 0 -0.01487672558591642 -0.24478309253466149 0 -0.01453475649827142 -0.26699160201657218 0 -0.027326811110253871 -0.25121816526868662 0 -0.01453475649827142 -0.26699160201657218 0 -0.027769846617742091 -0.26444130564156609 0 -0.027326811110253871 -0.25121816526868662 0 -0.01453475649827142 -0.26699160201657218 0 -0.012379740604400009 -0.25371681360357518 0 -0.027326811110253871 -0.25121816526868662 0 -0.036856198389287782 -0.25899730250271491 0 -0.027769846617742091 -0.26444130564156609 0 -0.027326811110253871 -0.25121816526868662 0 -0.039399855887372083 -0.348894598899534 0 -0.034096369460313788 -0.36339656310703322 0 -0.051971925864546728 -0.35666972650072859 0 -0.039399855887372083 -0.348894598899534 0 -0.034096369460313788 -0.36339656310703322 0 -0.026210886027733249 -0.34369915139989571 0 -0.039399855887372083 -0.348894598899534 0 -0.034096369460313788 -0.36339656310703322 0 -0.034096369460313788 -0.36339656310703322 0 -0.059008804616476777 -0.3736816009534113 0 -0.034096369460313788 -0.36339656310703322 0 -0.059008804616476777 -0.3736816009534113 0 -0.054792379857709787 -0.38521108099946061 0 -0.071250752086046532 -0.35335887697158019 0 -0.059008804616476777 -0.3736816009534113 0 -0.051971925864546728 -0.35666972650072859 0 -0.034096369460313788 -0.36339656310703322 0 -0.059008804616476777 -0.3736816009534113 0 -0.051971925864546728 -0.35666972650072859 0 -0.039399855887372083 -0.348894598899534 0 -0.056103847272524453 -0.34401699257208418 0 -0.051971925864546728 -0.35666972650072859 0 -0.071250752086046532 -0.35335887697158019 0 -0.056103847272524453 -0.34401699257208418 0 -0.051971925864546728 -0.35666972650072859 0 -0.063011241542060503 -0.32804507108198161 0 -0.056103847272524453 -0.34401699257208418 0 -0.04119870814000013 -0.33100814093665459 0 -0.063011241542060503 -0.32804507108198161 0 -0.072947339386401744 -0.29815403057856332 0 -0.051420852876661483 -0.31380047181538612 0 -0.063011241542060503 -0.32804507108198161 0 -0.051420852876661483 -0.31380047181538612 0 -0.04119870814000013 -0.33100814093665459 0 -0.04119870814000013 -0.33100814093665459 0 -0.030582351458593698 -0.31403506648659951 0 -0.022582582343139011 -0.32698802181857289 0 -0.051420852876661483 -0.31380047181538612 0 -0.04119870814000013 -0.33100814093665459 0 -0.030582351458593698 -0.31403506648659951 0 -0.039399855887372083 -0.348894598899534 0 -0.04119870814000013 -0.33100814093665459 0 -0.026210886027733249 -0.34369915139989571 0 -0.039399855887372083 -0.348894598899534 0 -0.056103847272524453 -0.34401699257208418 0 -0.04119870814000013 -0.33100814093665459 0 -0.04119870814000013 -0.33100814093665459 0 -0.026210886027733249 -0.34369915139989571 0 -0.022582582343139011 -0.32698802181857289 0 -0.026210886027733249 -0.34369915139989571 0 -0.022582582343139011 -0.32698802181857289 0 -0.008605873932596356 -0.33624452634938418 0 -0.030582351458593698 -0.31403506648659951 0 -0.022582582343139011 -0.32698802181857289 0 -0.0093546214437348063 -0.3154421594820554 0 -0.022582582343139011 -0.32698802181857289 0 -0.0093546214437348063 -0.3154421594820554 0 -0.008605873932596356 -0.33624452634938418 0 -0.0093546214437348063 -0.3154421594820554 0 -0.008605873932596356 -0.33624452634938418 0 0.0035141492887302548 -0.32519051246028208 0 -0.0019921573348008 -0.35014241775074068 0 -0.018044263397557131 -0.35676949042888739 0 -0.0042332821090469977 -0.36931681778231101 0 -0.0019921573348008 -0.35014241775074068 0 -0.018044263397557131 -0.35676949042888739 0 -0.008605873932596356 -0.33624452634938418 0 -0.0019921573348008 -0.35014241775074068 0 -0.018044263397557131 -0.35676949042888739 0 -0.026210886027733249 -0.34369915139989571 0 -0.008605873932596356 -0.33624452634938418 0 -0.018044263397557131 -0.35676949042888739 0 -0.034096369460313788 -0.36339656310703322 0 -0.026210886027733249 -0.34369915139989571 0 -0.018044263397557131 -0.35676949042888739 0 -0.034096369460313788 -0.36339656310703322 0 -0.018044263397557131 -0.35676949042888739 0 -0.034096369460313788 -0.36339656310703322 0 -0.018686911073243041 -0.37245057318461761 0 -0.025663519942779139 -0.38645552319913151 0 -0.034096369460313788 -0.36339656310703322 0 -0.025663519942779139 -0.38645552319913151 0 -0.034096369460313788 -0.36339656310703322 0 -0.018044263397557131 -0.35676949042888739 0 -0.018686911073243041 -0.37245057318461761 0 -0.018044263397557131 -0.35676949042888739 0 -0.018686911073243041 -0.37245057318461761 0 -0.0042332821090469977 -0.36931681778231101 0 -0.0042332821090469977 -0.36931681778231101 0 -0.0014384839491562609 -0.38294108750953337 0 -0.01293018069981793 -0.38699951650140929 0 -0.018686911073243041 -0.37245057318461761 0 -0.0042332821090469977 -0.36931681778231101 0 -0.01293018069981793 -0.38699951650140929 0 -0.0014384839491562609 -0.38294108750953337 0 -0.01063129593948554 -0.39508981091663592 0 0.011472045166716269 -0.38952867199447438 0 -0.0014384839491562609 -0.38294108750953337 0 -0.01293018069981793 -0.38699951650140929 0 -0.01063129593948554 -0.39508981091663592 0 -0.01063129593948554 -0.39508981091663592 0 -0.0091670491733258502 -0.407137417147723 0 0.011472045166716269 -0.38952867199447438 0 -0.01063129593948554 -0.39508981091663592 0 -0.018873559194732051 -0.4050221338792524 0 -0.0091670491733258502 -0.407137417147723 0 -0.018873559194732051 -0.4050221338792524 0 -0.02836285586948685 -0.40056267234101323 0 -0.025663519942779139 -0.38645552319913151 0 -0.018873559194732051 -0.4050221338792524 0 -0.025663519942779139 -0.38645552319913151 0 -0.01063129593948554 -0.39508981091663592 0 -0.018873559194732051 -0.4050221338792524 0 -0.025663519942779139 -0.38645552319913151 0 -0.018873559194732051 -0.4050221338792524 0 -0.02836285586948685 -0.40056267234101323 0 -0.030977517198131951 -0.41001184184548872 0 -0.018686911073243041 -0.37245057318461761 0 -0.01293018069981793 -0.38699951650140929 0 -0.025663519942779139 -0.38645552319913151 0 -0.01293018069981793 -0.38699951650140929 0 -0.01063129593948554 -0.39508981091663592 0 -0.025663519942779139 -0.38645552319913151 0 -0.01293018069981793 -0.38699951650140929 0 -0.025663519942779139 -0.38645552319913151 0 -0.025663519942779139 -0.38645552319913151 0 -0.054792379857709787 -0.38521108099946061 0 -0.034096369460313788 -0.36339656310703322 0 -0.025663519942779139 -0.38645552319913151 0 -0.054792379857709787 -0.38521108099946061 0 -0.025663519942779139 -0.38645552319913151 0 -0.040378871001035203 -0.4023619242499753 0 -0.054792379857709787 -0.38521108099946061 0 -0.02836285586948685 -0.40056267234101323 0 -0.025663519942779139 -0.38645552319913151 0 -0.040378871001035203 -0.4023619242499753 0 -0.02836285586948685 -0.40056267234101323 0 -0.040378871001035203 -0.4023619242499753 0 -0.030977517198131951 -0.41001184184548872 0 -0.054792379857709787 -0.38521108099946061 0 -0.059825167014939118 -0.40722915412089022 0 -0.072775681732521871 -0.39584784537067902 0 -0.040378871001035203 -0.4023619242499753 0 -0.054792379857709787 -0.38521108099946061 0 -0.059825167014939118 -0.40722915412089022 0 -0.042229656958243142 -0.42347410177567479 0 -0.050515785400197619 -0.44529677996352279 0 -0.072027503688391378 -0.4304363902392051 0 -0.040378871001035203 -0.4023619242499753 0 -0.059825167014939118 -0.40722915412089022 0 -0.042229656958243142 -0.42347410177567479 0 -0.059825167014939118 -0.40722915412089022 0 -0.042229656958243142 -0.42347410177567479 0 -0.072027503688391378 -0.4304363902392051 0 -0.040378871001035203 -0.4023619242499753 0 -0.042229656958243142 -0.42347410177567479 0 -0.030977517198131951 -0.41001184184548872 0 -0.042229656958243142 -0.42347410177567479 0 -0.030977517198131951 -0.41001184184548872 0 -0.025042642967162548 -0.41863837698152778 0 -0.042229656958243142 -0.42347410177567479 0 -0.02466563579619491 -0.43258924065094212 0 -0.036391946892689743 -0.43794750258320281 0 -0.042229656958243142 -0.42347410177567479 0 -0.036391946892689743 -0.43794750258320281 0 -0.050515785400197619 -0.44529677996352279 0 -0.042229656958243142 -0.42347410177567479 0 -0.02466563579619491 -0.43258924065094212 0 -0.025042642967162548 -0.41863837698152778 0 -0.02466563579619491 -0.43258924065094212 0 -0.01208359844668536 -0.42358874455937362 0 -0.01135633175650611 -0.44080857306714882 0 -0.02466563579619491 -0.43258924065094212 0 -0.025042642967162548 -0.41863837698152778 0 -0.01208359844668536 -0.42358874455937362 0 -0.018873559194732051 -0.4050221338792524 0 -0.025042642967162548 -0.41863837698152778 0 -0.01208359844668536 -0.42358874455937362 0 -0.018873559194732051 -0.4050221338792524 0 -0.030977517198131951 -0.41001184184548872 0 -0.025042642967162548 -0.41863837698152778 0 -0.0091670491733258502 -0.407137417147723 0 -0.01208359844668536 -0.42358874455937362 0 0.0037810136158822729 -0.41791708709875131 0 -0.018873559194732051 -0.4050221338792524 0 -0.01208359844668536 -0.42358874455937362 0 -0.018873559194732051 -0.4050221338792524 0 -0.0091670491733258502 -0.407137417147723 0 -0.01208359844668536 -0.42358874455937362 0 -0.0091670491733258502 -0.407137417147723 0 0.005108664055598287 -0.40528738143041459 0 0.0037810136158822729 -0.41791708709875131 0 -0.01208359844668536 -0.42358874455937362 0 -0.01135633175650611 -0.44080857306714882 0 0.00079488181500260609 -0.42987501851034571 0 -0.01208359844668536 -0.42358874455937362 0 0.0037810136158822729 -0.41791708709875131 0 0.00079488181500260609 -0.42987501851034571 0 -0.01135633175650611 -0.44080857306714882 0 -0.0057475739345891896 -0.4549207533069245 0 -0.026821380350943221 -0.45052187300253432 0 -0.01135633175650611 -0.44080857306714882 0 -0.0057475739345891896 -0.4549207533069245 0 0.0068165806591294316 -0.44348526320397952 0 -0.01135633175650611 -0.44080857306714882 0 0.00079488181500260609 -0.42987501851034571 0 0.0068165806591294316 -0.44348526320397952 0 -0.0057475739345891896 -0.4549207533069245 0 -0.01053281578453142 -0.47284051234843588 0 0.013156077559905371 -0.46694754491252372 0 -0.0057475739345891896 -0.4549207533069245 0 -0.026821380350943221 -0.45052187300253432 0 -0.01053281578453142 -0.47284051234843588 0 -0.026821380350943221 -0.45052187300253432 0 -0.01053281578453142 -0.47284051234843588 0 -0.034221709128968207 -0.47873347978434821 0 -0.02466563579619491 -0.43258924065094212 0 -0.026821380350943221 -0.45052187300253432 0 -0.036391946892689743 -0.43794750258320281 0 -0.02466563579619491 -0.43258924065094212 0 -0.01135633175650611 -0.44080857306714882 0 -0.026821380350943221 -0.45052187300253432 0 -0.01053281578453142 -0.47284051234843588 0 -0.021528721160628209 -0.5 0 0.0082051736105589468 -0.5 0 -0.01053281578453142 -0.47284051234843588 0 -0.034221709128968207 -0.47873347978434821 0 -0.01053281578453142 -0.47284051234843588 0 -0.021528721160628209 -0.5 0 -0.034221709128968207 -0.47873347978434821 0 -0.021528721160628209 -0.5 0 -0.034221709128968207 -0.47873347978434821 0 -0.051262615931815303 -0.5 0 -0.059523740010860512 -0.4805696461841214 0 -0.046928985533113317 -0.46386793679958732 0 -0.064864185923778739 -0.46315270411222448 0 -0.034221709128968207 -0.47873347978434821 0 -0.059523740010860512 -0.4805696461841214 0 -0.046928985533113317 -0.46386793679958732 0 -0.034221709128968207 -0.47873347978434821 0 -0.059523740010860512 -0.4805696461841214 0 -0.051262615931815303 -0.5 0 -0.026821380350943221 -0.45052187300253432 0 -0.036391946892689743 -0.43794750258320281 0 -0.050515785400197619 -0.44529677996352279 0 -0.026821380350943221 -0.45052187300253432 0 -0.034221709128968207 -0.47873347978434821 0 -0.046928985533113317 -0.46386793679958732 0 -0.026821380350943221 -0.45052187300253432 0 -0.046928985533113317 -0.46386793679958732 0 -0.050515785400197619 -0.44529677996352279 0 -0.046928985533113317 -0.46386793679958732 0 -0.050515785400197619 -0.44529677996352279 0 -0.064864185923778739 -0.46315270411222448 0 -0.050515785400197619 -0.44529677996352279 0 -0.067207280617084753 -0.44732106669938188 0 -0.064864185923778739 -0.46315270411222448 0 -0.050515785400197619 -0.44529677996352279 0 -0.067207280617084753 -0.44732106669938188 0 -0.072027503688391378 -0.4304363902392051 0 -0.067207280617084753 -0.44732106669938188 0 -0.082815891533118816 -0.45534181676778152 0 -0.072027503688391378 -0.4304363902392051 0 -0.067207280617084753 -0.44732106669938188 0 -0.064864185923778739 -0.46315270411222448 0 -0.082815891533118816 -0.45534181676778152 0 -0.064864185923778739 -0.46315270411222448 0 -0.082815891533118816 -0.45534181676778152 0 -0.078868432844485067 -0.47766375640856817 0 -0.082815891533118816 -0.45534181676778152 0 -0.098405376953540707 -0.43777035074814158 0 -0.072027503688391378 -0.4304363902392051 0 -0.059523740010860512 -0.4805696461841214 0 -0.078868432844485067 -0.47766375640856817 0 -0.080996510703002414 -0.50000000000000011 0 -0.059523740010860512 -0.4805696461841214 0 -0.051262615931815303 -0.5 0 -0.080996510703002414 -0.50000000000000011 0 -0.059523740010860512 -0.4805696461841214 0 -0.064864185923778739 -0.46315270411222448 0 -0.078868432844485067 -0.47766375640856817 0 -0.082815891533118816 -0.45534181676778152 0 -0.078868432844485067 -0.47766375640856817 0 -0.097649384782090676 -0.47348966161849648 0 -0.078868432844485067 -0.47766375640856817 0 -0.091101191517426794 -0.4855812854125191 0 -0.097649384782090676 -0.47348966161849648 0 -0.080996510703002414 -0.50000000000000011 0 -0.091101191517426794 -0.4855812854125191 0 -0.106890437740129 -0.49117172362301192 0 -0.078868432844485067 -0.47766375640856817 0 -0.080996510703002414 -0.50000000000000011 0 -0.091101191517426794 -0.4855812854125191 0 -0.080996510703002414 -0.50000000000000011 0 -0.106890437740129 -0.49117172362301192 0 -0.080996510703002414 -0.50000000000000011 0 -0.1052795491262605 -0.5 0 -0.106890437740129 -0.49117172362301192 0 -0.091101191517426794 -0.4855812854125191 0 -0.106890437740129 -0.49117172362301192 0 -0.097649384782090676 -0.47348966161849648 0 -0.106890437740129 -0.49117172362301192 0 -0.097649384782090676 -0.47348966161849648 0 -0.1161667412357628 -0.47599129326682099 0 -0.097649384782090676 -0.47348966161849648 0 -0.1161667412357628 -0.47599129326682099 0 -0.11918173836773351 -0.45845832247928869 0 -0.13278436477725561 -0.4823434472460234 0 -0.106890437740129 -0.49117172362301192 0 -0.1161667412357628 -0.47599129326682099 0 -0.13278436477725561 -0.4823434472460234 0 -0.12956258754951869 -0.5 0 -0.106890437740129 -0.49117172362301192 0 -0.12956258754951869 -0.5 0 -0.1052795491262605 -0.5 0 -0.106890437740129 -0.49117172362301192 0 -0.13278436477725561 -0.4823434472460234 0 -0.106890437740129 -0.49117172362301192 0 -0.098405376953540707 -0.43777035074814158 0 -0.1032934630365307 -0.45295297384024952 0 -0.1184149235461696 -0.43970471758753887 0 -0.082815891533118816 -0.45534181676778152 0 -0.098405376953540707 -0.43777035074814158 0 -0.1032934630365307 -0.45295297384024952 0 -0.082815891533118816 -0.45534181676778152 0 -0.097649384782090676 -0.47348966161849648 0 -0.1032934630365307 -0.45295297384024952 0 -0.097649384782090676 -0.47348966161849648 0 -0.11918173836773351 -0.45845832247928869 0 -0.097649384782090676 -0.47348966161849648 0 -0.1032934630365307 -0.45295297384024952 0 -0.11918173836773351 -0.45845832247928869 0 -0.1272556728232932 -0.47013049556587211 0 -0.1161667412357628 -0.47599129326682099 0 -0.11918173836773351 -0.45845832247928869 0 -0.1032934630365307 -0.45295297384024952 0 -0.11918173836773351 -0.45845832247928869 0 -0.1184149235461696 -0.43970471758753887 0 -0.13370262722300191 -0.42485153358840111 0 -0.1184149235461696 -0.43970471758753887 0 -0.116306788879599 -0.41668109890019722 0 -0.098405376953540707 -0.43777035074814158 0 -0.1184149235461696 -0.43970471758753887 0 -0.116306788879599 -0.41668109890019722 0 -0.098405376953540707 -0.43777035074814158 0 -0.097023176649951706 -0.41709708103231641 0 -0.116306788879599 -0.41668109890019722 0 -0.097023176649951706 -0.41709708103231641 0 -0.116306788879599 -0.41668109890019722 0 -0.1080069522975812 -0.4033851446609884 0 -0.097023176649951706 -0.41709708103231641 0 -0.1080069522975812 -0.4033851446609884 0 -0.093849536080233595 -0.40171885712620059 0 -0.116306788879599 -0.41668109890019722 0 -0.1246151037146196 -0.40215144471962733 0 -0.1080069522975812 -0.4033851446609884 0 -0.13370262722300191 -0.42485153358840111 0 -0.116306788879599 -0.41668109890019722 0 -0.1246151037146196 -0.40215144471962733 0 -0.12942966304821441 -0.38325015625522552 0 -0.1246151037146196 -0.40215144471962733 0 -0.11435095473318441 -0.38971939249289739 0 -0.1246151037146196 -0.40215144471962733 0 -0.11435095473318441 -0.38971939249289739 0 -0.1080069522975812 -0.4033851446609884 0 -0.12942966304821441 -0.38325015625522552 0 -0.1177797586078463 -0.37381446098417098 0 -0.11435095473318441 -0.38971939249289739 0 -0.1177797586078463 -0.37381446098417098 0 -0.11435095473318441 -0.38971939249289739 0 -0.1034929330021967 -0.38313049756236911 0 -0.1034929330021967 -0.38313049756236911 0 -0.09434009405236482 -0.38826803727453157 0 -0.083921239772640238 -0.38396663879978871 0 -0.11435095473318441 -0.38971939249289739 0 -0.1034929330021967 -0.38313049756236911 0 -0.1028080940331122 -0.39324438582339738 0 -0.1034929330021967 -0.38313049756236911 0 -0.09434009405236482 -0.38826803727453157 0 -0.1028080940331122 -0.39324438582339738 0 -0.11435095473318441 -0.38971939249289739 0 -0.1080069522975812 -0.4033851446609884 0 -0.1028080940331122 -0.39324438582339738 0 -0.09434009405236482 -0.38826803727453157 0 -0.1028080940331122 -0.39324438582339738 0 -0.093849536080233595 -0.40171885712620059 0 -0.1080069522975812 -0.4033851446609884 0 -0.1028080940331122 -0.39324438582339738 0 -0.093849536080233595 -0.40171885712620059 0 -0.093849536080233595 -0.40171885712620059 0 -0.084931705096709012 -0.39557720875243713 0 -0.079771973845784508 -0.40808466519098552 0 -0.09434009405236482 -0.38826803727453157 0 -0.093849536080233595 -0.40171885712620059 0 -0.084931705096709012 -0.39557720875243713 0 -0.084931705096709012 -0.39557720875243713 0 -0.083921239772640238 -0.38396663879978871 0 -0.072775681732521871 -0.39584784537067902 0 -0.084931705096709012 -0.39557720875243713 0 -0.072775681732521871 -0.39584784537067902 0 -0.079771973845784508 -0.40808466519098552 0 -0.1034929330021967 -0.38313049756236911 0 -0.083921239772640238 -0.38396663879978871 0 -0.092143069441117886 -0.37288061806212591 0 -0.1034929330021967 -0.38313049756236911 0 -0.083921239772640238 -0.38396663879978871 0 -0.09434009405236482 -0.38826803727453157 0 -0.083921239772640238 -0.38396663879978871 0 -0.09434009405236482 -0.38826803727453157 0 -0.084931705096709012 -0.39557720875243713 0 -0.083921239772640238 -0.38396663879978871 0 -0.076899216694667677 -0.36865863427987439 0 -0.092143069441117886 -0.37288061806212591 0 -0.083921239772640238 -0.38396663879978871 0 -0.076899216694667677 -0.36865863427987439 0 -0.059008804616476777 -0.3736816009534113 0 -0.083921239772640238 -0.38396663879978871 0 -0.059008804616476777 -0.3736816009534113 0 -0.054792379857709787 -0.38521108099946061 0 -0.083921239772640238 -0.38396663879978871 0 -0.054792379857709787 -0.38521108099946061 0 -0.083921239772640238 -0.38396663879978871 0 -0.054792379857709787 -0.38521108099946061 0 -0.083921239772640238 -0.38396663879978871 0 -0.072775681732521871 -0.39584784537067902 0 -0.059008804616476777 -0.3736816009534113 0 -0.083921239772640238 -0.38396663879978871 0 -0.059825167014939118 -0.40722915412089022 0 -0.072775681732521871 -0.39584784537067902 0 -0.079771973845784508 -0.40808466519098552 0 -0.059825167014939118 -0.40722915412089022 0 -0.072027503688391378 -0.4304363902392051 0 -0.079771973845784508 -0.40808466519098552 0 -0.098405376953540707 -0.43777035074814158 0 -0.097023176649951706 -0.41709708103231641 0 -0.072027503688391378 -0.4304363902392051 0 -0.097023176649951706 -0.41709708103231641 0 -0.072027503688391378 -0.4304363902392051 0 -0.079771973845784508 -0.40808466519098552 0 -0.097023176649951706 -0.41709708103231641 0 -0.093849536080233595 -0.40171885712620059 0 -0.079771973845784508 -0.40808466519098552 0 -0.080332479827855185 -0.089132189148723034 0 -0.087659787804267197 -0.1053579589647711 0 -0.098653139325870498 -0.078072759780639212 0 -0.080332479827855185 -0.089132189148723034 0 -0.08392236851191634 -0.073343044769479643 0 -0.098653139325870498 -0.078072759780639212 0 -0.087659787804267197 -0.1053579589647711 0 -0.098653139325870498 -0.078072759780639212 0 -0.093078549589984544 -0.062615985124124363 0 -0.08392236851191634 -0.073343044769479643 0 -0.074194079442307964 -0.055813170303027348 0 -0.093078549589984544 -0.062615985124124363 0 -0.08392236851191634 -0.073343044769479643 0 -0.098653139325870498 -0.078072759780639212 0 -0.069502852475768331 -0.077808897141633637 0 -0.074194079442307964 -0.055813170303027348 0 -0.056896828677456698 -0.064957726782933892 0 -0.08392236851191634 -0.073343044769479643 0 -0.069502852475768331 -0.077808897141633637 0 -0.074194079442307964 -0.055813170303027348 0 -0.069502852475768331 -0.077808897141633637 0 -0.074194079442307964 -0.055813170303027348 0 -0.080332479827855185 -0.089132189148723034 0 -0.08392236851191634 -0.073343044769479643 0 -0.069502852475768331 -0.077808897141633637 0 -0.080332479827855185 -0.089132189148723034 0 -0.069502852475768331 -0.077808897141633637 0 -0.064978262980951509 -0.095744309556548293 0 -0.069502852475768331 -0.077808897141633637 0 -0.064978262980951509 -0.095744309556548293 0 -0.053466751150831528 -0.085728027791416223 0 -0.064978262980951509 -0.095744309556548293 0 -0.069413139924847295 -0.1120169614824971 0 -0.055973796613101583 -0.11154457769597879 0 -0.064978262980951509 -0.095744309556548293 0 -0.075595917634480286 -0.1005628547881349 0 -0.069413139924847295 -0.1120169614824971 0 -0.075595917634480286 -0.1005628547881349 0 -0.069413139924847295 -0.1120169614824971 0 -0.087659787804267197 -0.1053579589647711 0 -0.080332479827855185 -0.089132189148723034 0 -0.064978262980951509 -0.095744309556548293 0 -0.075595917634480286 -0.1005628547881349 0 -0.069413139924847295 -0.1120169614824971 0 -0.072499038737136423 -0.12336773177227039 0 -0.087659787804267197 -0.1053579589647711 0 -0.063965210873385206 -0.121372291062271 0 -0.069413139924847295 -0.1120169614824971 0 -0.072499038737136423 -0.12336773177227039 0 -0.063965210873385206 -0.121372291062271 0 -0.069413139924847295 -0.1120169614824971 0 -0.055973796613101583 -0.11154457769597879 0 -0.093729858762440374 -0.11631984424608149 0 -0.087659787804267197 -0.1053579589647711 0 -0.076666436282660663 -0.13264315814890179 0 -0.087659787804267197 -0.1053579589647711 0 -0.076666436282660663 -0.13264315814890179 0 -0.072499038737136423 -0.12336773177227039 0 -0.087659787804267197 -0.1053579589647711 0 -0.076666436282660663 -0.13264315814890179 0 -0.093729858762440374 -0.11631984424608149 0 -0.076666436282660663 -0.13264315814890179 0 -0.096101065320712109 -0.1258911452360538 0 -0.080332479827855185 -0.089132189148723034 0 -0.075595917634480286 -0.1005628547881349 0 -0.087659787804267197 -0.1053579589647711 0 -0.087659787804267197 -0.1053579589647711 0 -0.1004265812101162 -0.1089643198262948 0 -0.1006655882856296 -0.09175432640411825 0 -0.1004265812101162 -0.1089643198262948 0 -0.11487650466180439 -0.1160490357388697 0 -0.1006655882856296 -0.09175432640411825 0 -0.11487650466180439 -0.1160490357388697 0 -0.1117238545323833 -0.101270295352793 0 -0.1006655882856296 -0.09175432640411825 0 -0.11487650466180439 -0.1160490357388697 0 -0.1006655882856296 -0.09175432640411825 0 -0.10451846741591179 -0.1170766955469076 0 -0.11649007265168369 -0.1188075605425003 0 -0.096101065320712109 -0.1258911452360538 0 -0.11649007265168369 -0.1188075605425003 0 -0.096101065320712109 -0.1258911452360538 0 -0.093729858762440374 -0.11631984424608149 0 -0.10451846741591179 -0.1170766955469076 0 -0.096101065320712109 -0.1258911452360538 0 -0.093729858762440374 -0.11631984424608149 0 -0.087659787804267197 -0.1053579589647711 0 -0.1004265812101162 -0.1089643198262948 0 -0.093729858762440374 -0.11631984424608149 0 -0.1004265812101162 -0.1089643198262948 0 -0.10451846741591179 -0.1170766955469076 0 -0.1004265812101162 -0.1089643198262948 0 -0.10451846741591179 -0.1170766955469076 0 -0.11487650466180439 -0.1160490357388697 0 -0.10451846741591179 -0.1170766955469076 0 -0.11649007265168369 -0.1188075605425003 0 -0.11487650466180439 -0.1160490357388697 0 -0.11649007265168369 -0.1188075605425003 0 -0.11487650466180439 -0.1160490357388697 0 -0.11649007265168369 -0.1188075605425003 0 -0.11487650466180439 -0.1160490357388697 0 -0.12599987765418549 -0.11550364740632391 0 -0.11487650466180439 -0.1160490357388697 0 -0.12182531397588869 -0.1044134543712442 0 -0.12599987765418549 -0.11550364740632391 0 -0.11649007265168369 -0.1188075605425003 0 -0.12599987765418549 -0.11550364740632391 0 -0.11649007265168369 -0.1188075605425003 0 -0.12599987765418549 -0.11550364740632391 0 -0.1252704192176744 -0.1172440966648565 0 -0.11487650466180439 -0.1160490357388697 0 -0.1117238545323833 -0.101270295352793 0 -0.12182531397588869 -0.1044134543712442 0 -0.11487650466180439 -0.1160490357388697 0 -0.1117238545323833 -0.101270295352793 0 -0.1117238545323833 -0.101270295352793 0 -0.12182531397588869 -0.1044134543712442 0 -0.12067370026095731 -0.092005587950159118 0 -0.1117238545323833 -0.101270295352793 0 -0.12067370026095731 -0.092005587950159118 0 -0.1096737611153919 -0.085603154438093937 0 -0.12067370026095731 -0.092005587950159118 0 -0.1179915177927765 -0.081714148456293267 0 -0.12737817104852411 -0.080741270387750683 0 -0.1179915177927765 -0.081714148456293267 0 -0.1096737611153919 -0.085603154438093937 0 -0.1121838893690176 -0.075324773267663084 0 -0.12067370026095731 -0.092005587950159118 0 -0.1179915177927765 -0.081714148456293267 0 -0.1096737611153919 -0.085603154438093937 0 -0.087659787804267197 -0.1053579589647711 0 -0.1006655882856296 -0.09175432640411825 0 -0.098653139325870498 -0.078072759780639212 0 -0.1117238545323833 -0.101270295352793 0 -0.1096737611153919 -0.085603154438093937 0 -0.1006655882856296 -0.09175432640411825 0 -0.1096737611153919 -0.085603154438093937 0 -0.098653139325870498 -0.078072759780639212 0 -0.1121838893690176 -0.075324773267663084 0 -0.1096737611153919 -0.085603154438093937 0 -0.1006655882856296 -0.09175432640411825 0 -0.098653139325870498 -0.078072759780639212 0 -0.093078549589984544 -0.062615985124124363 0 -0.098653139325870498 -0.078072759780639212 0 -0.10811729135418539 -0.065091756711675844 0 -0.098653139325870498 -0.078072759780639212 0 -0.10811729135418539 -0.065091756711675844 0 -0.1121838893690176 -0.075324773267663084 0 -0.10811729135418539 -0.065091756711675844 0 -0.1121838893690176 -0.075324773267663084 0 -0.1232756904161693 -0.070411489051666373 0 -0.1179915177927765 -0.081714148456293267 0 -0.1121838893690176 -0.075324773267663084 0 -0.1232756904161693 -0.070411489051666373 0 -0.1179915177927765 -0.081714148456293267 0 -0.1232756904161693 -0.070411489051666373 0 -0.12737817104852411 -0.080741270387750683 0 -0.10811729135418539 -0.065091756711675844 0 -0.1232756904161693 -0.070411489051666373 0 -0.12131955324210091 -0.059181462630683621 0 -0.12131955324210091 -0.059181462630683621 0 -0.1197314047957487 -0.044466417495601512 0 -0.1050545945384474 -0.053665832172193451 0 -0.10811729135418539 -0.065091756711675844 0 -0.12131955324210091 -0.059181462630683621 0 -0.1050545945384474 -0.053665832172193451 0 -0.12131955324210091 -0.059181462630683621 0 -0.1197314047957487 -0.044466417495601512 0 -0.1315211872564446 -0.050314657740016588 0 -0.1197314047957487 -0.044466417495601512 0 -0.1068389650378473 -0.041887213400145028 0 -0.1185057960264221 -0.028529017004706999 0 -0.1197314047957487 -0.044466417495601512 0 -0.1185057960264221 -0.028529017004706999 0 -0.13361245343545181 -0.030305793086055629 0 -0.1197314047957487 -0.044466417495601512 0 -0.1068389650378473 -0.041887213400145028 0 -0.1050545945384474 -0.053665832172193451 0 -0.1068389650378473 -0.041887213400145028 0 -0.093783258566811134 -0.025165556691727101 0 -0.092485611966423034 -0.037114626304880938 0 -0.1068389650378473 -0.041887213400145028 0 -0.090434917852185284 -0.047588291663230448 0 -0.092485611966423034 -0.037114626304880938 0 -0.093078549589984544 -0.062615985124124363 0 -0.1050545945384474 -0.053665832172193451 0 -0.090434917852185284 -0.047588291663230448 0 -0.1068389650378473 -0.041887213400145028 0 -0.1050545945384474 -0.053665832172193451 0 -0.090434917852185284 -0.047588291663230448 0 -0.093078549589984544 -0.062615985124124363 0 -0.10811729135418539 -0.065091756711675844 0 -0.1050545945384474 -0.053665832172193451 0 -0.1236122261121546 -0.0078425818954372464 0 -0.10868121072477301 -0.016513669919031759 0 -0.1099986790197032 0.001632030897992919 0 -0.1236122261121546 -0.0078425818954372464 0 -0.10868121072477301 -0.016513669919031759 0 -0.1068389650378473 -0.041887213400145028 0 -0.1185057960264221 -0.028529017004706999 0 -0.10868121072477301 -0.016513669919031759 0 -0.1236122261121546 -0.0078425818954372464 0 -0.1185057960264221 -0.028529017004706999 0 -0.10868121072477301 -0.016513669919031759 0 -0.1068389650378473 -0.041887213400145028 0 -0.104837062895502 -0.02019526763349536 0 -0.10868121072477301 -0.016513669919031759 0 -0.1068389650378473 -0.041887213400145028 0 -0.10868121072477301 -0.016513669919031759 0 -0.1068389650378473 -0.041887213400145028 0 -0.093783258566811134 -0.025165556691727101 0 -0.104837062895502 -0.02019526763349536 0 -0.093783258566811134 -0.025165556691727101 0 -0.10868121072477301 -0.016513669919031759 0 -0.093783258566811134 -0.025165556691727101 0 -0.10868121072477301 -0.016513669919031759 0 -0.095747033840698895 -0.01524308727968717 0 -0.093783258566811134 -0.025165556691727101 0 -0.104837062895502 -0.02019526763349536 0 -0.10868121072477301 -0.016513669919031759 0 -0.104837062895502 -0.02019526763349536 0 -0.10868121072477301 -0.016513669919031759 0 -0.10868121072477301 -0.016513669919031759 0 -0.1099986790197032 0.001632030897992919 0 -0.10868121072477301 -0.016513669919031759 0 -0.097318817554363779 -0.0057286893867275063 0 -0.1099986790197032 0.001632030897992919 0 -0.10868121072477301 -0.016513669919031759 0 -0.095747033840698895 -0.01524308727968717 0 -0.097318817554363779 -0.0057286893867275063 0 -0.097318817554363779 -0.0057286893867275063 0 -0.083204848516847923 -0.01356443312126232 0 -0.087524390624848222 0.006688577221896419 0 -0.083204848516847923 -0.01356443312126232 0 -0.087524390624848222 0.006688577221896419 0 -0.083204848516847923 -0.01356443312126232 0 -0.065966226425225663 -0.0060274066981548767 0 -0.087524390624848222 0.006688577221896419 0 -0.095747033840698895 -0.01524308727968717 0 -0.097318817554363779 -0.0057286893867275063 0 -0.083204848516847923 -0.01356443312126232 0 -0.083204848516847923 -0.01356443312126232 0 -0.07434952191593272 -0.025061702399879319 0 -0.078885306408848499 -0.033817443464421199 0 -0.093783258566811134 -0.025165556691727101 0 -0.083204848516847923 -0.01356443312126232 0 -0.078885306408848499 -0.033817443464421199 0 -0.083204848516847923 -0.01356443312126232 0 -0.078885306408848499 -0.033817443464421199 0 -0.093783258566811134 -0.025165556691727101 0 -0.095747033840698895 -0.01524308727968717 0 -0.083204848516847923 -0.01356443312126232 0 -0.093783258566811134 -0.025165556691727101 0 -0.078885306408848499 -0.033817443464421199 0 -0.07434952191593272 -0.025061702399879319 0 -0.065966226425225663 -0.0060274066981548767 0 -0.069170669720302794 -0.035546986895945307 0 -0.065966226425225663 -0.0060274066981548767 0 -0.069170669720302794 -0.035546986895945307 0 -0.060499849025326763 -0.027113091598361162 0 -0.065966226425225663 -0.0060274066981548767 0 -0.069170669720302794 -0.035546986895945307 0 -0.083204848516847923 -0.01356443312126232 0 -0.07434952191593272 -0.025061702399879319 0 -0.065966226425225663 -0.0060274066981548767 0 -0.093078549589984544 -0.062615985124124363 0 -0.090434917852185284 -0.047588291663230448 0 -0.074194079442307964 -0.055813170303027348 0 -0.090434917852185284 -0.047588291663230448 0 -0.078885306408848499 -0.033817443464421199 0 -0.074194079442307964 -0.055813170303027348 0 -0.090434917852185284 -0.047588291663230448 0 -0.092485611966423034 -0.037114626304880938 0 -0.078885306408848499 -0.033817443464421199 0 -0.093783258566811134 -0.025165556691727101 0 -0.092485611966423034 -0.037114626304880938 0 -0.078885306408848499 -0.033817443464421199 0 -0.078885306408848499 -0.033817443464421199 0 -0.074194079442307964 -0.055813170303027348 0 -0.070330568719734213 -0.04601515277555971 0 -0.074520558508438778 -0.036352241819612927 0 -0.069170669720302794 -0.035546986895945307 0 -0.078885306408848499 -0.033817443464421199 0 -0.070330568719734213 -0.04601515277555971 0 -0.074194079442307964 -0.055813170303027348 0 -0.078885306408848499 -0.033817443464421199 0 -0.070330568719734213 -0.04601515277555971 0 -0.074520558508438778 -0.036352241819612927 0 -0.07434952191593272 -0.025061702399879319 0 -0.074520558508438778 -0.036352241819612927 0 -0.069170669720302794 -0.035546986895945307 0 -0.07434952191593272 -0.025061702399879319 0 -0.078885306408848499 -0.033817443464421199 0 -0.074520558508438778 -0.036352241819612927 0 -0.078885306408848499 -0.033817443464421199 0 -0.074520558508438778 -0.036352241819612927 0 -0.069170669720302794 -0.035546986895945307 0 -0.063362765034716981 -0.039125320738808887 0 -0.060499849025326763 -0.027113091598361162 0 -0.070330568719734213 -0.04601515277555971 0 -0.069170669720302794 -0.035546986895945307 0 -0.063362765034716981 -0.039125320738808887 0 -0.070330568719734213 -0.04601515277555971 0 -0.063362765034716981 -0.039125320738808887 0 -0.059858302453952031 -0.048952151576379901 0 -0.070330568719734213 -0.04601515277555971 0 -0.074194079442307964 -0.055813170303027348 0 -0.059858302453952031 -0.048952151576379901 0 -0.074194079442307964 -0.055813170303027348 0 -0.059858302453952031 -0.048952151576379901 0 -0.056896828677456698 -0.064957726782933892 0 -0.059858302453952031 -0.048952151576379901 0 -0.044923942794737923 -0.054691691027005551 0 -0.056896828677456698 -0.064957726782933892 0 -0.059858302453952031 -0.048952151576379901 0 -0.049734296148808359 -0.042485020192698987 0 -0.044923942794737923 -0.054691691027005551 0 -0.059858302453952031 -0.048952151576379901 0 -0.056954435254269083 -0.037999220847798339 0 -0.049734296148808359 -0.042485020192698987 0 -0.063362765034716981 -0.039125320738808887 0 -0.059858302453952031 -0.048952151576379901 0 -0.056954435254269083 -0.037999220847798339 0 -0.063362765034716981 -0.039125320738808887 0 -0.056954435254269083 -0.037999220847798339 0 -0.060499849025326763 -0.027113091598361162 0 -0.056954435254269083 -0.037999220847798339 0 -0.047200384798774982 -0.033276672805742737 0 -0.049734296148808359 -0.042485020192698987 0 -0.056954435254269083 -0.037999220847798339 0 -0.047200384798774982 -0.033276672805742737 0 -0.052646608023139009 -0.028133593701314161 0 -0.049734296148808359 -0.042485020192698987 0 -0.038309454021287423 -0.037485304465473157 0 -0.044923942794737923 -0.054691691027005551 0 -0.047200384798774982 -0.033276672805742737 0 -0.038309454021287423 -0.037485304465473157 0 -0.041340635405623813 -0.023634308371219701 0 -0.047200384798774982 -0.033276672805742737 0 -0.049734296148808359 -0.042485020192698987 0 -0.038309454021287423 -0.037485304465473157 0 -0.038309454021287423 -0.037485304465473157 0 -0.03208775864781041 -0.029071100487059381 0 -0.02346135141751398 -0.035355058972579741 0 -0.038309454021287423 -0.037485304465473157 0 -0.044923942794737923 -0.054691691027005551 0 -0.02964595896144296 -0.052602220053598318 0 -0.044923942794737923 -0.054691691027005551 0 -0.02964595896144296 -0.052602220053598318 0 -0.02933827121860667 -0.069671405985324328 0 -0.065966226425225663 -0.0060274066981548767 0 -0.052851520708108592 -0.013709279578128279 0 -0.060499849025326763 -0.027113091598361162 0 -0.065966226425225663 -0.0060274066981548767 0 -0.052851520708108592 -0.013709279578128279 0 -0.041285176168578859 0.002941795093874656 0 -0.052851520708108592 -0.013709279578128279 0 -0.052646608023139009 -0.028133593701314161 0 -0.041340635405623813 -0.023634308371219701 0 -0.052851520708108592 -0.013709279578128279 0 -0.060499849025326763 -0.027113091598361162 0 -0.052646608023139009 -0.028133593701314161 0 -0.056954435254269083 -0.037999220847798339 0 -0.060499849025326763 -0.027113091598361162 0 -0.052646608023139009 -0.028133593701314161 0 -0.047200384798774982 -0.033276672805742737 0 -0.052646608023139009 -0.028133593701314161 0 -0.041340635405623813 -0.023634308371219701 0 -0.041340635405623813 -0.023634308371219701 0 -0.03208775864781041 -0.029071100487059381 0 -0.025239593746816429 -0.019809730138964948 0 -0.041340635405623813 -0.023634308371219701 0 -0.035761471768298317 -0.01187809368403442 0 -0.025239593746816429 -0.019809730138964948 0 -0.052851520708108592 -0.013709279578128279 0 -0.041340635405623813 -0.023634308371219701 0 -0.035761471768298317 -0.01187809368403442 0 -0.038309454021287423 -0.037485304465473157 0 -0.041340635405623813 -0.023634308371219701 0 -0.03208775864781041 -0.029071100487059381 0 -0.052851520708108592 -0.013709279578128279 0 -0.035761471768298317 -0.01187809368403442 0 -0.041285176168578859 0.002941795093874656 0 -0.035761471768298317 -0.01187809368403442 0 -0.018090432812363919 -0.0051789454257338127 0 -0.041285176168578859 0.002941795093874656 0 -0.035761471768298317 -0.01187809368403442 0 -0.018090432812363919 -0.0051789454257338127 0 -0.025239593746816429 -0.019809730138964948 0 -0.018090432812363919 -0.0051789454257338127 0 -0.025239593746816429 -0.019809730138964948 0 -0.013061188317162169 -0.01291647294893521 0 -0.025239593746816429 -0.019809730138964948 0 -0.011210459174411659 -0.020702551241823321 0 -0.013061188317162169 -0.01291647294893521 0 -0.03208775864781041 -0.029071100487059381 0 -0.025239593746816429 -0.019809730138964948 0 -0.02346135141751398 -0.035355058972579741 0 -0.025239593746816429 -0.019809730138964948 0 -0.011210459174411659 -0.020702551241823321 0 -0.02346135141751398 -0.035355058972579741 0 -0.011210459174411659 -0.020702551241823321 0 -0.02346135141751398 -0.035355058972579741 0 -0.003476286599935095 -0.036271506326322138 0 -0.011210459174411659 -0.020702551241823321 0 -0.003476286599935095 -0.036271506326322138 0 0.0014199230119024339 -0.021574900853890581 0 -0.011210459174411659 -0.020702551241823321 0 0.0006213327713558641 -0.0089396406014967747 0 0.0014199230119024339 -0.021574900853890581 0 -0.001488115343110989 -0.0087397640735148233 0 -0.01693898921702304 0.0117618500821222 0 0.002394805847480138 -0.0071764921779012506 0 -0.018090432812363919 -0.0051789454257338127 0 -0.001488115343110989 -0.0087397640735148233 0 -0.01693898921702304 0.0117618500821222 0 -0.018090432812363919 -0.0051789454257338127 0 -0.013061188317162169 -0.01291647294893521 0 -0.001488115343110989 -0.0087397640735148233 0 -0.011210459174411659 -0.020702551241823321 0 -0.013061188317162169 -0.01291647294893521 0 -0.001488115343110989 -0.0087397640735148233 0 -0.011210459174411659 -0.020702551241823321 0 -0.001488115343110989 -0.0087397640735148233 0 0.0006213327713558641 -0.0089396406014967747 0 -0.011210459174411659 -0.020702551241823321 0 0.0006213327713558641 -0.0089396406014967747 0 -0.001488115343110989 -0.0087397640735148233 0 0.0006213327713558641 -0.0089396406014967747 0 -0.02964595896144296 -0.052602220053598318 0 -0.01526094355706222 -0.064007872731860899 0 -0.02933827121860667 -0.069671405985324328 0 -0.02964595896144296 -0.052602220053598318 0 -0.01441383554066036 -0.048546622235137428 0 -0.01526094355706222 -0.064007872731860899 0 -0.02964595896144296 -0.052602220053598318 0 -0.02346135141751398 -0.035355058972579741 0 -0.01441383554066036 -0.048546622235137428 0 -0.038309454021287423 -0.037485304465473157 0 -0.02964595896144296 -0.052602220053598318 0 -0.02346135141751398 -0.035355058972579741 0 -0.003476286599935095 -0.036271506326322138 0 -0.00022463716734756899 -0.054496453091326037 0 -0.01441383554066036 -0.048546622235137428 0 -0.02346135141751398 -0.035355058972579741 0 -0.003476286599935095 -0.036271506326322138 0 -0.01441383554066036 -0.048546622235137428 0 -0.00022463716734756899 -0.054496453091326037 0 -0.01441383554066036 -0.048546622235137428 0 -0.01526094355706222 -0.064007872731860899 0 -0.00022463716734756899 -0.054496453091326037 0 -0.01526094355706222 -0.064007872731860899 0 0.003886405537072308 -0.074985287574065307 0 -0.01526094355706222 -0.064007872731860899 0 -0.020242120847587721 -0.083511357097035596 0 0.003886405537072308 -0.074985287574065307 0 -0.0041979068999104599 -0.092692987180200151 0 -0.020242120847587721 -0.083511357097035596 0 0.003886405537072308 -0.074985287574065307 0 -0.020242120847587721 -0.083511357097035596 0 -0.037149979327061843 -0.086545702414286968 0 -0.027814197350204149 -0.1002222595639333 0 -0.020242120847587721 -0.083511357097035596 0 -0.02933827121860667 -0.069671405985324328 0 -0.037149979327061843 -0.086545702414286968 0 -0.0041979068999104599 -0.092692987180200151 0 -0.020242120847587721 -0.083511357097035596 0 -0.027814197350204149 -0.1002222595639333 0 -0.01526094355706222 -0.064007872731860899 0 -0.020242120847587721 -0.083511357097035596 0 -0.02933827121860667 -0.069671405985324328 0 -0.044923942794737923 -0.054691691027005551 0 -0.02933827121860667 -0.069671405985324328 0 -0.043795121567553899 -0.073512069705660321 0 -0.02933827121860667 -0.069671405985324328 0 -0.043795121567553899 -0.073512069705660321 0 -0.037149979327061843 -0.086545702414286968 0 -0.043795121567553899 -0.073512069705660321 0 -0.037149979327061843 -0.086545702414286968 0 -0.053466751150831528 -0.085728027791416223 0 -0.037149979327061843 -0.086545702414286968 0 -0.053466751150831528 -0.085728027791416223 0 -0.046895924631556341 -0.099640457450003272 0 -0.064978262980951509 -0.095744309556548293 0 -0.053466751150831528 -0.085728027791416223 0 -0.046895924631556341 -0.099640457450003272 0 -0.069502852475768331 -0.077808897141633637 0 -0.053466751150831528 -0.085728027791416223 0 -0.056896828677456698 -0.064957726782933892 0 -0.043795121567553899 -0.073512069705660321 0 -0.053466751150831528 -0.085728027791416223 0 -0.056896828677456698 -0.064957726782933892 0 -0.044923942794737923 -0.054691691027005551 0 -0.043795121567553899 -0.073512069705660321 0 -0.056896828677456698 -0.064957726782933892 0 -0.055973796613101583 -0.11154457769597879 0 -0.041972484009239593 -0.11125691353498 0 -0.051469099840166933 -0.12560748285855791 0 -0.063965210873385206 -0.121372291062271 0 -0.055973796613101583 -0.11154457769597879 0 -0.051469099840166933 -0.12560748285855791 0 -0.064978262980951509 -0.095744309556548293 0 -0.055973796613101583 -0.11154457769597879 0 -0.046895924631556341 -0.099640457450003272 0 -0.055973796613101583 -0.11154457769597879 0 -0.046895924631556341 -0.099640457450003272 0 -0.041972484009239593 -0.11125691353498 0 -0.046895924631556341 -0.099640457450003272 0 -0.041972484009239593 -0.11125691353498 0 -0.027814197350204149 -0.1002222595639333 0 -0.037149979327061843 -0.086545702414286968 0 -0.046895924631556341 -0.099640457450003272 0 -0.027814197350204149 -0.1002222595639333 0 -0.027958050649480481 -0.11798595469309241 0 -0.051469099840166933 -0.12560748285855791 0 -0.041972484009239593 -0.11125691353498 0 -0.027958050649480481 -0.11798595469309241 0 -0.051469099840166933 -0.12560748285855791 0 -0.041972484009239593 -0.11125691353498 0 -0.027958050649480481 -0.11798595469309241 0 -0.027814197350204149 -0.1002222595639333 0 -0.027958050649480481 -0.11798595469309241 0 -0.051469099840166933 -0.12560748285855791 0 -0.035009396245865847 -0.13138946507283039 0 -0.027958050649480481 -0.11798595469309241 0 -0.027814197350204149 -0.1002222595639333 0 -0.004447001458793981 -0.1103644265276268 0 -0.027958050649480481 -0.11798595469309241 0 -0.004447001458793981 -0.1103644265276268 0 -0.0041979068999104599 -0.092692987180200151 0 -0.027814197350204149 -0.1002222595639333 0 -0.004447001458793981 -0.1103644265276268 0 -0.027958050649480481 -0.11798595469309241 0 -0.004447001458793981 -0.1103644265276268 0 -0.0095835093286126792 -0.13067357323387099 0 -0.0095835093286126792 -0.13067357323387099 0 -0.02380622872257708 -0.13863305153198521 0 -0.011420010772425999 -0.14358906931216731 0 -0.0095835093286126792 -0.13067357323387099 0 -0.02380622872257708 -0.13863305153198521 0 -0.035009396245865847 -0.13138946507283039 0 -0.0095835093286126792 -0.13067357323387099 0 -0.035009396245865847 -0.13138946507283039 0 -0.027958050649480481 -0.11798595469309241 0 -0.0095835093286126792 -0.13067357323387099 0 -0.035009396245865847 -0.13138946507283039 0 -0.02380622872257708 -0.13863305153198521 0 -0.02156928320199206 -0.15178510772423359 0 -0.048274716116422638 -0.14250705937413011 0 -0.02380622872257708 -0.13863305153198521 0 -0.02156928320199206 -0.15178510772423359 0 -0.011420010772425999 -0.14358906931216731 0 -0.02156928320199206 -0.15178510772423359 0 0.0051361497124387812 -0.16106315607433669 0 0.00014451492137988051 -0.1496259991592768 0 -0.0095835093286126792 -0.13067357323387099 0 -0.011420010772425999 -0.14358906931216731 0 0.00014451492137988051 -0.1496259991592768 0 -0.02156928320199206 -0.15178510772423359 0 -0.011420010772425999 -0.14358906931216731 0 0.00014451492137988051 -0.1496259991592768 0 -0.011473423231508561 -0.16625464439919799 0 -0.001198061652550745 -0.17280609881212911 0 0.0051361497124387812 -0.16106315607433669 0 -0.011473423231508561 -0.16625464439919799 0 0.0051361497124387812 -0.16106315607433669 0 -0.02156928320199206 -0.15178510772423359 0 -0.011473423231508561 -0.16625464439919799 0 0.0051361497124387812 -0.16106315607433669 0 -0.02156928320199206 -0.15178510772423359 0 0.0051361497124387812 -0.16106315607433669 0 -0.011473423231508561 -0.16625464439919799 0 -0.011684220618858611 -0.1828185141711022 0 -0.001198061652550745 -0.17280609881212911 0 -0.011684220618858611 -0.1828185141711022 0 -0.001198061652550745 -0.17280609881212911 0 0.0039750345954989988 -0.18651425943902311 0 -0.011684220618858611 -0.1828185141711022 0 -0.028082996175455729 -0.1714461327240597 0 -0.02834353692262364 -0.19660149069868879 0 -0.011473423231508561 -0.16625464439919799 0 -0.011684220618858611 -0.1828185141711022 0 -0.028082996175455729 -0.1714461327240597 0 -0.028082996175455729 -0.1714461327240597 0 -0.035076942590977253 -0.17251068978070239 0 -0.02834353692262364 -0.19660149069868879 0 -0.011473423231508561 -0.16625464439919799 0 -0.028082996175455729 -0.1714461327240597 0 -0.011473423231508561 -0.16625464439919799 0 -0.022251169661310358 -0.16246870980996381 0 -0.028082996175455729 -0.1714461327240597 0 -0.02156928320199206 -0.15178510772423359 0 -0.011473423231508561 -0.16625464439919799 0 -0.022251169661310358 -0.16246870980996381 0 -0.022251169661310358 -0.16246870980996381 0 -0.028082996175455729 -0.1714461327240597 0 -0.031809345178707003 -0.1640816166355436 0 -0.02156928320199206 -0.15178510772423359 0 -0.022251169661310358 -0.16246870980996381 0 -0.031809345178707003 -0.1640816166355436 0 -0.02156928320199206 -0.15178510772423359 0 -0.031809345178707003 -0.1640816166355436 0 -0.040578875443760723 -0.15702635465982459 0 -0.031809345178707003 -0.1640816166355436 0 -0.043296803998745907 -0.16925270511447771 0 -0.040578875443760723 -0.15702635465982459 0 -0.031809345178707003 -0.1640816166355436 0 -0.043296803998745907 -0.16925270511447771 0 -0.035076942590977253 -0.17251068978070239 0 -0.028082996175455729 -0.1714461327240597 0 -0.031809345178707003 -0.1640816166355436 0 -0.035076942590977253 -0.17251068978070239 0 -0.043296803998745907 -0.16925270511447771 0 -0.040578875443760723 -0.15702635465982459 0 -0.04778301199147586 -0.16221110159835439 0 -0.035076942590977253 -0.17251068978070239 0 -0.045101912546314182 -0.17781348514508699 0 -0.045384173352602211 -0.1896086705553881 0 -0.035076942590977253 -0.17251068978070239 0 -0.02834353692262364 -0.19660149069868879 0 -0.035076942590977253 -0.17251068978070239 0 -0.02834353692262364 -0.19660149069868879 0 -0.045384173352602211 -0.1896086705553881 0 -0.043296803998745907 -0.16925270511447771 0 -0.035076942590977253 -0.17251068978070239 0 -0.045101912546314182 -0.17781348514508699 0 -0.043296803998745907 -0.16925270511447771 0 -0.045101912546314182 -0.17781348514508699 0 -0.050116399936897628 -0.17439367801967379 0 -0.053826302631423108 -0.18719098183538219 0 -0.0513777658433901 -0.18144884671813011 0 -0.045384173352602211 -0.1896086705553881 0 -0.045101912546314182 -0.17781348514508699 0 -0.0513777658433901 -0.18144884671813011 0 -0.045384173352602211 -0.1896086705553881 0 -0.053826302631423108 -0.18719098183538219 0 -0.0513777658433901 -0.18144884671813011 0 -0.05724186851000123 -0.18306086139846869 0 -0.050116399936897628 -0.17439367801967379 0 -0.056462731779267583 -0.17707926816758701 0 -0.053733136905861317 -0.1679726515631198 0 -0.0513777658433901 -0.18144884671813011 0 -0.050116399936897628 -0.17439367801967379 0 -0.056462731779267583 -0.17707926816758701 0 -0.045101912546314182 -0.17781348514508699 0 -0.0513777658433901 -0.18144884671813011 0 -0.050116399936897628 -0.17439367801967379 0 -0.061772453938110018 -0.1722676601875073 0 -0.056462731779267583 -0.17707926816758701 0 -0.064464826801710964 -0.18158017590305259 0 -0.061772453938110018 -0.1722676601875073 0 -0.056462731779267583 -0.17707926816758701 0 -0.053733136905861317 -0.1679726515631198 0 -0.056462731779267583 -0.17707926816758701 0 -0.05724186851000123 -0.18306086139846869 0 -0.064464826801710964 -0.18158017590305259 0 -0.0513777658433901 -0.18144884671813011 0 -0.056462731779267583 -0.17707926816758701 0 -0.05724186851000123 -0.18306086139846869 0 -0.05724186851000123 -0.18306086139846869 0 -0.060077715494214402 -0.1880050343681916 0 -0.064464826801710964 -0.18158017590305259 0 -0.053826302631423108 -0.18719098183538219 0 -0.05724186851000123 -0.18306086139846869 0 -0.060077715494214402 -0.1880050343681916 0 -0.04778301199147586 -0.16221110159835439 0 -0.053733136905861317 -0.1679726515631198 0 -0.054318116428342743 -0.1550095253668563 0 -0.040578875443760723 -0.15702635465982459 0 -0.04778301199147586 -0.16221110159835439 0 -0.054318116428342743 -0.1550095253668563 0 -0.043296803998745907 -0.16925270511447771 0 -0.04778301199147586 -0.16221110159835439 0 -0.053733136905861317 -0.1679726515631198 0 -0.043296803998745907 -0.16925270511447771 0 -0.050116399936897628 -0.17439367801967379 0 -0.053733136905861317 -0.1679726515631198 0 -0.061772453938110018 -0.1722676601875073 0 -0.053733136905861317 -0.1679726515631198 0 -0.064150653413557149 -0.1630994165534029 0 -0.053733136905861317 -0.1679726515631198 0 -0.054318116428342743 -0.1550095253668563 0 -0.064150653413557149 -0.1630994165534029 0 -0.054318116428342743 -0.1550095253668563 0 -0.06193597557114254 -0.14487761168208729 0 -0.07017092070895159 -0.14876485096333639 0 -0.040578875443760723 -0.15702635465982459 0 -0.054318116428342743 -0.1550095253668563 0 -0.048274716116422638 -0.14250705937413011 0 -0.054318116428342743 -0.1550095253668563 0 -0.048274716116422638 -0.14250705937413011 0 -0.06193597557114254 -0.14487761168208729 0 -0.048274716116422638 -0.14250705937413011 0 -0.06193597557114254 -0.14487761168208729 0 -0.074980149030852788 -0.13322901102402521 0 -0.048274716116422638 -0.14250705937413011 0 -0.074980149030852788 -0.13322901102402521 0 -0.048274716116422638 -0.14250705937413011 0 -0.060435283163119087 -0.13210535691178979 0 -0.035009396245865847 -0.13138946507283039 0 -0.060435283163119087 -0.13210535691178979 0 -0.051469099840166933 -0.12560748285855791 0 -0.035009396245865847 -0.13138946507283039 0 -0.060435283163119087 -0.13210535691178979 0 -0.051469099840166933 -0.12560748285855791 0 -0.074980149030852788 -0.13322901102402521 0 -0.048274716116422638 -0.14250705937413011 0 -0.060435283163119087 -0.13210535691178979 0 -0.074980149030852788 -0.13322901102402521 0 -0.060435283163119087 -0.13210535691178979 0 -0.035009396245865847 -0.13138946507283039 0 -0.02380622872257708 -0.13863305153198521 0 -0.048274716116422638 -0.14250705937413011 0 -0.035009396245865847 -0.13138946507283039 0 -0.02156928320199206 -0.15178510772423359 0 -0.048274716116422638 -0.14250705937413011 0 -0.02156928320199206 -0.15178510772423359 0 -0.040578875443760723 -0.15702635465982459 0 -0.048274716116422638 -0.14250705937413011 0 -0.012379740604400009 -0.25371681360357518 0 -0.01487672558591642 -0.24478309253466149 0 -0.032983601381048028 -0.2367885997845538 0 -0.012379740604400009 -0.25371681360357518 0 -0.032983601381048028 -0.2367885997845538 0 -0.012379740604400009 -0.25371681360357518 0 -0.027326811110253871 -0.25121816526868662 0 -0.032983601381048028 -0.2367885997845538 0 -0.012379740604400009 -0.25371681360357518 0 -0.01487672558591642 -0.24478309253466149 0 -0.0050603712554523096 -0.25502580822232418 0 -0.01487672558591642 -0.24478309253466149 0 -0.0012779613340340411 -0.24176494305706761 0 -0.01487672558591642 -0.24478309253466149 0 -0.0012779613340340411 -0.24176494305706761 0 -0.0098443816872556354 -0.23359128343904409 0 -0.01487672558591642 -0.24478309253466149 0 -0.0098443816872556354 -0.23359128343904409 0 -0.02161013125427003 -0.22069229161667511 0 -0.0098443816872556354 -0.23359128343904409 0 -0.0016127085748020571 -0.22712480654777251 0 -0.02161013125427003 -0.22069229161667511 0 -0.0012779613340340411 -0.24176494305706761 0 -0.0098443816872556354 -0.23359128343904409 0 -0.0016127085748020571 -0.22712480654777251 0 -0.02161013125427003 -0.22069229161667511 0 -0.037749047324124332 -0.2222456785719269 0 -0.032983601381048028 -0.2367885997845538 0 -0.01487672558591642 -0.24478309253466149 0 -0.02161013125427003 -0.22069229161667511 0 -0.01487672558591642 -0.24478309253466149 0 -0.02161013125427003 -0.22069229161667511 0 -0.032983601381048028 -0.2367885997845538 0 -0.02161013125427003 -0.22069229161667511 0 -0.0048422933519348798 -0.20657909219758999 0 -0.02834353692262364 -0.19660149069868879 0 -0.02161013125427003 -0.22069229161667511 0 -0.02834353692262364 -0.19660149069868879 0 -0.04042466355054887 -0.21142906939722611 0 -0.02161013125427003 -0.22069229161667511 0 -0.02834353692262364 -0.19660149069868879 0 -0.0016127085748020571 -0.22712480654777251 0 -0.02161013125427003 -0.22069229161667511 0 -0.0048422933519348798 -0.20657909219758999 0 -0.011684220618858611 -0.1828185141711022 0 -0.0048422933519348798 -0.20657909219758999 0 -0.02834353692262364 -0.19660149069868879 0 -0.011684220618858611 -0.1828185141711022 0 -0.0048422933519348798 -0.20657909219758999 0 0.0039750345954989988 -0.18651425943902311 0 -0.02834353692262364 -0.19660149069868879 0 -0.045384173352602211 -0.1896086705553881 0 -0.048680880466514129 -0.20143667782743011 0 -0.045384173352602211 -0.1896086705553881 0 -0.054600152190027743 -0.1938329285883432 0 -0.048680880466514129 -0.20143667782743011 0 -0.053826302631423108 -0.18719098183538219 0 -0.045384173352602211 -0.1896086705553881 0 -0.054600152190027743 -0.1938329285883432 0 -0.053826302631423108 -0.18719098183538219 0 -0.054600152190027743 -0.1938329285883432 0 -0.060077715494214402 -0.1880050343681916 0 -0.054600152190027743 -0.1938329285883432 0 -0.062207823669324508 -0.19415899925277841 0 -0.060077715494214402 -0.1880050343681916 0 -0.05727161150443684 -0.20059064904333551 0 -0.063912376375580449 -0.2061057797213553 0 -0.063099371948942468 -0.19895763039768499 0 -0.062207823669324508 -0.19415899925277841 0 -0.05727161150443684 -0.20059064904333551 0 -0.063099371948942468 -0.19895763039768499 0 -0.054600152190027743 -0.1938329285883432 0 -0.062207823669324508 -0.19415899925277841 0 -0.05727161150443684 -0.20059064904333551 0 -0.054600152190027743 -0.1938329285883432 0 -0.05727161150443684 -0.20059064904333551 0 -0.048680880466514129 -0.20143667782743011 0 -0.05727161150443684 -0.20059064904333551 0 -0.048680880466514129 -0.20143667782743011 0 -0.053253465001542127 -0.20792698589572001 0 -0.052910920334218993 -0.21967129177291539 0 -0.069612749235620427 -0.2166114240769427 0 -0.064663204576268285 -0.2095762323379651 0 -0.048680880466514129 -0.20143667782743011 0 -0.053253465001542127 -0.20792698589572001 0 -0.04042466355054887 -0.21142906939722611 0 -0.05727161150443684 -0.20059064904333551 0 -0.053253465001542127 -0.20792698589572001 0 -0.063912376375580449 -0.2061057797213553 0 -0.053253465001542127 -0.20792698589572001 0 -0.052910920334218993 -0.21967129177291539 0 -0.063912376375580449 -0.2061057797213553 0 -0.052910920334218993 -0.21967129177291539 0 -0.064663204576268285 -0.2095762323379651 0 -0.052910920334218993 -0.21967129177291539 0 -0.063912376375580449 -0.2061057797213553 0 -0.064663204576268285 -0.2095762323379651 0 -0.052910920334218993 -0.21967129177291539 0 -0.063912376375580449 -0.2061057797213553 0 -0.053253465001542127 -0.20792698589572001 0 -0.04042466355054887 -0.21142906939722611 0 -0.052910920334218993 -0.21967129177291539 0 -0.02834353692262364 -0.19660149069868879 0 -0.048680880466514129 -0.20143667782743011 0 -0.04042466355054887 -0.21142906939722611 0 -0.02161013125427003 -0.22069229161667511 0 -0.04042466355054887 -0.21142906939722611 0 -0.037749047324124332 -0.2222456785719269 0 -0.04042466355054887 -0.21142906939722611 0 -0.037749047324124332 -0.2222456785719269 0 -0.052910920334218993 -0.21967129177291539 0 -0.037749047324124332 -0.2222456785719269 0 -0.052910920334218993 -0.21967129177291539 0 -0.032983601381048028 -0.2367885997845538 0 -0.052910920334218993 -0.21967129177291539 0 -0.032983601381048028 -0.2367885997845538 0 -0.052910920334218993 -0.21967129177291539 0 -0.032983601381048028 -0.2367885997845538 0 -0.040118865722236351 -0.23544472852080089 0 -0.052910920334218993 -0.21967129177291539 0 -0.040118865722236351 -0.23544472852080089 0 -0.052910920334218993 -0.21967129177291539 0 -0.054603171266369793 -0.23243375726732241 0 -0.069083472660325121 -0.22748117926656231 0 -0.052910920334218993 -0.21967129177291539 0 -0.054603171266369793 -0.23243375726732241 0 -0.040118865722236351 -0.23544472852080089 0 -0.054603171266369793 -0.23243375726732241 0 -0.062344578928600528 -0.23779073398242739 0 -0.069083472660325121 -0.22748117926656231 0 -0.054603171266369793 -0.23243375726732241 0 -0.052406799216804557 -0.24459198769464191 0 -0.040118865722236351 -0.23544472852080089 0 -0.054603171266369793 -0.23243375726732241 0 -0.062344578928600528 -0.23779073398242739 0 -0.052406799216804557 -0.24459198769464191 0 -0.065421878849430556 -0.25167039592025259 0 -0.062344578928600528 -0.23779073398242739 0 -0.052406799216804557 -0.24459198769464191 0 -0.027326811110253871 -0.25121816526868662 0 -0.040785035177160277 -0.24958968680164759 0 -0.040118865722236351 -0.23544472852080089 0 -0.027326811110253871 -0.25121816526868662 0 -0.032983601381048028 -0.2367885997845538 0 -0.040118865722236351 -0.23544472852080089 0 -0.027326811110253871 -0.25121816526868662 0 -0.040118865722236351 -0.23544472852080089 0 -0.052406799216804557 -0.24459198769464191 0 -0.040785035177160277 -0.24958968680164759 0 -0.040118865722236351 -0.23544472852080089 0 -0.078278243085297239 -0.23951664672932549 0 -0.086153706899138552 -0.22983104630755541 0 -0.09423246880553815 -0.23787512664900909 0 -0.093765691765433312 -0.25258281812082478 0 -0.078278243085297239 -0.23951664672932549 0 -0.09423246880553815 -0.23787512664900909 0 -0.062344578928600528 -0.23779073398242739 0 -0.078278243085297239 -0.23951664672932549 0 -0.069083472660325121 -0.22748117926656231 0 -0.065421878849430556 -0.25167039592025259 0 -0.062344578928600528 -0.23779073398242739 0 -0.078278243085297239 -0.23951664672932549 0 -0.065421878849430556 -0.25167039592025259 0 -0.079465288233698042 -0.25846821731041458 0 -0.078278243085297239 -0.23951664672932549 0 -0.052910920334218993 -0.21967129177291539 0 -0.069083472660325121 -0.22748117926656231 0 -0.069612749235620427 -0.2166114240769427 0 -0.078278243085297239 -0.23951664672932549 0 -0.069083472660325121 -0.22748117926656231 0 -0.086153706899138552 -0.22983104630755541 0 -0.069083472660325121 -0.22748117926656231 0 -0.082890498454507591 -0.21890744373665691 0 -0.069612749235620427 -0.2166114240769427 0 -0.082890498454507591 -0.21890744373665691 0 -0.086153706899138552 -0.22983104630755541 0 -0.098908818798469189 -0.22405916704643611 0 -0.082890498454507591 -0.21890744373665691 0 -0.092414465742116453 -0.21356058677725129 0 -0.098908818798469189 -0.22405916704643611 0 -0.069083472660325121 -0.22748117926656231 0 -0.082890498454507591 -0.21890744373665691 0 -0.086153706899138552 -0.22983104630755541 0 -0.086153706899138552 -0.22983104630755541 0 -0.098908818798469189 -0.22405916704643611 0 -0.09423246880553815 -0.23787512664900909 0 -0.082890498454507591 -0.21890744373665691 0 -0.092414465742116453 -0.21356058677725129 0 -0.085039292724931326 -0.20636870672523311 0 -0.092414465742116453 -0.21356058677725129 0 -0.085039292724931326 -0.20636870672523311 0 -0.094924882140715844 -0.2023400251814354 0 -0.085039292724931326 -0.20636870672523311 0 -0.076791362556699633 -0.2103212049296195 0 -0.076415488818317417 -0.19948117290301459 0 -0.082890498454507591 -0.21890744373665691 0 -0.085039292724931326 -0.20636870672523311 0 -0.076791362556699633 -0.2103212049296195 0 -0.082890498454507591 -0.21890744373665691 0 -0.069612749235620427 -0.2166114240769427 0 -0.076791362556699633 -0.2103212049296195 0 -0.069612749235620427 -0.2166114240769427 0 -0.07187070129672643 -0.20899750856188551 0 -0.076791362556699633 -0.2103212049296195 0 -0.069612749235620427 -0.2166114240769427 0 -0.064663204576268285 -0.2095762323379651 0 -0.07187070129672643 -0.20899750856188551 0 -0.063912376375580449 -0.2061057797213553 0 -0.064663204576268285 -0.2095762323379651 0 -0.076415488818317417 -0.19948117290301459 0 -0.064663204576268285 -0.2095762323379651 0 -0.07187070129672643 -0.20899750856188551 0 -0.076415488818317417 -0.19948117290301459 0 -0.07187070129672643 -0.20899750856188551 0 -0.076791362556699633 -0.2103212049296195 0 -0.076415488818317417 -0.19948117290301459 0 -0.064663204576268285 -0.2095762323379651 0 -0.076415488818317417 -0.19948117290301459 0 -0.063912376375580449 -0.2061057797213553 0 -0.076415488818317417 -0.19948117290301459 0 -0.074913832416942036 -0.19254026766979529 0 -0.063912376375580449 -0.2061057797213553 0 -0.074913832416942036 -0.19254026766979529 0 -0.063912376375580449 -0.2061057797213553 0 -0.067162409966087119 -0.19576756974744089 0 -0.074913832416942036 -0.19254026766979529 0 -0.063912376375580449 -0.2061057797213553 0 -0.067162409966087119 -0.19576756974744089 0 -0.063099371948942468 -0.19895763039768499 0 -0.062207823669324508 -0.19415899925277841 0 -0.067162409966087119 -0.19576756974744089 0 -0.063099371948942468 -0.19895763039768499 0 -0.062207823669324508 -0.19415899925277841 0 -0.060077715494214402 -0.1880050343681916 0 -0.067992112858964282 -0.18866012404393079 0 -0.062207823669324508 -0.19415899925277841 0 -0.067162409966087119 -0.19576756974744089 0 -0.067992112858964282 -0.18866012404393079 0 -0.067162409966087119 -0.19576756974744089 0 -0.067992112858964282 -0.18866012404393079 0 -0.074913832416942036 -0.19254026766979529 0 -0.067992112858964282 -0.18866012404393079 0 -0.074913832416942036 -0.19254026766979529 0 -0.075495957942860306 -0.18151306003065079 0 -0.076415488818317417 -0.19948117290301459 0 -0.074913832416942036 -0.19254026766979529 0 -0.086799058637230975 -0.19360180682342101 0 -0.074913832416942036 -0.19254026766979529 0 -0.086799058637230975 -0.19360180682342101 0 -0.081197999186964104 -0.18678207382066461 0 -0.085039292724931326 -0.20636870672523311 0 -0.076415488818317417 -0.19948117290301459 0 -0.086799058637230975 -0.19360180682342101 0 -0.085039292724931326 -0.20636870672523311 0 -0.086799058637230975 -0.19360180682342101 0 -0.094924882140715844 -0.2023400251814354 0 -0.086799058637230975 -0.19360180682342101 0 -0.095726771505572558 -0.1875603531079979 0 -0.094924882140715844 -0.2023400251814354 0 -0.094924882140715844 -0.2023400251814354 0 -0.111160472432858 -0.1885386204747187 0 -0.094924882140715844 -0.2023400251814354 0 -0.111160472432858 -0.1885386204747187 0 -0.1114495577303883 -0.20340811176391119 0 -0.095726771505572558 -0.1875603531079979 0 -0.094924882140715844 -0.2023400251814354 0 -0.111160472432858 -0.1885386204747187 0 -0.111160472432858 -0.1885386204747187 0 -0.1221143178041114 -0.19234248283227301 0 -0.1210277983726237 -0.20080419496638871 0 -0.1221143178041114 -0.19234248283227301 0 -0.1210277983726237 -0.20080419496638871 0 -0.1287375196768317 -0.1989974444917289 0 -0.111160472432858 -0.1885386204747187 0 -0.1210277983726237 -0.20080419496638871 0 -0.1114495577303883 -0.20340811176391119 0 -0.1210277983726237 -0.20080419496638871 0 -0.1114495577303883 -0.20340811176391119 0 -0.1178360582138414 -0.2087755546500478 0 -0.1114495577303883 -0.20340811176391119 0 -0.1178360582138414 -0.2087755546500478 0 -0.1085815399970629 -0.214445376318082 0 -0.1210277983726237 -0.20080419496638871 0 -0.1178360582138414 -0.2087755546500478 0 -0.1261734044947341 -0.20832382066201691 0 -0.1178360582138414 -0.2087755546500478 0 -0.121947990474398 -0.21689626953984009 0 -0.1261734044947341 -0.20832382066201691 0 -0.1178360582138414 -0.2087755546500478 0 -0.121947990474398 -0.21689626953984009 0 -0.1085815399970629 -0.214445376318082 0 -0.092414465742116453 -0.21356058677725129 0 -0.094924882140715844 -0.2023400251814354 0 -0.1085815399970629 -0.214445376318082 0 -0.092414465742116453 -0.21356058677725129 0 -0.1085815399970629 -0.214445376318082 0 -0.098908818798469189 -0.22405916704643611 0 -0.094924882140715844 -0.2023400251814354 0 -0.1114495577303883 -0.20340811176391119 0 -0.1085815399970629 -0.214445376318082 0 -0.098908818798469189 -0.22405916704643611 0 -0.1146679177639674 -0.22763479024990699 0 -0.1064059993424292 -0.23999004584722569 0 -0.098908818798469189 -0.22405916704643611 0 -0.1064059993424292 -0.23999004584722569 0 -0.09423246880553815 -0.23787512664900909 0 -0.1085815399970629 -0.214445376318082 0 -0.098908818798469189 -0.22405916704643611 0 -0.1146679177639674 -0.22763479024990699 0 -0.1146679177639674 -0.22763479024990699 0 -0.1192340303868117 -0.24478318800158869 0 -0.13163987617815839 -0.22779776194380719 0 -0.121947990474398 -0.21689626953984009 0 -0.1085815399970629 -0.214445376318082 0 -0.1146679177639674 -0.22763479024990699 0 -0.121947990474398 -0.21689626953984009 0 -0.1146679177639674 -0.22763479024990699 0 -0.13163987617815839 -0.22779776194380719 0 -0.10928029933534041 -0.25911330461652088 0 -0.1192340303868117 -0.24478318800158869 0 -0.1064059993424292 -0.23999004584722569 0 -0.1146679177639674 -0.22763479024990699 0 -0.1192340303868117 -0.24478318800158869 0 -0.1064059993424292 -0.23999004584722569 0 -0.093765691765433312 -0.25258281812082478 0 -0.1064059993424292 -0.23999004584722569 0 -0.09423246880553815 -0.23787512664900909 0 -0.087025139202339175 -0.14924119698846519 0 -0.093760481790990557 -0.16258763704399551 0 -0.10010201785652401 -0.1437821866573995 0 -0.087025139202339175 -0.14924119698846519 0 -0.083645274202728603 -0.1360379667205176 0 -0.10010201785652401 -0.1437821866573995 0 -0.078981128367974607 -0.14447571604620801 0 -0.087025139202339175 -0.14924119698846519 0 -0.083645274202728603 -0.1360379667205176 0 -0.078981128367974607 -0.14447571604620801 0 -0.087025139202339175 -0.14924119698846519 0 -0.078636793793478016 -0.15932247847420561 0 -0.083645274202728603 -0.1360379667205176 0 -0.10010201785652401 -0.1437821866573995 0 -0.096101065320712109 -0.1258911452360538 0 -0.076666436282660663 -0.13264315814890179 0 -0.096101065320712109 -0.1258911452360538 0 -0.083645274202728603 -0.1360379667205176 0 -0.076666436282660663 -0.13264315814890179 0 -0.096101065320712109 -0.1258911452360538 0 -0.078981128367974607 -0.14447571604620801 0 -0.083645274202728603 -0.1360379667205176 0 -0.074980149030852788 -0.13322901102402521 0 -0.083645274202728603 -0.1360379667205176 0 -0.074980149030852788 -0.13322901102402521 0 -0.076666436282660663 -0.13264315814890179 0 -0.083645274202728603 -0.1360379667205176 0 -0.074980149030852788 -0.13322901102402521 0 -0.063965210873385206 -0.121372291062271 0 -0.051469099840166933 -0.12560748285855791 0 -0.074980149030852788 -0.13322901102402521 0 -0.051469099840166933 -0.12560748285855791 0 -0.074980149030852788 -0.13322901102402521 0 -0.074980149030852788 -0.13322901102402521 0 -0.076666436282660663 -0.13264315814890179 0 -0.072499038737136423 -0.12336773177227039 0 -0.074980149030852788 -0.13322901102402521 0 -0.076666436282660663 -0.13264315814890179 0 -0.063965210873385206 -0.121372291062271 0 -0.072499038737136423 -0.12336773177227039 0 -0.074980149030852788 -0.13322901102402521 0 -0.054318116428342743 -0.1550095253668563 0 -0.07017092070895159 -0.14876485096333639 0 -0.064150653413557149 -0.1630994165534029 0 -0.06193597557114254 -0.14487761168208729 0 -0.074980149030852788 -0.13322901102402521 0 -0.07017092070895159 -0.14876485096333639 0 -0.078981128367974607 -0.14447571604620801 0 -0.074980149030852788 -0.13322901102402521 0 -0.07017092070895159 -0.14876485096333639 0 -0.074980149030852788 -0.13322901102402521 0 -0.07017092070895159 -0.14876485096333639 0 -0.078981128367974607 -0.14447571604620801 0 -0.07017092070895159 -0.14876485096333639 0 -0.078636793793478016 -0.15932247847420561 0 -0.061772453938110018 -0.1722676601875073 0 -0.064150653413557149 -0.1630994165534029 0 -0.070050920790153071 -0.171606788750374 0 -0.064150653413557149 -0.1630994165534029 0 -0.070050920790153071 -0.171606788750374 0 -0.078636793793478016 -0.15932247847420561 0 -0.070050920790153071 -0.171606788750374 0 -0.079209040401629252 -0.1719092953843511 0 -0.078636793793478016 -0.15932247847420561 0 -0.07017092070895159 -0.14876485096333639 0 -0.064150653413557149 -0.1630994165534029 0 -0.078636793793478016 -0.15932247847420561 0 -0.060077715494214402 -0.1880050343681916 0 -0.067992112858964282 -0.18866012404393079 0 -0.064464826801710964 -0.18158017590305259 0 -0.067992112858964282 -0.18866012404393079 0 -0.064464826801710964 -0.18158017590305259 0 -0.075495957942860306 -0.18151306003065079 0 -0.061772453938110018 -0.1722676601875073 0 -0.070050920790153071 -0.171606788750374 0 -0.064464826801710964 -0.18158017590305259 0 -0.070050920790153071 -0.171606788750374 0 -0.064464826801710964 -0.18158017590305259 0 -0.075495957942860306 -0.18151306003065079 0 -0.070050920790153071 -0.171606788750374 0 -0.075495957942860306 -0.18151306003065079 0 -0.079209040401629252 -0.1719092953843511 0 -0.074913832416942036 -0.19254026766979529 0 -0.075495957942860306 -0.18151306003065079 0 -0.081197999186964104 -0.18678207382066461 0 -0.08758314775082314 -0.17947316075879149 0 -0.093760481790990557 -0.16258763704399551 0 -0.099296370832405903 -0.1778108956523228 0 -0.075495957942860306 -0.18151306003065079 0 -0.081197999186964104 -0.18678207382066461 0 -0.08758314775082314 -0.17947316075879149 0 -0.086799058637230975 -0.19360180682342101 0 -0.081197999186964104 -0.18678207382066461 0 -0.08758314775082314 -0.17947316075879149 0 -0.075495957942860306 -0.18151306003065079 0 -0.079209040401629252 -0.1719092953843511 0 -0.08758314775082314 -0.17947316075879149 0 -0.086799058637230975 -0.19360180682342101 0 -0.095726771505572558 -0.1875603531079979 0 -0.08758314775082314 -0.17947316075879149 0 -0.079209040401629252 -0.1719092953843511 0 -0.08758314775082314 -0.17947316075879149 0 -0.093760481790990557 -0.16258763704399551 0 -0.079209040401629252 -0.1719092953843511 0 -0.078636793793478016 -0.15932247847420561 0 -0.093760481790990557 -0.16258763704399551 0 -0.087025139202339175 -0.14924119698846519 0 -0.078636793793478016 -0.15932247847420561 0 -0.093760481790990557 -0.16258763704399551 0 -0.093760481790990557 -0.16258763704399551 0 -0.10825098068178519 -0.1708947068761103 0 -0.099296370832405903 -0.1778108956523228 0 -0.093760481790990557 -0.16258763704399551 0 -0.10825098068178519 -0.1708947068761103 0 -0.1079275826681496 -0.15587426481125419 0 -0.111160472432858 -0.1885386204747187 0 -0.10825098068178519 -0.1708947068761103 0 -0.099296370832405903 -0.1778108956523228 0 -0.095726771505572558 -0.1875603531079979 0 -0.08758314775082314 -0.17947316075879149 0 -0.099296370832405903 -0.1778108956523228 0 -0.095726771505572558 -0.1875603531079979 0 -0.111160472432858 -0.1885386204747187 0 -0.099296370832405903 -0.1778108956523228 0 -0.111160472432858 -0.1885386204747187 0 -0.12739606272500029 -0.17473721576800191 0 -0.111160472432858 -0.1885386204747187 0 -0.1221143178041114 -0.19234248283227301 0 -0.12739606272500029 -0.17473721576800191 0 -0.111160472432858 -0.1885386204747187 0 -0.10825098068178519 -0.1708947068761103 0 -0.12739606272500029 -0.17473721576800191 0 -0.1214658785418825 -0.14693817404560541 0 -0.12739606272500029 -0.17473721576800191 0 -0.1214658785418825 -0.14693817404560541 0 -0.1079275826681496 -0.15587426481125419 0 -0.12739606272500029 -0.17473721576800191 0 -0.10825098068178519 -0.1708947068761103 0 -0.1079275826681496 -0.15587426481125419 0 -0.12739606272500029 -0.17473721576800191 0 -0.1214658785418825 -0.14693817404560541 0 -0.10010201785652401 -0.1437821866573995 0 -0.10830116401947081 -0.1339376595655668 0 -0.1214658785418825 -0.14693817404560541 0 -0.10010201785652401 -0.1437821866573995 0 -0.1079275826681496 -0.15587426481125419 0 -0.093760481790990557 -0.16258763704399551 0 -0.10010201785652401 -0.1437821866573995 0 -0.1079275826681496 -0.15587426481125419 0 -0.10010201785652401 -0.1437821866573995 0 -0.10830116401947081 -0.1339376595655668 0 -0.096101065320712109 -0.1258911452360538 0 -0.11649007265168369 -0.1188075605425003 0 -0.10830116401947081 -0.1339376595655668 0 -0.096101065320712109 -0.1258911452360538 0 -0.11649007265168369 -0.1188075605425003 0 -0.12922628187284879 -0.14058113888636839 0 -0.1252704192176744 -0.1172440966648565 0 -0.11649007265168369 -0.1188075605425003 0 -0.12922628187284879 -0.14058113888636839 0 -0.11649007265168369 -0.1188075605425003 0 -0.1214658785418825 -0.14693817404560541 0 -0.11649007265168369 -0.1188075605425003 0 -0.1214658785418825 -0.14693817404560541 0 -0.10830116401947081 -0.1339376595655668 0 -0.11649007265168369 -0.1188075605425003 0 -0.1214658785418825 -0.14693817404560541 0 -0.12922628187284879 -0.14058113888636839 0 -0.12922628187284879 -0.14058113888636839 0 -0.1355018371655794 -0.1265678790332187 0 -0.1252704192176744 -0.1172440966648565 0 -0.12922628187284879 -0.14058113888636839 0 -0.1355018371655794 -0.1265678790332187 0 -0.14553009116939669 -0.13537661130197329 0 -0.1355018371655794 -0.1265678790332187 0 -0.14553009116939669 -0.13537661130197329 0 -0.14420813470266419 -0.11805716313719079 0 -0.14553009116939669 -0.13537661130197329 0 -0.15056350488257919 -0.15504324471534639 0 -0.1628079644011253 -0.13038477387159439 0 -0.14553009116939669 -0.13537661130197329 0 -0.1628079644011253 -0.13038477387159439 0 -0.14420813470266419 -0.11805716313719079 0 -0.12922628187284879 -0.14058113888636839 0 -0.14553009116939669 -0.13537661130197329 0 -0.15056350488257919 -0.15504324471534639 0 -0.12922628187284879 -0.14058113888636839 0 -0.15056350488257919 -0.15504324471534639 0 -0.14196249109401421 -0.16235471723023651 0 -0.1214658785418825 -0.14693817404560541 0 -0.12922628187284879 -0.14058113888636839 0 -0.14196249109401421 -0.16235471723023651 0 -0.12922628187284879 -0.14058113888636839 0 -0.14196249109401421 -0.16235471723023651 0 -0.1214658785418825 -0.14693817404560541 0 -0.12739606272500029 -0.17473721576800191 0 -0.14196249109401421 -0.16235471723023651 0 -0.12739606272500029 -0.17473721576800191 0 -0.14196249109401421 -0.16235471723023651 0 -0.14465078136409831 -0.16695056657522339 0 -0.12739606272500029 -0.17473721576800191 0 -0.14196249109401421 -0.16235471723023651 0 -0.14465078136409831 -0.16695056657522339 0 -0.1314192587983791 -0.19359683159909061 0 -0.12739606272500029 -0.17473721576800191 0 -0.14465078136409831 -0.16695056657522339 0 -0.1314192587983791 -0.19359683159909061 0 -0.12739606272500029 -0.17473721576800191 0 -0.1314192587983791 -0.19359683159909061 0 -0.1221143178041114 -0.19234248283227301 0 -0.12739606272500029 -0.17473721576800191 0 -0.1314192587983791 -0.19359683159909061 0 -0.1506253399441001 -0.18191391990730801 0 -0.14704446987800041 -0.17104277042357799 0 -0.1314192587983791 -0.19359683159909061 0 -0.14704446987800041 -0.17104277042357799 0 -0.14465078136409831 -0.16695056657522339 0 -0.1314192587983791 -0.19359683159909061 0 -0.1506253399441001 -0.18191391990730801 0 -0.14704446987800041 -0.17104277042357799 0 -0.15648019532635571 -0.17138255085024329 0 -0.1506253399441001 -0.18191391990730801 0 -0.16533888001856381 -0.18602690419207779 0 -0.1512090652639769 -0.1911736867042346 0 -0.15056350488257919 -0.15504324471534639 0 -0.14196249109401421 -0.16235471723023651 0 -0.15056350488257919 -0.15504324471534639 0 -0.14196249109401421 -0.16235471723023651 0 -0.14465078136409831 -0.16695056657522339 0 -0.15056350488257919 -0.15504324471534639 0 -0.14465078136409831 -0.16695056657522339 0 -0.14196249109401421 -0.16235471723023651 0 -0.14465078136409831 -0.16695056657522339 0 -0.14704446987800041 -0.17104277042357799 0 -0.14465078136409831 -0.16695056657522339 0 -0.14704446987800041 -0.17104277042357799 0 -0.14465078136409831 -0.16695056657522339 0 -0.15229814259742869 -0.1644326064251338 0 -0.14704446987800041 -0.17104277042357799 0 -0.15229814259742869 -0.1644326064251338 0 -0.15648019532635571 -0.17138255085024329 0 -0.15056350488257919 -0.15504324471534639 0 -0.14465078136409831 -0.16695056657522339 0 -0.15229814259742869 -0.1644326064251338 0 -0.15056350488257919 -0.15504324471534639 0 -0.15229814259742869 -0.1644326064251338 0 -0.16275176153611051 -0.15774389956127821 0 -0.16275176153611051 -0.15774389956127821 0 -0.15648019532635571 -0.17138255085024329 0 -0.17757024440875549 -0.16111115580157981 0 -0.15229814259742869 -0.1644326064251338 0 -0.16275176153611051 -0.15774389956127821 0 -0.15648019532635571 -0.17138255085024329 0 -0.15648019532635571 -0.17138255085024329 0 -0.18421608521209271 -0.17558962027652111 0 -0.15648019532635571 -0.17138255085024329 0 -0.16533888001856381 -0.18602690419207779 0 -0.18421608521209271 -0.17558962027652111 0 -0.1506253399441001 -0.18191391990730801 0 -0.15648019532635571 -0.17138255085024329 0 -0.16533888001856381 -0.18602690419207779 0 -0.16533888001856381 -0.18602690419207779 0 -0.18421608521209271 -0.17558962027652111 0 -0.1786295148813212 -0.19556646452315241 0 -0.15648019532635571 -0.17138255085024329 0 -0.18421608521209271 -0.17558962027652111 0 -0.17757024440875549 -0.16111115580157981 0 -0.18421608521209271 -0.17558962027652111 0 -0.17757024440875549 -0.16111115580157981 0 -0.1979143625406167 -0.1642252661741595 0 -0.17521357040146851 -0.14833135074901779 0 -0.18000311622314791 -0.13001748444371289 0 -0.188845491435889 -0.14939424719825839 0 -0.17757024440875549 -0.16111115580157981 0 -0.17521357040146851 -0.14833135074901779 0 -0.188845491435889 -0.14939424719825839 0 -0.18000311622314791 -0.13001748444371289 0 -0.1628079644011253 -0.13038477387159439 0 -0.18027610093587751 -0.1196181089702751 0 -0.17521357040146851 -0.14833135074901779 0 -0.18000311622314791 -0.13001748444371289 0 -0.16528331055286391 -0.14253036457953011 0 -0.18000311622314791 -0.13001748444371289 0 -0.16528331055286391 -0.14253036457953011 0 -0.18000311622314791 -0.13001748444371289 0 -0.1628079644011253 -0.13038477387159439 0 -0.16528331055286391 -0.14253036457953011 0 -0.15056350488257919 -0.15504324471534639 0 -0.1628079644011253 -0.13038477387159439 0 -0.15056350488257919 -0.15504324471534639 0 -0.1628079644011253 -0.13038477387159439 0 -0.16528331055286391 -0.14253036457953011 0 -0.15056350488257919 -0.15504324471534639 0 -0.16275176153611051 -0.15774389956127821 0 -0.16528331055286391 -0.14253036457953011 0 -0.15056350488257919 -0.15504324471534639 0 -0.16528331055286391 -0.14253036457953011 0 -0.16275176153611051 -0.15774389956127821 0 -0.17521357040146851 -0.14833135074901779 0 -0.16528331055286391 -0.14253036457953011 0 -0.16275176153611051 -0.15774389956127821 0 -0.17757024440875549 -0.16111115580157981 0 -0.17521357040146851 -0.14833135074901779 0 -0.15229660666407671 -0.25401824511238591 0 -0.14920126421366381 -0.23878179657915319 0 -0.13450504990001219 -0.2438564190910647 0 -0.1192340303868117 -0.24478318800158869 0 -0.13450504990001219 -0.2438564190910647 0 -0.13163987617815839 -0.22779776194380719 0 -0.14920126421366381 -0.23878179657915319 0 -0.13450504990001219 -0.2438564190910647 0 -0.13163987617815839 -0.22779776194380719 0 -0.121947990474398 -0.21689626953984009 0 -0.13163987617815839 -0.22779776194380719 0 -0.12955498125585521 -0.21362166548107719 0 -0.13163987617815839 -0.22779776194380719 0 -0.14668655776667011 -0.2223990925877565 0 -0.13817373448855541 -0.2139466733801943 0 -0.14920126421366381 -0.23878179657915319 0 -0.13163987617815839 -0.22779776194380719 0 -0.14668655776667011 -0.2223990925877565 0 -0.14920126421366381 -0.23878179657915319 0 -0.14668655776667011 -0.2223990925877565 0 -0.1666111544691056 -0.22171119925505031 0 -0.14668655776667011 -0.2223990925877565 0 -0.14920765704353961 -0.2069242839694774 0 -0.1666111544691056 -0.22171119925505031 0 -0.14920765704353961 -0.2069242839694774 0 -0.13817373448855541 -0.2139466733801943 0 -0.13929463799343569 -0.2052160077695602 0 -0.14920765704353961 -0.2069242839694774 0 -0.13929463799343569 -0.2052160077695602 0 -0.1420465959208794 -0.1984943042809322 0 -0.14668655776667011 -0.2223990925877565 0 -0.14920765704353961 -0.2069242839694774 0 -0.13817373448855541 -0.2139466733801943 0 -0.13163987617815839 -0.22779776194380719 0 -0.13817373448855541 -0.2139466733801943 0 -0.12955498125585521 -0.21362166548107719 0 -0.13817373448855541 -0.2139466733801943 0 -0.12955498125585521 -0.21362166548107719 0 -0.1326745573724277 -0.20747677911892251 0 -0.121947990474398 -0.21689626953984009 0 -0.12955498125585521 -0.21362166548107719 0 -0.1261734044947341 -0.20832382066201691 0 -0.1210277983726237 -0.20080419496638871 0 -0.12833971984693959 -0.20340181913978941 0 -0.1261734044947341 -0.20832382066201691 0 -0.12955498125585521 -0.21362166548107719 0 -0.1261734044947341 -0.20832382066201691 0 -0.1326745573724277 -0.20747677911892251 0 -0.12833971984693959 -0.20340181913978941 0 -0.1261734044947341 -0.20832382066201691 0 -0.1326745573724277 -0.20747677911892251 0 -0.12833971984693959 -0.20340181913978941 0 -0.1326745573724277 -0.20747677911892251 0 -0.13308531931808101 -0.2014068564598902 0 -0.13817373448855541 -0.2139466733801943 0 -0.1326745573724277 -0.20747677911892251 0 -0.13929463799343569 -0.2052160077695602 0 -0.1326745573724277 -0.20747677911892251 0 -0.13929463799343569 -0.2052160077695602 0 -0.13308531931808101 -0.2014068564598902 0 -0.13929463799343569 -0.2052160077695602 0 -0.13308531931808101 -0.2014068564598902 0 -0.1420465959208794 -0.1984943042809322 0 -0.13308531931808101 -0.2014068564598902 0 -0.1314192587983791 -0.19359683159909061 0 -0.1420465959208794 -0.1984943042809322 0 -0.12833971984693959 -0.20340181913978941 0 -0.13308531931808101 -0.2014068564598902 0 -0.1287375196768317 -0.1989974444917289 0 -0.13308531931808101 -0.2014068564598902 0 -0.1287375196768317 -0.1989974444917289 0 -0.1314192587983791 -0.19359683159909061 0 -0.13308531931808101 -0.2014068564598902 0 -0.1314192587983791 -0.19359683159909061 0 -0.1287375196768317 -0.1989974444917289 0 -0.1314192587983791 -0.19359683159909061 0 -0.1210277983726237 -0.20080419496638871 0 -0.12833971984693959 -0.20340181913978941 0 -0.1287375196768317 -0.1989974444917289 0 -0.1221143178041114 -0.19234248283227301 0 -0.1287375196768317 -0.1989974444917289 0 -0.1314192587983791 -0.19359683159909061 0 -0.1314192587983791 -0.19359683159909061 0 -0.1420465959208794 -0.1984943042809322 0 -0.1512090652639769 -0.1911736867042346 0 -0.14920765704353961 -0.2069242839694774 0 -0.1512090652639769 -0.1911736867042346 0 -0.16613147043060339 -0.2018841564818957 0 -0.14920765704353961 -0.2069242839694774 0 -0.1420465959208794 -0.1984943042809322 0 -0.1512090652639769 -0.1911736867042346 0 -0.1506253399441001 -0.18191391990730801 0 -0.1314192587983791 -0.19359683159909061 0 -0.1512090652639769 -0.1911736867042346 0 -0.16533888001856381 -0.18602690419207779 0 -0.1512090652639769 -0.1911736867042346 0 -0.16613147043060339 -0.2018841564818957 0 -0.16533888001856381 -0.18602690419207779 0 -0.16613147043060339 -0.2018841564818957 0 -0.1786295148813212 -0.19556646452315241 0 -0.1786295148813212 -0.19556646452315241 0 -0.17958500981378461 -0.2107334264309661 0 -0.1981990761364697 -0.20254736480388241 0 -0.18421608521209271 -0.17558962027652111 0 -0.1786295148813212 -0.19556646452315241 0 -0.1981990761364697 -0.20254736480388241 0 -0.16613147043060339 -0.2018841564818957 0 -0.1786295148813212 -0.19556646452315241 0 -0.17958500981378461 -0.2107334264309661 0 -0.17958500981378461 -0.2107334264309661 0 -0.1666111544691056 -0.22171119925505031 0 -0.19116993277822331 -0.22279453133759641 0 -0.16613147043060339 -0.2018841564818957 0 -0.17958500981378461 -0.2107334264309661 0 -0.1666111544691056 -0.22171119925505031 0 -0.14920765704353961 -0.2069242839694774 0 -0.16613147043060339 -0.2018841564818957 0 -0.1666111544691056 -0.22171119925505031 0 -0.16774304296138501 -0.24055682594909811 0 -0.1994177047143332 -0.2432145052078287 0 -0.19116993277822331 -0.22279453133759641 0 -0.18473400419263841 -0.26184427346616201 0 -0.16774304296138501 -0.24055682594909811 0 -0.1994177047143332 -0.2432145052078287 0 -0.14920126421366381 -0.23878179657915319 0 -0.1666111544691056 -0.22171119925505031 0 -0.16774304296138501 -0.24055682594909811 0 -0.1666111544691056 -0.22171119925505031 0 -0.16774304296138501 -0.24055682594909811 0 -0.19116993277822331 -0.22279453133759641 0 -0.15229660666407671 -0.25401824511238591 0 -0.14920126421366381 -0.23878179657915319 0 -0.16774304296138501 -0.24055682594909811 0 -0.1994177047143332 -0.2432145052078287 0 -0.21214113701728249 -0.228940323783688 0 -0.22937054978906041 -0.24331512362502869 0 -0.2113475615474098 -0.26183595308539898 0 -0.1994177047143332 -0.2432145052078287 0 -0.22937054978906041 -0.24331512362502869 0 -0.1994177047143332 -0.2432145052078287 0 -0.19116993277822331 -0.22279453133759641 0 -0.21214113701728249 -0.228940323783688 0 -0.19116993277822331 -0.22279453133759641 0 -0.21214113701728249 -0.228940323783688 0 -0.21151629669390881 -0.21291663877559669 0 -0.21214113701728249 -0.228940323783688 0 -0.21151629669390881 -0.21291663877559669 0 -0.2275824975951227 -0.2207461827585098 0 -0.21151629669390881 -0.21291663877559669 0 -0.1981990761364697 -0.20254736480388241 0 -0.21430725265311781 -0.19815896184605211 0 -0.21151629669390881 -0.21291663877559669 0 -0.21430725265311781 -0.19815896184605211 0 -0.22569788398323701 -0.20431246812385209 0 -0.19116993277822331 -0.22279453133759641 0 -0.21151629669390881 -0.21291663877559669 0 -0.1981990761364697 -0.20254736480388241 0 -0.17958500981378461 -0.2107334264309661 0 -0.19116993277822331 -0.22279453133759641 0 -0.1981990761364697 -0.20254736480388241 0 -0.21430725265311781 -0.19815896184605211 0 -0.2251169230399053 -0.19244957551320049 0 -0.21195197509782959 -0.17979668970279891 0 -0.1981990761364697 -0.20254736480388241 0 -0.21430725265311781 -0.19815896184605211 0 -0.21195197509782959 -0.17979668970279891 0 -0.21430725265311781 -0.19815896184605211 0 -0.2251169230399053 -0.19244957551320049 0 -0.22569788398323701 -0.20431246812385209 0 -0.2251169230399053 -0.19244957551320049 0 -0.23600322778131949 -0.19814692121484651 0 -0.22569788398323701 -0.20431246812385209 0 -0.2251169230399053 -0.19244957551320049 0 -0.23600322778131949 -0.19814692121484651 0 -0.23968786498356659 -0.18400375912907671 0 -0.23600322778131949 -0.19814692121484651 0 -0.23968786498356659 -0.18400375912907671 0 -0.25047429362874257 -0.200219847641955 0 -0.23600322778131949 -0.19814692121484651 0 -0.23949462900920199 -0.21027573078813011 0 -0.25047429362874257 -0.200219847641955 0 -0.23949462900920199 -0.21027573078813011 0 -0.25247744799357308 -0.21261594090752481 0 -0.25047429362874257 -0.200219847641955 0 -0.23949462900920199 -0.21027573078813011 0 -0.24510877540263959 -0.22548599802342939 0 -0.25247744799357308 -0.21261594090752481 0 -0.23949462900920199 -0.21027573078813011 0 -0.22569788398323701 -0.20431246812385209 0 -0.2275824975951227 -0.2207461827585098 0 -0.21151629669390881 -0.21291663877559669 0 -0.22569788398323701 -0.20431246812385209 0 -0.2275824975951227 -0.2207461827585098 0 -0.23600322778131949 -0.19814692121484651 0 -0.23949462900920199 -0.21027573078813011 0 -0.22569788398323701 -0.20431246812385209 0 -0.21214113701728249 -0.228940323783688 0 -0.2275824975951227 -0.2207461827585098 0 -0.22937054978906041 -0.24331512362502869 0 -0.2275824975951227 -0.2207461827585098 0 -0.24510877540263959 -0.22548599802342939 0 -0.22937054978906041 -0.24331512362502869 0 -0.23949462900920199 -0.21027573078813011 0 -0.2275824975951227 -0.2207461827585098 0 -0.24510877540263959 -0.22548599802342939 0 -0.24510877540263959 -0.22548599802342939 0 -0.22937054978906041 -0.24331512362502869 0 -0.2582168116042447 -0.2439014490639565 0 -0.2483490975252734 -0.26098873334868322 0 -0.22937054978906041 -0.24331512362502869 0 -0.2582168116042447 -0.2439014490639565 0 -0.2067502249108786 -0.1536135545564879 0 -0.21547877813771771 -0.14332314171572449 0 -0.20152593766547949 -0.13633519349348669 0 -0.2067502249108786 -0.1536135545564879 0 -0.21547877813771771 -0.14332314171572449 0 -0.22184111984059729 -0.15282479907953789 0 -0.21547877813771771 -0.14332314171572449 0 -0.21860961385214961 -0.13100792014620721 0 -0.20152593766547949 -0.13633519349348669 0 -0.21860961385214961 -0.13100792014620721 0 -0.20152593766547949 -0.13633519349348669 0 -0.2099810947540583 -0.12129541974841899 0 -0.18000311622314791 -0.13001748444371289 0 -0.20152593766547949 -0.13633519349348669 0 -0.19534617212360411 -0.121013351703841 0 -0.18000311622314791 -0.13001748444371289 0 -0.20152593766547949 -0.13633519349348669 0 -0.188845491435889 -0.14939424719825839 0 -0.20152593766547949 -0.13633519349348669 0 -0.2099810947540583 -0.12129541974841899 0 -0.19534617212360411 -0.121013351703841 0 -0.2067502249108786 -0.1536135545564879 0 -0.188845491435889 -0.14939424719825839 0 -0.1979143625406167 -0.1642252661741595 0 -0.2067502249108786 -0.1536135545564879 0 -0.20152593766547949 -0.13633519349348669 0 -0.188845491435889 -0.14939424719825839 0 -0.17757024440875549 -0.16111115580157981 0 -0.188845491435889 -0.14939424719825839 0 -0.1979143625406167 -0.1642252661741595 0 -0.18421608521209271 -0.17558962027652111 0 -0.1981990761364697 -0.20254736480388241 0 -0.21195197509782959 -0.17979668970279891 0 -0.18421608521209271 -0.17558962027652111 0 -0.21195197509782959 -0.17979668970279891 0 -0.18421608521209271 -0.17558962027652111 0 -0.1979143625406167 -0.1642252661741595 0 -0.21195197509782959 -0.17979668970279891 0 -0.1979143625406167 -0.1642252661741595 0 -0.21195197509782959 -0.17979668970279891 0 -0.2165382263276793 -0.1649867273485818 0 -0.2067502249108786 -0.1536135545564879 0 -0.1979143625406167 -0.1642252661741595 0 -0.2165382263276793 -0.1649867273485818 0 -0.2067502249108786 -0.1536135545564879 0 -0.2165382263276793 -0.1649867273485818 0 -0.22184111984059729 -0.15282479907953789 0 -0.2165382263276793 -0.1649867273485818 0 -0.2313091397970973 -0.16435086132264101 0 -0.233842168872713 -0.17694121357944129 0 -0.2165382263276793 -0.1649867273485818 0 -0.2313091397970973 -0.16435086132264101 0 -0.22184111984059729 -0.15282479907953789 0 -0.21195197509782959 -0.17979668970279891 0 -0.233842168872713 -0.17694121357944129 0 -0.23968786498356659 -0.18400375912907671 0 -0.2251169230399053 -0.19244957551320049 0 -0.21195197509782959 -0.17979668970279891 0 -0.23968786498356659 -0.18400375912907671 0 -0.21195197509782959 -0.17979668970279891 0 -0.2165382263276793 -0.1649867273485818 0 -0.233842168872713 -0.17694121357944129 0 -0.21195197509782959 -0.17979668970279891 0 -0.23968786498356659 -0.18400375912907671 0 -0.233842168872713 -0.17694121357944129 0 -0.25982868842644607 -0.17021686968691641 0 -0.233842168872713 -0.17694121357944129 0 -0.23968786498356659 -0.18400375912907671 0 -0.25982868842644607 -0.17021686968691641 0 -0.2313091397970973 -0.16435086132264101 0 -0.24566481473353391 -0.1652464025747532 0 -0.25343568279415951 -0.15224923159364789 0 -0.233842168872713 -0.17694121357944129 0 -0.24566481473353391 -0.1652464025747532 0 -0.25982868842644607 -0.17021686968691641 0 -0.2313091397970973 -0.16435086132264101 0 -0.25343568279415951 -0.15224923159364789 0 -0.2313091397970973 -0.16435086132264101 0 -0.233842168872713 -0.17694121357944129 0 -0.24566481473353391 -0.1652464025747532 0 -0.2313091397970973 -0.16435086132264101 0 -0.23261035815430561 -0.14322336329666011 0 -0.25343568279415951 -0.15224923159364789 0 -0.23261035815430561 -0.14322336329666011 0 -0.2478381125959237 -0.13014188093155071 0 -0.25343568279415951 -0.15224923159364789 0 -0.21547877813771771 -0.14332314171572449 0 -0.23261035815430561 -0.14322336329666011 0 -0.22184111984059729 -0.15282479907953789 0 -0.2313091397970973 -0.16435086132264101 0 -0.23261035815430561 -0.14322336329666011 0 -0.22184111984059729 -0.15282479907953789 0 -0.21547877813771771 -0.14332314171572449 0 -0.21860961385214961 -0.13100792014620721 0 -0.23261035815430561 -0.14322336329666011 0 -0.21860961385214961 -0.13100792014620721 0 -0.23261035815430561 -0.14322336329666011 0 -0.23267318929165751 -0.1266142136656879 0 -0.23261035815430561 -0.14322336329666011 0 -0.23267318929165751 -0.1266142136656879 0 -0.2478381125959237 -0.13014188093155071 0 -0.2478381125959237 -0.13014188093155071 0 -0.2401350799320488 -0.1157431384930437 0 -0.25439292330372432 -0.11161035632906929 0 -0.23267318929165751 -0.1266142136656879 0 -0.2478381125959237 -0.13014188093155071 0 -0.2401350799320488 -0.1157431384930437 0 -0.2401350799320488 -0.1157431384930437 0 -0.2438502060585381 -0.1028583717612334 0 -0.25439292330372432 -0.11161035632906929 0 -0.2438502060585381 -0.1028583717612334 0 -0.2453315870002564 -0.095437246693633959 0 -0.2525882024947626 -0.098821099717938107 0 -0.2453315870002564 -0.095437246693633959 0 -0.25144169010332901 -0.091633326375329338 0 -0.2525882024947626 -0.098821099717938107 0 -0.2438502060585381 -0.1028583717612334 0 -0.2453315870002564 -0.095437246693633959 0 -0.23922762562760841 -0.098169318759804947 0 -0.23922762562760841 -0.098169318759804947 0 -0.23518849288928181 -0.10695649013526939 0 -0.23134854976794339 -0.097632931289006297 0 -0.2453315870002564 -0.095437246693633959 0 -0.23922762562760841 -0.098169318759804947 0 -0.2404192924220224 -0.087961553919881613 0 -0.23922762562760841 -0.098169318759804947 0 -0.23134854976794339 -0.097632931289006297 0 -0.2404192924220224 -0.087961553919881613 0 -0.2438502060585381 -0.1028583717612334 0 -0.23922762562760841 -0.098169318759804947 0 -0.23518849288928181 -0.10695649013526939 0 -0.2401350799320488 -0.1157431384930437 0 -0.2438502060585381 -0.1028583717612334 0 -0.23518849288928181 -0.10695649013526939 0 -0.23518849288928181 -0.10695649013526939 0 -0.23134854976794339 -0.097632931289006297 0 -0.22417278192385959 -0.11295476546097789 0 -0.23134854976794339 -0.097632931289006297 0 -0.22417278192385959 -0.11295476546097789 0 -0.2186303362545719 -0.093883136955868224 0 -0.2401350799320488 -0.1157431384930437 0 -0.23518849288928181 -0.10695649013526939 0 -0.22417278192385959 -0.11295476546097789 0 -0.21860961385214961 -0.13100792014620721 0 -0.23267318929165751 -0.1266142136656879 0 -0.22417278192385959 -0.11295476546097789 0 -0.23267318929165751 -0.1266142136656879 0 -0.2401350799320488 -0.1157431384930437 0 -0.22417278192385959 -0.11295476546097789 0 -0.24388885687392389 -0.071688150345257468 0 -0.2338744138803254 -0.062312468216533988 0 -0.2476323682116322 -0.061520987214930753 0 -0.24388885687392389 -0.071688150345257468 0 -0.2476323682116322 -0.061520987214930753 0 -0.2529882333064245 -0.070973901803662365 0 -0.24388885687392389 -0.071688150345257468 0 -0.24682403554985069 -0.077092069586417622 0 -0.2529882333064245 -0.070973901803662365 0 -0.24388885687392389 -0.071688150345257468 0 -0.24682403554985069 -0.077092069586417622 0 -0.23610695818539329 -0.077097104601848404 0 -0.24388885687392389 -0.071688150345257468 0 -0.23610695818539329 -0.077097104601848404 0 -0.2338744138803254 -0.062312468216533988 0 -0.2404192924220224 -0.087961553919881613 0 -0.23434786935979859 -0.086445608359767251 0 -0.25855249999409979 -0.079349971077516485 0 -0.23434786935979859 -0.086445608359767251 0 -0.25855249999409979 -0.079349971077516485 0 -0.24682403554985069 -0.077092069586417622 0 -0.23434786935979859 -0.086445608359767251 0 -0.25855249999409979 -0.079349971077516485 0 -0.24682403554985069 -0.077092069586417622 0 -0.23610695818539329 -0.077097104601848404 0 -0.23434786935979859 -0.086445608359767251 0 -0.2404192924220224 -0.087961553919881613 0 -0.25356789490128989 -0.088072195653340249 0 -0.25144169010332901 -0.091633326375329338 0 -0.2453315870002564 -0.095437246693633959 0 -0.2404192924220224 -0.087961553919881613 0 -0.25144169010332901 -0.091633326375329338 0 -0.23134854976794339 -0.097632931289006297 0 -0.2404192924220224 -0.087961553919881613 0 -0.2186303362545719 -0.093883136955868224 0 -0.23434786935979859 -0.086445608359767251 0 -0.21819510633345421 -0.084818126690887299 0 -0.2186303362545719 -0.093883136955868224 0 -0.23434786935979859 -0.086445608359767251 0 -0.22784347827361409 -0.07844521728239337 0 -0.21819510633345421 -0.084818126690887299 0 -0.2404192924220224 -0.087961553919881613 0 -0.2186303362545719 -0.093883136955868224 0 -0.2404192924220224 -0.087961553919881613 0 -0.23434786935979859 -0.086445608359767251 0 -0.2186303362545719 -0.093883136955868224 0 -0.23610695818539329 -0.077097104601848404 0 -0.23434786935979859 -0.086445608359767251 0 -0.22784347827361409 -0.07844521728239337 0 -0.22561928727888081 -0.069226289525945936 0 -0.21465014164525181 -0.057056120614390499 0 -0.2338744138803254 -0.062312468216533988 0 -0.23610695818539329 -0.077097104601848404 0 -0.22784347827361409 -0.07844521728239337 0 -0.22561928727888081 -0.069226289525945936 0 -0.22784347827361409 -0.07844521728239337 0 -0.22561928727888081 -0.069226289525945936 0 -0.21562144440981909 -0.071220536914563426 0 -0.23610695818539329 -0.077097104601848404 0 -0.22561928727888081 -0.069226289525945936 0 -0.2338744138803254 -0.062312468216533988 0 -0.20283299924243431 -0.077387366601351398 0 -0.20047874574939811 -0.054521575326106748 0 -0.21465014164525181 -0.057056120614390499 0 -0.22784347827361409 -0.07844521728239337 0 -0.20283299924243431 -0.077387366601351398 0 -0.21562144440981909 -0.071220536914563426 0 -0.20283299924243431 -0.077387366601351398 0 -0.21465014164525181 -0.057056120614390499 0 -0.22784347827361409 -0.07844521728239337 0 -0.21562144440981909 -0.071220536914563426 0 -0.20283299924243431 -0.077387366601351398 0 -0.20283299924243431 -0.077387366601351398 0 -0.21465014164525181 -0.057056120614390499 0 -0.22561928727888081 -0.069226289525945936 0 -0.21562144440981909 -0.071220536914563426 0 -0.21465014164525181 -0.057056120614390499 0 -0.22784347827361409 -0.07844521728239337 0 -0.21819510633345421 -0.084818126690887299 0 -0.20283299924243431 -0.077387366601351398 0 -0.21819510633345421 -0.084818126690887299 0 -0.20732084853685229 -0.087929304255056254 0 -0.20283299924243431 -0.077387366601351398 0 -0.21819510633345421 -0.084818126690887299 0 -0.20732084853685229 -0.087929304255056254 0 -0.2186303362545719 -0.093883136955868224 0 -0.19866559760639321 -0.08455732909318063 0 -0.19684138008712149 -0.099804719991854848 0 -0.1822294403993594 -0.091272888294312293 0 -0.19866559760639321 -0.08455732909318063 0 -0.18940645687904581 -0.076819473560781115 0 -0.1822294403993594 -0.091272888294312293 0 -0.20732084853685229 -0.087929304255056254 0 -0.19866559760639321 -0.08455732909318063 0 -0.19684138008712149 -0.099804719991854848 0 -0.20732084853685229 -0.087929304255056254 0 -0.19866559760639321 -0.08455732909318063 0 -0.20283299924243431 -0.077387366601351398 0 -0.19866559760639321 -0.08455732909318063 0 -0.20283299924243431 -0.077387366601351398 0 -0.18940645687904581 -0.076819473560781115 0 -0.19866559760639321 -0.08455732909318063 0 -0.20283299924243431 -0.077387366601351398 0 -0.20283299924243431 -0.077387366601351398 0 -0.18940645687904581 -0.076819473560781115 0 -0.20047874574939811 -0.054521575326106748 0 -0.18940645687904581 -0.076819473560781115 0 -0.18709502764393729 -0.061773717592220383 0 -0.20047874574939811 -0.054521575326106748 0 -0.18940645687904581 -0.076819473560781115 0 -0.20047874574939811 -0.054521575326106748 0 -0.20283299924243431 -0.077387366601351398 0 -0.18940645687904581 -0.076819473560781115 0 -0.22417278192385959 -0.11295476546097789 0 -0.2099810947540583 -0.12129541974841899 0 -0.20756026250284701 -0.1093706759350784 0 -0.21860961385214961 -0.13100792014620721 0 -0.22417278192385959 -0.11295476546097789 0 -0.2099810947540583 -0.12129541974841899 0 -0.2099810947540583 -0.12129541974841899 0 -0.20756026250284701 -0.1093706759350784 0 -0.19534617212360411 -0.121013351703841 0 -0.2186303362545719 -0.093883136955868224 0 -0.19684138008712149 -0.099804719991854848 0 -0.20732084853685229 -0.087929304255056254 0 -0.2186303362545719 -0.093883136955868224 0 -0.19684138008712149 -0.099804719991854848 0 -0.2186303362545719 -0.093883136955868224 0 -0.20756026250284701 -0.1093706759350784 0 -0.19684138008712149 -0.099804719991854848 0 -0.22417278192385959 -0.11295476546097789 0 -0.2186303362545719 -0.093883136955868224 0 -0.20756026250284701 -0.1093706759350784 0 -0.20756026250284701 -0.1093706759350784 0 -0.19684138008712149 -0.099804719991854848 0 -0.18817082801183779 -0.1109486318043842 0 -0.20756026250284701 -0.1093706759350784 0 -0.18817082801183779 -0.1109486318043842 0 -0.19534617212360411 -0.121013351703841 0 -0.18817082801183779 -0.1109486318043842 0 -0.19534617212360411 -0.121013351703841 0 -0.18027610093587751 -0.1196181089702751 0 -0.18000311622314791 -0.13001748444371289 0 -0.19534617212360411 -0.121013351703841 0 -0.18027610093587751 -0.1196181089702751 0 -0.1628079644011253 -0.13038477387159439 0 -0.18027610093587751 -0.1196181089702751 0 -0.17505242391967141 -0.10572630302784269 0 -0.18817082801183779 -0.1109486318043842 0 -0.18027610093587751 -0.1196181089702751 0 -0.17505242391967141 -0.10572630302784269 0 -0.1628079644011253 -0.13038477387159439 0 -0.16568054242800659 -0.1082732985805344 0 -0.17505242391967141 -0.10572630302784269 0 -0.1628079644011253 -0.13038477387159439 0 -0.16568054242800659 -0.1082732985805344 0 -0.1559183975343586 -0.1153029742025357 0 -0.1628079644011253 -0.13038477387159439 0 -0.17505242391967141 -0.10572630302784269 0 -0.15766897324155929 -0.10201766098942321 0 -0.16769957127680751 -0.09718714727553697 0 -0.15631644193457139 -0.088857398989056272 0 -0.15766897324155929 -0.10201766098942321 0 -0.16568054242800659 -0.1082732985805344 0 -0.16769957127680751 -0.09718714727553697 0 -0.15766897324155929 -0.10201766098942321 0 -0.16568054242800659 -0.1082732985805344 0 -0.1559183975343586 -0.1153029742025357 0 -0.16568054242800659 -0.1082732985805344 0 -0.16769957127680751 -0.09718714727553697 0 -0.17505242391967141 -0.10572630302784269 0 -0.16568054242800659 -0.1082732985805344 0 -0.17505242391967141 -0.10572630302784269 0 -0.19684138008712149 -0.099804719991854848 0 -0.18817082801183779 -0.1109486318043842 0 -0.17505242391967141 -0.10572630302784269 0 -0.19684138008712149 -0.099804719991854848 0 -0.17505242391967141 -0.10572630302784269 0 -0.16769957127680751 -0.09718714727553697 0 -0.17505242391967141 -0.10572630302784269 0 -0.1822294403993594 -0.091272888294312293 0 -0.19684138008712149 -0.099804719991854848 0 -0.17505242391967141 -0.10572630302784269 0 -0.1822294403993594 -0.091272888294312293 0 -0.17505242391967141 -0.10572630302784269 0 -0.1822294403993594 -0.091272888294312293 0 -0.16769957127680751 -0.09718714727553697 0 -0.1822294403993594 -0.091272888294312293 0 -0.16622085479676199 -0.075838808419480111 0 -0.18940645687904581 -0.076819473560781115 0 -0.1822294403993594 -0.091272888294312293 0 -0.16622085479676199 -0.075838808419480111 0 -0.18940645687904581 -0.076819473560781115 0 -0.1822294403993594 -0.091272888294312293 0 -0.18940645687904581 -0.076819473560781115 0 -0.16622085479676199 -0.075838808419480111 0 -0.18940645687904581 -0.076819473560781115 0 -0.17672291357829811 -0.064990721505459842 0 -0.16622085479676199 -0.075838808419480111 0 -0.18940645687904581 -0.076819473560781115 0 -0.17672291357829811 -0.064990721505459842 0 -0.18709502764393729 -0.061773717592220383 0 -0.17672291357829811 -0.064990721505459842 0 -0.16622085479676199 -0.075838808419480111 0 -0.16458020880549121 -0.059492387506912943 0 -0.16622085479676199 -0.075838808419480111 0 -0.15646239569026699 -0.065906604111614212 0 -0.16458020880549121 -0.059492387506912943 0 -0.16769957127680751 -0.09718714727553697 0 -0.16622085479676199 -0.075838808419480111 0 -0.15631644193457139 -0.088857398989056272 0 -0.15631644193457139 -0.088857398989056272 0 -0.14677991412428701 -0.093732051016317916 0 -0.1430352527144782 -0.074858143278179051 0 -0.16622085479676199 -0.075838808419480111 0 -0.15631644193457139 -0.088857398989056272 0 -0.1430352527144782 -0.074858143278179051 0 -0.14677991412428701 -0.093732051016317916 0 -0.1430352527144782 -0.074858143278179051 0 -0.13451756518433111 -0.095180895342251215 0 -0.1430352527144782 -0.074858143278179051 0 -0.1411001381629465 -0.060647222888288201 0 -0.15201326644433669 -0.053437077241884359 0 -0.16622085479676199 -0.075838808419480111 0 -0.15646239569026699 -0.065906604111614212 0 -0.1430352527144782 -0.074858143278179051 0 -0.16622085479676199 -0.075838808419480111 0 -0.1430352527144782 -0.074858143278179051 0 -0.1430352527144782 -0.074858143278179051 0 -0.15201326644433669 -0.053437077241884359 0 -0.15646239569026699 -0.065906604111614212 0 -0.1430352527144782 -0.074858143278179051 0 -0.15201326644433669 -0.053437077241884359 0 -0.13708859775349791 -0.067653843581906681 0 -0.130794656111274 -0.068530613083725267 0 -0.13379805028672059 -0.060142641530726633 0 -0.1430352527144782 -0.074858143278179051 0 -0.13708859775349791 -0.067653843581906681 0 -0.1411001381629465 -0.060647222888288201 0 -0.13708859775349791 -0.067653843581906681 0 -0.13379805028672059 -0.060142641530726633 0 -0.1411001381629465 -0.060647222888288201 0 -0.13708859775349791 -0.067653843581906681 0 -0.13568082893985359 -0.07454707837658528 0 -0.130794656111274 -0.068530613083725267 0 -0.1430352527144782 -0.074858143278179051 0 -0.13708859775349791 -0.067653843581906681 0 -0.13568082893985359 -0.07454707837658528 0 -0.1430352527144782 -0.074858143278179051 0 -0.13568082893985359 -0.07454707837658528 0 -0.1232756904161693 -0.070411489051666373 0 -0.130794656111274 -0.068530613083725267 0 -0.12737817104852411 -0.080741270387750683 0 -0.13568082893985359 -0.07454707837658528 0 -0.130794656111274 -0.068530613083725267 0 -0.12737817104852411 -0.080741270387750683 0 -0.12131955324210091 -0.059181462630683621 0 -0.130794656111274 -0.068530613083725267 0 -0.13379805028672059 -0.060142641530726633 0 -0.1232756904161693 -0.070411489051666373 0 -0.12131955324210091 -0.059181462630683621 0 -0.130794656111274 -0.068530613083725267 0 -0.13568082893985359 -0.07454707837658528 0 -0.12737817104852411 -0.080741270387750683 0 -0.13451756518433111 -0.095180895342251215 0 -0.1430352527144782 -0.074858143278179051 0 -0.13568082893985359 -0.07454707837658528 0 -0.13451756518433111 -0.095180895342251215 0 -0.1430352527144782 -0.074858143278179051 0 -0.13451756518433111 -0.095180895342251215 0 -0.12067370026095731 -0.092005587950159118 0 -0.12737817104852411 -0.080741270387750683 0 -0.13451756518433111 -0.095180895342251215 0 -0.13451756518433111 -0.095180895342251215 0 -0.12599987765418549 -0.11550364740632391 0 -0.13451756518433111 -0.095180895342251215 0 -0.139855014945965 -0.1081270544919556 0 -0.13238394533585049 -0.1132856834133564 0 -0.13451756518433111 -0.095180895342251215 0 -0.12599987765418549 -0.11550364740632391 0 -0.13238394533585049 -0.1132856834133564 0 -0.12182531397588869 -0.1044134543712442 0 -0.13451756518433111 -0.095180895342251215 0 -0.12599987765418549 -0.11550364740632391 0 -0.12182531397588869 -0.1044134543712442 0 -0.12067370026095731 -0.092005587950159118 0 -0.13451756518433111 -0.095180895342251215 0 -0.12599987765418549 -0.11550364740632391 0 -0.1252704192176744 -0.1172440966648565 0 -0.13114171751694609 -0.1183715484722116 0 -0.12599987765418549 -0.11550364740632391 0 -0.1252704192176744 -0.1172440966648565 0 -0.12599987765418549 -0.11550364740632391 0 -0.13238394533585049 -0.1132856834133564 0 -0.12599987765418549 -0.11550364740632391 0 -0.13238394533585049 -0.1132856834133564 0 -0.13114171751694609 -0.1183715484722116 0 -0.1355018371655794 -0.1265678790332187 0 -0.1252704192176744 -0.1172440966648565 0 -0.13114171751694609 -0.1183715484722116 0 -0.1355018371655794 -0.1265678790332187 0 -0.13114171751694609 -0.1183715484722116 0 -0.14420813470266419 -0.11805716313719079 0 -0.139855014945965 -0.1081270544919556 0 -0.13238394533585049 -0.1132856834133564 0 -0.14420813470266419 -0.11805716313719079 0 -0.13238394533585049 -0.1132856834133564 0 -0.13114171751694609 -0.1183715484722116 0 -0.14420813470266419 -0.11805716313719079 0 -0.139855014945965 -0.1081270544919556 0 -0.14420813470266419 -0.11805716313719079 0 -0.1483104145610141 -0.1059844760750239 0 -0.1628079644011253 -0.13038477387159439 0 -0.14420813470266419 -0.11805716313719079 0 -0.1559183975343586 -0.1153029742025357 0 -0.14420813470266419 -0.11805716313719079 0 -0.1559183975343586 -0.1153029742025357 0 -0.1483104145610141 -0.1059844760750239 0 -0.15766897324155929 -0.10201766098942321 0 -0.1559183975343586 -0.1153029742025357 0 -0.1483104145610141 -0.1059844760750239 0 -0.15766897324155929 -0.10201766098942321 0 -0.15631644193457139 -0.088857398989056272 0 -0.14677991412428701 -0.093732051016317916 0 -0.15766897324155929 -0.10201766098942321 0 -0.14677991412428701 -0.093732051016317916 0 -0.1483104145610141 -0.1059844760750239 0 -0.14677991412428701 -0.093732051016317916 0 -0.13451756518433111 -0.095180895342251215 0 -0.1483104145610141 -0.1059844760750239 0 -0.13451756518433111 -0.095180895342251215 0 -0.139855014945965 -0.1081270544919556 0 -0.1483104145610141 -0.1059844760750239 0 -0.1452248522035206 -0.0135074852317284 0 -0.13361245343545181 -0.030305793086055629 0 -0.1484749629479134 -0.038477035386196637 0 -0.1452248522035206 -0.0135074852317284 0 -0.1484749629479134 -0.038477035386196637 0 -0.16099128017419639 -0.03201601120559007 0 -0.1452248522035206 -0.0135074852317284 0 -0.1660829110182864 -0.0110115892886907 0 -0.1564869492866878 -0.00059129627401754796 0 -0.1452248522035206 -0.0135074852317284 0 -0.1564869492866878 -0.00059129627401754796 0 -0.1433170204333889 0.0042533116210359059 0 -0.1452248522035206 -0.0135074852317284 0 -0.13137048688310951 -0.003337023478303953 0 -0.1433170204333889 0.0042533116210359059 0 -0.1236122261121546 -0.0078425818954372464 0 -0.1452248522035206 -0.0135074852317284 0 -0.13137048688310951 -0.003337023478303953 0 -0.1236122261121546 -0.0078425818954372464 0 -0.13137048688310951 -0.003337023478303953 0 -0.1236122261121546 -0.0078425818954372464 0 -0.13361245343545181 -0.030305793086055629 0 -0.1236122261121546 -0.0078425818954372464 0 -0.1185057960264221 -0.028529017004706999 0 -0.13361245343545181 -0.030305793086055629 0 -0.1236122261121546 -0.0078425818954372464 0 -0.1452248522035206 -0.0135074852317284 0 -0.13361245343545181 -0.030305793086055629 0 -0.13361245343545181 -0.030305793086055629 0 -0.14346563865851419 -0.05243870800993642 0 -0.1197314047957487 -0.044466417495601512 0 -0.13361245343545181 -0.030305793086055629 0 -0.1315211872564446 -0.050314657740016588 0 -0.13361245343545181 -0.030305793086055629 0 -0.1315211872564446 -0.050314657740016588 0 -0.14346563865851419 -0.05243870800993642 0 -0.12131955324210091 -0.059181462630683621 0 -0.1315211872564446 -0.050314657740016588 0 -0.13379805028672059 -0.060142641530726633 0 -0.1315211872564446 -0.050314657740016588 0 -0.1374712535911565 -0.055885807542241962 0 -0.14346563865851419 -0.05243870800993642 0 -0.1315211872564446 -0.050314657740016588 0 -0.1374712535911565 -0.055885807542241962 0 -0.13379805028672059 -0.060142641530726633 0 -0.1374712535911565 -0.055885807542241962 0 -0.13379805028672059 -0.060142641530726633 0 -0.1411001381629465 -0.060647222888288201 0 -0.1411001381629465 -0.060647222888288201 0 -0.14346563865851419 -0.05243870800993642 0 -0.15201326644433669 -0.053437077241884359 0 -0.1374712535911565 -0.055885807542241962 0 -0.1411001381629465 -0.060647222888288201 0 -0.14346563865851419 -0.05243870800993642 0 -0.14346563865851419 -0.05243870800993642 0 -0.15201326644433669 -0.053437077241884359 0 -0.1484749629479134 -0.038477035386196637 0 -0.15201326644433669 -0.053437077241884359 0 -0.1484749629479134 -0.038477035386196637 0 -0.16099128017419639 -0.03201601120559007 0 -0.13361245343545181 -0.030305793086055629 0 -0.14346563865851419 -0.05243870800993642 0 -0.1484749629479134 -0.038477035386196637 0 -0.15201326644433669 -0.053437077241884359 0 -0.16099128017419639 -0.03201601120559007 0 -0.15201326644433669 -0.053437077241884359 0 -0.16099128017419639 -0.03201601120559007 0 -0.16622336588392531 -0.046665464390732471 0 -0.16099128017419639 -0.03201601120559007 0 -0.17705927752236811 -0.038294319471390781 0 -0.1772337338696203 -0.023645926918309929 0 -0.16099128017419639 -0.03201601120559007 0 -0.16622336588392531 -0.046665464390732471 0 -0.17705927752236811 -0.038294319471390781 0 -0.15646239569026699 -0.065906604111614212 0 -0.15201326644433669 -0.053437077241884359 0 -0.16458020880549121 -0.059492387506912943 0 -0.15201326644433669 -0.053437077241884359 0 -0.16622336588392531 -0.046665464390732471 0 -0.16458020880549121 -0.059492387506912943 0 -0.16622336588392531 -0.046665464390732471 0 -0.16458020880549121 -0.059492387506912943 0 -0.17631201976625371 -0.05102922044790497 0 -0.17672291357829811 -0.064990721505459842 0 -0.16458020880549121 -0.059492387506912943 0 -0.17631201976625371 -0.05102922044790497 0 -0.17631201976625371 -0.05102922044790497 0 -0.18709502764393729 -0.061773717592220383 0 -0.18868425509965489 -0.047684834797198213 0 -0.17672291357829811 -0.064990721505459842 0 -0.17631201976625371 -0.05102922044790497 0 -0.18709502764393729 -0.061773717592220383 0 -0.16622336588392531 -0.046665464390732471 0 -0.17631201976625371 -0.05102922044790497 0 -0.17705927752236811 -0.038294319471390781 0 -0.17631201976625371 -0.05102922044790497 0 -0.17705927752236811 -0.038294319471390781 0 -0.18868425509965489 -0.047684834797198213 0 -0.17705927752236811 -0.038294319471390781 0 -0.18868425509965489 -0.047684834797198213 0 -0.19198493650835269 -0.034148616047928453 0 -0.17705927752236811 -0.038294319471390781 0 -0.1772337338696203 -0.023645926918309929 0 -0.19198493650835269 -0.034148616047928453 0 -0.1772337338696203 -0.023645926918309929 0 -0.18418091461086311 -0.0067458590849352237 0 -0.19781487964127609 -0.018046172764705552 0 -0.16099128017419639 -0.03201601120559007 0 -0.1772337338696203 -0.023645926918309929 0 -0.1660829110182864 -0.0110115892886907 0 -0.1452248522035206 -0.0135074852317284 0 -0.16099128017419639 -0.03201601120559007 0 -0.1660829110182864 -0.0110115892886907 0 -0.1660829110182864 -0.0110115892886907 0 -0.1564869492866878 -0.00059129627401754796 0 -0.17208342559322409 0.0058404778805985873 0 -0.1660829110182864 -0.0110115892886907 0 -0.18418091461086311 -0.0067458590849352237 0 -0.17208342559322409 0.0058404778805985873 0 -0.1772337338696203 -0.023645926918309929 0 -0.1660829110182864 -0.0110115892886907 0 -0.18418091461086311 -0.0067458590849352237 0 -0.18418091461086311 -0.0067458590849352237 0 -0.2008908429601583 -0.001101000049535744 0 -0.19781487964127609 -0.018046172764705552 0 -0.19781487964127609 -0.018046172764705552 0 -0.19198493650835269 -0.034148616047928453 0 -0.21155103461974961 -0.032223677091432062 0 -0.1772337338696203 -0.023645926918309929 0 -0.19781487964127609 -0.018046172764705552 0 -0.19198493650835269 -0.034148616047928453 0 -0.19781487964127609 -0.018046172764705552 0 -0.21155103461974961 -0.032223677091432062 0 -0.21882158577424271 -0.0103131571922281 0 -0.2008908429601583 -0.001101000049535744 0 -0.19781487964127609 -0.018046172764705552 0 -0.21882158577424271 -0.0103131571922281 0 -0.18709502764393729 -0.061773717592220383 0 -0.18868425509965489 -0.047684834797198213 0 -0.20047874574939811 -0.054521575326106748 0 -0.18868425509965489 -0.047684834797198213 0 -0.20047874574939811 -0.054521575326106748 0 -0.19817474299428881 -0.04214467581566636 0 -0.19817474299428881 -0.04214467581566636 0 -0.19198493650835269 -0.034148616047928453 0 -0.21155103461974961 -0.032223677091432062 0 -0.18868425509965489 -0.047684834797198213 0 -0.19817474299428881 -0.04214467581566636 0 -0.19198493650835269 -0.034148616047928453 0 -0.20047874574939811 -0.054521575326106748 0 -0.21155103461974961 -0.032223677091432062 0 -0.20047874574939811 -0.054521575326106748 0 -0.19817474299428881 -0.04214467581566636 0 -0.21155103461974961 -0.032223677091432062 0 -0.21155103461974961 -0.032223677091432062 0 -0.21465014164525181 -0.057056120614390499 0 -0.22646728404806721 -0.036724874627428489 0 -0.20047874574939811 -0.054521575326106748 0 -0.21155103461974961 -0.032223677091432062 0 -0.21465014164525181 -0.057056120614390499 0 -0.21465014164525181 -0.057056120614390499 0 -0.2338744138803254 -0.062312468216533988 0 -0.22646728404806721 -0.036724874627428489 0 -0.2338744138803254 -0.062312468216533988 0 -0.22646728404806721 -0.036724874627428489 0 -0.21465014164525181 -0.057056120614390499 0 -0.22646728404806721 -0.036724874627428489 0 -0.22646728404806721 -0.036724874627428489 0 -0.2401414722927224 -0.032241302373577058 0 -0.24278742868549399 -0.046838078323859687 0 -0.2401414722927224 -0.032241302373577058 0 -0.25378175816230958 -0.02436733484642779 0 -0.25219715932032732 -0.038265850071314 0 -0.2401414722927224 -0.032241302373577058 0 -0.24278742868549399 -0.046838078323859687 0 -0.25219715932032732 -0.038265850071314 0 -0.2338744138803254 -0.062312468216533988 0 -0.22646728404806721 -0.036724874627428489 0 -0.24278742868549399 -0.046838078323859687 0 -0.24278742868549399 -0.046838078323859687 0 -0.2476323682116322 -0.061520987214930753 0 -0.25620744044593469 -0.049667056832747067 0 -0.2338744138803254 -0.062312468216533988 0 -0.24278742868549399 -0.046838078323859687 0 -0.2476323682116322 -0.061520987214930753 0 -0.21882158577424271 -0.0103131571922281 0 -0.2374946151573453 -0.01775248911154621 0 -0.23546354233931949 0.0078270751002715265 0 -0.22646728404806721 -0.036724874627428489 0 -0.2374946151573453 -0.01775248911154621 0 -0.21155103461974961 -0.032223677091432062 0 -0.22646728404806721 -0.036724874627428489 0 -0.21882158577424271 -0.0103131571922281 0 -0.22646728404806721 -0.036724874627428489 0 -0.21882158577424271 -0.0103131571922281 0 -0.22646728404806721 -0.036724874627428489 0 -0.21882158577424271 -0.0103131571922281 0 -0.2374946151573453 -0.01775248911154621 0 -0.2374946151573453 -0.01775248911154621 0 -0.25227296286688322 -0.0076793426536460041 0 -0.25378175816230958 -0.02436733484642779 0 -0.2401414722927224 -0.032241302373577058 0 -0.2374946151573453 -0.01775248911154621 0 -0.25378175816230958 -0.02436733484642779 0 -0.22646728404806721 -0.036724874627428489 0 -0.2401414722927224 -0.032241302373577058 0 -0.2374946151573453 -0.01775248911154621 0 -0.2374946151573453 -0.01775248911154621 0 -0.25227296286688322 -0.0076793426536460041 0 -0.23546354233931949 0.0078270751002715265 0 -0.25227296286688322 -0.0076793426536460041 0 -0.27504786807920711 -0.016522946018952021 0 -0.26249405175029211 0.007662734938978108 0 -0.25227296286688322 -0.0076793426536460041 0 -0.25378175816230958 -0.02436733484642779 0 -0.27504786807920711 -0.016522946018952021 0 -0.25378175816230958 -0.02436733484642779 0 -0.27504786807920711 -0.016522946018952021 0 -0.26471526887818231 -0.03538659961621915 0 -0.27504786807920711 -0.016522946018952021 0 -0.27907013255445939 -0.03491531901183742 0 -0.26471526887818231 -0.03538659961621915 0 -0.27504786807920711 -0.016522946018952021 0 -0.26249405175029211 0.007662734938978108 0 -0.29088909275279012 0.0052797473078289572 0 -0.27504786807920711 -0.016522946018952021 0 -0.29710775469227729 -0.014596668466157351 0 -0.29088909275279012 0.0052797473078289572 0 -0.27504786807920711 -0.016522946018952021 0 -0.29121836233921761 -0.027938763998333869 0 -0.27907013255445939 -0.03491531901183742 0 -0.27504786807920711 -0.016522946018952021 0 -0.29121836233921761 -0.027938763998333869 0 -0.29710775469227729 -0.014596668466157351 0 -0.29710775469227729 -0.014596668466157351 0 -0.31759413704845219 -0.011310857140017521 0 -0.31311363369768291 -0.03310849193739672 0 -0.29121836233921761 -0.027938763998333869 0 -0.29710775469227729 -0.014596668466157351 0 -0.31311363369768291 -0.03310849193739672 0 -0.29710775469227729 -0.014596668466157351 0 -0.30518798685158838 -0.0020929360932298849 0 -0.29088909275279012 0.0052797473078289572 0 -0.29710775469227729 -0.014596668466157351 0 -0.30518798685158838 -0.0020929360932298849 0 -0.31759413704845219 -0.011310857140017521 0 -0.3114594072847322 -0.049306726894047262 0 -0.29175242267246138 -0.04055039455732605 0 -0.29253753360804391 -0.057483018047446738 0 -0.3114594072847322 -0.049306726894047262 0 -0.29253753360804391 -0.057483018047446738 0 -0.30696176126270219 -0.065158696513015008 0 -0.3114594072847322 -0.049306726894047262 0 -0.29175242267246138 -0.04055039455732605 0 -0.31311363369768291 -0.03310849193739672 0 -0.29175242267246138 -0.04055039455732605 0 -0.31311363369768291 -0.03310849193739672 0 -0.3114594072847322 -0.049306726894047262 0 -0.29175242267246138 -0.04055039455732605 0 -0.29121836233921761 -0.027938763998333869 0 -0.29175242267246138 -0.04055039455732605 0 -0.31311363369768291 -0.03310849193739672 0 -0.29175242267246138 -0.04055039455732605 0 -0.27907013255445939 -0.03491531901183742 0 -0.29121836233921761 -0.027938763998333869 0 -0.29175242267246138 -0.04055039455732605 0 -0.27907013255445939 -0.03491531901183742 0 -0.29175242267246138 -0.04055039455732605 0 -0.29253753360804391 -0.057483018047446738 0 -0.27994708571901822 -0.057980160189140359 0 -0.27994708571901822 -0.057980160189140359 0 -0.26824156593179532 -0.048741199197032549 0 -0.26874039246249382 -0.069271675174266092 0 -0.29175242267246138 -0.04055039455732605 0 -0.27994708571901822 -0.057980160189140359 0 -0.26824156593179532 -0.048741199197032549 0 -0.29175242267246138 -0.04055039455732605 0 -0.26824156593179532 -0.048741199197032549 0 -0.27907013255445939 -0.03491531901183742 0 -0.29175242267246138 -0.04055039455732605 0 -0.26824156593179532 -0.048741199197032549 0 -0.26824156593179532 -0.048741199197032549 0 -0.27907013255445939 -0.03491531901183742 0 -0.26471526887818231 -0.03538659961621915 0 -0.26824156593179532 -0.048741199197032549 0 -0.26471526887818231 -0.03538659961621915 0 -0.25620744044593469 -0.049667056832747067 0 -0.24278742868549399 -0.046838078323859687 0 -0.25219715932032732 -0.038265850071314 0 -0.25620744044593469 -0.049667056832747067 0 -0.26471526887818231 -0.03538659961621915 0 -0.25219715932032732 -0.038265850071314 0 -0.25620744044593469 -0.049667056832747067 0 -0.25378175816230958 -0.02436733484642779 0 -0.26471526887818231 -0.03538659961621915 0 -0.25219715932032732 -0.038265850071314 0 -0.26824156593179532 -0.048741199197032549 0 -0.25818533518880471 -0.062204128102381351 0 -0.26874039246249382 -0.069271675174266092 0 -0.26824156593179532 -0.048741199197032549 0 -0.25818533518880471 -0.062204128102381351 0 -0.25620744044593469 -0.049667056832747067 0 -0.2476323682116322 -0.061520987214930753 0 -0.25818533518880471 -0.062204128102381351 0 -0.25620744044593469 -0.049667056832747067 0 -0.2476323682116322 -0.061520987214930753 0 -0.25818533518880471 -0.062204128102381351 0 -0.2529882333064245 -0.070973901803662365 0 -0.25818533518880471 -0.062204128102381351 0 -0.25865454608389071 -0.0715458776642144 0 -0.2529882333064245 -0.070973901803662365 0 -0.25818533518880471 -0.062204128102381351 0 -0.25865454608389071 -0.0715458776642144 0 -0.26874039246249382 -0.069271675174266092 0 -0.25865454608389071 -0.0715458776642144 0 -0.25855249999409979 -0.079349971077516485 0 -0.26874039246249382 -0.069271675174266092 0 -0.24682403554985069 -0.077092069586417622 0 -0.25425482873356642 -0.074740455032952721 0 -0.25855249999409979 -0.079349971077516485 0 -0.25865454608389071 -0.0715458776642144 0 -0.25425482873356642 -0.074740455032952721 0 -0.25855249999409979 -0.079349971077516485 0 -0.25865454608389071 -0.0715458776642144 0 -0.25425482873356642 -0.074740455032952721 0 -0.2529882333064245 -0.070973901803662365 0 -0.24682403554985069 -0.077092069586417622 0 -0.25425482873356642 -0.074740455032952721 0 -0.2529882333064245 -0.070973901803662365 0 -0.2404192924220224 -0.087961553919881613 0 -0.25356789490128989 -0.088072195653340249 0 -0.26220824858947278 -0.082039970883894989 0 -0.2404192924220224 -0.087961553919881613 0 -0.26220824858947278 -0.082039970883894989 0 -0.2404192924220224 -0.087961553919881613 0 -0.26220824858947278 -0.082039970883894989 0 -0.25855249999409979 -0.079349971077516485 0 -0.25356789490128989 -0.088072195653340249 0 -0.25144169010332901 -0.091633326375329338 0 -0.26020234849033591 -0.090653931434255125 0 -0.25144169010332901 -0.091633326375329338 0 -0.26020234849033591 -0.090653931434255125 0 -0.2525882024947626 -0.098821099717938107 0 -0.26020234849033591 -0.090653931434255125 0 -0.26220824858947278 -0.082039970883894989 0 -0.26803774644364831 -0.088990216861234941 0 -0.26020234849033591 -0.090653931434255125 0 -0.26803774644364831 -0.088990216861234941 0 -0.26237563885443332 -0.099092169843888092 0 -0.25356789490128989 -0.088072195653340249 0 -0.26020234849033591 -0.090653931434255125 0 -0.26220824858947278 -0.082039970883894989 0 -0.26220824858947278 -0.082039970883894989 0 -0.25855249999409979 -0.079349971077516485 0 -0.27123440961567508 -0.082288547260032208 0 -0.27123440961567508 -0.082288547260032208 0 -0.26803774644364831 -0.088990216861234941 0 -0.28416808666832472 -0.090876464884104322 0 -0.26220824858947278 -0.082039970883894989 0 -0.27123440961567508 -0.082288547260032208 0 -0.26803774644364831 -0.088990216861234941 0 -0.27123440961567508 -0.082288547260032208 0 -0.28275713062840102 -0.072254333795265746 0 -0.28416808666832472 -0.090876464884104322 0 -0.26803774644364831 -0.088990216861234941 0 -0.26237563885443332 -0.099092169843888092 0 -0.28416808666832472 -0.090876464884104322 0 -0.25855249999409979 -0.079349971077516485 0 -0.28275713062840102 -0.072254333795265746 0 -0.25855249999409979 -0.079349971077516485 0 -0.26874039246249382 -0.069271675174266092 0 -0.28275713062840102 -0.072254333795265746 0 -0.25855249999409979 -0.079349971077516485 0 -0.27123440961567508 -0.082288547260032208 0 -0.28275713062840102 -0.072254333795265746 0 -0.27994708571901822 -0.057980160189140359 0 -0.26874039246249382 -0.069271675174266092 0 -0.28275713062840102 -0.072254333795265746 0 -0.2478381125959237 -0.13014188093155071 0 -0.26471173226585809 -0.1241277151614352 0 -0.25439292330372432 -0.11161035632906929 0 -0.26471173226585809 -0.1241277151614352 0 -0.25439292330372432 -0.11161035632906929 0 -0.26925149092450551 -0.1104881183943958 0 -0.25439292330372432 -0.11161035632906929 0 -0.26237563885443332 -0.099092169843888092 0 -0.26925149092450551 -0.1104881183943958 0 -0.25439292330372432 -0.11161035632906929 0 -0.2525882024947626 -0.098821099717938107 0 -0.26237563885443332 -0.099092169843888092 0 -0.2438502060585381 -0.1028583717612334 0 -0.25439292330372432 -0.11161035632906929 0 -0.2525882024947626 -0.098821099717938107 0 -0.26020234849033591 -0.090653931434255125 0 -0.2525882024947626 -0.098821099717938107 0 -0.26237563885443332 -0.099092169843888092 0 -0.26237563885443332 -0.099092169843888092 0 -0.26925149092450551 -0.1104881183943958 0 -0.28416808666832472 -0.090876464884104322 0 -0.26237563885443332 -0.099092169843888092 0 -0.28416808666832472 -0.090876464884104322 0 -0.26925149092450551 -0.1104881183943958 0 -0.28362018306611941 -0.1149768545032684 0 -0.28416808666832472 -0.090876464884104322 0 -0.26471173226585809 -0.1241277151614352 0 -0.26925149092450551 -0.1104881183943958 0 -0.28362018306611941 -0.1149768545032684 0 -0.28362018306611941 -0.1149768545032684 0 -0.30012398023346848 -0.099943372585857088 0 -0.29756340944960558 -0.1135198660677226 0 -0.28362018306611941 -0.1149768545032684 0 -0.29756340944960558 -0.1135198660677226 0 -0.29768876878828382 -0.12804597213566191 0 -0.28362018306611941 -0.1149768545032684 0 -0.30012398023346848 -0.099943372585857088 0 -0.28416808666832472 -0.090876464884104322 0 -0.30012398023346848 -0.099943372585857088 0 -0.30783691459248808 -0.106447779092323 0 -0.31567959952596442 -0.097557764174788134 0 -0.30012398023346848 -0.099943372585857088 0 -0.30783691459248808 -0.106447779092323 0 -0.29756340944960558 -0.1135198660677226 0 -0.31981531178534578 -0.1159443424066684 0 -0.31168640084693722 -0.1309238984722621 0 -0.29768876878828382 -0.12804597213566191 0 -0.31097561465500489 -0.1146061177684144 0 -0.31981531178534578 -0.1159443424066684 0 -0.29768876878828382 -0.12804597213566191 0 -0.31981531178534578 -0.1159443424066684 0 -0.29768876878828382 -0.12804597213566191 0 -0.30783691459248808 -0.106447779092323 0 -0.29756340944960558 -0.1135198660677226 0 -0.31097561465500489 -0.1146061177684144 0 -0.30783691459248808 -0.106447779092323 0 -0.31097561465500489 -0.1146061177684144 0 -0.31588048179209449 -0.1075745667651056 0 -0.29756340944960558 -0.1135198660677226 0 -0.31097561465500489 -0.1146061177684144 0 -0.29768876878828382 -0.12804597213566191 0 -0.29253753360804391 -0.057483018047446738 0 -0.28275713062840102 -0.072254333795265746 0 -0.30696176126270219 -0.065158696513015008 0 -0.28275713062840102 -0.072254333795265746 0 -0.30696176126270219 -0.065158696513015008 0 -0.29253753360804391 -0.057483018047446738 0 -0.27994708571901822 -0.057980160189140359 0 -0.28275713062840102 -0.072254333795265746 0 -0.28275713062840102 -0.072254333795265746 0 -0.28416808666832472 -0.090876464884104322 0 -0.30596053448221622 -0.082660759924320565 0 -0.30012398023346848 -0.099943372585857088 0 -0.28416808666832472 -0.090876464884104322 0 -0.30596053448221622 -0.082660759924320565 0 -0.28416808666832472 -0.090876464884104322 0 -0.30596053448221622 -0.082660759924320565 0 -0.30012398023346848 -0.099943372585857088 0 -0.30596053448221622 -0.082660759924320565 0 -0.31567959952596442 -0.097557764174788134 0 -0.28275713062840102 -0.072254333795265746 0 -0.30596053448221622 -0.082660759924320565 0 -0.30696176126270219 -0.065158696513015008 0 -0.30696176126270219 -0.065158696513015008 0 -0.32775298229610761 -0.074445054964536822 0 -0.33116639189700398 -0.058063059230765962 0 -0.30596053448221622 -0.082660759924320565 0 -0.30696176126270219 -0.065158696513015008 0 -0.32775298229610761 -0.074445054964536822 0 -0.30596053448221622 -0.082660759924320565 0 -0.32775298229610761 -0.074445054964536822 0 -0.30596053448221622 -0.082660759924320565 0 -0.32775298229610761 -0.074445054964536822 0 -0.32362127966136711 -0.087321124884110049 0 -0.30596053448221622 -0.082660759924320565 0 -0.32362127966136711 -0.087321124884110049 0 -0.31567959952596442 -0.097557764174788134 0 -0.32362127966136711 -0.087321124884110049 0 -0.31567959952596442 -0.097557764174788134 0 -0.33099901797333198 -0.096034161481027461 0 -0.32775298229610761 -0.074445054964536822 0 -0.32362127966136711 -0.087321124884110049 0 -0.33771426402921512 -0.08590788387587725 0 -0.32775298229610761 -0.074445054964536822 0 -0.33771426402921512 -0.08590788387587725 0 -0.3410929925936918 -0.075329856076351967 0 -0.32362127966136711 -0.087321124884110049 0 -0.33771426402921512 -0.08590788387587725 0 -0.33099901797333198 -0.096034161481027461 0 -0.33771426402921512 -0.08590788387587725 0 -0.34583111956259749 -0.098435285946989581 0 -0.34764631593145701 -0.084003956848892683 0 -0.33771426402921512 -0.08590788387587725 0 -0.33099901797333198 -0.096034161481027461 0 -0.34583111956259749 -0.098435285946989581 0 -0.33771426402921512 -0.08590788387587725 0 -0.3410929925936918 -0.075329856076351967 0 -0.34764631593145701 -0.084003956848892683 0 -0.32775298229610761 -0.074445054964536822 0 -0.34954543010999922 -0.066229350004753773 0 -0.32775298229610761 -0.074445054964536822 0 -0.34954543010999922 -0.066229350004753773 0 -0.33116639189700398 -0.058063059230765962 0 -0.32775298229610761 -0.074445054964536822 0 -0.3410929925936918 -0.075329856076351967 0 -0.34954543010999922 -0.066229350004753773 0 -0.31981531178534578 -0.1159443424066684 0 -0.33811662782018509 -0.1187149432167614 0 -0.32501708124079648 -0.13103464252731351 0 -0.31097561465500489 -0.1146061177684144 0 -0.31981531178534578 -0.1159443424066684 0 -0.31588048179209449 -0.1075745667651056 0 -0.31097561465500489 -0.1146061177684144 0 -0.31981531178534578 -0.1159443424066684 0 -0.31981531178534578 -0.1159443424066684 0 -0.32413251233690038 -0.10459203082738 0 -0.33754729440195652 -0.1062462215562652 0 -0.31981531178534578 -0.1159443424066684 0 -0.32413251233690038 -0.10459203082738 0 -0.31588048179209449 -0.1075745667651056 0 -0.32413251233690038 -0.10459203082738 0 -0.31588048179209449 -0.1075745667651056 0 -0.31567959952596442 -0.097557764174788134 0 -0.30783691459248808 -0.106447779092323 0 -0.31588048179209449 -0.1075745667651056 0 -0.31567959952596442 -0.097557764174788134 0 -0.32413251233690038 -0.10459203082738 0 -0.31567959952596442 -0.097557764174788134 0 -0.33099901797333198 -0.096034161481027461 0 -0.33754729440195652 -0.1062462215562652 0 -0.33811662782018509 -0.1187149432167614 0 -0.34583111956259749 -0.098435285946989581 0 -0.33099901797333198 -0.096034161481027461 0 -0.33754729440195652 -0.1062462215562652 0 -0.34583111956259749 -0.098435285946989581 0 -0.32413251233690038 -0.10459203082738 0 -0.33099901797333198 -0.096034161481027461 0 -0.33754729440195652 -0.1062462215562652 0 -0.31981531178534578 -0.1159443424066684 0 -0.33754729440195652 -0.1062462215562652 0 -0.31981531178534578 -0.1159443424066684 0 -0.33754729440195652 -0.1062462215562652 0 -0.33811662782018509 -0.1187149432167614 0 -0.31981531178534578 -0.1159443424066684 0 -0.33811662782018509 -0.1187149432167614 0 -0.33811662782018509 -0.1187149432167614 0 -0.32501708124079648 -0.13103464252731351 0 -0.33811662782018509 -0.1187149432167614 0 -0.35957868311145441 -0.098530575294378642 0 -0.36560935282136869 -0.1228770136391782 0 -0.33811662782018509 -0.1187149432167614 0 -0.36560935282136869 -0.1228770136391782 0 -0.33811662782018509 -0.1187149432167614 0 -0.35957868311145441 -0.098530575294378642 0 -0.33811662782018509 -0.1187149432167614 0 -0.34583111956259749 -0.098435285946989581 0 -0.35957868311145441 -0.098530575294378642 0 -0.37338072534044958 -0.1015395423542827 0 -0.35957868311145441 -0.098530575294378642 0 -0.36560935282136869 -0.1228770136391782 0 -0.37338072534044958 -0.1015395423542827 0 -0.35957868311145441 -0.098530575294378642 0 -0.3750868287242039 -0.083945666598845156 0 -0.35957868311145441 -0.098530575294378642 0 -0.36560935282136869 -0.1228770136391782 0 -0.37338072534044958 -0.1015395423542827 0 -0.36560935282136869 -0.1228770136391782 0 -0.38088751658449588 -0.11177605152490321 0 -0.35337645997328532 -0.073491557988243944 0 -0.34954543010999922 -0.066229350004753773 0 -0.36110028685175177 -0.071363477205066639 0 -0.34954543010999922 -0.066229350004753773 0 -0.36113753062154968 -0.061859153573384271 0 -0.35391811348297447 -0.060268720819388867 0 -0.34954543010999922 -0.066229350004753773 0 -0.36113753062154968 -0.061859153573384271 0 -0.34954543010999922 -0.066229350004753773 0 -0.36110028685175177 -0.071363477205066639 0 -0.36113753062154968 -0.061859153573384271 0 -0.34954543010999922 -0.066229350004753773 0 -0.36110028685175177 -0.071363477205066639 0 -0.3410929925936918 -0.075329856076351967 0 -0.34954543010999922 -0.066229350004753773 0 -0.34762887643352081 -0.074048264607039227 0 -0.3410929925936918 -0.075329856076351967 0 -0.34762887643352081 -0.074048264607039227 0 -0.34764631593145701 -0.084003956848892683 0 -0.35337645997328532 -0.073491557988243944 0 -0.34762887643352081 -0.074048264607039227 0 -0.34764631593145701 -0.084003956848892683 0 -0.35337645997328532 -0.073491557988243944 0 -0.34954543010999922 -0.066229350004753773 0 -0.34762887643352081 -0.074048264607039227 0 -0.35957868311145441 -0.098530575294378642 0 -0.35337645997328532 -0.073491557988243944 0 -0.34764631593145701 -0.084003956848892683 0 -0.35957868311145441 -0.098530575294378642 0 -0.35337645997328532 -0.073491557988243944 0 -0.34583111956259749 -0.098435285946989581 0 -0.35957868311145441 -0.098530575294378642 0 -0.34764631593145701 -0.084003956848892683 0 -0.35957868311145441 -0.098530575294378642 0 -0.36565466293458038 -0.077117114018749447 0 -0.3750868287242039 -0.083945666598845156 0 -0.35957868311145441 -0.098530575294378642 0 -0.35337645997328532 -0.073491557988243944 0 -0.36565466293458038 -0.077117114018749447 0 -0.35957868311145441 -0.098530575294378642 0 -0.3750868287242039 -0.083945666598845156 0 -0.36565466293458038 -0.077117114018749447 0 -0.37683012181080239 -0.068733301298065499 0 -0.3750868287242039 -0.083945666598845156 0 -0.36565466293458038 -0.077117114018749447 0 -0.36795559713598469 -0.066638105727896774 0 -0.37683012181080239 -0.068733301298065499 0 -0.36565466293458038 -0.077117114018749447 0 -0.36110028685175177 -0.071363477205066639 0 -0.36795559713598469 -0.066638105727896774 0 -0.35337645997328532 -0.073491557988243944 0 -0.36565466293458038 -0.077117114018749447 0 -0.36110028685175177 -0.071363477205066639 0 -0.36110028685175177 -0.071363477205066639 0 -0.36795559713598469 -0.066638105727896774 0 -0.36113753062154968 -0.061859153573384271 0 -0.36795559713598469 -0.066638105727896774 0 -0.37470589733927712 -0.0545527271000322 0 -0.37683012181080239 -0.068733301298065499 0 -0.35650250053147359 -0.050635726844241939 0 -0.37707154236451451 -0.044605869900925722 0 -0.37470589733927712 -0.0545527271000322 0 -0.35650250053147359 -0.050635726844241939 0 -0.36795559713598469 -0.066638105727896774 0 -0.37470589733927712 -0.0545527271000322 0 -0.36113753062154968 -0.061859153573384271 0 -0.37470589733927712 -0.0545527271000322 0 -0.35650250053147359 -0.050635726844241939 0 -0.37707154236451451 -0.044605869900925722 0 -0.37470589733927712 -0.0545527271000322 0 -0.35970252298352262 -0.056514655867325403 0 -0.35650250053147359 -0.050635726844241939 0 -0.37470589733927712 -0.0545527271000322 0 -0.35970252298352262 -0.056514655867325403 0 -0.36113753062154968 -0.061859153573384271 0 -0.35391811348297447 -0.060268720819388867 0 -0.35527395769833642 -0.05300159300784036 0 -0.33116639189700398 -0.058063059230765962 0 -0.35527395769833642 -0.05300159300784036 0 -0.35507992259877907 -0.051052758492802497 0 -0.33116639189700398 -0.058063059230765962 0 -0.34954543010999922 -0.066229350004753773 0 -0.35391811348297447 -0.060268720819388867 0 -0.33116639189700398 -0.058063059230765962 0 -0.35970252298352262 -0.056514655867325403 0 -0.36113753062154968 -0.061859153573384271 0 -0.35391811348297447 -0.060268720819388867 0 -0.35970252298352262 -0.056514655867325403 0 -0.35391811348297447 -0.060268720819388867 0 -0.35527395769833642 -0.05300159300784036 0 -0.35650250053147359 -0.050635726844241939 0 -0.35507992259877907 -0.051052758492802497 0 -0.3484308880043866 -0.044087332347355908 0 -0.35970252298352262 -0.056514655867325403 0 -0.35650250053147359 -0.050635726844241939 0 -0.35527395769833642 -0.05300159300784036 0 -0.35650250053147359 -0.050635726844241939 0 -0.35527395769833642 -0.05300159300784036 0 -0.35650250053147359 -0.050635726844241939 0 -0.35527395769833642 -0.05300159300784036 0 -0.35507992259877907 -0.051052758492802497 0 -0.35650250053147359 -0.050635726844241939 0 -0.35507992259877907 -0.051052758492802497 0 -0.35507992259877907 -0.051052758492802497 0 -0.33978397050626657 -0.048324977944356091 0 -0.35507992259877907 -0.051052758492802497 0 -0.3484308880043866 -0.044087332347355908 0 -0.33978397050626657 -0.048324977944356091 0 -0.35650250053147359 -0.050635726844241939 0 -0.3501214739100334 -0.034607419809747728 0 -0.3484308880043866 -0.044087332347355908 0 -0.35650250053147359 -0.050635726844241939 0 -0.3501214739100334 -0.034607419809747728 0 -0.36684988365240911 -0.03070925546092473 0 -0.3501214739100334 -0.034607419809747728 0 -0.3484308880043866 -0.044087332347355908 0 -0.33506880487583801 -0.038565334792038719 0 -0.35650250053147359 -0.050635726844241939 0 -0.36684988365240911 -0.03070925546092473 0 -0.37707154236451451 -0.044605869900925722 0 -0.35650250053147359 -0.050635726844241939 0 -0.36684988365240911 -0.03070925546092473 0 -0.36684988365240911 -0.03070925546092473 0 -0.37719726677334758 -0.010782784077609161 0 -0.36684988365240911 -0.03070925546092473 0 -0.35583605574812599 -0.018224686697538489 0 -0.37719726677334758 -0.010782784077609161 0 -0.35583605574812599 -0.018224686697538489 0 -0.37719726677334758 -0.010782784077609161 0 -0.37145675818362223 0.001704133189072726 0 -0.35583605574812599 -0.018224686697538489 0 -0.37719726677334758 -0.010782784077609161 0 -0.35583605574812599 -0.018224686697538489 0 -0.35182631000740072 0.0068229147672093007 0 -0.37145675818362223 0.001704133189072726 0 -0.35583605574812599 -0.018224686697538489 0 -0.33449922093445961 -0.0040818700918973123 0 -0.35182631000740072 0.0068229147672093007 0 -0.3501214739100334 -0.034607419809747728 0 -0.35583605574812599 -0.018224686697538489 0 -0.33447484472290451 -0.025666589317467611 0 -0.3501214739100334 -0.034607419809747728 0 -0.36684988365240911 -0.03070925546092473 0 -0.35583605574812599 -0.018224686697538489 0 -0.35583605574812599 -0.018224686697538489 0 -0.33447484472290451 -0.025666589317467611 0 -0.35583605574812599 -0.018224686697538489 0 -0.33447484472290451 -0.025666589317467611 0 -0.33449922093445961 -0.0040818700918973123 0 -0.33447484472290451 -0.025666589317467611 0 -0.33449922093445961 -0.0040818700918973123 0 -0.31759413704845219 -0.011310857140017521 0 -0.33449922093445961 -0.0040818700918973123 0 -0.31759413704845219 -0.011310857140017521 0 -0.32049615199215492 0.0045280339304297253 0 -0.30518798685158838 -0.0020929360932298849 0 -0.31759413704845219 -0.011310857140017521 0 -0.32049615199215492 0.0045280339304297253 0 -0.33447484472290451 -0.025666589317467611 0 -0.31759413704845219 -0.011310857140017521 0 -0.31311363369768291 -0.03310849193739672 0 -0.33447484472290451 -0.025666589317467611 0 -0.31311363369768291 -0.03310849193739672 0 -0.3114594072847322 -0.049306726894047262 0 -0.31311363369768291 -0.03310849193739672 0 -0.32448801841375452 -0.045597197395908257 0 -0.33447484472290451 -0.025666589317467611 0 -0.31311363369768291 -0.03310849193739672 0 -0.33506880487583801 -0.038565334792038719 0 -0.31311363369768291 -0.03310849193739672 0 -0.32448801841375452 -0.045597197395908257 0 -0.33506880487583801 -0.038565334792038719 0 -0.3114594072847322 -0.049306726894047262 0 -0.32448801841375452 -0.045597197395908257 0 -0.33116639189700398 -0.058063059230765962 0 -0.30696176126270219 -0.065158696513015008 0 -0.33116639189700398 -0.058063059230765962 0 -0.3114594072847322 -0.049306726894047262 0 -0.33116639189700398 -0.058063059230765962 0 -0.3114594072847322 -0.049306726894047262 0 -0.30696176126270219 -0.065158696513015008 0 -0.33116639189700398 -0.058063059230765962 0 -0.32448801841375452 -0.045597197395908257 0 -0.33116639189700398 -0.058063059230765962 0 -0.33978397050626657 -0.048324977944356091 0 -0.34954543010999922 -0.066229350004753773 0 -0.33116639189700398 -0.058063059230765962 0 -0.35507992259877907 -0.051052758492802497 0 -0.33116639189700398 -0.058063059230765962 0 -0.33978397050626657 -0.048324977944356091 0 -0.35507992259877907 -0.051052758492802497 0 -0.33116639189700398 -0.058063059230765962 0 -0.32448801841375452 -0.045597197395908257 0 -0.33978397050626657 -0.048324977944356091 0 -0.3501214739100334 -0.034607419809747728 0 -0.33447484472290451 -0.025666589317467611 0 -0.33506880487583801 -0.038565334792038719 0 -0.3484308880043866 -0.044087332347355908 0 -0.33978397050626657 -0.048324977944356091 0 -0.33506880487583801 -0.038565334792038719 0 -0.32448801841375452 -0.045597197395908257 0 -0.33978397050626657 -0.048324977944356091 0 -0.33506880487583801 -0.038565334792038719 0 -0.29859701231105729 -0.25301700882560368 0 -0.3071375446623259 -0.2335196387236223 0 -0.31421725341188372 -0.24977587129631751 0 -0.29859701231105729 -0.25301700882560368 0 -0.3071375446623259 -0.2335196387236223 0 -0.29138670340076089 -0.23873921836977791 0 -0.3071375446623259 -0.2335196387236223 0 -0.29268109579257923 -0.22411955864172181 0 -0.3060605016315725 -0.21226103782782971 0 -0.3071375446623259 -0.2335196387236223 0 -0.3060605016315725 -0.21226103782782971 0 -0.32042736925848198 -0.22641527486886631 0 -0.3071375446623259 -0.2335196387236223 0 -0.29268109579257923 -0.22411955864172181 0 -0.29138670340076089 -0.23873921836977791 0 -0.29268109579257923 -0.22411955864172181 0 -0.27778266513963018 -0.23141617934605249 0 -0.2809246376312578 -0.20830770343947971 0 -0.29268109579257923 -0.22411955864172181 0 -0.29138670340076089 -0.23873921836977791 0 -0.27778266513963018 -0.23141617934605249 0 -0.28073519909821221 -0.25162370631188929 0 -0.29138670340076089 -0.23873921836977791 0 -0.27778266513963018 -0.23141617934605249 0 -0.28073519909821221 -0.25162370631188929 0 -0.29859701231105729 -0.25301700882560368 0 -0.29138670340076089 -0.23873921836977791 0 -0.28073519909821221 -0.25162370631188929 0 -0.2582168116042447 -0.2439014490639565 0 -0.27778266513963018 -0.23141617934605249 0 -0.24510877540263959 -0.22548599802342939 0 -0.2582168116042447 -0.2439014490639565 0 -0.26321090898949828 -0.22136191750140799 0 -0.24510877540263959 -0.22548599802342939 0 -0.26321090898949828 -0.22136191750140799 0 -0.25247744799357308 -0.21261594090752481 0 -0.26321090898949828 -0.22136191750140799 0 -0.27778266513963018 -0.23141617934605249 0 -0.2809246376312578 -0.20830770343947971 0 -0.2582168116042447 -0.2439014490639565 0 -0.26321090898949828 -0.22136191750140799 0 -0.27778266513963018 -0.23141617934605249 0 -0.26321090898949828 -0.22136191750140799 0 -0.2809246376312578 -0.20830770343947971 0 -0.26409863293778341 -0.20573621058270139 0 -0.26321090898949828 -0.22136191750140799 0 -0.26409863293778341 -0.20573621058270139 0 -0.25247744799357308 -0.21261594090752481 0 -0.26409863293778341 -0.20573621058270139 0 -0.25247744799357308 -0.21261594090752481 0 -0.25047429362874257 -0.200219847641955 0 -0.26409863293778341 -0.20573621058270139 0 -0.25047429362874257 -0.200219847641955 0 -0.26742375486930359 -0.1882108285553544 0 -0.25047429362874257 -0.200219847641955 0 -0.26742375486930359 -0.1882108285553544 0 -0.23968786498356659 -0.18400375912907671 0 -0.25047429362874257 -0.200219847641955 0 -0.26742375486930359 -0.1882108285553544 0 -0.2809246376312578 -0.20830770343947971 0 -0.26742375486930359 -0.1882108285553544 0 -0.29199909585561379 -0.19193849570898799 0 -0.26742375486930359 -0.1882108285553544 0 -0.29199909585561379 -0.19193849570898799 0 -0.2809246376312578 -0.20830770343947971 0 -0.26409863293778341 -0.20573621058270139 0 -0.26742375486930359 -0.1882108285553544 0 -0.2809246376312578 -0.20830770343947971 0 -0.3060605016315725 -0.21226103782782971 0 -0.2809246376312578 -0.20830770343947971 0 -0.29199909585561379 -0.19193849570898799 0 -0.3060605016315725 -0.21226103782782971 0 -0.29268109579257923 -0.22411955864172181 0 -0.2809246376312578 -0.20830770343947971 0 -0.3060605016315725 -0.21226103782782971 0 -0.29199909585561379 -0.19193849570898799 0 -0.3060605016315725 -0.21226103782782971 0 -0.3165744368419241 -0.19566616286262159 0 -0.29199909585561379 -0.19193849570898799 0 -0.3165744368419241 -0.19566616286262159 0 -0.29199909585561379 -0.19193849570898799 0 -0.29938476110462459 -0.18143496863655581 0 -0.3165744368419241 -0.19566616286262159 0 -0.29938476110462459 -0.18143496863655581 0 -0.31036357984341878 -0.17729064654437279 0 -0.3165744368419241 -0.19566616286262159 0 -0.29938476110462459 -0.18143496863655581 0 -0.30228981993539911 -0.17082195765291869 0 -0.28961274120160779 -0.1724895052286107 0 -0.29938476110462459 -0.18143496863655581 0 -0.31036357984341878 -0.17729064654437279 0 -0.30228981993539911 -0.17082195765291869 0 -0.31036357984341878 -0.17729064654437279 0 -0.31099079812705838 -0.16810657065420029 0 -0.30228981993539911 -0.17082195765291869 0 -0.31099079812705838 -0.16810657065420029 0 -0.31180172753391222 -0.15676818190186689 0 -0.30228981993539911 -0.17082195765291869 0 -0.31180172753391222 -0.15676818190186689 0 -0.28961274120160779 -0.1724895052286107 0 -0.31180172753391222 -0.15676818190186689 0 -0.28581520798017918 -0.16349252579439161 0 -0.31180172753391222 -0.15676818190186689 0 -0.28581520798017918 -0.16349252579439161 0 -0.30248732557626462 -0.14891872701938649 0 -0.31180172753391222 -0.15676818190186689 0 -0.30228981993539911 -0.17082195765291869 0 -0.28961274120160779 -0.1724895052286107 0 -0.31180172753391222 -0.15676818190186689 0 -0.28581520798017918 -0.16349252579439161 0 -0.28961274120160779 -0.1724895052286107 0 -0.28581520798017918 -0.16349252579439161 0 -0.28961274120160779 -0.1724895052286107 0 -0.27455339795200551 -0.17354596063111 0 -0.29199909585561379 -0.19193849570898799 0 -0.29938476110462459 -0.18143496863655581 0 -0.28961274120160779 -0.1724895052286107 0 -0.26742375486930359 -0.1882108285553544 0 -0.29199909585561379 -0.19193849570898799 0 -0.28961274120160779 -0.1724895052286107 0 -0.26742375486930359 -0.1882108285553544 0 -0.28961274120160779 -0.1724895052286107 0 -0.26742375486930359 -0.1882108285553544 0 -0.28961274120160779 -0.1724895052286107 0 -0.27455339795200551 -0.17354596063111 0 -0.26742375486930359 -0.1882108285553544 0 -0.27455339795200551 -0.17354596063111 0 -0.25982868842644607 -0.17021686968691641 0 -0.23968786498356659 -0.18400375912907671 0 -0.26742375486930359 -0.1882108285553544 0 -0.23968786498356659 -0.18400375912907671 0 -0.26742375486930359 -0.1882108285553544 0 -0.25982868842644607 -0.17021686968691641 0 -0.25982868842644607 -0.17021686968691641 0 -0.27013136078807137 -0.15645680560504849 0 -0.25343568279415951 -0.15224923159364789 0 -0.24566481473353391 -0.1652464025747532 0 -0.25982868842644607 -0.17021686968691641 0 -0.25343568279415951 -0.15224923159364789 0 -0.28581520798017918 -0.16349252579439161 0 -0.25982868842644607 -0.17021686968691641 0 -0.27013136078807137 -0.15645680560504849 0 -0.28581520798017918 -0.16349252579439161 0 -0.27455339795200551 -0.17354596063111 0 -0.25982868842644607 -0.17021686968691641 0 -0.28581520798017918 -0.16349252579439161 0 -0.27013136078807137 -0.15645680560504849 0 -0.281048741890911 -0.15139895950123519 0 -0.28581520798017918 -0.16349252579439161 0 -0.25982868842644607 -0.17021686968691641 0 -0.27013136078807137 -0.15645680560504849 0 -0.281048741890911 -0.15139895950123519 0 -0.27556222579122169 -0.14014760186465491 0 -0.27013136078807137 -0.15645680560504849 0 -0.25343568279415951 -0.15224923159364789 0 -0.27556222579122169 -0.14014760186465491 0 -0.25343568279415951 -0.15224923159364789 0 -0.26038693836179072 -0.13666660738782219 0 -0.27556222579122169 -0.14014760186465491 0 -0.25343568279415951 -0.15224923159364789 0 -0.27556222579122169 -0.14014760186465491 0 -0.2478381125959237 -0.13014188093155071 0 -0.26471173226585809 -0.1241277151614352 0 -0.26038693836179072 -0.13666660738782219 0 -0.2478381125959237 -0.13014188093155071 0 -0.25343568279415951 -0.15224923159364789 0 -0.26038693836179072 -0.13666660738782219 0 -0.26471173226585809 -0.1241277151614352 0 -0.28362018306611941 -0.1149768545032684 0 -0.27556222579122169 -0.14014760186465491 0 -0.26471173226585809 -0.1241277151614352 0 -0.26038693836179072 -0.13666660738782219 0 -0.27556222579122169 -0.14014760186465491 0 -0.27556222579122169 -0.14014760186465491 0 -0.29268617300417199 -0.1454989047408457 0 -0.29768876878828382 -0.12804597213566191 0 -0.28362018306611941 -0.1149768545032684 0 -0.27556222579122169 -0.14014760186465491 0 -0.29768876878828382 -0.12804597213566191 0 -0.27556222579122169 -0.14014760186465491 0 -0.29768876878828382 -0.12804597213566191 0 -0.28581520798017918 -0.16349252579439161 0 -0.29268617300417199 -0.1454989047408457 0 -0.30248732557626462 -0.14891872701938649 0 -0.28581520798017918 -0.16349252579439161 0 -0.281048741890911 -0.15139895950123519 0 -0.29268617300417199 -0.1454989047408457 0 -0.281048741890911 -0.15139895950123519 0 -0.27556222579122169 -0.14014760186465491 0 -0.29268617300417199 -0.1454989047408457 0 -0.29268617300417199 -0.1454989047408457 0 -0.30248732557626462 -0.14891872701938649 0 -0.30370630156068762 -0.1389224563049837 0 -0.31180172753391222 -0.15676818190186689 0 -0.30248732557626462 -0.14891872701938649 0 -0.31398283958777989 -0.14122477915676221 0 -0.30248732557626462 -0.14891872701938649 0 -0.30370630156068762 -0.1389224563049837 0 -0.31398283958777989 -0.14122477915676221 0 -0.29268617300417199 -0.1454989047408457 0 -0.29768876878828382 -0.12804597213566191 0 -0.30370630156068762 -0.1389224563049837 0 -0.31168640084693722 -0.1309238984722621 0 -0.30370630156068762 -0.1389224563049837 0 -0.31398283958777989 -0.14122477915676221 0 -0.31168640084693722 -0.1309238984722621 0 -0.29768876878828382 -0.12804597213566191 0 -0.30370630156068762 -0.1389224563049837 0 -0.32501708124079648 -0.13103464252731351 0 -0.31398283958777989 -0.14122477915676221 0 -0.32769326224381667 -0.1455087240973956 0 -0.31981531178534578 -0.1159443424066684 0 -0.31168640084693722 -0.1309238984722621 0 -0.32501708124079648 -0.13103464252731351 0 -0.31168640084693722 -0.1309238984722621 0 -0.32501708124079648 -0.13103464252731351 0 -0.31398283958777989 -0.14122477915676221 0 -0.31180172753391222 -0.15676818190186689 0 -0.32298463198440808 -0.15387446252221321 0 -0.32769326224381667 -0.1455087240973956 0 -0.31180172753391222 -0.15676818190186689 0 -0.32769326224381667 -0.1455087240973956 0 -0.31180172753391222 -0.15676818190186689 0 -0.31398283958777989 -0.14122477915676221 0 -0.32769326224381667 -0.1455087240973956 0 -0.31180172753391222 -0.15676818190186689 0 -0.32298463198440808 -0.15387446252221321 0 -0.32298463198440808 -0.15387446252221321 0 -0.33102430582003672 -0.15284086827415069 0 -0.32912678435276249 -0.16184097596254959 0 -0.32298463198440808 -0.15387446252221321 0 -0.32769326224381667 -0.1455087240973956 0 -0.33102430582003672 -0.15284086827415069 0 -0.32769326224381667 -0.1455087240973956 0 -0.33779330298695009 -0.14738175250870711 0 -0.34358479695372102 -0.13424926629292419 0 -0.32769326224381667 -0.1455087240973956 0 -0.33102430582003672 -0.15284086827415069 0 -0.33779330298695009 -0.14738175250870711 0 -0.33779330298695009 -0.14738175250870711 0 -0.34838845348846031 -0.14833884467229949 0 -0.33902784532518498 -0.15634369213364299 0 -0.33102430582003672 -0.15284086827415069 0 -0.33779330298695009 -0.14738175250870711 0 -0.33902784532518498 -0.15634369213364299 0 -0.33779330298695009 -0.14738175250870711 0 -0.34358479695372102 -0.13424926629292419 0 -0.34838845348846031 -0.14833884467229949 0 -0.32501708124079648 -0.13103464252731351 0 -0.32769326224381667 -0.1455087240973956 0 -0.34358479695372102 -0.13424926629292419 0 -0.33811662782018509 -0.1187149432167614 0 -0.32501708124079648 -0.13103464252731351 0 -0.34358479695372102 -0.13424926629292419 0 -0.32769326224381667 -0.1455087240973956 0 -0.34358479695372102 -0.13424926629292419 0 -0.33811662782018509 -0.1187149432167614 0 -0.36560935282136869 -0.1228770136391782 0 -0.34358479695372102 -0.13424926629292419 0 -0.36560935282136869 -0.1228770136391782 0 -0.34358479695372102 -0.13424926629292419 0 -0.35789225520722451 -0.13996819740399649 0 -0.36560935282136869 -0.1228770136391782 0 -0.37179133304014322 -0.14783430818272611 0 -0.38404989885292651 -0.1400792958384918 0 -0.36560935282136869 -0.1228770136391782 0 -0.37179133304014322 -0.14783430818272611 0 -0.36560935282136869 -0.1228770136391782 0 -0.35789225520722451 -0.13996819740399649 0 -0.37179133304014322 -0.14783430818272611 0 -0.35789225520722451 -0.13996819740399649 0 -0.37179133304014322 -0.14783430818272611 0 -0.35884313601860912 -0.15417852746750099 0 -0.35884313601860912 -0.15417852746750099 0 -0.34838845348846031 -0.14833884467229949 0 -0.34888414490412811 -0.1629439357986564 0 -0.35789225520722451 -0.13996819740399649 0 -0.35884313601860912 -0.15417852746750099 0 -0.34838845348846031 -0.14833884467229949 0 -0.34358479695372102 -0.13424926629292419 0 -0.35789225520722451 -0.13996819740399649 0 -0.34838845348846031 -0.14833884467229949 0 -0.34838845348846031 -0.14833884467229949 0 -0.34888414490412811 -0.1629439357986564 0 -0.33902784532518498 -0.15634369213364299 0 -0.34888414490412811 -0.1629439357986564 0 -0.34454825898434782 -0.17720191583282571 0 -0.33836769259919219 -0.1670464993373886 0 -0.34888414490412811 -0.1629439357986564 0 -0.35381843126239348 -0.1726746577785957 0 -0.34454825898434782 -0.17720191583282571 0 -0.34888414490412811 -0.1629439357986564 0 -0.36338268495294579 -0.16800377969191779 0 -0.35381843126239348 -0.1726746577785957 0 -0.35884313601860912 -0.15417852746750099 0 -0.34888414490412811 -0.1629439357986564 0 -0.36338268495294579 -0.16800377969191779 0 -0.37179133304014322 -0.14783430818272611 0 -0.37797331325891809 -0.17279160272627381 0 -0.37179133304014322 -0.14783430818272611 0 -0.35884313601860912 -0.15417852746750099 0 -0.36338268495294579 -0.16800377969191779 0 -0.37179133304014322 -0.14783430818272611 0 -0.36338268495294579 -0.16800377969191779 0 -0.37797331325891809 -0.17279160272627381 0 -0.36338268495294579 -0.16800377969191779 0 -0.37192204740575269 -0.18508240213403099 0 -0.3584586362081526 -0.18254899979098321 0 -0.36338268495294579 -0.16800377969191779 0 -0.37192204740575269 -0.18508240213403099 0 -0.37797331325891809 -0.17279160272627381 0 -0.36338268495294579 -0.16800377969191779 0 -0.3584586362081526 -0.18254899979098321 0 -0.35381843126239348 -0.1726746577785957 0 -0.3584586362081526 -0.18254899979098321 0 -0.35381843126239348 -0.1726746577785957 0 -0.34454825898434782 -0.17720191583282571 0 -0.3584586362081526 -0.18254899979098321 0 -0.34454825898434782 -0.17720191583282571 0 -0.34833703943659811 -0.1887712121410032 0 -0.34454825898434782 -0.17720191583282571 0 -0.33350934598544107 -0.1865060965460745 0 -0.34833703943659811 -0.1887712121410032 0 -0.33350934598544107 -0.1865060965460745 0 -0.33087698944707578 -0.17469400287398781 0 -0.32216648346267268 -0.18034048106893991 0 -0.34454825898434782 -0.17720191583282571 0 -0.33087698944707578 -0.17469400287398781 0 -0.33836769259919219 -0.1670464993373886 0 -0.34454825898434782 -0.17720191583282571 0 -0.33350934598544107 -0.1865060965460745 0 -0.33087698944707578 -0.17469400287398781 0 -0.34888414490412811 -0.1629439357986564 0 -0.33836769259919219 -0.1670464993373886 0 -0.33902784532518498 -0.15634369213364299 0 -0.33102430582003672 -0.15284086827415069 0 -0.33902784532518498 -0.15634369213364299 0 -0.32912678435276249 -0.16184097596254959 0 -0.33836769259919219 -0.1670464993373886 0 -0.33902784532518498 -0.15634369213364299 0 -0.32912678435276249 -0.16184097596254959 0 -0.33087698944707578 -0.17469400287398781 0 -0.33836769259919219 -0.1670464993373886 0 -0.32912678435276249 -0.16184097596254959 0 -0.33087698944707578 -0.17469400287398781 0 -0.32912678435276249 -0.16184097596254959 0 -0.31950806519550368 -0.16754549651764289 0 -0.32298463198440808 -0.15387446252221321 0 -0.32912678435276249 -0.16184097596254959 0 -0.31950806519550368 -0.16754549651764289 0 -0.31180172753391222 -0.15676818190186689 0 -0.32298463198440808 -0.15387446252221321 0 -0.31950806519550368 -0.16754549651764289 0 -0.31099079812705838 -0.16810657065420029 0 -0.31180172753391222 -0.15676818190186689 0 -0.31950806519550368 -0.16754549651764289 0 -0.31036357984341878 -0.17729064654437279 0 -0.31099079812705838 -0.16810657065420029 0 -0.31950806519550368 -0.16754549651764289 0 -0.31036357984341878 -0.17729064654437279 0 -0.31950806519550368 -0.16754549651764289 0 -0.32216648346267268 -0.18034048106893991 0 -0.31036357984341878 -0.17729064654437279 0 -0.32216648346267268 -0.18034048106893991 0 -0.3165744368419241 -0.19566616286262159 0 -0.33087698944707578 -0.17469400287398781 0 -0.31950806519550368 -0.16754549651764289 0 -0.32216648346267268 -0.18034048106893991 0 -0.33350934598544107 -0.1865060965460745 0 -0.32216648346267268 -0.18034048106893991 0 -0.3165744368419241 -0.19566616286262159 0 -0.3060605016315725 -0.21226103782782971 0 -0.33119636563188709 -0.2162143722161797 0 -0.32042736925848198 -0.22641527486886631 0 -0.3060605016315725 -0.21226103782782971 0 -0.33119636563188709 -0.2162143722161797 0 -0.3060605016315725 -0.21226103782782971 0 -0.3165744368419241 -0.19566616286262159 0 -0.33119636563188709 -0.2162143722161797 0 -0.33119636563188709 -0.2162143722161797 0 -0.34114977782823441 -0.19939383001625499 0 -0.35633222963220179 -0.22016770660452969 0 -0.3165744368419241 -0.19566616286262159 0 -0.33119636563188709 -0.2162143722161797 0 -0.34114977782823441 -0.19939383001625499 0 -0.3165744368419241 -0.19566616286262159 0 -0.34114977782823441 -0.19939383001625499 0 -0.33350934598544107 -0.1865060965460745 0 -0.3165744368419241 -0.19566616286262159 0 -0.34114977782823441 -0.19939383001625499 0 -0.33350934598544107 -0.1865060965460745 0 -0.34114977782823441 -0.19939383001625499 0 -0.34833703943659811 -0.1887712121410032 0 -0.34114977782823441 -0.19939383001625499 0 -0.36572511881454461 -0.20312149716988859 0 -0.34114977782823441 -0.19939383001625499 0 -0.34833703943659811 -0.1887712121410032 0 -0.36572511881454461 -0.20312149716988859 0 -0.3584586362081526 -0.18254899979098321 0 -0.34833703943659811 -0.1887712121410032 0 -0.36572511881454461 -0.20312149716988859 0 -0.37192204740575269 -0.18508240213403099 0 -0.3584586362081526 -0.18254899979098321 0 -0.36572511881454461 -0.20312149716988859 0 -0.37192204740575269 -0.18508240213403099 0 -0.36572511881454461 -0.20312149716988859 0 -0.37832751345100762 -0.19569708509895661 0 -0.36572511881454461 -0.20312149716988859 0 -0.35633222963220179 -0.22016770660452969 0 -0.37671868671049757 -0.21209106954761561 0 -0.33119636563188709 -0.2162143722161797 0 -0.35633222963220179 -0.22016770660452969 0 -0.34114977782823441 -0.19939383001625499 0 -0.36572511881454461 -0.20312149716988859 0 -0.35633222963220179 -0.22016770660452969 0 -0.34918985577357953 -0.22996643434813971 0 -0.35633222963220179 -0.22016770660452969 0 -0.3644368395520925 -0.23786219595255659 0 -0.33119636563188709 -0.2162143722161797 0 -0.34918985577357953 -0.22996643434813971 0 -0.35633222963220179 -0.22016770660452969 0 -0.35633222963220179 -0.22016770660452969 0 -0.38146809363251649 -0.22412104099287969 0 -0.35633222963220179 -0.22016770660452969 0 -0.37359243883566862 -0.23215909975287299 0 -0.3644368395520925 -0.23786219595255659 0 -0.35633222963220179 -0.22016770660452969 0 -0.37359243883566862 -0.23215909975287299 0 -0.38146809363251649 -0.22412104099287969 0 -0.35633222963220179 -0.22016770660452969 0 -0.38146809363251649 -0.22412104099287969 0 -0.37671868671049757 -0.21209106954761561 0 -0.36999160380854529 -0.25160890498862648 0 -0.3644368395520925 -0.23786219595255659 0 -0.37872015884544641 -0.2435614714605657 0 -0.37359243883566862 -0.23215909975287299 0 -0.3644368395520925 -0.23786219595255659 0 -0.37872015884544641 -0.2435614714605657 0 -0.36999160380854529 -0.25160890498862648 0 -0.3644368395520925 -0.23786219595255659 0 -0.35707845064694121 -0.24935767075674509 0 -0.34918985577357953 -0.22996643434813971 0 -0.3644368395520925 -0.23786219595255659 0 -0.35707845064694121 -0.24935767075674509 0 -0.34918985577357953 -0.22996643434813971 0 -0.35707845064694121 -0.24935767075674509 0 -0.34918985577357953 -0.22996643434813971 0 -0.35707845064694121 -0.24935767075674509 0 -0.34161545739809862 -0.2441761224370865 0 -0.32577683519746242 -0.25897579210934468 0 -0.34161545739809862 -0.2441761224370865 0 -0.32489287339017531 -0.23961736858555491 0 -0.34918985577357953 -0.22996643434813971 0 -0.34161545739809862 -0.2441761224370865 0 -0.33284956097644908 -0.23046395699114461 0 -0.34161545739809862 -0.2441761224370865 0 -0.33284956097644908 -0.23046395699114461 0 -0.32489287339017531 -0.23961736858555491 0 -0.33119636563188709 -0.2162143722161797 0 -0.34918985577357953 -0.22996643434813971 0 -0.33284956097644908 -0.23046395699114461 0 -0.33119636563188709 -0.2162143722161797 0 -0.33284956097644908 -0.23046395699114461 0 -0.32042736925848198 -0.22641527486886631 0 -0.3071375446623259 -0.2335196387236223 0 -0.32042736925848198 -0.22641527486886631 0 -0.32489287339017531 -0.23961736858555491 0 -0.33284956097644908 -0.23046395699114461 0 -0.32042736925848198 -0.22641527486886631 0 -0.32489287339017531 -0.23961736858555491 0 -0.3071375446623259 -0.2335196387236223 0 -0.31421725341188372 -0.24977587129631751 0 -0.32489287339017531 -0.23961736858555491 0 -0.32577683519746242 -0.25897579210934468 0 -0.31421725341188372 -0.24977587129631751 0 -0.32489287339017531 -0.23961736858555491 0 -0.429193077912078 -0.24092705066174019 0 -0.42560539866416353 -0.22692866047589191 0 -0.44336769959532257 -0.23972790925379969 0 -0.429193077912078 -0.24092705066174019 0 -0.42560539866416353 -0.22692866047589191 0 -0.41466813127082142 -0.24184035413310251 0 -0.42775875008346192 -0.25507980811954323 0 -0.429193077912078 -0.24092705066174019 0 -0.41466813127082142 -0.24184035413310251 0 -0.44165736388207272 -0.25360003737878889 0 -0.42775875008346192 -0.25507980811954323 0 -0.429193077912078 -0.24092705066174019 0 -0.42560539866416353 -0.22692866047589191 0 -0.43795718746300122 -0.2140778908121922 0 -0.44658841198271632 -0.22637890077404829 0 -0.42560539866416353 -0.22692866047589191 0 -0.41054768849444062 -0.2248275857939297 0 -0.41466813127082142 -0.24184035413310251 0 -0.42560539866416353 -0.22692866047589191 0 -0.41054768849444062 -0.2248275857939297 0 -0.41728712034711612 -0.21094258822191489 0 -0.42560539866416353 -0.22692866047589191 0 -0.41728712034711612 -0.21094258822191489 0 -0.41054768849444062 -0.2248275857939297 0 -0.41466813127082142 -0.24184035413310251 0 -0.39796822484346261 -0.23652916605093899 0 -0.40220594800304021 -0.25293233307518609 0 -0.39796822484346261 -0.23652916605093899 0 -0.39442967684708991 -0.25208667127465478 0 -0.39796822484346261 -0.23652916605093899 0 -0.38700487251608578 -0.2350830837538336 0 -0.40220594800304021 -0.25293233307518609 0 -0.41466813127082142 -0.24184035413310251 0 -0.39796822484346261 -0.23652916605093899 0 -0.39442967684708991 -0.25208667127465478 0 -0.38700487251608578 -0.2350830837538336 0 -0.37872015884544641 -0.2435614714605657 0 -0.37359243883566862 -0.23215909975287299 0 -0.38700487251608578 -0.2350830837538336 0 -0.37872015884544641 -0.2435614714605657 0 -0.37359243883566862 -0.23215909975287299 0 -0.38700487251608578 -0.2350830837538336 0 -0.38146809363251649 -0.22412104099287969 0 -0.38700487251608578 -0.2350830837538336 0 -0.38146809363251649 -0.22412104099287969 0 -0.39413434232215888 -0.2216891651872302 0 -0.38146809363251649 -0.22412104099287969 0 -0.39413434232215888 -0.2216891651872302 0 -0.38565539561650702 -0.2161876100128117 0 -0.41054768849444062 -0.2248275857939297 0 -0.39796822484346261 -0.23652916605093899 0 -0.39720956734663881 -0.20789716008779879 0 -0.39796822484346261 -0.23652916605093899 0 -0.39413434232215888 -0.2216891651872302 0 -0.39720956734663881 -0.20789716008779879 0 -0.39796822484346261 -0.23652916605093899 0 -0.39720956734663881 -0.20789716008779879 0 -0.39796822484346261 -0.23652916605093899 0 -0.38700487251608578 -0.2350830837538336 0 -0.39413434232215888 -0.2216891651872302 0 -0.39796822484346261 -0.23652916605093899 0 -0.39413434232215888 -0.2216891651872302 0 -0.39720956734663881 -0.20789716008779879 0 -0.40277518483810348 -0.20053664405661509 0 -0.41728712034711612 -0.21094258822191489 0 -0.39720956734663881 -0.20789716008779879 0 -0.39030045980085482 -0.20684916432352149 0 -0.39413434232215888 -0.2216891651872302 0 -0.39720956734663881 -0.20789716008779879 0 -0.39030045980085482 -0.20684916432352149 0 -0.39413434232215888 -0.2216891651872302 0 -0.39030045980085482 -0.20684916432352149 0 -0.36572511881454461 -0.20312149716988859 0 -0.39030045980085482 -0.20684916432352149 0 -0.39413434232215888 -0.2216891651872302 0 -0.38565539561650702 -0.2161876100128117 0 -0.39030045980085482 -0.20684916432352149 0 -0.38565539561650702 -0.2161876100128117 0 -0.39030045980085482 -0.20684916432352149 0 -0.37671868671049757 -0.21209106954761561 0 -0.36572511881454461 -0.20312149716988859 0 -0.39030045980085482 -0.20684916432352149 0 -0.37671868671049757 -0.21209106954761561 0 -0.38146809363251649 -0.22412104099287969 0 -0.38565539561650702 -0.2161876100128117 0 -0.37671868671049757 -0.21209106954761561 0 -0.39030045980085482 -0.20684916432352149 0 -0.38536242778287788 -0.1877352767683855 0 -0.39030045980085482 -0.20684916432352149 0 -0.37832751345100762 -0.19569708509895661 0 -0.38536242778287788 -0.1877352767683855 0 -0.36572511881454461 -0.20312149716988859 0 -0.39030045980085482 -0.20684916432352149 0 -0.37832751345100762 -0.19569708509895661 0 -0.37192204740575269 -0.18508240213403099 0 -0.37832751345100762 -0.19569708509895661 0 -0.38536242778287788 -0.1877352767683855 0 -0.39030045980085482 -0.20684916432352149 0 -0.38536242778287788 -0.1877352767683855 0 -0.39682758983152833 -0.1934811917008569 0 -0.39720956734663881 -0.20789716008779879 0 -0.39682758983152833 -0.1934811917008569 0 -0.39720956734663881 -0.20789716008779879 0 -0.39030045980085482 -0.20684916432352149 0 -0.39682758983152833 -0.1934811917008569 0 -0.39720956734663881 -0.20789716008779879 0 -0.39682758983152833 -0.1934811917008569 0 -0.40277518483810348 -0.20053664405661509 0 -0.39682758983152833 -0.1934811917008569 0 -0.40277518483810348 -0.20053664405661509 0 -0.40786839632368732 -0.19284167875001809 0 -0.40786839632368732 -0.19284167875001809 0 -0.42071188954671479 -0.1977783538484196 0 -0.41728712034711612 -0.21094258822191489 0 -0.40277518483810348 -0.20053664405661509 0 -0.40786839632368732 -0.19284167875001809 0 -0.41728712034711612 -0.21094258822191489 0 -0.40786839632368732 -0.19284167875001809 0 -0.41728712034711612 -0.21094258822191489 0 -0.40786839632368732 -0.19284167875001809 0 -0.42071188954671479 -0.1977783538484196 0 -0.41781993309639348 -0.18473776223631169 0 -0.39720956734663881 -0.20789716008779879 0 -0.41728712034711612 -0.21094258822191489 0 -0.41054768849444062 -0.2248275857939297 0 -0.39720956734663881 -0.20789716008779879 0 -0.41728712034711612 -0.21094258822191489 0 -0.41728712034711612 -0.21094258822191489 0 -0.43042781253814327 -0.20309513998401429 0 -0.43795718746300122 -0.2140778908121922 0 -0.41728712034711612 -0.21094258822191489 0 -0.43795718746300122 -0.2140778908121922 0 -0.42071188954671479 -0.1977783538484196 0 -0.41728712034711612 -0.21094258822191489 0 -0.43042781253814327 -0.20309513998401429 0 -0.42560539866416353 -0.22692866047589191 0 -0.41728712034711612 -0.21094258822191489 0 -0.43795718746300122 -0.2140778908121922 0 -0.43042781253814327 -0.20309513998401429 0 -0.43110417706379089 -0.19272761716818959 0 -0.44507868827009389 -0.1999492498693555 0 -0.42071188954671479 -0.1977783538484196 0 -0.43110417706379089 -0.19272761716818959 0 -0.41781993309639348 -0.18473776223631169 0 -0.42071188954671479 -0.1977783538484196 0 -0.43042781253814327 -0.20309513998401429 0 -0.43110417706379089 -0.19272761716818959 0 -0.43179072736577528 -0.17970529711169 0 -0.42986163711504638 -0.16701354152048811 0 -0.41699473597813752 -0.17063285726143029 0 -0.43179072736577528 -0.17970529711169 0 -0.41699473597813752 -0.17063285726143029 0 -0.41781993309639348 -0.18473776223631169 0 -0.43110417706379089 -0.19272761716818959 0 -0.43179072736577528 -0.17970529711169 0 -0.41781993309639348 -0.18473776223631169 0 -0.43110417706379089 -0.19272761716818959 0 -0.43179072736577528 -0.17970529711169 0 -0.44559792516655838 -0.1851633886427331 0 -0.43179072736577528 -0.17970529711169 0 -0.42986163711504638 -0.16701354152048811 0 -0.44303700991658518 -0.17026832712875151 0 -0.42986163711504638 -0.16701354152048811 0 -0.43823455075000578 -0.15580669622701629 0 -0.44303700991658518 -0.17026832712875151 0 -0.42986163711504638 -0.16701354152048811 0 -0.41699473597813752 -0.17063285726143029 0 -0.41985581490816198 -0.154444998856094 0 -0.42986163711504638 -0.16701354152048811 0 -0.41985581490816198 -0.154444998856094 0 -0.43823455075000578 -0.15580669622701629 0 -0.41699473597813752 -0.17063285726143029 0 -0.39844967230025591 -0.17474076927812279 0 -0.4045200176128938 -0.16008114399198281 0 -0.41699473597813752 -0.17063285726143029 0 -0.4045200176128938 -0.16008114399198281 0 -0.41985581490816198 -0.154444998856094 0 -0.41699473597813752 -0.17063285726143029 0 -0.41781993309639348 -0.18473776223631169 0 -0.39844967230025591 -0.17474076927812279 0 -0.40786839632368732 -0.19284167875001809 0 -0.41781993309639348 -0.18473776223631169 0 -0.39844967230025591 -0.17474076927812279 0 -0.40786839632368732 -0.19284167875001809 0 -0.39844967230025591 -0.17474076927812279 0 -0.39682758983152833 -0.1934811917008569 0 -0.40786839632368732 -0.19284167875001809 0 -0.39844967230025591 -0.17474076927812279 0 -0.38536242778287788 -0.1877352767683855 0 -0.39682758983152833 -0.1934811917008569 0 -0.39844967230025591 -0.17474076927812279 0 -0.38536242778287788 -0.1877352767683855 0 -0.39844967230025591 -0.17474076927812279 0 -0.37797331325891809 -0.17279160272627381 0 -0.37192204740575269 -0.18508240213403099 0 -0.38536242778287788 -0.1877352767683855 0 -0.37797331325891809 -0.17279160272627381 0 -0.37179133304014322 -0.14783430818272611 0 -0.37797331325891809 -0.17279160272627381 0 -0.38903094827682438 -0.15663985980622741 0 -0.39844967230025591 -0.17474076927812279 0 -0.37797331325891809 -0.17279160272627381 0 -0.38903094827682438 -0.15663985980622741 0 -0.39844967230025591 -0.17474076927812279 0 -0.38903094827682438 -0.15663985980622741 0 -0.39844967230025591 -0.17474076927812279 0 -0.38903094827682438 -0.15663985980622741 0 -0.4045200176128938 -0.16008114399198281 0 -0.38903094827682438 -0.15663985980622741 0 -0.4045200176128938 -0.16008114399198281 0 -0.39938536477583741 -0.14370127207381619 0 -0.38903094827682438 -0.15663985980622741 0 -0.39938536477583741 -0.14370127207381619 0 -0.38404989885292651 -0.1400792958384918 0 -0.37179133304014322 -0.14783430818272611 0 -0.38903094827682438 -0.15663985980622741 0 -0.38404989885292651 -0.1400792958384918 0 -0.36560935282136869 -0.1228770136391782 0 -0.38404989885292651 -0.1400792958384918 0 -0.38887223831657869 -0.12639873684615319 0 -0.38887223831657869 -0.12639873684615319 0 -0.41213512381178841 -0.1299204600531296 0 -0.39938536477583741 -0.14370127207381619 0 -0.38887223831657869 -0.12639873684615319 0 -0.41213512381178841 -0.1299204600531296 0 -0.39938536477583741 -0.14370127207381619 0 -0.38404989885292651 -0.1400792958384918 0 -0.38887223831657869 -0.12639873684615319 0 -0.4045200176128938 -0.16008114399198281 0 -0.39938536477583741 -0.14370127207381619 0 -0.41985581490816198 -0.154444998856094 0 -0.39938536477583741 -0.14370127207381619 0 -0.41213512381178841 -0.1299204600531296 0 -0.41985581490816198 -0.154444998856094 0 -0.41985581490816198 -0.154444998856094 0 -0.43539800930699801 -0.1334421832601059 0 -0.43823455075000578 -0.15580669622701629 0 -0.41213512381178841 -0.1299204600531296 0 -0.41985581490816198 -0.154444998856094 0 -0.43539800930699801 -0.1334421832601059 0 -0.41213512381178841 -0.1299204600531296 0 -0.43539800930699801 -0.1334421832601059 0 -0.43259539229225402 -0.1157747654031315 0 -0.41213512381178841 -0.1299204600531296 0 -0.43539800930699801 -0.1334421832601059 0 -0.43539800930699801 -0.1334421832601059 0 -0.45866089480220767 -0.1369639064670822 0 -0.45113905152447542 -0.1175368028588321 0 -0.43539800930699801 -0.1334421832601059 0 -0.44775450515208032 -0.1461386934312979 0 -0.45866089480220767 -0.1369639064670822 0 -0.43539800930699801 -0.1334421832601059 0 -0.45866089480220767 -0.1369639064670822 0 -0.44775450515208032 -0.1461386934312979 0 -0.43823455075000578 -0.15580669622701629 0 -0.45633895227784033 -0.1576945794699274 0 -0.43539800930699801 -0.1334421832601059 0 -0.44775450515208032 -0.1461386934312979 0 -0.43823455075000578 -0.15580669622701629 0 -0.44775450515208032 -0.1461386934312979 0 -0.45866089480220767 -0.1369639064670822 0 -0.45633895227784033 -0.1576945794699274 0 -0.45866089480220767 -0.1369639064670822 0 -0.47575659097790751 -0.15007175010341289 0 -0.45633895227784033 -0.1576945794699274 0 -0.45866089480220767 -0.1369639064670822 0 -0.47575659097790751 -0.15007175010341289 0 -0.46915934665662162 -0.1230624738371303 0 -0.45866089480220767 -0.1369639064670822 0 -0.45113905152447542 -0.1175368028588321 0 -0.46915934665662162 -0.1230624738371303 0 -0.47575659097790751 -0.15007175010341289 0 -0.46915934665662162 -0.1230624738371303 0 -0.48351137830779539 -0.13386722315158131 0 -0.47575659097790751 -0.15007175010341289 0 -0.46915934665662162 -0.1230624738371303 0 -0.48351137830779539 -0.13386722315158131 0 -0.5 -0.12673639045435739 0 -0.5 -0.15610943167098409 0 -0.48351137830779539 -0.13386722315158131 0 -0.5 -0.15610943167098409 0 -0.47575659097790751 -0.15007175010341289 0 -0.47575659097790751 -0.15007175010341289 0 -0.4823538352991934 -0.17708102636969561 0 -0.47575659097790751 -0.15007175010341289 0 -0.46899934294491291 -0.16540597077255109 0 -0.4823538352991934 -0.17708102636969561 0 -0.5 -0.15610943167098409 0 -0.47575659097790751 -0.15007175010341289 0 -0.4823538352991934 -0.17708102636969561 0 -0.5 -0.15610943167098409 0 -0.49999999999999722 -0.18548247288761069 0 -0.4823538352991934 -0.17708102636969561 0 -0.4823538352991934 -0.17708102636969561 0 -0.46154799322471052 -0.17677652714716849 0 -0.47332956926376563 -0.19085067910818809 0 -0.46899934294491291 -0.16540597077255109 0 -0.4823538352991934 -0.17708102636969561 0 -0.46154799322471052 -0.17677652714716849 0 -0.46154799322471052 -0.17677652714716849 0 -0.44559792516655838 -0.1851633886427331 0 -0.46102895515839498 -0.19155331343124329 0 -0.46154799322471052 -0.17677652714716849 0 -0.46102895515839498 -0.19155331343124329 0 -0.47332956926376563 -0.19085067910818809 0 -0.46899934294491291 -0.16540597077255109 0 -0.46154799322471052 -0.17677652714716849 0 -0.45633895227784033 -0.1576945794699274 0 -0.47575659097790751 -0.15007175010341289 0 -0.46899934294491291 -0.16540597077255109 0 -0.45633895227784033 -0.1576945794699274 0 -0.46154799322471052 -0.17677652714716849 0 -0.45633895227784033 -0.1576945794699274 0 -0.44303700991658518 -0.17026832712875151 0 -0.43823455075000578 -0.15580669622701629 0 -0.45633895227784033 -0.1576945794699274 0 -0.44303700991658518 -0.17026832712875151 0 -0.46154799322471052 -0.17677652714716849 0 -0.44303700991658518 -0.17026832712875151 0 -0.44559792516655838 -0.1851633886427331 0 -0.43179072736577528 -0.17970529711169 0 -0.44303700991658518 -0.17026832712875151 0 -0.44559792516655838 -0.1851633886427331 0 -0.44559792516655838 -0.1851633886427331 0 -0.44507868827009389 -0.1999492498693555 0 -0.46102895515839498 -0.19155331343124329 0 -0.43110417706379089 -0.19272761716818959 0 -0.44559792516655838 -0.1851633886427331 0 -0.44507868827009389 -0.1999492498693555 0 -0.44507868827009389 -0.1999492498693555 0 -0.43795718746300122 -0.2140778908121922 0 -0.4586272545788867 -0.21721319340246781 0 -0.43042781253814327 -0.20309513998401429 0 -0.44507868827009389 -0.1999492498693555 0 -0.43795718746300122 -0.2140778908121922 0 -0.43795718746300122 -0.2140778908121922 0 -0.4586272545788867 -0.21721319340246781 0 -0.4586272545788867 -0.21721319340246781 0 -0.46102895515839498 -0.19155331343124329 0 -0.47276598301604827 -0.20475222595685469 0 -0.44507868827009389 -0.1999492498693555 0 -0.4586272545788867 -0.21721319340246781 0 -0.46102895515839498 -0.19155331343124329 0 -0.47332956926376563 -0.19085067910818809 0 -0.48895107962048001 -0.20409030263597791 0 -0.47276598301604827 -0.20475222595685469 0 -0.4823538352991934 -0.17708102636969561 0 -0.47332956926376563 -0.19085067910818809 0 -0.48895107962048001 -0.20409030263597791 0 -0.46102895515839498 -0.19155331343124329 0 -0.47332956926376563 -0.19085067910818809 0 -0.47276598301604827 -0.20475222595685469 0 -0.4823538352991934 -0.17708102636969561 0 -0.48895107962048001 -0.20409030263597791 0 -0.49999999999999722 -0.18548247288761069 0 -0.48895107962048001 -0.20409030263597791 0 -0.49999999999999722 -0.18548247288761069 0 -0.5 -0.2044856090206181 0 -0.48895107962048001 -0.20409030263597791 0 -0.49999999999999722 -0.18548247288761069 0 -0.4823538352991934 -0.17708102636969561 0 -0.48895107962048001 -0.20409030263597791 0 -0.5 -0.2044856090206181 0 -0.500000000000002 -0.2234887451536256 0 -0.49344650703865789 -0.22249469015893941 0 -0.5 -0.2044856090206181 0 -0.48895107962048001 -0.20409030263597791 0 -0.49344650703865789 -0.22249469015893941 0 -0.48895107962048001 -0.20409030263597791 0 -0.47929732169477218 -0.22034849599274231 0 -0.49344650703865789 -0.22249469015893941 0 -0.48895107962048001 -0.20409030263597791 0 -0.49344650703865789 -0.22249469015893941 0 -0.48895107962048001 -0.20409030263597791 0 -0.47276598301604827 -0.20475222595685469 0 -0.47929732169477218 -0.22034849599274231 0 -0.48895107962048001 -0.20409030263597791 0 -0.47929732169477218 -0.22034849599274231 0 -0.4586272545788867 -0.21721319340246781 0 -0.47276598301604827 -0.20475222595685469 0 -0.47929732169477218 -0.22034849599274231 0 -0.4586272545788867 -0.21721319340246781 0 -0.47929732169477218 -0.22034849599274231 0 -0.47929732169477218 -0.22034849599274231 0 -0.48416686203858311 -0.23469505857438669 0 -0.46465652818918263 -0.24483730068029039 0 -0.47929732169477218 -0.22034849599274231 0 -0.46465652818918263 -0.24483730068029039 0 -0.47929732169477218 -0.22034849599274231 0 -0.49344650703865789 -0.22249469015893941 0 -0.47929732169477218 -0.22034849599274231 0 -0.49344650703865789 -0.22249469015893941 0 -0.48416686203858311 -0.23469505857438669 0 -0.49344650703865789 -0.22249469015893941 0 -0.49730382647131183 -0.23828664830542051 0 -0.48416686203858311 -0.23469505857438669 0 -0.500000000000002 -0.2234887451536256 0 -0.49344650703865789 -0.22249469015893941 0 -0.49730382647131183 -0.23828664830542051 0 -0.49344650703865789 -0.22249469015893941 0 -0.49730382647131183 -0.23828664830542051 0 -0.500000000000002 -0.2234887451536256 0 -0.49344650703865789 -0.22249469015893941 0 -0.5 -0.25150281007534703 0 -0.500000000000002 -0.2234887451536256 0 -0.49730382647131183 -0.23828664830542051 0 -0.5 -0.25150281007534703 0 -0.49730382647131183 -0.23828664830542051 0 -0.48570939693172899 -0.24902992718248729 0 -0.49730382647131183 -0.23828664830542051 0 -0.48570939693172899 -0.24902992718248729 0 -0.48416686203858311 -0.23469505857438669 0 -0.48570939693172899 -0.24902992718248729 0 -0.48416686203858311 -0.23469505857438669 0 -0.46465652818918263 -0.24483730068029039 0 -0.4586272545788867 -0.21721319340246781 0 -0.47929732169477218 -0.22034849599274231 0 -0.46465652818918263 -0.24483730068029039 0 -0.4586272545788867 -0.21721319340246781 0 -0.46465652818918263 -0.24483730068029039 0 -0.44658841198271632 -0.22637890077404829 0 -0.43795718746300122 -0.2140778908121922 0 -0.4586272545788867 -0.21721319340246781 0 -0.44658841198271632 -0.22637890077404829 0 -0.42560539866416353 -0.22692866047589191 0 -0.44658841198271632 -0.22637890077404829 0 -0.44336769959532257 -0.23972790925379969 0 -0.46465652818918263 -0.24483730068029039 0 -0.44658841198271632 -0.22637890077404829 0 -0.44336769959532257 -0.23972790925379969 0 -0.44165736388207272 -0.25360003737878889 0 -0.46465652818918263 -0.24483730068029039 0 -0.44336769959532257 -0.23972790925379969 0 -0.44165736388207272 -0.25360003737878889 0 -0.429193077912078 -0.24092705066174019 0 -0.44336769959532257 -0.23972790925379969 0 -0.41631059699689099 -0.042084497863468198 0 -0.41965755993826598 -0.033894451920331033 0 -0.42761534325808798 -0.038876017594557971 0 -0.41631059699689099 -0.042084497863468198 0 -0.41965755993826598 -0.033894451920331033 0 -0.41128163845263888 -0.036426639289896208 0 -0.41965755993826598 -0.033894451920331033 0 -0.41128163845263888 -0.036426639289896208 0 -0.41258462043609562 -0.025993866725156231 0 -0.41128163845263888 -0.036426639289896208 0 -0.40704563849368902 -0.043093498236160592 0 -0.40124408047313331 -0.037519640608623422 0 -0.41128163845263888 -0.036426639289896208 0 -0.41258462043609562 -0.025993866725156231 0 -0.40124408047313331 -0.037519640608623422 0 -0.41631059699689099 -0.042084497863468198 0 -0.40704563849368902 -0.043093498236160592 0 -0.41300523529446281 -0.049717993690613083 0 -0.41631059699689099 -0.042084497863468198 0 -0.41128163845263888 -0.036426639289896208 0 -0.40704563849368902 -0.043093498236160592 0 -0.40704563849368902 -0.043093498236160592 0 -0.41300523529446281 -0.049717993690613083 0 -0.40411610338443682 -0.050557450003133962 0 -0.41300523529446281 -0.049717993690613083 0 -0.41414033076402768 -0.061585207313392322 0 -0.40411610338443682 -0.050557450003133962 0 -0.41300523529446281 -0.049717993690613083 0 -0.41414033076402768 -0.061585207313392322 0 -0.42341350683326928 -0.051269315036910318 0 -0.41631059699689099 -0.042084497863468198 0 -0.41300523529446281 -0.049717993690613083 0 -0.42341350683326928 -0.051269315036910318 0 -0.41414033076402768 -0.061585207313392322 0 -0.42341350683326928 -0.051269315036910318 0 -0.43505259438904009 -0.065314564308975948 0 -0.42341350683326928 -0.051269315036910318 0 -0.43594560852523878 -0.049663465434261311 0 -0.43505259438904009 -0.065314564308975948 0 -0.43594560852523878 -0.049663465434261311 0 -0.42761534325808798 -0.038876017594557971 0 -0.44052059365423879 -0.038318026972638523 0 -0.42341350683326928 -0.051269315036910318 0 -0.43594560852523878 -0.049663465434261311 0 -0.42761534325808798 -0.038876017594557971 0 -0.41631059699689099 -0.042084497863468198 0 -0.42341350683326928 -0.051269315036910318 0 -0.42761534325808798 -0.038876017594557971 0 -0.41965755993826598 -0.033894451920331033 0 -0.42761534325808798 -0.038876017594557971 0 -0.43049560054761637 -0.026091238128576531 0 -0.42761534325808798 -0.038876017594557971 0 -0.43049560054761637 -0.026091238128576531 0 -0.44052059365423879 -0.038318026972638523 0 -0.43049560054761637 -0.026091238128576531 0 -0.42123606753034548 -0.0078521834473191492 0 -0.44016826678282051 -0.008282799190680902 0 -0.42123606753034548 -0.0078521834473191492 0 -0.41258462043609562 -0.025993866725156231 0 -0.40359645288427559 -0.01255273007959058 0 -0.42123606753034548 -0.0078521834473191492 0 -0.40359645288427559 -0.01255273007959058 0 -0.411842978763718 0.0071810696113592566 0 -0.43049560054761637 -0.026091238128576531 0 -0.42123606753034548 -0.0078521834473191492 0 -0.41258462043609562 -0.025993866725156231 0 -0.41965755993826598 -0.033894451920331033 0 -0.43049560054761637 -0.026091238128576531 0 -0.41258462043609562 -0.025993866725156231 0 -0.41258462043609562 -0.025993866725156231 0 -0.40359645288427559 -0.01255273007959058 0 -0.40124408047313331 -0.037519640608623422 0 -0.40359645288427559 -0.01255273007959058 0 -0.39764058419755538 -0.038576012957609408 0 -0.40124408047313331 -0.037519640608623422 0 -0.40359645288427559 -0.01255273007959058 0 -0.38932648706987377 -0.013730584936831609 0 -0.38650677435962982 -0.026234410340964749 0 -0.40359645288427559 -0.01255273007959058 0 -0.38650677435962982 -0.026234410340964749 0 -0.39764058419755538 -0.038576012957609408 0 -0.40359645288427559 -0.01255273007959058 0 -0.39764058419755538 -0.038576012957609408 0 -0.40359645288427559 -0.01255273007959058 0 -0.411842978763718 0.0071810696113592566 0 -0.39856960861661739 0.0046729487720050386 0 -0.40359645288427559 -0.01255273007959058 0 -0.39149303023403142 -0.005335277537219363 0 -0.39856960861661739 0.0046729487720050386 0 -0.40359645288427559 -0.01255273007959058 0 -0.39149303023403142 -0.005335277537219363 0 -0.38932648706987377 -0.013730584936831609 0 -0.39149303023403142 -0.005335277537219363 0 -0.38087232901863782 -0.0095024514541764069 0 -0.38510027358075227 0.0044364300124967379 0 -0.39149303023403142 -0.005335277537219363 0 -0.38932648706987377 -0.013730584936831609 0 -0.38087232901863782 -0.0095024514541764069 0 -0.38932648706987377 -0.013730584936831609 0 -0.38087232901863782 -0.0095024514541764069 0 -0.38186988518864651 -0.018280442328540609 0 -0.37719726677334758 -0.010782784077609161 0 -0.38087232901863782 -0.0095024514541764069 0 -0.38186988518864651 -0.018280442328540609 0 -0.37719726677334758 -0.010782784077609161 0 -0.38087232901863782 -0.0095024514541764069 0 -0.37719726677334758 -0.010782784077609161 0 -0.38510027358075227 0.0044364300124967379 0 -0.37145675818362223 0.001704133189072726 0 -0.37719726677334758 -0.010782784077609161 0 -0.38510027358075227 0.0044364300124967379 0 -0.37719726677334758 -0.010782784077609161 0 -0.38087232901863782 -0.0095024514541764069 0 -0.38510027358075227 0.0044364300124967379 0 -0.36684988365240911 -0.03070925546092473 0 -0.38650677435962982 -0.026234410340964749 0 -0.38186988518864651 -0.018280442328540609 0 -0.36684988365240911 -0.03070925546092473 0 -0.37719726677334758 -0.010782784077609161 0 -0.38186988518864651 -0.018280442328540609 0 -0.38932648706987377 -0.013730584936831609 0 -0.38650677435962982 -0.026234410340964749 0 -0.38186988518864651 -0.018280442328540609 0 -0.36684988365240911 -0.03070925546092473 0 -0.38650677435962982 -0.026234410340964749 0 -0.37707154236451451 -0.044605869900925722 0 -0.38650677435962982 -0.026234410340964749 0 -0.37707154236451451 -0.044605869900925722 0 -0.39764058419755538 -0.038576012957609408 0 -0.37707154236451451 -0.044605869900925722 0 -0.39764058419755538 -0.038576012957609408 0 -0.39764058419755538 -0.038576012957609408 0 -0.40065489473756588 -0.045520490424667083 0 -0.40124408047313331 -0.037519640608623422 0 -0.40704563849368902 -0.043093498236160592 0 -0.40065489473756588 -0.045520490424667083 0 -0.40124408047313331 -0.037519640608623422 0 -0.40704563849368902 -0.043093498236160592 0 -0.40065489473756588 -0.045520490424667083 0 -0.40411610338443682 -0.050557450003133962 0 -0.39764058419755538 -0.038576012957609408 0 -0.40124408047313331 -0.037519640608623422 0 -0.39764058419755538 -0.038576012957609408 0 -0.40065489473756588 -0.045520490424667083 0 -0.39322806713901498 -0.057855850317809959 0 -0.41414033076402768 -0.061585207313392322 0 -0.39322806713901498 -0.057855850317809959 0 -0.40444542418072821 -0.066780626888537295 0 -0.41414033076402768 -0.061585207313392322 0 -0.40411610338443682 -0.050557450003133962 0 -0.39322806713901498 -0.057855850317809959 0 -0.39764058419755538 -0.038576012957609408 0 -0.39322806713901498 -0.057855850317809959 0 -0.41414033076402768 -0.061585207313392322 0 -0.39322806713901498 -0.057855850317809959 0 -0.40065489473756588 -0.045520490424667083 0 -0.40411610338443682 -0.050557450003133962 0 -0.39322806713901498 -0.057855850317809959 0 -0.37470589733927712 -0.0545527271000322 0 -0.39322806713901498 -0.057855850317809959 0 -0.37470589733927712 -0.0545527271000322 0 -0.37707154236451451 -0.044605869900925722 0 -0.39322806713901498 -0.057855850317809959 0 -0.37707154236451451 -0.044605869900925722 0 -0.39764058419755538 -0.038576012957609408 0 -0.39322806713901498 -0.057855850317809959 0 -0.37470589733927712 -0.0545527271000322 0 -0.39322806713901498 -0.057855850317809959 0 -0.3838397651565123 -0.062625659154805113 0 -0.37470589733927712 -0.0545527271000322 0 -0.37683012181080239 -0.068733301298065499 0 -0.3838397651565123 -0.062625659154805113 0 -0.39322806713901498 -0.057855850317809959 0 -0.3838397651565123 -0.062625659154805113 0 -0.39059497433695439 -0.069360757903312753 0 -0.37683012181080239 -0.068733301298065499 0 -0.3838397651565123 -0.062625659154805113 0 -0.39059497433695439 -0.069360757903312753 0 -0.39059497433695439 -0.069360757903312753 0 -0.3750868287242039 -0.083945666598845156 0 -0.37683012181080239 -0.068733301298065499 0 -0.39059497433695439 -0.069360757903312753 0 -0.3750868287242039 -0.083945666598845156 0 -0.39059497433695439 -0.069360757903312753 0 -0.38574124546072602 -0.090568404714108222 0 -0.3750868287242039 -0.083945666598845156 0 -0.39059497433695439 -0.069360757903312753 0 -0.38574124546072602 -0.090568404714108222 0 -0.37338072534044958 -0.1015395423542827 0 -0.38574124546072602 -0.090568404714108222 0 -0.3750868287242039 -0.083945666598845156 0 -0.39059497433695439 -0.069360757903312753 0 -0.38574124546072602 -0.090568404714108222 0 -0.39722678832591729 -0.08549102947411294 0 -0.38574124546072602 -0.090568404714108222 0 -0.39722678832591729 -0.08549102947411294 0 -0.39016591446444671 -0.1027403174982935 0 -0.39722678832591729 -0.08549102947411294 0 -0.40358704082088931 -0.10183248075400859 0 -0.40955223446300359 -0.086375659296802715 0 -0.39722678832591729 -0.08549102947411294 0 -0.40456307765117672 -0.076708553120630463 0 -0.40955223446300359 -0.086375659296802715 0 -0.39722678832591729 -0.08549102947411294 0 -0.40456307765117672 -0.076708553120630463 0 -0.39841612749299532 -0.072664694729402735 0 -0.40456307765117672 -0.076708553120630463 0 -0.40444542418072821 -0.066780626888537295 0 -0.39841612749299532 -0.072664694729402735 0 -0.39059497433695439 -0.069360757903312753 0 -0.39722678832591729 -0.08549102947411294 0 -0.39841612749299532 -0.072664694729402735 0 -0.40444542418072821 -0.066780626888537295 0 -0.39525037297019971 -0.064982506260420264 0 -0.39841612749299532 -0.072664694729402735 0 -0.39059497433695439 -0.069360757903312753 0 -0.39525037297019971 -0.064982506260420264 0 -0.39841612749299532 -0.072664694729402735 0 -0.39322806713901498 -0.057855850317809959 0 -0.39059497433695439 -0.069360757903312753 0 -0.39525037297019971 -0.064982506260420264 0 -0.39322806713901498 -0.057855850317809959 0 -0.40444542418072821 -0.066780626888537295 0 -0.39525037297019971 -0.064982506260420264 0 -0.39322806713901498 -0.057855850317809959 0 -0.39059497433695439 -0.069360757903312753 0 -0.39059497433695439 -0.069360757903312753 0 -0.39525037297019971 -0.064982506260420264 0 -0.36560935282136869 -0.1228770136391782 0 -0.38887223831657869 -0.12639873684615319 0 -0.38887223831657869 -0.12639873684615319 0 -0.38088751658449588 -0.11177605152490321 0 -0.39861419104112761 -0.1141217052544175 0 -0.38088751658449588 -0.11177605152490321 0 -0.39016591446444671 -0.1027403174982935 0 -0.39861419104112761 -0.1141217052544175 0 -0.36560935282136869 -0.1228770136391782 0 -0.38887223831657869 -0.12639873684615319 0 -0.38088751658449588 -0.11177605152490321 0 -0.38574124546072602 -0.090568404714108222 0 -0.38088751658449588 -0.11177605152490321 0 -0.38574124546072602 -0.090568404714108222 0 -0.38088751658449588 -0.11177605152490321 0 -0.39016591446444671 -0.1027403174982935 0 -0.37338072534044958 -0.1015395423542827 0 -0.38574124546072602 -0.090568404714108222 0 -0.38088751658449588 -0.11177605152490321 0 -0.40358704082088931 -0.10183248075400859 0 -0.39861419104112761 -0.1141217052544175 0 -0.4160373122485671 -0.1120621848500169 0 -0.39722678832591729 -0.08549102947411294 0 -0.39016591446444671 -0.1027403174982935 0 -0.40358704082088931 -0.10183248075400859 0 -0.39016591446444671 -0.1027403174982935 0 -0.40358704082088931 -0.10183248075400859 0 -0.39861419104112761 -0.1141217052544175 0 -0.38887223831657869 -0.12639873684615319 0 -0.41213512381178841 -0.1299204600531296 0 -0.39861419104112761 -0.1141217052544175 0 -0.41213512381178841 -0.1299204600531296 0 -0.39861419104112761 -0.1141217052544175 0 -0.4160373122485671 -0.1120621848500169 0 -0.41213512381178841 -0.1299204600531296 0 -0.4160373122485671 -0.1120621848500169 0 -0.43259539229225402 -0.1157747654031315 0 -0.4160373122485671 -0.1120621848500169 0 -0.4169341364211625 -0.097460269163205951 0 -0.43115901768430159 -0.099355876929453982 0 -0.40358704082088931 -0.10183248075400859 0 -0.4160373122485671 -0.1120621848500169 0 -0.4169341364211625 -0.097460269163205951 0 -0.40358704082088931 -0.10183248075400859 0 -0.4169341364211625 -0.097460269163205951 0 -0.40955223446300359 -0.086375659296802715 0 -0.4160373122485671 -0.1120621848500169 0 -0.43115901768430159 -0.099355876929453982 0 -0.43259539229225402 -0.1157747654031315 0 -0.43115901768430159 -0.099355876929453982 0 -0.43259539229225402 -0.1157747654031315 0 -0.44676155729694311 -0.09856935048049352 0 -0.41414033076402768 -0.061585207313392322 0 -0.41477655714820522 -0.073508962632903227 0 -0.43505259438904009 -0.065314564308975948 0 -0.41414033076402768 -0.061585207313392322 0 -0.40444542418072821 -0.066780626888537295 0 -0.41477655714820522 -0.073508962632903227 0 -0.40456307765117672 -0.076708553120630463 0 -0.40444542418072821 -0.066780626888537295 0 -0.41477655714820522 -0.073508962632903227 0 -0.40456307765117672 -0.076708553120630463 0 -0.41477655714820522 -0.073508962632903227 0 -0.40955223446300359 -0.086375659296802715 0 -0.41477655714820522 -0.073508962632903227 0 -0.40955223446300359 -0.086375659296802715 0 -0.42547236143691691 -0.079964116854811126 0 -0.4169341364211625 -0.097460269163205951 0 -0.40955223446300359 -0.086375659296802715 0 -0.42547236143691691 -0.079964116854811126 0 -0.43115901768430159 -0.099355876929453982 0 -0.42547236143691691 -0.079964116854811126 0 -0.43948503029078051 -0.084366611422258486 0 -0.4169341364211625 -0.097460269163205951 0 -0.43115901768430159 -0.099355876929453982 0 -0.42547236143691691 -0.079964116854811126 0 -0.42547236143691691 -0.079964116854811126 0 -0.43593321389199208 -0.076166958257645731 0 -0.43948503029078051 -0.084366611422258486 0 -0.41414033076402768 -0.061585207313392322 0 -0.43505259438904009 -0.065314564308975948 0 -0.42547236143691691 -0.079964116854811126 0 -0.43593321389199208 -0.076166958257645731 0 -0.43505259438904009 -0.065314564308975948 0 -0.41477655714820522 -0.073508962632903227 0 -0.42547236143691691 -0.079964116854811126 0 -0.43505259438904009 -0.065314564308975948 0 -0.43505259438904009 -0.065314564308975948 0 -0.45596485801405168 -0.069043921304564548 0 -0.45254776170430372 -0.055054247167343383 0 -0.43505259438904009 -0.065314564308975948 0 -0.44372286945123102 -0.075022540444537378 0 -0.45596485801405168 -0.069043921304564548 0 -0.43505259438904009 -0.065314564308975948 0 -0.45596485801405168 -0.069043921304564548 0 -0.44372286945123102 -0.075022540444537378 0 -0.44986078827983011 -0.084538284578158471 0 -0.45596485801405168 -0.069043921304564548 0 -0.43593321389199208 -0.076166958257645731 0 -0.43505259438904009 -0.065314564308975948 0 -0.44372286945123102 -0.075022540444537378 0 -0.43593321389199208 -0.076166958257645731 0 -0.44372286945123102 -0.075022540444537378 0 -0.43948503029078051 -0.084366611422258486 0 -0.44986078827983011 -0.084538284578158471 0 -0.44676155729694311 -0.09856935048049352 0 -0.46256210233533568 -0.096053197570847695 0 -0.44372286945123102 -0.075022540444537378 0 -0.43948503029078051 -0.084366611422258486 0 -0.44986078827983011 -0.084538284578158471 0 -0.43948503029078051 -0.084366611422258486 0 -0.44986078827983011 -0.084538284578158471 0 -0.44676155729694311 -0.09856935048049352 0 -0.46571079481874128 -0.075383853833439818 0 -0.45596485801405168 -0.069043921304564548 0 -0.46256210233533568 -0.096053197570847695 0 -0.45596485801405168 -0.069043921304564548 0 -0.46256210233533568 -0.096053197570847695 0 -0.44986078827983011 -0.084538284578158471 0 -0.45596485801405168 -0.069043921304564548 0 -0.46256210233533568 -0.096053197570847695 0 -0.46571079481874128 -0.075383853833439818 0 -0.46440728388852631 -0.065665476577682319 0 -0.45759908464129401 -0.069335358645535999 0 -0.46571079481874128 -0.075383853833439818 0 -0.46440728388852631 -0.065665476577682319 0 -0.47046251890076313 -0.067508589662998122 0 -0.45759908464129401 -0.069335358645535999 0 -0.45958199435623182 -0.062522792654202811 0 -0.45596485801405168 -0.069043921304564548 0 -0.46440728388852631 -0.065665476577682319 0 -0.45759908464129401 -0.069335358645535999 0 -0.45958199435623182 -0.062522792654202811 0 -0.45759908464129401 -0.069335358645535999 0 -0.45596485801405168 -0.069043921304564548 0 -0.46571079481874128 -0.075383853833439818 0 -0.45759908464129401 -0.069335358645535999 0 -0.45596485801405168 -0.069043921304564548 0 -0.43539800930699801 -0.1334421832601059 0 -0.43259539229225402 -0.1157747654031315 0 -0.45113905152447542 -0.1175368028588321 0 -0.43259539229225402 -0.1157747654031315 0 -0.45113905152447542 -0.1175368028588321 0 -0.44676155729694311 -0.09856935048049352 0 -0.43115901768430159 -0.099355876929453982 0 -0.43948503029078051 -0.084366611422258486 0 -0.44676155729694311 -0.09856935048049352 0 -0.45113905152447542 -0.1175368028588321 0 -0.44676155729694311 -0.09856935048049352 0 -0.46256210233533568 -0.096053197570847695 0 -0.46256210233533568 -0.096053197570847695 0 -0.46915934665662162 -0.1230624738371303 0 -0.45113905152447542 -0.1175368028588321 0 -0.46256210233533568 -0.096053197570847695 0 -0.46915934665662162 -0.1230624738371303 0 -0.48351137830779539 -0.13386722315158131 0 -0.46915934665662162 -0.1230624738371303 0 -0.48133806505124233 -0.10835548473569059 0 -0.46256210233533568 -0.096053197570847695 0 -0.46915934665662162 -0.1230624738371303 0 -0.48133806505124233 -0.10835548473569059 0 -0.46256210233533568 -0.096053197570847695 0 -0.48133806505124233 -0.10835548473569059 0 -0.4787903951136242 -0.090525190808538269 0 -0.48133806505124233 -0.10835548473569059 0 -0.500000000000001 -0.097363349237730712 0 -0.4787903951136242 -0.090525190808538269 0 -0.48351137830779539 -0.13386722315158131 0 -0.5 -0.12673639045435739 0 -0.48133806505124233 -0.10835548473569059 0 -0.5 -0.12673639045435739 0 -0.48133806505124233 -0.10835548473569059 0 -0.500000000000001 -0.097363349237730712 0 -0.48434101336280139 -0.075470068664982515 0 -0.47046251890076313 -0.067508589662998122 0 -0.46868202672560128 -0.053576788092234838 0 -0.46571079481874128 -0.075383853833439818 0 -0.48434101336280139 -0.075470068664982515 0 -0.47046251890076313 -0.067508589662998122 0 -0.48434101336280139 -0.075470068664982515 0 -0.46868202672560128 -0.053576788092234838 0 -0.46571079481874128 -0.075383853833439818 0 -0.48434101336280139 -0.075470068664982515 0 -0.4787903951136242 -0.090525190808538269 0 -0.46571079481874128 -0.075383853833439818 0 -0.46256210233533568 -0.096053197570847695 0 -0.4787903951136242 -0.090525190808538269 0 -0.500000000000001 -0.097363349237730712 0 -0.48434101336280139 -0.075470068664982515 0 -0.5 -0.067775448906690738 0 -0.500000000000001 -0.097363349237730712 0 -0.48434101336280139 -0.075470068664982515 0 -0.4787903951136242 -0.090525190808538269 0 -0.500000000000001 -0.097363349237730712 0 -0.48434101336280139 -0.075470068664982515 0 -0.48434101336280139 -0.075470068664982515 0 -0.5 -0.067775448906690738 0 -0.48551694096935982 -0.058082376044726818 0 -0.5 -0.067775448906690738 0 -0.48551694096935982 -0.058082376044726818 0 -0.5 -0.038187548575650758 0 -0.48551694096935982 -0.058082376044726818 0 -0.5 -0.038187548575650758 0 -0.47983884509016961 -0.04559408958900394 0 -0.5 -0.038187548575650758 0 -0.47627813796950452 -0.032068202833415903 0 -0.47983884509016961 -0.04559408958900394 0 -0.47627813796950452 -0.032068202833415903 0 -0.47983884509016961 -0.04559408958900394 0 -0.46868202672560128 -0.053576788092234838 0 -0.48434101336280139 -0.075470068664982515 0 -0.48551694096935982 -0.058082376044726818 0 -0.46868202672560128 -0.053576788092234838 0 -0.48551694096935982 -0.058082376044726818 0 -0.47983884509016961 -0.04559408958900394 0 -0.46868202672560128 -0.053576788092234838 0 -0.46440728388852631 -0.065665476577682319 0 -0.47046251890076313 -0.067508589662998122 0 -0.46868202672560128 -0.053576788092234838 0 -0.45958199435623182 -0.062522792654202811 0 -0.46868202672560128 -0.053576788092234838 0 -0.45254776170430372 -0.055054247167343383 0 -0.46440728388852631 -0.065665476577682319 0 -0.45958199435623182 -0.062522792654202811 0 -0.46868202672560128 -0.053576788092234838 0 -0.45596485801405168 -0.069043921304564548 0 -0.45254776170430372 -0.055054247167343383 0 -0.45958199435623182 -0.062522792654202811 0 -0.45596485801405168 -0.069043921304564548 0 -0.45254776170430372 -0.055054247167343383 0 -0.46868202672560128 -0.053576788092234838 0 -0.45302304008840111 -0.031683507519487203 0 -0.45254776170430372 -0.055054247167343383 0 -0.46868202672560128 -0.053576788092234838 0 -0.45302304008840111 -0.031683507519487203 0 -0.47627813796950452 -0.032068202833415903 0 -0.46868202672560128 -0.053576788092234838 0 -0.45302304008840111 -0.031683507519487203 0 -0.43049560054761637 -0.026091238128576531 0 -0.45302304008840111 -0.031683507519487203 0 -0.44052059365423879 -0.038318026972638523 0 -0.45302304008840111 -0.031683507519487203 0 -0.44052059365423879 -0.038318026972638523 0 -0.45254776170430372 -0.055054247167343383 0 -0.43594560852523878 -0.049663465434261311 0 -0.44052059365423879 -0.038318026972638523 0 -0.45254776170430372 -0.055054247167343383 0 -0.43594560852523878 -0.049663465434261311 0 -0.43505259438904009 -0.065314564308975948 0 -0.45254776170430372 -0.055054247167343383 0 -0.44016826678282051 -0.008282799190680902 0 -0.46819439313074318 -0.0088485217403602174 0 -0.44910531892432481 0.0088256729137652749 0 -0.43049560054761637 -0.026091238128576531 0 -0.45302304008840111 -0.031683507519487203 0 -0.44016826678282051 -0.008282799190680902 0 -0.45302304008840111 -0.031683507519487203 0 -0.44016826678282051 -0.008282799190680902 0 -0.46819439313074318 -0.0088485217403602174 0 -0.47627813796950452 -0.032068202833415903 0 -0.45302304008840111 -0.031683507519487203 0 -0.46819439313074318 -0.0088485217403602174 0 -0.47627813796950452 -0.032068202833415903 0 -0.46819439313074318 -0.0088485217403602174 0 -0.5 -0.0085996482446106803 0 -0.46819439313074318 -0.0088485217403602174 0 -0.5 -0.0085996482446106803 0 -0.48327269561072528 0.0075949784500739621 0 -0.5 -0.038187548575650758 0 -0.47627813796950452 -0.032068202833415903 0 -0.5 -0.0085996482446106803 0 -0.5 -0.0085996482446106803 0 -0.500000000000001 0.020988252086429401 0 -0.48327269561072528 0.0075949784500739621 0 -0.500000000000001 0.020988252086429401 0 -0.4818334059336834 0.02486827538731046 0 -0.48327269561072528 0.0075949784500739621 0 -0.500000000000001 0.020988252086429401 0 -0.4818334059336834 0.02486827538731046 0 -0.48627387230376801 0.042906068467448051 0 -0.4818334059336834 0.02486827538731046 0 -0.46506519868097418 0.040930436164492531 0 -0.46608959876636241 0.01500864777446809 0 -0.4818334059336834 0.02486827538731046 0 -0.48327269561072528 0.0075949784500739621 0 -0.46608959876636241 0.01500864777446809 0 -0.46819439313074318 -0.0088485217403602174 0 -0.48327269561072528 0.0075949784500739621 0 -0.46608959876636241 0.01500864777446809 0 -0.5 0.047519219301533577 0 -0.48827346409411548 0.06027768147110632 0 -0.48627387230376801 0.042906068467448051 0 -0.5 0.047519219301533577 0 -0.48827346409411548 0.06027768147110632 0 -0.5 0.074050186516637917 0 -0.500000000000001 0.020988252086429401 0 -0.48627387230376801 0.042906068467448051 0 -0.500000000000001 0.020988252086429401 0 -0.5 0.047519219301533577 0 -0.48627387230376801 0.042906068467448051 0 -0.4818334059336834 0.02486827538731046 0 -0.48627387230376801 0.042906068467448051 0 -0.46506519868097418 0.040930436164492531 0 -0.48627387230376801 0.042906068467448051 0 -0.46506519868097418 0.040930436164492531 0 -0.47254774460753413 0.064823884848466309 0 -0.48827346409411548 0.06027768147110632 0 -0.48627387230376801 0.042906068467448051 0 -0.47254774460753413 0.064823884848466309 0 -0.48627387230376801 0.042906068467448051 0 -0.47254774460753413 0.064823884848466309 0 -0.46506519868097418 0.040930436164492531 0 -0.44375990034961432 0.061031549153910312 0 -0.47254774460753413 0.064823884848466309 0 -0.46506519868097418 0.040930436164492531 0 -0.44486031810931148 0.031744527408694517 0 -0.44375990034961432 0.061031549153910312 0 -0.46819439313074318 -0.0088485217403602174 0 -0.46608959876636241 0.01500864777446809 0 -0.44910531892432481 0.0088256729137652749 0 -0.46506519868097418 0.040930436164492531 0 -0.44486031810931148 0.031744527408694517 0 -0.46608959876636241 0.01500864777446809 0 -0.44486031810931148 0.031744527408694517 0 -0.46608959876636241 0.01500864777446809 0 -0.44910531892432481 0.0088256729137652749 0 -0.44486031810931148 0.031744527408694517 0 -0.44910531892432481 0.0088256729137652749 0 -0.43171222321057451 0.016975124179167082 0 -0.44016826678282051 -0.008282799190680902 0 -0.44910531892432481 0.0088256729137652749 0 -0.43171222321057451 0.016975124179167082 0 -0.42123606753034548 -0.0078521834473191492 0 -0.44016826678282051 -0.008282799190680902 0 -0.43171222321057451 0.016975124179167082 0 -0.44016826678282051 -0.008282799190680902 0 -0.43171222321057451 0.016975124179167082 0 -0.42123606753034548 -0.0078521834473191492 0 -0.411842978763718 0.0071810696113592566 0 -0.43171222321057451 0.016975124179167082 0 -0.411842978763718 0.0071810696113592566 0 -0.40872204527111111 0.022867749962900141 0 -0.39856960861661739 0.0046729487720050386 0 -0.40872204527111111 0.022867749962900141 0 -0.43171222321057451 0.016975124179167082 0 -0.4232561796383284 0.042233047549015017 0 -0.411842978763718 0.0071810696113592566 0 -0.40872204527111111 0.022867749962900141 0 -0.43171222321057451 0.016975124179167082 0 -0.44486031810931148 0.031744527408694517 0 -0.43171222321057451 0.016975124179167082 0 -0.4232561796383284 0.042233047549015017 0 -0.43171222321057451 0.016975124179167082 0 -0.4232561796383284 0.042233047549015017 0 -0.44486031810931148 0.031744527408694517 0 -0.44375990034961432 0.061031549153910312 0 -0.4232561796383284 0.042233047549015017 0 -0.44375990034961432 0.061031549153910312 0 -0.4232561796383284 0.042233047549015017 0 -0.41480013606608229 0.067490970918863163 0 -0.4232561796383284 0.042233047549015017 0 -0.41480013606608229 0.067490970918863163 0 -0.4232561796383284 0.042233047549015017 0 -0.40217936848404251 0.040656332868689943 0 -0.41480013606608229 0.067490970918863163 0 -0.40872204527111111 0.022867749962900141 0 -0.4232561796383284 0.042233047549015017 0 -0.40217936848404251 0.040656332868689943 0 -0.40217936848404251 0.040656332868689943 0 -0.38532972384356262 0.04987884220830327 0 -0.38670634030283008 0.033034015008687988 0 -0.40217936848404251 0.040656332868689943 0 -0.39445515791527019 0.0661614229995688 0 -0.41480013606608229 0.067490970918863163 0 -0.40217936848404251 0.040656332868689943 0 -0.38532972384356262 0.04987884220830327 0 -0.39445515791527019 0.0661614229995688 0 -0.38532972384356262 0.04987884220830327 0 -0.36842953035862158 0.050481425088617103 0 -0.37191756568804107 0.066739953928913298 0 -0.38532972384356262 0.04987884220830327 0 -0.39445515791527019 0.0661614229995688 0 -0.37191756568804107 0.066739953928913298 0 -0.38532972384356262 0.04987884220830327 0 -0.38670634030283008 0.033034015008687988 0 -0.37363166703579942 0.035604814688565273 0 -0.38532972384356262 0.04987884220830327 0 -0.37363166703579942 0.035604814688565273 0 -0.36842953035862158 0.050481425088617103 0 -0.38670634030283008 0.033034015008687988 0 -0.37938766176258892 0.01937444117527904 0 -0.37363166703579942 0.035604814688565273 0 -0.38670634030283008 0.033034015008687988 0 -0.37938766176258892 0.01937444117527904 0 -0.39300328038815729 0.019655644102602461 0 -0.37938766176258892 0.01937444117527904 0 -0.38510027358075227 0.0044364300124967379 0 -0.37145675818362223 0.001704133189072726 0 -0.38510027358075227 0.0044364300124967379 0 -0.39300328038815729 0.019655644102602461 0 -0.37938766176258892 0.01937444117527904 0 -0.38510027358075227 0.0044364300124967379 0 -0.39300328038815729 0.019655644102602461 0 -0.38510027358075227 0.0044364300124967379 0 -0.39856960861661739 0.0046729487720050386 0 -0.39300328038815729 0.019655644102602461 0 -0.39149303023403142 -0.005335277537219363 0 -0.38510027358075227 0.0044364300124967379 0 -0.39856960861661739 0.0046729487720050386 0 -0.40872204527111111 0.022867749962900141 0 -0.40217936848404251 0.040656332868689943 0 -0.39300328038815729 0.019655644102602461 0 -0.40217936848404251 0.040656332868689943 0 -0.38670634030283008 0.033034015008687988 0 -0.39300328038815729 0.019655644102602461 0 -0.40872204527111111 0.022867749962900141 0 -0.39856960861661739 0.0046729487720050386 0 -0.39300328038815729 0.019655644102602461 0 -0.3875766108720648 0.10801011350679229 0 -0.40575939566394709 0.088936040450249165 0 -0.41194990864025682 0.1130743234930766 0 -0.3875766108720648 0.10801011350679229 0 -0.41194990864025682 0.1130743234930766 0 -0.39303850838018423 0.12948099644521679 0 -0.3875766108720648 0.10801011350679229 0 -0.39303850838018423 0.12948099644521679 0 -0.36938718168541179 0.1255902499967409 0 -0.3875766108720648 0.10801011350679229 0 -0.37678680274428078 0.095920052983538381 0 -0.36262419495280129 0.1038515713423341 0 -0.3875766108720648 0.10801011350679229 0 -0.37678680274428078 0.095920052983538381 0 -0.38674475774594591 0.083266397622394045 0 -0.37678680274428078 0.095920052983538381 0 -0.38674475774594591 0.083266397622394045 0 -0.37138104083623391 0.082703932652830325 0 -0.38674475774594591 0.083266397622394045 0 -0.37191756568804107 0.066739953928913298 0 -0.37138104083623391 0.082703932652830325 0 -0.38674475774594591 0.083266397622394045 0 -0.39445515791527019 0.0661614229995688 0 -0.37191756568804107 0.066739953928913298 0 -0.39445515791527019 0.0661614229995688 0 -0.40575939566394709 0.088936040450249165 0 -0.41480013606608229 0.067490970918863163 0 -0.38674475774594591 0.083266397622394045 0 -0.39445515791527019 0.0661614229995688 0 -0.40575939566394709 0.088936040450249165 0 -0.3875766108720648 0.10801011350679229 0 -0.38674475774594591 0.083266397622394045 0 -0.40575939566394709 0.088936040450249165 0 -0.40575939566394709 0.088936040450249165 0 -0.41480013606608229 0.067490970918863163 0 -0.43079976792318958 0.090862199026124468 0 -0.44375990034961432 0.061031549153910312 0 -0.41480013606608229 0.067490970918863163 0 -0.43079976792318958 0.090862199026124468 0 -0.43079976792318958 0.090862199026124468 0 -0.41194990864025682 0.1130743234930766 0 -0.43625153759456498 0.1245866202337218 0 -0.40575939566394709 0.088936040450249165 0 -0.43079976792318958 0.090862199026124468 0 -0.41194990864025682 0.1130743234930766 0 -0.43079976792318958 0.090862199026124468 0 -0.43625153759456498 0.1245866202337218 0 -0.45075561745381781 0.10580031757457831 0 -0.43625153759456498 0.1245866202337218 0 -0.45075561745381781 0.10580031757457831 0 -0.46287227134589981 0.1236989169114972 0 -0.43079976792318958 0.090862199026124468 0 -0.45075561745381781 0.10580031757457831 0 -0.4588216169113003 0.086741701229484575 0 -0.45075561745381781 0.10580031757457831 0 -0.4588216169113003 0.086741701229484575 0 -0.47201107007212878 0.1037065685212097 0 -0.45075561745381781 0.10580031757457831 0 -0.46287227134589981 0.1236989169114972 0 -0.47201107007212878 0.1037065685212097 0 -0.44375990034961432 0.061031549153910312 0 -0.43079976792318958 0.090862199026124468 0 -0.4588216169113003 0.086741701229484575 0 -0.44375990034961432 0.061031549153910312 0 -0.4588216169113003 0.086741701229484575 0 -0.47254774460753413 0.064823884848466309 0 -0.4588216169113003 0.086741701229484575 0 -0.47254774460753413 0.064823884848466309 0 -0.4588216169113003 0.086741701229484575 0 -0.47254774460753413 0.064823884848466309 0 -0.4818122771930986 0.082263337292499406 0 -0.48827346409411548 0.06027768147110632 0 -0.47254774460753413 0.064823884848466309 0 -0.4818122771930986 0.082263337292499406 0 -0.4588216169113003 0.086741701229484575 0 -0.4818122771930986 0.082263337292499406 0 -0.47201107007212878 0.1037065685212097 0 -0.4818122771930986 0.082263337292499406 0 -0.5 0.074050186516637917 0 -0.5 0.1005811537317424 0 -0.48827346409411548 0.06027768147110632 0 -0.4818122771930986 0.082263337292499406 0 -0.5 0.074050186516637917 0 -0.46287227134589981 0.1236989169114972 0 -0.48219315692656572 0.1205151432882924 0 -0.47201107007212878 0.1037065685212097 0 -0.4818122771930986 0.082263337292499406 0 -0.47201107007212878 0.1037065685212097 0 -0.5 0.1005811537317424 0 -0.48219315692656572 0.1205151432882924 0 -0.47201107007212878 0.1037065685212097 0 -0.5 0.1005811537317424 0 -0.48219315692656572 0.1205151432882924 0 -0.5 0.1005811537317424 0 -0.5 0.12711212094684679 0 -0.48219315692656572 0.1205151432882924 0 -0.5 0.12711212094684679 0 -0.47883924748460222 0.14018161060892731 0 -0.5 0.12711212094684679 0 -0.47883924748460222 0.14018161060892731 0 -0.5 0.15364308816195121 0 -0.46287227134589981 0.1236989169114972 0 -0.48219315692656572 0.1205151432882924 0 -0.47883924748460222 0.14018161060892731 0 -0.47883924748460222 0.14018161060892731 0 -0.5 0.15364308816195121 0 -0.47008479780898071 0.1615400033189848 0 -0.5 0.15364308816195121 0 -0.50000000000000089 0.18017405537705561 0 -0.48213074815480522 0.17495155205334359 0 -0.50000000000000089 0.18017405537705561 0 -0.48146292621815812 0.19355635563559381 0 -0.50000000000000089 0.18017405537705561 0 -0.48213074815480522 0.17495155205334359 0 -0.48146292621815812 0.19355635563559381 0 -0.48213074815480522 0.17495155205334359 0 -0.45945765920556431 0.18493118343544621 0 -0.48146292621815812 0.19355635563559381 0 -0.48213074815480522 0.17495155205334359 0 -0.47008479780898071 0.1615400033189848 0 -0.45945765920556431 0.18493118343544621 0 -0.5 0.15364308816195121 0 -0.48213074815480522 0.17495155205334359 0 -0.47008479780898071 0.1615400033189848 0 -0.47008479780898071 0.1615400033189848 0 -0.45945765920556431 0.18493118343544621 0 -0.44491624466772411 0.16813711573335099 0 -0.47008479780898071 0.1615400033189848 0 -0.44491624466772411 0.16813711573335099 0 -0.45700588157118233 0.14460720660399121 0 -0.45945765920556431 0.18493118343544621 0 -0.44491624466772411 0.16813711573335099 0 -0.43474290047699488 0.19015608798310391 0 -0.44491624466772411 0.16813711573335099 0 -0.45700588157118233 0.14460720660399121 0 -0.43611169665434868 0.1504606440305504 0 -0.43625153759456498 0.1245866202337218 0 -0.45700588157118233 0.14460720660399121 0 -0.43611169665434868 0.1504606440305504 0 -0.43625153759456498 0.1245866202337218 0 -0.46287227134589981 0.1236989169114972 0 -0.45700588157118233 0.14460720660399121 0 -0.46287227134589981 0.1236989169114972 0 -0.47883924748460222 0.14018161060892731 0 -0.45700588157118233 0.14460720660399121 0 -0.47883924748460222 0.14018161060892731 0 -0.47008479780898071 0.1615400033189848 0 -0.45700588157118233 0.14460720660399121 0 -0.48207357253193078 0.21739097549918149 0 -0.5 0.2118815469096284 0 -0.5 0.25502500317745308 0 -0.48207357253193078 0.21739097549918149 0 -0.46802780128701832 0.22930896654194979 0 -0.5 0.25502500317745308 0 -0.46802780128701832 0.22930896654194979 0 -0.5 0.25502500317745308 0 -0.46826200115894351 0.25268254595322559 0 -0.50000000000000089 0.18017405537705561 0 -0.5 0.2118815469096284 0 -0.48146292621815812 0.19355635563559381 0 -0.48207357253193078 0.21739097549918149 0 -0.46292585243631501 0.20693865589413171 0 -0.46802780128701832 0.22930896654194979 0 -0.48207357253193078 0.21739097549918149 0 -0.48146292621815812 0.19355635563559381 0 -0.46292585243631501 0.20693865589413171 0 -0.48207357253193078 0.21739097549918149 0 -0.5 0.2118815469096284 0 -0.48146292621815812 0.19355635563559381 0 -0.48146292621815812 0.19355635563559381 0 -0.46292585243631501 0.20693865589413171 0 -0.45945765920556431 0.18493118343544621 0 -0.44696073447060752 0.20212681262101459 0 -0.46292585243631501 0.20693865589413171 0 -0.45945765920556431 0.18493118343544621 0 -0.48146292621815812 0.19355635563559381 0 -0.46292585243631501 0.20693865589413171 0 -0.45945765920556431 0.18493118343544621 0 -0.44696073447060752 0.20212681262101459 0 -0.43474290047699488 0.19015608798310391 0 -0.44696073447060752 0.20212681262101459 0 -0.43414988282090411 0.20902301392359759 0 -0.43474290047699488 0.19015608798310391 0 -0.44696073447060752 0.20212681262101459 0 -0.44438877865447191 0.2203209561526695 0 -0.43414988282090411 0.20902301392359759 0 -0.44696073447060752 0.20212681262101459 0 -0.46292585243631501 0.20693865589413171 0 -0.44438877865447191 0.2203209561526695 0 -0.46292585243631501 0.20693865589413171 0 -0.46802780128701832 0.22930896654194979 0 -0.45690026230445402 0.21971898361319381 0 -0.46292585243631501 0.20693865589413171 0 -0.44438877865447191 0.2203209561526695 0 -0.46292585243631501 0.20693865589413171 0 -0.45690026230445402 0.21971898361319381 0 -0.44438877865447191 0.2203209561526695 0 -0.46802780128701832 0.22930896654194979 0 -0.45424796336563722 0.22861724854116511 0 -0.45412118124825718 0.2395922552223117 0 -0.46802780128701832 0.22930896654194979 0 -0.45424796336563722 0.22861724854116511 0 -0.45690026230445402 0.21971898361319381 0 -0.45424796336563722 0.22861724854116511 0 -0.45690026230445402 0.21971898361319381 0 -0.44707608940517052 0.22231138206831691 0 -0.44707608940517052 0.22231138206831691 0 -0.44438877865447191 0.2203209561526695 0 -0.42586105085507731 0.219809117860577 0 -0.45690026230445402 0.21971898361319381 0 -0.44707608940517052 0.22231138206831691 0 -0.44438877865447191 0.2203209561526695 0 -0.44707608940517052 0.22231138206831691 0 -0.43755936465329281 0.22698532229141799 0 -0.44511448258328629 0.23215465526005299 0 -0.43755936465329281 0.22698532229141799 0 -0.44511448258328629 0.23215465526005299 0 -0.43218583576963709 0.2336661339767252 0 -0.45424796336563722 0.22861724854116511 0 -0.44707608940517052 0.22231138206831691 0 -0.44511448258328629 0.23215465526005299 0 -0.45424796336563722 0.22861724854116511 0 -0.44511448258328629 0.23215465526005299 0 -0.45412118124825718 0.2395922552223117 0 -0.44511448258328629 0.23215465526005299 0 -0.44161393816558842 0.24155257742212199 0 -0.45412118124825718 0.2395922552223117 0 -0.44511448258328629 0.23215465526005299 0 -0.44161393816558842 0.24155257742212199 0 -0.43218583576963709 0.2336661339767252 0 -0.44161393816558842 0.24155257742212199 0 -0.43243648966469961 0.24825823729562091 0 -0.44622747097204157 0.25447826500352411 0 -0.44161393816558842 0.24155257742212199 0 -0.45412118124825718 0.2395922552223117 0 -0.44622747097204157 0.25447826500352411 0 -0.46802780128701832 0.22930896654194979 0 -0.45412118124825718 0.2395922552223117 0 -0.46826200115894351 0.25268254595322559 0 -0.45412118124825718 0.2395922552223117 0 -0.46826200115894351 0.25268254595322559 0 -0.44622747097204157 0.25447826500352411 0 -0.40931020750963998 0.23948355441692229 0 -0.40101037553383972 0.24850817254535781 0 -0.4154354269666965 0.25327969466909228 0 -0.40931020750963998 0.23948355441692229 0 -0.42148184861410209 0.2406921978309261 0 -0.41698703102379953 0.22969989485302911 0 -0.40931020750963998 0.23948355441692229 0 -0.42148184861410209 0.2406921978309261 0 -0.4154354269666965 0.25327969466909228 0 -0.42148184861410209 0.2406921978309261 0 -0.43243648966469961 0.24825823729562091 0 -0.4154354269666965 0.25327969466909228 0 -0.44161393816558842 0.24155257742212199 0 -0.43243648966469961 0.24825823729562091 0 -0.43218583576963709 0.2336661339767252 0 -0.42148184861410209 0.2406921978309261 0 -0.43243648966469961 0.24825823729562091 0 -0.43218583576963709 0.2336661339767252 0 -0.42148184861410209 0.2406921978309261 0 -0.43218583576963709 0.2336661339767252 0 -0.41698703102379953 0.22969989485302911 0 -0.43218583576963709 0.2336661339767252 0 -0.42586105085507731 0.219809117860577 0 -0.41698703102379953 0.22969989485302911 0 -0.44707608940517052 0.22231138206831691 0 -0.42586105085507731 0.219809117860577 0 -0.44707608940517052 0.22231138206831691 0 -0.43755936465329281 0.22698532229141799 0 -0.42586105085507731 0.219809117860577 0 -0.43755936465329281 0.22698532229141799 0 -0.43218583576963709 0.2336661339767252 0 -0.42586105085507731 0.219809117860577 0 -0.42586105085507731 0.219809117860577 0 -0.41698703102379953 0.22969989485302911 0 -0.4046460123049842 0.2173068536528372 0 -0.40931020750963998 0.23948355441692229 0 -0.41698703102379953 0.22969989485302911 0 -0.40590702596286521 0.22946517391640911 0 -0.41698703102379953 0.22969989485302911 0 -0.4046460123049842 0.2173068536528372 0 -0.40590702596286521 0.22946517391640911 0 -0.42586105085507731 0.219809117860577 0 -0.4046460123049842 0.2173068536528372 0 -0.41722227291546332 0.20591524768845371 0 -0.39877196507631202 0.20270266476287849 0 -0.4046460123049842 0.2173068536528372 0 -0.42586105085507731 0.219809117860577 0 -0.41722227291546332 0.20591524768845371 0 -0.4046460123049842 0.2173068536528372 0 -0.42586105085507731 0.219809117860577 0 -0.41722227291546332 0.20591524768845371 0 -0.43414988282090411 0.20902301392359759 0 -0.44438877865447191 0.2203209561526695 0 -0.42586105085507731 0.219809117860577 0 -0.43414988282090411 0.20902301392359759 0 -0.41722227291546332 0.20591524768845371 0 -0.43414988282090411 0.20902301392359759 0 -0.43474290047699488 0.19015608798310391 0 -0.41722227291546332 0.20591524768845371 0 -0.40891615430536432 0.18798503216574861 0 -0.39877196507631202 0.20270266476287849 0 -0.41722227291546332 0.20591524768845371 0 -0.43474290047699488 0.19015608798310391 0 -0.40891615430536432 0.18798503216574861 0 -0.40891615430536432 0.18798503216574861 0 -0.39877196507631202 0.20270266476287849 0 -0.38648279715089662 0.18713020989402271 0 -0.38343097375489099 0.21480458944509739 0 -0.38648279715089662 0.18713020989402271 0 -0.37238122863976891 0.2002171120067491 0 -0.39877196507631202 0.20270266476287849 0 -0.38343097375489099 0.21480458944509739 0 -0.38648279715089662 0.18713020989402271 0 -0.38343097375489099 0.21480458944509739 0 -0.38648279715089662 0.18713020989402271 0 -0.38343097375489099 0.21480458944509739 0 -0.37154761244084089 0.2134029747549531 0 -0.37238122863976891 0.2002171120067491 0 -0.38343097375489099 0.21480458944509739 0 -0.37566813965858681 0.2234148702422048 0 -0.37154761244084089 0.2134029747549531 0 -0.38343097375489099 0.21480458944509739 0 -0.37154761244084089 0.2134029747549531 0 -0.38343097375489099 0.21480458944509739 0 -0.4046460123049842 0.2173068536528372 0 -0.38992427199157043 0.22185450724293909 0 -0.38343097375489099 0.21480458944509739 0 -0.4046460123049842 0.2173068536528372 0 -0.39877196507631202 0.20270266476287849 0 -0.38343097375489099 0.21480458944509739 0 -0.4046460123049842 0.2173068536528372 0 -0.4046460123049842 0.2173068536528372 0 -0.39872340832513992 0.226351764622962 0 -0.40590702596286521 0.22946517391640911 0 -0.39872340832513992 0.226351764622962 0 -0.40590702596286521 0.22946517391640911 0 -0.39648996776890633 0.23582301492399779 0 -0.39872340832513992 0.226351764622962 0 -0.38992427199157043 0.22185450724293909 0 -0.39648996776890633 0.23582301492399779 0 -0.4046460123049842 0.2173068536528372 0 -0.39872340832513992 0.226351764622962 0 -0.38992427199157043 0.22185450724293909 0 -0.38343097375489099 0.21480458944509739 0 -0.37566813965858681 0.2234148702422048 0 -0.38119555285080597 0.2350757121572056 0 -0.38343097375489099 0.21480458944509739 0 -0.38992427199157043 0.22185450724293909 0 -0.38119555285080597 0.2350757121572056 0 -0.38343097375489099 0.21480458944509739 0 -0.38119555285080597 0.2350757121572056 0 -0.38119555285080597 0.2350757121572056 0 -0.37210575503526089 0.24405057661464391 0 -0.37896013194671968 0.25534683486931381 0 -0.38119555285080597 0.2350757121572056 0 -0.37896013194671968 0.25534683486931381 0 -0.38992427199157043 0.22185450724293909 0 -0.38119555285080597 0.2350757121572056 0 -0.38722819947627368 0.24843385443806909 0 -0.38992427199157043 0.22185450724293909 0 -0.38722819947627368 0.24843385443806909 0 -0.38119555285080597 0.2350757121572056 0 -0.38722819947627368 0.24843385443806909 0 -0.37896013194671968 0.25534683486931381 0 -0.38992427199157043 0.22185450724293909 0 -0.38722819947627368 0.24843385443806909 0 -0.39648996776890633 0.23582301492399779 0 -0.38722819947627368 0.24843385443806909 0 -0.39648996776890633 0.23582301492399779 0 -0.40101037553383972 0.24850817254535781 0 -0.40931020750963998 0.23948355441692229 0 -0.39648996776890633 0.23582301492399779 0 -0.40101037553383972 0.24850817254535781 0 -0.40931020750963998 0.23948355441692229 0 -0.40590702596286521 0.22946517391640911 0 -0.39648996776890633 0.23582301492399779 0 -0.41530534823700072 0.1390315752597536 0 -0.41919069938251302 0.1652820875776414 0 -0.39528973877013662 0.15130477977831461 0 -0.41194990864025682 0.1130743234930766 0 -0.41530534823700072 0.1390315752597536 0 -0.39303850838018423 0.12948099644521679 0 -0.41194990864025682 0.1130743234930766 0 -0.43625153759456498 0.1245866202337218 0 -0.41530534823700072 0.1390315752597536 0 -0.43625153759456498 0.1245866202337218 0 -0.41530534823700072 0.1390315752597536 0 -0.43611169665434868 0.1504606440305504 0 -0.41530534823700072 0.1390315752597536 0 -0.43611169665434868 0.1504606440305504 0 -0.41919069938251302 0.1652820875776414 0 -0.44491624466772411 0.16813711573335099 0 -0.43611169665434868 0.1504606440305504 0 -0.41919069938251302 0.1652820875776414 0 -0.44491624466772411 0.16813711573335099 0 -0.43474290047699488 0.19015608798310391 0 -0.41919069938251302 0.1652820875776414 0 -0.40891615430536432 0.18798503216574861 0 -0.41919069938251302 0.1652820875776414 0 -0.39971758700540821 0.17129016696027699 0 -0.43474290047699488 0.19015608798310391 0 -0.40891615430536432 0.18798503216574861 0 -0.41919069938251302 0.1652820875776414 0 -0.41919069938251302 0.1652820875776414 0 -0.39971758700540821 0.17129016696027699 0 -0.39528973877013662 0.15130477977831461 0 -0.40891615430536432 0.18798503216574861 0 -0.39971758700540821 0.17129016696027699 0 -0.38648279715089662 0.18713020989402271 0 -0.39971758700540821 0.17129016696027699 0 -0.38648279715089662 0.18713020989402271 0 -0.372146074932449 0.16344591630492469 0 -0.39971758700540821 0.17129016696027699 0 -0.39528973877013662 0.15130477977831461 0 -0.372146074932449 0.16344591630492469 0 -0.37815506306193358 0.1433222327004802 0 -0.39528973877013662 0.15130477977831461 0 -0.39303850838018423 0.12948099644521679 0 -0.37815506306193358 0.1433222327004802 0 -0.39528973877013662 0.15130477977831461 0 -0.372146074932449 0.16344591630492469 0 -0.41530534823700072 0.1390315752597536 0 -0.39528973877013662 0.15130477977831461 0 -0.39303850838018423 0.12948099644521679 0 -0.37815506306193358 0.1433222327004802 0 -0.39303850838018423 0.12948099644521679 0 -0.36938718168541179 0.1255902499967409 0 -0.36938718168541179 0.1255902499967409 0 -0.35200794605681629 0.12502238642781019 0 -0.36027383228078641 0.14176664061691219 0 -0.37815506306193358 0.1433222327004802 0 -0.36938718168541179 0.1255902499967409 0 -0.36027383228078641 0.14176664061691219 0 -0.35200794605681629 0.12502238642781019 0 -0.36027383228078641 0.14176664061691219 0 -0.34238396195098092 0.13747367741656721 0 -0.34692124746973713 0.1542878562826405 0 -0.36027383228078641 0.14176664061691219 0 -0.34238396195098092 0.13747367741656721 0 -0.34692124746973713 0.1542878562826405 0 -0.36027383228078641 0.14176664061691219 0 -0.372146074932449 0.16344591630492469 0 -0.37815506306193358 0.1433222327004802 0 -0.36027383228078641 0.14176664061691219 0 -0.372146074932449 0.16344591630492469 0 -0.38648279715089662 0.18713020989402271 0 -0.372146074932449 0.16344591630492469 0 -0.35825464468573548 0.18846491094187309 0 -0.372146074932449 0.16344591630492469 0 -0.35358483912925948 0.17080886943100959 0 -0.35825464468573548 0.18846491094187309 0 -0.35358483912925948 0.17080886943100959 0 -0.35825464468573548 0.18846491094187309 0 -0.33660402194939321 0.18841081708856641 0 -0.34692124746973713 0.1542878562826405 0 -0.372146074932449 0.16344591630492469 0 -0.35358483912925948 0.17080886943100959 0 -0.34692124746973713 0.1542878562826405 0 -0.35358483912925948 0.17080886943100959 0 -0.33500456297109971 0.16792639800837539 0 -0.33500456297109971 0.16792639800837539 0 -0.31851102729851588 0.15590236448055639 0 -0.33255517435583237 0.14646848770795259 0 -0.35358483912925948 0.17080886943100959 0 -0.33500456297109971 0.16792639800837539 0 -0.33660402194939321 0.18841081708856641 0 -0.33500456297109971 0.16792639800837539 0 -0.31289652582642141 0.1805837036697519 0 -0.33660402194939321 0.18841081708856641 0 -0.33500456297109971 0.16792639800837539 0 -0.31289652582642141 0.1805837036697519 0 -0.33500456297109971 0.16792639800837539 0 -0.31289652582642141 0.1805837036697519 0 -0.31851102729851588 0.15590236448055639 0 -0.31851102729851588 0.15590236448055639 0 -0.31283651791160189 0.14254581953933751 0 -0.32160496684282269 0.13812883269818441 0 -0.31851102729851588 0.15590236448055639 0 -0.32160496684282269 0.13812883269818441 0 -0.33255517435583237 0.14646848770795259 0 -0.31283651791160189 0.14254581953933751 0 -0.32160496684282269 0.13812883269818441 0 -0.31723531685176609 0.1198603304800319 0 -0.32160496684282269 0.13812883269818441 0 -0.33282908497732799 0.12691684344983439 0 -0.31723531685176609 0.1198603304800319 0 -0.32160496684282269 0.13812883269818441 0 -0.33282908497732799 0.12691684344983439 0 -0.33255517435583237 0.14646848770795259 0 -0.35200794605681629 0.12502238642781019 0 -0.34238396195098092 0.13747367741656721 0 -0.33282908497732799 0.12691684344983439 0 -0.34238396195098092 0.13747367741656721 0 -0.33282908497732799 0.12691684344983439 0 -0.33255517435583237 0.14646848770795259 0 -0.34692124746973713 0.1542878562826405 0 -0.34238396195098092 0.13747367741656721 0 -0.33255517435583237 0.14646848770795259 0 -0.34692124746973713 0.1542878562826405 0 -0.33500456297109971 0.16792639800837539 0 -0.33255517435583237 0.14646848770795259 0 -0.36182205832064851 0.24457456243760281 0 -0.34139946132247112 0.24041351753421181 0 -0.35754908974886279 0.25815157521253052 0 -0.36182205832064851 0.24457456243760281 0 -0.36649841958780932 0.23037620461156319 0 -0.34139946132247112 0.24041351753421181 0 -0.36182205832064851 0.24457456243760281 0 -0.37210575503526089 0.24405057661464391 0 -0.36759241766554501 0.2538245840294952 0 -0.38119555285080597 0.2350757121572056 0 -0.37210575503526089 0.24405057661464391 0 -0.36649841958780932 0.23037620461156319 0 -0.36182205832064851 0.24457456243760281 0 -0.37210575503526089 0.24405057661464391 0 -0.36649841958780932 0.23037620461156319 0 -0.36649841958780932 0.23037620461156319 0 -0.35688565293773689 0.21871143604885451 0 -0.37154761244084089 0.2134029747549531 0 -0.37566813965858681 0.2234148702422048 0 -0.36649841958780932 0.23037620461156319 0 -0.37154761244084089 0.2134029747549531 0 -0.37566813965858681 0.2234148702422048 0 -0.38119555285080597 0.2350757121572056 0 -0.36649841958780932 0.23037620461156319 0 -0.35688565293773689 0.21871143604885451 0 -0.34289792395499269 0.21218791974938919 0 -0.34139946132247112 0.24041351753421181 0 -0.36649841958780932 0.23037620461156319 0 -0.35688565293773689 0.21871143604885451 0 -0.34139946132247112 0.24041351753421181 0 -0.35688565293773689 0.21871143604885451 0 -0.36039341253181489 0.20659687070036381 0 -0.34289792395499269 0.21218791974938919 0 -0.35688565293773689 0.21871143604885451 0 -0.37154761244084089 0.2134029747549531 0 -0.36039341253181489 0.20659687070036381 0 -0.37154761244084089 0.2134029747549531 0 -0.36039341253181489 0.20659687070036381 0 -0.37238122863976891 0.2002171120067491 0 -0.38648279715089662 0.18713020989402271 0 -0.37238122863976891 0.2002171120067491 0 -0.35825464468573548 0.18846491094187309 0 -0.36039341253181489 0.20659687070036381 0 -0.37238122863976891 0.2002171120067491 0 -0.35825464468573548 0.18846491094187309 0 -0.36039341253181489 0.20659687070036381 0 -0.35825464468573548 0.18846491094187309 0 -0.34289792395499269 0.21218791974938919 0 -0.35825464468573548 0.18846491094187309 0 -0.33660402194939321 0.18841081708856641 0 -0.34289792395499269 0.21218791974938919 0 -0.33660402194939321 0.18841081708856641 0 -0.32037844320246261 0.2049322073775762 0 -0.34289792395499269 0.21218791974938919 0 -0.31289652582642141 0.1805837036697519 0 -0.33660402194939321 0.18841081708856641 0 -0.32037844320246261 0.2049322073775762 0 -0.32037844320246261 0.2049322073775762 0 -0.32007631676378118 0.22793178832776281 0 -0.30808679103638181 0.2157672566230279 0 -0.32037844320246261 0.2049322073775762 0 -0.34289792395499269 0.21218791974938919 0 -0.32007631676378118 0.22793178832776281 0 -0.34289792395499269 0.21218791974938919 0 -0.34139946132247112 0.24041351753421181 0 -0.34289792395499269 0.21218791974938919 0 -0.32007631676378118 0.22793178832776281 0 -0.34139946132247112 0.24041351753421181 0 -0.32007631676378118 0.22793178832776281 0 -0.30683534910107541 0.24131982490484771 0 -0.32052316857880009 0.25199218265017043 0 -0.32007631676378118 0.22793178832776281 0 -0.34139946132247112 0.24041351753421181 0 -0.32052316857880009 0.25199218265017043 0 -0.28520633826073721 0.24204505302591109 0 -0.29177957584356251 0.2379097909607483 0 -0.29813700426351908 0.2549985658140525 0 -0.28520633826073721 0.24204505302591109 0 -0.29177957584356251 0.2379097909607483 0 -0.28620422144783292 0.23331914670984491 0 -0.28520633826073721 0.24204505302591109 0 -0.28620422144783292 0.23331914670984491 0 -0.2743775822837069 0.2311971640619615 0 -0.28520633826073721 0.24204505302591109 0 -0.29177957584356251 0.2379097909607483 0 -0.28520633826073721 0.24204505302591109 0 -0.29813700426351908 0.2549985658140525 0 -0.29177957584356251 0.2379097909607483 0 -0.30683534910107541 0.24131982490484771 0 -0.29813700426351908 0.2549985658140525 0 -0.30683534910107541 0.24131982490484771 0 -0.32052316857880009 0.25199218265017043 0 -0.29813700426351908 0.2549985658140525 0 -0.29177957584356251 0.2379097909607483 0 -0.30683534910107541 0.24131982490484771 0 -0.3025311369596701 0.2279451799051346 0 -0.32007631676378118 0.22793178832776281 0 -0.3025311369596701 0.2279451799051346 0 -0.30808679103638181 0.2157672566230279 0 -0.32007631676378118 0.22793178832776281 0 -0.30683534910107541 0.24131982490484771 0 -0.3025311369596701 0.2279451799051346 0 -0.3025311369596701 0.2279451799051346 0 -0.29339823295664158 0.22906557906458669 0 -0.29484583138699982 0.21546216672010021 0 -0.3025311369596701 0.2279451799051346 0 -0.29484583138699982 0.21546216672010021 0 -0.30808679103638181 0.2157672566230279 0 -0.28556364975324361 0.2258194074993474 0 -0.29484583138699982 0.21546216672010021 0 -0.2791973288468384 0.21790572090905611 0 -0.29339823295664158 0.22906557906458669 0 -0.28556364975324361 0.2258194074993474 0 -0.29484583138699982 0.21546216672010021 0 -0.29177957584356251 0.2379097909607483 0 -0.29339823295664158 0.22906557906458669 0 -0.28620422144783292 0.23331914670984491 0 -0.29177957584356251 0.2379097909607483 0 -0.3025311369596701 0.2279451799051346 0 -0.29339823295664158 0.22906557906458669 0 -0.29339823295664158 0.22906557906458669 0 -0.28620422144783292 0.23331914670984491 0 -0.28556364975324361 0.2258194074993474 0 -0.28620422144783292 0.23331914670984491 0 -0.28556364975324361 0.2258194074993474 0 -0.2743775822837069 0.2311971640619615 0 -0.29484583138699982 0.21546216672010021 0 -0.2791973288468384 0.21790572090905611 0 -0.28722286546432818 0.20701443054747121 0 -0.29484583138699982 0.21546216672010021 0 -0.2791973288468384 0.21790572090905611 0 -0.28722286546432818 0.20701443054747121 0 -0.29484583138699982 0.21546216672010021 0 -0.30260222686899518 0.20256494078456561 0 -0.32037844320246261 0.2049322073775762 0 -0.30808679103638181 0.2157672566230279 0 -0.30260222686899518 0.20256494078456561 0 -0.29484583138699982 0.21546216672010021 0 -0.30808679103638181 0.2157672566230279 0 -0.30260222686899518 0.20256494078456561 0 -0.31289652582642141 0.1805837036697519 0 -0.30260222686899518 0.20256494078456561 0 -0.29078848868174278 0.1932410093311285 0 -0.31289652582642141 0.1805837036697519 0 -0.32037844320246261 0.2049322073775762 0 -0.30260222686899518 0.20256494078456561 0 -0.28722286546432818 0.20701443054747121 0 -0.29078848868174278 0.1932410093311285 0 -0.26868045153706449 0.20589831499250541 0 -0.28722286546432818 0.20701443054747121 0 -0.30260222686899518 0.20256494078456561 0 -0.29078848868174278 0.1932410093311285 0 -0.29078848868174278 0.1932410093311285 0 -0.27856333876668132 0.18821622517566469 0 -0.28884814108856732 0.1821072455122304 0 -0.29078848868174278 0.1932410093311285 0 -0.27856333876668132 0.18821622517566469 0 -0.26868045153706449 0.20589831499250541 0 -0.27856333876668132 0.18821622517566469 0 -0.26868045153706449 0.20589831499250541 0 -0.29078848868174278 0.1932410093311285 0 -0.26868045153706449 0.20589831499250541 0 -0.27856333876668132 0.18821622517566469 0 -0.26868045153706449 0.20589831499250541 0 -0.26716833294266512 0.18744146854889909 0 -0.25462413856064708 0.2114088186030785 0 -0.26716833294266512 0.18744146854889909 0 -0.25193880530206408 0.19370481573741441 0 -0.26716833294266512 0.18744146854889909 0 -0.25648243047464631 0.1826357185327456 0 -0.25193880530206408 0.19370481573741441 0 -0.25462413856064708 0.2114088186030785 0 -0.26716833294266512 0.18744146854889909 0 -0.25462413856064708 0.2114088186030785 0 -0.26868045153706449 0.20589831499250541 0 -0.26716833294266512 0.18744146854889909 0 -0.2562356768596219 0.21302320427817639 0 -0.26868045153706449 0.20589831499250541 0 -0.25462413856064708 0.2114088186030785 0 -0.2562356768596219 0.21302320427817639 0 -0.26868045153706449 0.20589831499250541 0 -0.25272816581491458 0.21503132644266379 0 -0.25462413856064708 0.2114088186030785 0 -0.25272816581491458 0.21503132644266379 0 -0.2562356768596219 0.21302320427817639 0 -0.25272816581491458 0.21503132644266379 0 -0.25462413856064708 0.2114088186030785 0 -0.2562356768596219 0.21302320427817639 0 -0.25462413856064708 0.2114088186030785 0 -0.2562356768596219 0.21302320427817639 0 -0.25272816581491458 0.21503132644266379 0 -0.2562356768596219 0.21302320427817639 0 -0.25599591734786031 0.2173373503046071 0 -0.2562356768596219 0.21302320427817639 0 -0.25599591734786031 0.2173373503046071 0 -0.25801218981811458 0.2175055682723043 0 -0.25272816581491458 0.21503132644266379 0 -0.25599591734786031 0.2173373503046071 0 -0.2564563288255462 0.2214567869436789 0 -0.25599591734786031 0.2173373503046071 0 -0.25801218981811458 0.2175055682723043 0 -0.25703316838862827 0.21958787938824861 0 -0.2562356768596219 0.21302320427817639 0 -0.26166069193192981 0.2184578046382698 0 -0.26868045153706449 0.20589831499250541 0 -0.25801218981811458 0.2175055682723043 0 -0.25913549456253288 0.21912160275221951 0 -0.25703316838862827 0.21958787938824861 0 -0.26166069193192981 0.2184578046382698 0 -0.26868045153706449 0.20589831499250541 0 -0.26354882630667698 0.22034927509801169 0 -0.2562356768596219 0.21302320427817639 0 -0.26166069193192981 0.2184578046382698 0 -0.26166069193192981 0.2184578046382698 0 -0.26868045153706449 0.20589831499250541 0 -0.25801218981811458 0.2175055682723043 0 -0.26166069193192981 0.2184578046382698 0 -0.25913549456253288 0.21912160275221951 0 -0.2562356768596219 0.21302320427817639 0 -0.25801218981811458 0.2175055682723043 0 -0.26166069193192981 0.2184578046382698 0 -0.28722286546432818 0.20701443054747121 0 -0.26868045153706449 0.20589831499250541 0 -0.2791973288468384 0.21790572090905611 0 -0.26868045153706449 0.20589831499250541 0 -0.2791973288468384 0.21790572090905611 0 -0.26354882630667698 0.22034927509801169 0 -0.2791973288468384 0.21790572090905611 0 -0.26354882630667698 0.22034927509801169 0 -0.2791973288468384 0.21790572090905611 0 -0.2743775822837069 0.2311971640619615 0 -0.26354882630667698 0.22034927509801169 0 -0.28556364975324361 0.2258194074993474 0 -0.2791973288468384 0.21790572090905611 0 -0.2743775822837069 0.2311971640619615 0 -0.2743775822837069 0.2311971640619615 0 -0.26322708885207657 0.23130122429223079 0 -0.27053130904085088 0.23989425105438689 0 -0.2743775822837069 0.2311971640619615 0 -0.26354882630667698 0.22034927509801169 0 -0.26322708885207657 0.23130122429223079 0 -0.2743775822837069 0.2311971640619615 0 -0.26354882630667698 0.22034927509801169 0 -0.26354882630667698 0.22034927509801169 0 -0.26032187107898369 0.22085317251209219 0 -0.26322708885207657 0.23130122429223079 0 -0.26354882630667698 0.22034927509801169 0 -0.26032187107898369 0.22085317251209219 0 -0.26166069193192981 0.2184578046382698 0 -0.26354882630667698 0.22034927509801169 0 -0.26032187107898369 0.22085317251209219 0 -0.26166069193192981 0.2184578046382698 0 -0.26354882630667698 0.22034927509801169 0 -0.26166069193192981 0.2184578046382698 0 -0.26032187107898369 0.22085317251209219 0 -0.26166069193192981 0.2184578046382698 0 -0.26032187107898369 0.22085317251209219 0 -0.25913549456253288 0.21912160275221951 0 -0.26032187107898369 0.22085317251209219 0 -0.2564563288255462 0.2214567869436789 0 -0.26032187107898369 0.22085317251209219 0 -0.25703316838862827 0.21958787938824861 0 -0.2564563288255462 0.2214567869436789 0 -0.26032187107898369 0.22085317251209219 0 -0.25913549456253288 0.21912160275221951 0 -0.25703316838862827 0.21958787938824861 0 -0.25599591734786031 0.2173373503046071 0 -0.25703316838862827 0.21958787938824861 0 -0.2564563288255462 0.2214567869436789 0 -0.2564563288255462 0.2214567869436789 0 -0.25210514226647263 0.23555423440704959 0 -0.248734035528067 0.22266264303674471 0 -0.26032187107898369 0.22085317251209219 0 -0.2564563288255462 0.2214567869436789 0 -0.25210514226647263 0.23555423440704959 0 -0.25703316838862827 0.21958787938824861 0 -0.2564563288255462 0.2214567869436789 0 -0.25272816581491458 0.21503132644266379 0 -0.2564563288255462 0.2214567869436789 0 -0.248734035528067 0.22266264303674471 0 -0.2564563288255462 0.2214567869436789 0 -0.248734035528067 0.22266264303674471 0 -0.25272816581491458 0.21503132644266379 0 -0.248734035528067 0.22266264303674471 0 -0.26032187107898369 0.22085317251209219 0 -0.25210514226647263 0.23555423440704959 0 -0.2564563288255462 0.2214567869436789 0 -0.25210514226647263 0.23555423440704959 0 -0.26032187107898369 0.22085317251209219 0 -0.26322708885207657 0.23130122429223079 0 -0.25210514226647263 0.23555423440704959 0 -0.26322708885207657 0.23130122429223079 0 -0.25210514226647263 0.23555423440704959 0 -0.25993357060704247 0.2432609816545768 0 -0.25054816238852479 0.24059870715785611 0 -0.25993357060704247 0.2432609816545768 0 -0.2546175921406465 0.26128861144859822 0 -0.26322708885207657 0.23130122429223079 0 -0.25993357060704247 0.2432609816545768 0 -0.27053130904085088 0.23989425105438689 0 -0.25054816238852479 0.24059870715785611 0 -0.25210514226647263 0.23555423440704959 0 -0.25993357060704247 0.2432609816545768 0 -0.25054816238852479 0.24059870715785611 0 -0.25210514226647263 0.23555423440704959 0 -0.25993357060704247 0.2432609816545768 0 -0.27053130904085088 0.23989425105438689 0 -0.26991196520069161 0.25166683223725428 0 -0.28520633826073721 0.24204505302591109 0 -0.2743775822837069 0.2311971640619615 0 -0.27053130904085088 0.23989425105438689 0 -0.28520633826073721 0.24204505302591109 0 -0.2743775822837069 0.2311971640619615 0 -0.28520633826073721 0.24204505302591109 0 -0.26991196520069161 0.25166683223725428 0 -0.28520633826073721 0.24204505302591109 0 -0.27053130904085088 0.23989425105438689 0 -0.26991196520069161 0.25166683223725428 0 -0.29367763624156518 0.14580120048619691 0 -0.30132029725935677 0.14489814247345079 0 -0.28540527766694768 0.16993595446686949 0 -0.30132029725935677 0.14489814247345079 0 -0.29832911322591421 0.15285204554198301 0 -0.28540527766694768 0.16993595446686949 0 -0.29225672170669897 0.1395067684405393 0 -0.27971252732468282 0.16347411849471971 0 -0.29367763624156518 0.14580120048619691 0 -0.29225672170669897 0.1395067684405393 0 -0.27971252732468282 0.16347411849471971 0 -0.29225672170669897 0.1395067684405393 0 -0.27971252732468282 0.16347411849471971 0 -0.27793738210199243 0.14829742822643491 0 -0.29367763624156518 0.14580120048619691 0 -0.29225672170669897 0.1395067684405393 0 -0.29367763624156518 0.14580120048619691 0 -0.29225672170669897 0.1395067684405393 0 -0.29707098058306791 0.1417275861303573 0 -0.29225672170669897 0.1395067684405393 0 -0.27793738210199243 0.14829742822643491 0 -0.28046643513796882 0.14013597811185341 0 -0.29225672170669897 0.1395067684405393 0 -0.27842990629181991 0.12905884737457521 0 -0.28046643513796882 0.14013597811185341 0 -0.29225672170669897 0.1395067684405393 0 -0.27842990629181991 0.12905884737457521 0 -0.2863041877154166 0.1131379617402274 0 -0.29225672170669897 0.1395067684405393 0 -0.2863041877154166 0.1131379617402274 0 -0.29225672170669897 0.1395067684405393 0 -0.2981778848162786 0.128193599602963 0 -0.2863041877154166 0.1131379617402274 0 -0.29225672170669897 0.1395067684405393 0 -0.30121224024343363 0.13483728542546841 0 -0.29707098058306791 0.1417275861303573 0 -0.29225672170669897 0.1395067684405393 0 -0.2981778848162786 0.128193599602963 0 -0.29225672170669897 0.1395067684405393 0 -0.30121224024343363 0.13483728542546841 0 -0.2981778848162786 0.128193599602963 0 -0.30121224024343363 0.13483728542546841 0 -0.2981778848162786 0.128193599602963 0 -0.31723531685176609 0.1198603304800319 0 -0.30132029725935677 0.14489814247345079 0 -0.31723531685176609 0.1198603304800319 0 -0.30121224024343363 0.13483728542546841 0 -0.30132029725935677 0.14489814247345079 0 -0.29707098058306791 0.1417275861303573 0 -0.31283651791160189 0.14254581953933751 0 -0.30132029725935677 0.14489814247345079 0 -0.31723531685176609 0.1198603304800319 0 -0.30121224024343363 0.13483728542546841 0 -0.30132029725935677 0.14489814247345079 0 -0.31723531685176609 0.1198603304800319 0 -0.31283651791160189 0.14254581953933751 0 -0.30132029725935677 0.14489814247345079 0 -0.30551098130554788 0.1539394275644638 0 -0.29367763624156518 0.14580120048619691 0 -0.30132029725935677 0.14489814247345079 0 -0.29707098058306791 0.1417275861303573 0 -0.30132029725935677 0.14489814247345079 0 -0.29832911322591421 0.15285204554198301 0 -0.30551098130554788 0.1539394275644638 0 -0.31851102729851588 0.15590236448055639 0 -0.31283651791160189 0.14254581953933751 0 -0.30551098130554788 0.1539394275644638 0 -0.31289652582642141 0.1805837036697519 0 -0.31851102729851588 0.15590236448055639 0 -0.30548605551313601 0.16580850627828139 0 -0.31851102729851588 0.15590236448055639 0 -0.30551098130554788 0.1539394275644638 0 -0.30548605551313601 0.16580850627828139 0 -0.30548605551313601 0.16580850627828139 0 -0.29764345600278319 0.16844986735664469 0 -0.29759451090954719 0.17643761218330459 0 -0.30548605551313601 0.16580850627828139 0 -0.29764345600278319 0.16844986735664469 0 -0.29908316640873578 0.16231679642003941 0 -0.29832911322591421 0.15285204554198301 0 -0.30551098130554788 0.1539394275644638 0 -0.29908316640873578 0.16231679642003941 0 -0.30551098130554788 0.1539394275644638 0 -0.30548605551313601 0.16580850627828139 0 -0.29908316640873578 0.16231679642003941 0 -0.31289652582642141 0.1805837036697519 0 -0.29078848868174278 0.1932410093311285 0 -0.29759451090954719 0.17643761218330459 0 -0.31289652582642141 0.1805837036697519 0 -0.29078848868174278 0.1932410093311285 0 -0.31289652582642141 0.1805837036697519 0 -0.30548605551313601 0.16580850627828139 0 -0.29759451090954719 0.17643761218330459 0 -0.27856333876668132 0.18821622517566469 0 -0.28844622599629782 0.17053413535882381 0 -0.27856333876668132 0.18821622517566469 0 -0.28884814108856732 0.1821072455122304 0 -0.28844622599629782 0.17053413535882381 0 -0.27856333876668132 0.18821622517566469 0 -0.28540527766694768 0.16993595446686949 0 -0.28844622599629782 0.17053413535882381 0 -0.29078848868174278 0.1932410093311285 0 -0.29759451090954719 0.17643761218330459 0 -0.28884814108856732 0.1821072455122304 0 -0.29759451090954719 0.17643761218330459 0 -0.28884814108856732 0.1821072455122304 0 -0.28844622599629782 0.17053413535882381 0 -0.29832911322591421 0.15285204554198301 0 -0.29908316640873578 0.16231679642003941 0 -0.28844622599629782 0.17053413535882381 0 -0.30132029725935677 0.14489814247345079 0 -0.28540527766694768 0.16993595446686949 0 -0.29367763624156518 0.14580120048619691 0 -0.28540527766694768 0.16993595446686949 0 -0.27971252732468282 0.16347411849471971 0 -0.29832911322591421 0.15285204554198301 0 -0.28540527766694768 0.16993595446686949 0 -0.28844622599629782 0.17053413535882381 0 -0.29832911322591421 0.15285204554198301 0 -0.28844622599629782 0.17053413535882381 0 -0.29764345600278319 0.16844986735664469 0 -0.29759451090954719 0.17643761218330459 0 -0.28844622599629782 0.17053413535882381 0 -0.29764345600278319 0.16844986735664469 0 -0.29908316640873578 0.16231679642003941 0 -0.28844622599629782 0.17053413535882381 0 -0.27971252732468282 0.16347411849471971 0 -0.26681583754358312 0.15703960248194049 0 -0.27793738210199243 0.14829742822643491 0 -0.27971252732468282 0.16347411849471971 0 -0.26864544582317851 0.1695326912228835 0 -0.26681583754358312 0.15703960248194049 0 -0.28540527766694768 0.16993595446686949 0 -0.27971252732468282 0.16347411849471971 0 -0.26716833294266512 0.18744146854889909 0 -0.27971252732468282 0.16347411849471971 0 -0.26716833294266512 0.18744146854889909 0 -0.27856333876668132 0.18821622517566469 0 -0.28540527766694768 0.16993595446686949 0 -0.26716833294266512 0.18744146854889909 0 -0.27971252732468282 0.16347411849471971 0 -0.26864544582317851 0.1695326912228835 0 -0.26716833294266512 0.18744146854889909 0 -0.26088508548178302 0.1701755753659748 0 -0.24346313069296871 0.16633892637512099 0 -0.24593749817207319 0.17922101447869401 0 -0.26864544582317851 0.1695326912228835 0 -0.26716833294266512 0.18744146854889909 0 -0.26088508548178302 0.1701755753659748 0 -0.26716833294266512 0.18744146854889909 0 -0.25648243047464631 0.1826357185327456 0 -0.26088508548178302 0.1701755753659748 0 -0.25648243047464631 0.1826357185327456 0 -0.26088508548178302 0.1701755753659748 0 -0.24593749817207319 0.17922101447869401 0 -0.25193880530206408 0.19370481573741441 0 -0.25648243047464631 0.1826357185327456 0 -0.24593749817207319 0.17922101447869401 0 -0.26681583754358312 0.15703960248194049 0 -0.26088508548178302 0.1701755753659748 0 -0.25072842261960387 0.15603505327837411 0 -0.26088508548178302 0.1701755753659748 0 -0.25072842261960387 0.15603505327837411 0 -0.24346313069296871 0.16633892637512099 0 -0.26864544582317851 0.1695326912228835 0 -0.26681583754358312 0.15703960248194049 0 -0.26088508548178302 0.1701755753659748 0 -0.26088508548178302 0.1701755753659748 0 -0.25072842261960387 0.15603505327837411 0 -0.26681583754358312 0.15703960248194049 0 -0.25608290515330878 0.14176455504424121 0 -0.27043538879702828 0.1413306736031216 0 -0.26681583754358312 0.15703960248194049 0 -0.25072842261960387 0.15603505327837411 0 -0.25608290515330878 0.14176455504424121 0 -0.26681583754358312 0.15703960248194049 0 -0.27043538879702828 0.1413306736031216 0 -0.27793738210199243 0.14829742822643491 0 -0.27043538879702828 0.1413306736031216 0 -0.27793738210199243 0.14829742822643491 0 -0.28046643513796882 0.14013597811185341 0 -0.27043538879702828 0.1413306736031216 0 -0.27842990629181991 0.12905884737457521 0 -0.28046643513796882 0.14013597811185341 0 -0.27043538879702828 0.1413306736031216 0 -0.27842990629181991 0.12905884737457521 0 -0.2648400147316442 0.13011893998476409 0 -0.27842990629181991 0.12905884737457521 0 -0.2648400147316442 0.13011893998476409 0 -0.26830038075826779 0.11624375259475619 0 -0.25608290515330878 0.14176455504424121 0 -0.2648400147316442 0.13011893998476409 0 -0.24895710550971339 0.12165530893482571 0 -0.25608290515330878 0.14176455504424121 0 -0.27043538879702828 0.1413306736031216 0 -0.2648400147316442 0.13011893998476409 0 -0.25734245126200062 0.1014160866788785 0 -0.26830038075826779 0.11624375259475619 0 -0.24895710550971339 0.12165530893482571 0 -0.2648400147316442 0.13011893998476409 0 -0.26830038075826779 0.11624375259475619 0 -0.24895710550971339 0.12165530893482571 0 -0.25734245126200062 0.1014160866788785 0 -0.24895710550971339 0.12165530893482571 0 -0.25734245126200062 0.1014160866788785 0 -0.27392861903901239 0.1020753708552664 0 -0.26830038075826779 0.11624375259475619 0 -0.27392861903901239 0.1020753708552664 0 -0.2863041877154166 0.1131379617402274 0 -0.28035165372413551 0.086769155039914989 0 -0.25734245126200062 0.1014160866788785 0 -0.27392861903901239 0.1020753708552664 0 -0.26572779701428773 0.081176864422931191 0 -0.27842990629181991 0.12905884737457521 0 -0.26830038075826779 0.11624375259475619 0 -0.2863041877154166 0.1131379617402274 0 -0.27392861903901239 0.1020753708552664 0 -0.26830038075826779 0.11624375259475619 0 -0.2863041877154166 0.1131379617402274 0 -0.2981778848162786 0.128193599602963 0 -0.2863041877154166 0.1131379617402274 0 -0.30134905106005738 0.1164832023402728 0 -0.2863041877154166 0.1131379617402274 0 -0.28035165372413551 0.086769155039914989 0 -0.2863041877154166 0.1131379617402274 0 -0.29405774138327462 0.094893752904386258 0 -0.28035165372413551 0.086769155039914989 0 -0.2863041877154166 0.1131379617402274 0 -0.29405774138327462 0.094893752904386258 0 -0.30367881485676818 0.104740917537869 0 -0.29405774138327462 0.094893752904386258 0 -0.30367881485676818 0.104740917537869 0 -0.30859009333780452 0.087437634974232029 0 -0.30367881485676818 0.104740917537869 0 -0.30859009333780452 0.087437634974232029 0 -0.31724517505712951 0.098806923667406316 0 -0.2981778848162786 0.128193599602963 0 -0.30134905106005738 0.1164832023402728 0 -0.31723531685176609 0.1198603304800319 0 -0.2863041877154166 0.1131379617402274 0 -0.30367881485676818 0.104740917537869 0 -0.30134905106005738 0.1164832023402728 0 -0.30367881485676818 0.104740917537869 0 -0.30134905106005738 0.1164832023402728 0 -0.31723531685176609 0.1198603304800319 0 -0.30660633332941051 0.074378369855040594 0 -0.29366682663590249 0.070755320590707688 0 -0.31081826144354868 0.060679329518446831 0 -0.30660633332941051 0.074378369855040594 0 -0.29665452968210548 0.0828468466728563 0 -0.29366682663590249 0.070755320590707688 0 -0.29405774138327462 0.094893752904386258 0 -0.30859009333780452 0.087437634974232029 0 -0.29665452968210548 0.0828468466728563 0 -0.30660633332941051 0.074378369855040594 0 -0.30859009333780452 0.087437634974232029 0 -0.29665452968210548 0.0828468466728563 0 -0.29665452968210548 0.0828468466728563 0 -0.29366682663590249 0.070755320590707688 0 -0.28035165372413551 0.086769155039914989 0 -0.29405774138327462 0.094893752904386258 0 -0.29665452968210548 0.0828468466728563 0 -0.28035165372413551 0.086769155039914989 0 -0.29366682663590249 0.070755320590707688 0 -0.28035165372413551 0.086769155039914989 0 -0.2743991197328543 0.06040034833960263 0 -0.28035165372413551 0.086769155039914989 0 -0.2743991197328543 0.06040034833960263 0 -0.28035165372413551 0.086769155039914989 0 -0.26572779701428773 0.081176864422931191 0 -0.2743991197328543 0.06040034833960263 0 -0.27392861903901239 0.1020753708552664 0 -0.28035165372413551 0.086769155039914989 0 -0.26572779701428773 0.081176864422931191 0 -0.25734245126200062 0.1014160866788785 0 -0.26572779701428773 0.081176864422931191 0 -0.24672703352553629 0.080158677613093823 0 -0.25734245126200062 0.1014160866788785 0 -0.26572779701428773 0.081176864422931191 0 -0.26572779701428773 0.081176864422931191 0 -0.2559826395353394 0.061597363551489349 0 -0.2743991197328543 0.06040034833960263 0 -0.26572779701428773 0.081176864422931191 0 -0.2559826395353394 0.061597363551489349 0 -0.24672703352553629 0.080158677613093823 0 -0.2559826395353394 0.061597363551489349 0 -0.26844658574157321 0.034031541639290362 0 -0.24450296286368231 0.049373315754277197 0 -0.26844658574157321 0.034031541639290362 0 -0.24192231969137759 0.032530148466345048 0 -0.24450296286368231 0.049373315754277197 0 -0.26844658574157321 0.034031541639290362 0 -0.2743991197328543 0.06040034833960263 0 -0.28919208176463768 0.041254089627619089 0 -0.26844658574157321 0.034031541639290362 0 -0.28503043027369879 0.024646141826126219 0 -0.28919208176463768 0.041254089627619089 0 -0.2559826395353394 0.061597363551489349 0 -0.26844658574157321 0.034031541639290362 0 -0.2743991197328543 0.06040034833960263 0 -0.26844658574157321 0.034031541639290362 0 -0.2743991197328543 0.06040034833960263 0 -0.25227296286688322 -0.0076793426536460041 0 -0.26249405175029211 0.007662734938978108 0 -0.23546354233931949 0.0078270751002715265 0 -0.26844658574157321 0.034031541639290362 0 -0.26249405175029211 0.007662734938978108 0 -0.26844658574157321 0.034031541639290362 0 -0.26249405175029211 0.007662734938978108 0 -0.24192231969137759 0.032530148466345048 0 -0.26844658574157321 0.034031541639290362 0 -0.26249405175029211 0.007662734938978108 0 -0.28503043027369879 0.024646141826126219 0 -0.26249405175029211 0.007662734938978108 0 -0.29088909275279012 0.0052797473078289572 0 -0.28503043027369879 0.024646141826126219 0 -0.28503043027369879 0.024646141826126219 0 -0.30319396424779033 0.026796870749645822 0 -0.28919208176463768 0.041254089627619089 0 -0.29088909275279012 0.0052797473078289572 0 -0.28503043027369879 0.024646141826126219 0 -0.30319396424779033 0.026796870749645822 0 -0.30319396424779033 0.026796870749645822 0 -0.30957503066598552 0.011427225412800709 0 -0.32058731744473762 0.019928587991941731 0 -0.29088909275279012 0.0052797473078289572 0 -0.30319396424779033 0.026796870749645822 0 -0.30957503066598552 0.011427225412800709 0 -0.30518798685158838 -0.0020929360932298849 0 -0.29088909275279012 0.0052797473078289572 0 -0.30957503066598552 0.011427225412800709 0 -0.30518798685158838 -0.0020929360932298849 0 -0.30957503066598552 0.011427225412800709 0 -0.32049615199215492 0.0045280339304297253 0 -0.2743991197328543 0.06040034833960263 0 -0.29603323201561299 0.055812399873303893 0 -0.28919208176463768 0.041254089627619089 0 -0.29366682663590249 0.070755320590707688 0 -0.2743991197328543 0.06040034833960263 0 -0.29603323201561299 0.055812399873303893 0 -0.30319396424779033 0.026796870749645822 0 -0.28919208176463768 0.041254089627619089 0 -0.31060618731623352 0.044985865152084623 0 -0.30319396424779033 0.026796870749645822 0 -0.31060618731623352 0.044985865152084623 0 -0.31880783956767128 0.032922242476857162 0 -0.29603323201561299 0.055812399873303893 0 -0.28919208176463768 0.041254089627619089 0 -0.31060618731623352 0.044985865152084623 0 -0.29603323201561299 0.055812399873303893 0 -0.31060618731623352 0.044985865152084623 0 -0.31081826144354868 0.060679329518446831 0 -0.29366682663590249 0.070755320590707688 0 -0.29603323201561299 0.055812399873303893 0 -0.31081826144354868 0.060679329518446831 0 -0.31060618731623352 0.044985865152084623 0 -0.32788744175529538 0.041514351910999107 0 -0.32831049041907839 0.055921771907720449 0 -0.31060618731623352 0.044985865152084623 0 -0.31081826144354868 0.060679329518446831 0 -0.32831049041907839 0.055921771907720449 0 -0.31060618731623352 0.044985865152084623 0 -0.31880783956767128 0.032922242476857162 0 -0.32788744175529538 0.041514351910999107 0 -0.31880783956767128 0.032922242476857162 0 -0.32788744175529538 0.041514351910999107 0 -0.33284048064853922 0.02898560650307868 0 -0.34306862850599618 0.040992927417729488 0 -0.33284048064853922 0.02898560650307868 0 -0.34878147881263583 0.02639136098039228 0 -0.32788744175529538 0.041514351910999107 0 -0.34306862850599618 0.040992927417729488 0 -0.32831049041907839 0.055921771907720449 0 -0.32788744175529538 0.041514351910999107 0 -0.34306862850599618 0.040992927417729488 0 -0.33284048064853922 0.02898560650307868 0 -0.32831049041907839 0.055921771907720449 0 -0.34909822148757808 0.06037421403352132 0 -0.3353113387102199 0.067919589230939131 0 -0.34306862850599618 0.040992927417729488 0 -0.32831049041907839 0.055921771907720449 0 -0.34909822148757808 0.06037421403352132 0 -0.30957503066598552 0.011427225412800709 0 -0.32049615199215492 0.0045280339304297253 0 -0.32058731744473762 0.019928587991941731 0 -0.32049615199215492 0.0045280339304297253 0 -0.32058731744473762 0.019928587991941731 0 -0.33553321900770577 0.01329805350298063 0 -0.30319396424779033 0.026796870749645822 0 -0.31880783956767128 0.032922242476857162 0 -0.32058731744473762 0.019928587991941731 0 -0.31880783956767128 0.032922242476857162 0 -0.32058731744473762 0.019928587991941731 0 -0.33284048064853922 0.02898560650307868 0 -0.33284048064853922 0.02898560650307868 0 -0.33553321900770577 0.01329805350298063 0 -0.34878147881263583 0.02639136098039228 0 -0.32058731744473762 0.019928587991941731 0 -0.33284048064853922 0.02898560650307868 0 -0.33553321900770577 0.01329805350298063 0 -0.33449922093445961 -0.0040818700918973123 0 -0.32049615199215492 0.0045280339304297253 0 -0.33553321900770577 0.01329805350298063 0 -0.33449922093445961 -0.0040818700918973123 0 -0.33553321900770577 0.01329805350298063 0 -0.35182631000740072 0.0068229147672093007 0 -0.33553321900770577 0.01329805350298063 0 -0.35182631000740072 0.0068229147672093007 0 -0.34878147881263583 0.02639136098039228 0 -0.34878147881263583 0.02639136098039228 0 -0.3640039126182737 0.02126082680388874 0 -0.35655106705292511 0.040817520418704747 0 -0.35182631000740072 0.0068229147672093007 0 -0.34878147881263583 0.02639136098039228 0 -0.3640039126182737 0.02126082680388874 0 -0.3640039126182737 0.02126082680388874 0 -0.35655106705292511 0.040817520418704747 0 -0.37938766176258892 0.01937444117527904 0 -0.3640039126182737 0.02126082680388874 0 -0.37363166703579942 0.035604814688565273 0 -0.3640039126182737 0.02126082680388874 0 -0.37145675818362223 0.001704133189072726 0 -0.35182631000740072 0.0068229147672093007 0 -0.3640039126182737 0.02126082680388874 0 -0.37145675818362223 0.001704133189072726 0 -0.37938766176258892 0.01937444117527904 0 -0.3640039126182737 0.02126082680388874 0 -0.37145675818362223 0.001704133189072726 0 -0.34909822148757808 0.06037421403352132 0 -0.35655106705292511 0.040817520418704747 0 -0.34306862850599618 0.040992927417729488 0 -0.34909822148757808 0.06037421403352132 0 -0.35655106705292511 0.040817520418704747 0 -0.34306862850599618 0.040992927417729488 0 -0.34909822148757808 0.06037421403352132 0 -0.34909822148757808 0.06037421403352132 0 -0.35655106705292511 0.040817520418704747 0 -0.36842953035862158 0.050481425088617103 0 -0.34306862850599618 0.040992927417729488 0 -0.34878147881263583 0.02639136098039228 0 -0.35655106705292511 0.040817520418704747 0 -0.3640039126182737 0.02126082680388874 0 -0.35655106705292511 0.040817520418704747 0 -0.37363166703579942 0.035604814688565273 0 -0.35655106705292511 0.040817520418704747 0 -0.37363166703579942 0.035604814688565273 0 -0.36842953035862158 0.050481425088617103 0 -0.34909822148757808 0.06037421403352132 0 -0.36842953035862158 0.050481425088617103 0 -0.37191756568804107 0.066739953928913298 0 -0.37191756568804107 0.066739953928913298 0 -0.35586120822019068 0.082112892687927444 0 -0.37138104083623391 0.082703932652830325 0 -0.34909822148757808 0.06037421403352132 0 -0.35586120822019068 0.082112892687927444 0 -0.34909822148757808 0.06037421403352132 0 -0.35586120822019068 0.082112892687927444 0 -0.34122595447521131 0.081031493547087358 0 -0.34909822148757808 0.06037421403352132 0 -0.37191756568804107 0.066739953928913298 0 -0.35586120822019068 0.082112892687927444 0 -0.34909822148757808 0.06037421403352132 0 -0.34122595447521131 0.081031493547087358 0 -0.35586120822019068 0.082112892687927444 0 -0.36262419495280129 0.1038515713423341 0 -0.35586120822019068 0.082112892687927444 0 -0.36262419495280129 0.1038515713423341 0 -0.34676829850597268 0.094510259469289468 0 -0.35586120822019068 0.082112892687927444 0 -0.34676829850597268 0.094510259469289468 0 -0.34122595447521131 0.081031493547087358 0 -0.35586120822019068 0.082112892687927444 0 -0.37138104083623391 0.082703932652830325 0 -0.36262419495280129 0.1038515713423341 0 -0.37678680274428078 0.095920052983538381 0 -0.37138104083623391 0.082703932652830325 0 -0.36262419495280129 0.1038515713423341 0 -0.36938718168541179 0.1255902499967409 0 -0.35200794605681629 0.12502238642781019 0 -0.36262419495280129 0.1038515713423341 0 -0.3875766108720648 0.10801011350679229 0 -0.36938718168541179 0.1255902499967409 0 -0.36262419495280129 0.1038515713423341 0 -0.36938718168541179 0.1255902499967409 0 -0.36262419495280129 0.1038515713423341 0 -0.35200794605681629 0.12502238642781019 0 -0.36262419495280129 0.1038515713423341 0 -0.34097979843748499 0.11073282128248541 0 -0.36262419495280129 0.1038515713423341 0 -0.34676829850597268 0.094510259469289468 0 -0.34097979843748499 0.11073282128248541 0 -0.33315033644417541 0.094822518486612939 0 -0.34097979843748499 0.11073282128248541 0 -0.31723531685176609 0.1198603304800319 0 -0.34676829850597268 0.094510259469289468 0 -0.33315033644417541 0.094822518486612939 0 -0.34097979843748499 0.11073282128248541 0 -0.35200794605681629 0.12502238642781019 0 -0.33282908497732799 0.12691684344983439 0 -0.34097979843748499 0.11073282128248541 0 -0.33282908497732799 0.12691684344983439 0 -0.34097979843748499 0.11073282128248541 0 -0.31723531685176609 0.1198603304800319 0 -0.30367881485676818 0.104740917537869 0 -0.31723531685176609 0.1198603304800319 0 -0.31724517505712951 0.098806923667406316 0 -0.33315033644417541 0.094822518486612939 0 -0.31723531685176609 0.1198603304800319 0 -0.33315033644417541 0.094822518486612939 0 -0.31723531685176609 0.1198603304800319 0 -0.31724517505712951 0.098806923667406316 0 -0.30859009333780452 0.087437634974232029 0 -0.31724517505712951 0.098806923667406316 0 -0.32357131379513321 0.087173216858285787 0 -0.33315033644417541 0.094822518486612939 0 -0.31724517505712951 0.098806923667406316 0 -0.32357131379513321 0.087173216858285787 0 -0.30660633332941051 0.074378369855040594 0 -0.30859009333780452 0.087437634974232029 0 -0.32274642435413547 0.073355371094589714 0 -0.30859009333780452 0.087437634974232029 0 -0.32357131379513321 0.087173216858285787 0 -0.32274642435413547 0.073355371094589714 0 -0.31081826144354868 0.060679329518446831 0 -0.32831049041907839 0.055921771907720449 0 -0.32274642435413547 0.073355371094589714 0 -0.30660633332941051 0.074378369855040594 0 -0.31081826144354868 0.060679329518446831 0 -0.32274642435413547 0.073355371094589714 0 -0.32831049041907839 0.055921771907720449 0 -0.32274642435413547 0.073355371094589714 0 -0.3353113387102199 0.067919589230939131 0 -0.34909822148757808 0.06037421403352132 0 -0.3353113387102199 0.067919589230939131 0 -0.34122595447521131 0.081031493547087358 0 -0.32274642435413547 0.073355371094589714 0 -0.3353113387102199 0.067919589230939131 0 -0.34122595447521131 0.081031493547087358 0 -0.33315033644417541 0.094822518486612939 0 -0.32357131379513321 0.087173216858285787 0 -0.34122595447521131 0.081031493547087358 0 -0.32357131379513321 0.087173216858285787 0 -0.32274642435413547 0.073355371094589714 0 -0.34122595447521131 0.081031493547087358 0 -0.34676829850597268 0.094510259469289468 0 -0.33315033644417541 0.094822518486612939 0 -0.34122595447521131 0.081031493547087358 0 -0.39098080248864292 0.48082949146892462 0 -0.39688472812408349 0.46225301958370763 0 -0.40654981809613899 0.47943816589621452 0 -0.39098080248864292 0.48082949146892462 0 -0.40517642966730788 0.5 0 -0.40654981809613899 0.47943816589621452 0 -0.39098080248864292 0.48082949146892462 0 -0.40517642966730788 0.5 0 -0.37984386551400101 0.5 0 -0.39098080248864292 0.48082949146892462 0 -0.37984386551400101 0.5 0 -0.36562800957556379 0.48144847740775781 0 -0.39098080248864292 0.48082949146892462 0 -0.37674471779043378 0.46289695481551602 0 -0.36562800957556379 0.48144847740775781 0 -0.39098080248864292 0.48082949146892462 0 -0.37674471779043378 0.46289695481551602 0 -0.39688472812408349 0.46225301958370763 0 -0.37674471779043378 0.46289695481551602 0 -0.38786142600530288 0.44434543222327372 0 -0.37674471779043378 0.46289695481551602 0 -0.38786142600530288 0.44434543222327372 0 -0.3636594906987341 0.45259116813215772 0 -0.37674471779043378 0.46289695481551602 0 -0.38786142600530288 0.44434543222327372 0 -0.39688472812408349 0.46225301958370763 0 -0.38786142600530288 0.44434543222327372 0 -0.38219330561030318 0.43733759585905729 0 -0.37031446948010971 0.44164379239859503 0 -0.38786142600530288 0.44434543222327372 0 -0.3636594906987341 0.45259116813215772 0 -0.38786142600530288 0.44434543222327372 0 -0.39005529127119792 0.44068431777663197 0 -0.38219330561030318 0.43733759585905729 0 -0.38786142600530288 0.44434543222327372 0 -0.39005529127119792 0.44068431777663197 0 -0.38786142600530288 0.44434543222327372 0 -0.40276516754681568 0.43926764339155733 0 -0.39688472812408349 0.46225301958370763 0 -0.38786142600530288 0.44434543222327372 0 -0.40276516754681568 0.43926764339155733 0 -0.38786142600530288 0.44434543222327372 0 -0.39005529127119792 0.44068431777663197 0 -0.40276516754681568 0.43926764339155733 0 -0.40276516754681568 0.43926764339155733 0 -0.39688472812408349 0.46225301958370763 0 -0.41912534642966243 0.46276605766276058 0 -0.39688472812408349 0.46225301958370763 0 -0.41912534642966243 0.46276605766276058 0 -0.40654981809613899 0.47943816589621452 0 -0.40276516754681568 0.43926764339155733 0 -0.41912534642966243 0.46276605766276058 0 -0.41766890908832871 0.43418985455984122 0 -0.41912534642966243 0.46276605766276058 0 -0.41766890908832871 0.43418985455984122 0 -0.43637228529971711 0.45059119829788907 0 -0.44062134191292651 0.43194009349776402 0 -0.42355994468304931 0.43218274549486041 0 -0.41912534642966243 0.46276605766276058 0 -0.43637228529971711 0.45059119829788907 0 -0.41766890908832871 0.43418985455984122 0 -0.43637228529971711 0.45059119829788907 0 -0.42355994468304931 0.43218274549486041 0 -0.41766890908832871 0.43418985455984122 0 -0.41912534642966243 0.46276605766276058 0 -0.43637228529971711 0.45059119829788907 0 -0.43819607322225379 0.4802098919466351 0 -0.41912534642966243 0.46276605766276058 0 -0.42058178377099831 0.49134226076567977 0 -0.43819607322225379 0.4802098919466351 0 -0.41912534642966243 0.46276605766276058 0 -0.40654981809613899 0.47943816589621452 0 -0.42058178377099831 0.49134226076567977 0 -0.41912534642966243 0.46276605766276058 0 -0.42058178377099831 0.49134226076567977 0 -0.40517642966730788 0.5 0 -0.40654981809613899 0.47943816589621452 0 -0.42058178377099831 0.49134226076567977 0 -0.40517642966730788 0.5 0 -0.42058178377099831 0.49134226076567977 0 -0.43050899382061492 0.5 0 -0.42058178377099831 0.49134226076567977 0 -0.43050899382061492 0.5 0 -0.43819607322225379 0.4802098919466351 0 -0.43050899382061492 0.5 0 -0.43819607322225379 0.4802098919466351 0 -0.4558415579739219 0.50000000000000289 0 -0.5 0.5 0 -0.45848093797747058 0.44107104525054719 0 -0.5 0.39368719930634488 0 -0.43819607322225379 0.4802098919466351 0 -0.45716124797569629 0.47053552262527509 0 -0.4558415579739219 0.50000000000000289 0 -0.45716124797569629 0.47053552262527509 0 -0.4558415579739219 0.50000000000000289 0 -0.45716124797569629 0.47053552262527509 0 -0.5 0.5 0 -0.45848093797747058 0.44107104525054719 0 -0.45716124797569629 0.47053552262527509 0 -0.4558415579739219 0.50000000000000289 0 -0.5 0.5 0 -0.45716124797569629 0.47053552262527509 0 -0.45848093797747058 0.44107104525054719 0 -0.43637228529971711 0.45059119829788907 0 -0.45716124797569629 0.47053552262527509 0 -0.45848093797747058 0.44107104525054719 0 -0.43637228529971711 0.45059119829788907 0 -0.43819607322225379 0.4802098919466351 0 -0.45716124797569629 0.47053552262527509 0 -0.43637228529971711 0.45059119829788907 0 -0.45848093797747058 0.44107104525054719 0 -0.44062134191292651 0.43194009349776402 0 -0.45848093797747058 0.44107104525054719 0 -0.44062134191292651 0.43194009349776402 0 -0.45980062797924498 0.41160656787581928 0 -0.44121582346845373 0.41376147505037958 0 -0.45980062797924498 0.41160656787581928 0 -0.45143531712829632 0.39504510946912502 0 -0.44062134191292651 0.43194009349776402 0 -0.44121582346845373 0.41376147505037958 0 -0.45980062797924498 0.41160656787581928 0 -0.45848093797747058 0.44107104525054719 0 -0.45980062797924498 0.41160656787581928 0 -0.45848093797747058 0.44107104525054719 0 -0.45980062797924498 0.41160656787581928 0 -0.5 0.39368719930634488 0 -0.45980062797924498 0.41160656787581928 0 -0.5 0.39368719930634488 0 -0.47061151440635052 0.38738233066939171 0 -0.5 0.39368719930634488 0 -0.47061151440635052 0.38738233066939171 0 -0.47244599738177773 0.36378702031114818 0 -0.47061151440635052 0.38738233066939171 0 -0.45360913424094712 0.37591717629495691 0 -0.45143531712829632 0.39504510946912502 0 -0.47061151440635052 0.38738233066939171 0 -0.45360913424094712 0.37591717629495691 0 -0.47244599738177773 0.36378702031114818 0 -0.45980062797924498 0.41160656787581928 0 -0.47061151440635052 0.38738233066939171 0 -0.45143531712829632 0.39504510946912502 0 -0.44121582346845373 0.41376147505037958 0 -0.45143531712829632 0.39504510946912502 0 -0.43115992967391842 0.40404311620122768 0 -0.45143531712829632 0.39504510946912502 0 -0.43477227110011651 0.38804733227876548 0 -0.43115992967391842 0.40404311620122768 0 -0.45360913424094712 0.37591717629495691 0 -0.43477227110011651 0.38804733227876548 0 -0.43761421779729981 0.36799172170783712 0 -0.45360913424094712 0.37591717629495691 0 -0.43477227110011651 0.38804733227876548 0 -0.45360913424094712 0.37591717629495691 0 -0.45143531712829632 0.39504510946912502 0 -0.43477227110011651 0.38804733227876548 0 -0.41504006019910189 0.38261021041501481 0 -0.43761421779729981 0.36799172170783712 0 -0.43477227110011651 0.38804733227876548 0 -0.41504006019910189 0.38261021041501481 0 -0.43761421779729981 0.36799172170783712 0 -0.43477227110011651 0.38804733227876548 0 -0.41504006019910189 0.38261021041501481 0 -0.4159354079592873 0.40017748826257649 0 -0.41504006019910189 0.38261021041501481 0 -0.41164644412426671 0.3848078356442457 0 -0.42787124419666578 0.3625299828724986 0 -0.41164644412426671 0.3848078356442457 0 -0.40212947449434688 0.3748414468342991 0 -0.41107150013157362 0.36619624614190099 0 -0.41504006019910189 0.38261021041501481 0 -0.41164644412426671 0.3848078356442457 0 -0.41109804598765209 0.39149102164547678 0 -0.41504006019910189 0.38261021041501481 0 -0.41164644412426671 0.3848078356442457 0 -0.41504006019910189 0.38261021041501481 0 -0.4159354079592873 0.40017748826257649 0 -0.41504006019910189 0.38261021041501481 0 -0.41109804598765209 0.39149102164547678 0 -0.4159354079592873 0.40017748826257649 0 -0.41164644412426671 0.3848078356442457 0 -0.41109804598765209 0.39149102164547678 0 -0.40177027166795132 0.3983685522600704 0 -0.41109804598765209 0.39149102164547678 0 -0.4159354079592873 0.40017748826257649 0 -0.40177027166795132 0.3983685522600704 0 -0.41164644412426671 0.3848078356442457 0 -0.40177027166795132 0.3983685522600704 0 -0.43477227110011651 0.38804733227876548 0 -0.4159354079592873 0.40017748826257649 0 -0.43477227110011651 0.38804733227876548 0 -0.4159354079592873 0.40017748826257649 0 -0.43115992967391842 0.40404311620122768 0 -0.44121582346845373 0.41376147505037958 0 -0.43115992967391842 0.40404311620122768 0 -0.42986314558338468 0.42022497384430652 0 -0.43115992967391842 0.40404311620122768 0 -0.42986314558338468 0.42022497384430652 0 -0.41680215852380748 0.41718367141120882 0 -0.44062134191292651 0.43194009349776402 0 -0.44121582346845373 0.41376147505037958 0 -0.42986314558338468 0.42022497384430652 0 -0.44062134191292651 0.43194009349776402 0 -0.42986314558338468 0.42022497384430652 0 -0.42355994468304931 0.43218274549486041 0 -0.42986314558338468 0.42022497384430652 0 -0.42355994468304931 0.43218274549486041 0 -0.41680215852380748 0.41718367141120882 0 -0.41766890908832871 0.43418985455984122 0 -0.41680215852380748 0.41718367141120882 0 -0.41766890908832871 0.43418985455984122 0 -0.41680215852380748 0.41718367141120882 0 -0.40452415779474138 0.42721409118458831 0 -0.42355994468304931 0.43218274549486041 0 -0.41766890908832871 0.43418985455984122 0 -0.41680215852380748 0.41718367141120882 0 -0.42355994468304931 0.43218274549486041 0 -0.41766890908832871 0.43418985455984122 0 -0.40276516754681568 0.43926764339155733 0 -0.41766890908832871 0.43418985455984122 0 -0.40276516754681568 0.43926764339155733 0 -0.41766890908832871 0.43418985455984122 0 -0.40452415779474138 0.42721409118458831 0 -0.4159354079592873 0.40017748826257649 0 -0.43115992967391842 0.40404311620122768 0 -0.41680215852380748 0.41718367141120882 0 -0.4159354079592873 0.40017748826257649 0 -0.41680215852380748 0.41718367141120882 0 -0.4159354079592873 0.40017748826257649 0 -0.41680215852380748 0.41718367141120882 0 -0.39328619543943649 0.41476263859902718 0 -0.39328619543943649 0.41476263859902718 0 -0.39189409921163532 0.41192926887589459 0 -0.40177027166795132 0.3983685522600704 0 -0.4159354079592873 0.40017748826257649 0 -0.39328619543943649 0.41476263859902718 0 -0.41680215852380748 0.41718367141120882 0 -0.39328619543943649 0.41476263859902718 0 -0.40452415779474138 0.42721409118458831 0 -0.39328619543943649 0.41476263859902718 0 -0.40452415779474138 0.42721409118458831 0 -0.39209835837531859 0.43066664796130649 0 -0.40276516754681568 0.43926764339155733 0 -0.40452415779474138 0.42721409118458831 0 -0.39209835837531859 0.43066664796130649 0 -0.39005529127119792 0.44068431777663197 0 -0.40276516754681568 0.43926764339155733 0 -0.39209835837531859 0.43066664796130649 0 -0.39328619543943649 0.41476263859902718 0 -0.37063698291958719 0.42934778893548009 0 -0.39209835837531859 0.43066664796130649 0 -0.38219330561030318 0.43733759585905729 0 -0.37063698291958719 0.42934778893548009 0 -0.39328619543943649 0.41476263859902718 0 -0.39209835837531859 0.43066664796130649 0 -0.37063698291958719 0.42934778893548009 0 -0.39005529127119792 0.44068431777663197 0 -0.39209835837531859 0.43066664796130649 0 -0.38219330561030318 0.43733759585905729 0 -0.39189409921163532 0.41192926887589459 0 -0.39195655763330312 0.3975585388349005 0 -0.37226667114234002 0.41030924202555608 0 -0.39328619543943649 0.41476263859902718 0 -0.39189409921163532 0.41192926887589459 0 -0.37226667114234002 0.41030924202555608 0 -0.39328619543943649 0.41476263859902718 0 -0.37226667114234002 0.41030924202555608 0 -0.37063698291958719 0.42934778893548009 0 -0.39195655763330312 0.3975585388349005 0 -0.37226667114234002 0.41030924202555608 0 -0.39195655763330312 0.3975585388349005 0 -0.37495024184161951 0.39669027322643757 0 -0.37226667114234002 0.41030924202555608 0 -0.38343510648805168 0.38508963626910381 0 -0.39195655763330312 0.3975585388349005 0 -0.37495024184161951 0.39669027322643757 0 -0.38343510648805168 0.38508963626910381 0 -0.36896039956082288 0.38726624238899698 0 -0.37495024184161951 0.39669027322643757 0 -0.38343510648805168 0.38508963626910381 0 -0.37817844187468841 0.37049799817574158 0 -0.36896039956082288 0.38726624238899698 0 -0.38343510648805168 0.38508963626910381 0 -0.39677184295297052 0.38392901966133991 0 -0.39106782088146019 0.37499676007273403 0 -0.38343510648805168 0.38508963626910381 0 -0.39106782088146019 0.37499676007273403 0 -0.37817844187468841 0.37049799817574158 0 -0.38343510648805168 0.38508963626910381 0 -0.39677184295297052 0.38392901966133991 0 -0.39195655763330312 0.3975585388349005 0 -0.41164644412426671 0.3848078356442457 0 -0.39677184295297052 0.38392901966133991 0 -0.39195655763330312 0.3975585388349005 0 -0.39677184295297052 0.38392901966133991 0 -0.40212947449434688 0.3748414468342991 0 -0.39106782088146019 0.37499676007273403 0 -0.41164644412426671 0.3848078356442457 0 -0.39677184295297052 0.38392901966133991 0 -0.40212947449434688 0.3748414468342991 0 -0.41164644412426671 0.3848078356442457 0 -0.39195655763330312 0.3975585388349005 0 -0.4159354079592873 0.40017748826257649 0 -0.39328619543943649 0.41476263859902718 0 -0.40177027166795132 0.3983685522600704 0 -0.41164644412426671 0.3848078356442457 0 -0.40177027166795132 0.3983685522600704 0 -0.39195655763330312 0.3975585388349005 0 -0.39189409921163532 0.41192926887589459 0 -0.40177027166795132 0.3983685522600704 0 -0.39195655763330312 0.3975585388349005 0 -0.39189409921163532 0.41192926887589459 0 -0.40177027166795132 0.3983685522600704 0 -0.38763875309648088 0.35121150247505228 0 -0.41586739868277361 0.34573181628790323 0 -0.39706953126344319 0.36332699894800602 0 -0.38763875309648088 0.35121150247505228 0 -0.41586739868277361 0.34573181628790323 0 -0.38763875309648088 0.35121150247505228 0 -0.3937872350367228 0.33507229671605809 0 -0.41586739868277361 0.34573181628790323 0 -0.40212947449434688 0.3748414468342991 0 -0.39706953126344319 0.36332699894800602 0 -0.41107150013157362 0.36619624614190099 0 -0.40212947449434688 0.3748414468342991 0 -0.39106782088146019 0.37499676007273403 0 -0.39706953126344319 0.36332699894800602 0 -0.37817844187468841 0.37049799817574158 0 -0.38763875309648088 0.35121150247505228 0 -0.35941010751018809 0.3566911886622014 0 -0.39706953126344319 0.36332699894800602 0 -0.37817844187468841 0.37049799817574158 0 -0.38763875309648088 0.35121150247505228 0 -0.39106782088146019 0.37499676007273403 0 -0.39706953126344319 0.36332699894800602 0 -0.37817844187468841 0.37049799817574158 0 -0.38659885775585739 0.31565850626255348 0 -0.3937872350367228 0.33507229671605809 0 -0.371857819856382 0.33718357931137699 0 -0.38763875309648088 0.35121150247505228 0 -0.3937872350367228 0.33507229671605809 0 -0.371857819856382 0.33718357931137699 0 -0.38659885775585739 0.31565850626255348 0 -0.371857819856382 0.33718357931137699 0 -0.38659885775585739 0.31565850626255348 0 -0.3736940231061725 0.31398947852622111 0 -0.371857819856382 0.33718357931137699 0 -0.38659885775585739 0.31565850626255348 0 -0.3937872350367228 0.33507229671605809 0 -0.40697334579212008 0.32557607924340459 0 -0.38659885775585739 0.31565850626255348 0 -0.40697334579212008 0.32557607924340459 0 -0.40344199037643141 0.31069905435295109 0 -0.3937872350367228 0.33507229671605809 0 -0.40697334579212008 0.32557607924340459 0 -0.41586739868277361 0.34573181628790323 0 -0.40697334579212008 0.32557607924340459 0 -0.42641657962310969 0.33014507151577532 0 -0.41586739868277361 0.34573181628790323 0 -0.40697334579212008 0.32557607924340459 0 -0.42482201379485501 0.3164116993459492 0 -0.40344199037643141 0.31069905435295109 0 -0.40697334579212008 0.32557607924340459 0 -0.42482201379485501 0.3164116993459492 0 -0.42641657962310969 0.33014507151577532 0 -0.42482201379485501 0.3164116993459492 0 -0.44032409557673402 0.32275363260086698 0 -0.44093041861641502 0.30629419798598828 0 -0.42482201379485501 0.3164116993459492 0 -0.42641657962310969 0.33014507151577532 0 -0.44032409557673402 0.32275363260086698 0 -0.42641657962310969 0.33014507151577532 0 -0.41586739868277361 0.34573181628790323 0 -0.44409604426906601 0.34025213010075239 0 -0.42641657962310969 0.33014507151577532 0 -0.44409604426906601 0.34025213010075239 0 -0.44032409557673402 0.32275363260086698 0 -0.41586739868277361 0.34573181628790323 0 -0.44409604426906601 0.34025213010075239 0 -0.42787124419666578 0.3625299828724986 0 -0.44409604426906601 0.34025213010075239 0 -0.41586739868277361 0.34573181628790323 0 -0.42787124419666578 0.3625299828724986 0 -0.44409604426906601 0.34025213010075239 0 -0.41586739868277361 0.34573181628790323 0 -0.41107150013157362 0.36619624614190099 0 -0.42787124419666578 0.3625299828724986 0 -0.39706953126344319 0.36332699894800602 0 -0.41586739868277361 0.34573181628790323 0 -0.41107150013157362 0.36619624614190099 0 -0.41164644412426671 0.3848078356442457 0 -0.41107150013157362 0.36619624614190099 0 -0.42787124419666578 0.3625299828724986 0 -0.41164644412426671 0.3848078356442457 0 -0.42787124419666578 0.3625299828724986 0 -0.41504006019910189 0.38261021041501481 0 -0.42787124419666578 0.3625299828724986 0 -0.43761421779729981 0.36799172170783712 0 -0.42787124419666578 0.3625299828724986 0 -0.43761421779729981 0.36799172170783712 0 -0.44532995730629832 0.35516754502531411 0 -0.5 0.39368719930634488 0 -0.5 0.31375562759013931 0 -0.49236992051172512 0.33088130527536841 0 -0.5 0.39368719930634488 0 -0.49236992051172512 0.33088130527536841 0 -0.48276253299369798 0.33875474429348529 0 -0.43761421779729981 0.36799172170783712 0 -0.46018837539549878 0.35337323300066131 0 -0.45360913424094712 0.37591717629495691 0 -0.43761421779729981 0.36799172170783712 0 -0.46018837539549878 0.35337323300066131 0 -0.44532995730629832 0.35516754502531411 0 -0.46018837539549878 0.35337323300066131 0 -0.44409604426906601 0.34025213010075239 0 -0.42787124419666578 0.3625299828724986 0 -0.44532995730629832 0.35516754502531411 0 -0.44409604426906601 0.34025213010075239 0 -0.43761421779729981 0.36799172170783712 0 -0.44532995730629832 0.35516754502531411 0 -0.46018837539549878 0.35337323300066131 0 -0.45360913424094712 0.37591717629495691 0 -0.47244599738177773 0.36378702031114818 0 -0.45360913424094712 0.37591717629495691 0 -0.46018837539549878 0.35337323300066131 0 -0.47244599738177773 0.36378702031114818 0 -0.5 0.39368719930634488 0 -0.47244599738177773 0.36378702031114818 0 -0.48276253299369798 0.33875474429348529 0 -0.46018837539549878 0.35337323300066131 0 -0.47244599738177773 0.36378702031114818 0 -0.48276253299369798 0.33875474429348529 0 -0.46018837539549878 0.35337323300066131 0 -0.48276253299369798 0.33875474429348529 0 -0.5 0.31375562759013931 0 -0.49236992051172512 0.33088130527536841 0 -0.47844448370196352 0.32365782782372382 0 -0.49236992051172512 0.33088130527536841 0 -0.48276253299369798 0.33875474429348529 0 -0.46823298239039562 0.33556671768806118 0 -0.49236992051172512 0.33088130527536841 0 -0.47844448370196352 0.32365782782372382 0 -0.46823298239039562 0.33556671768806118 0 -0.46018837539549878 0.35337323300066131 0 -0.48276253299369798 0.33875474429348529 0 -0.46823298239039562 0.33556671768806118 0 -0.49236992051172512 0.33088130527536841 0 -0.46823298239039562 0.33556671768806118 0 -0.5 0.31375562759013931 0 -0.47844448370196352 0.32365782782372382 0 -0.47326150671693828 0.30885130336962702 0 -0.47844448370196352 0.32365782782372382 0 -0.46553845445045222 0.32292377735302652 0 -0.46823298239039562 0.33556671768806118 0 -0.47844448370196352 0.32365782782372382 0 -0.46553845445045222 0.32292377735302652 0 -0.47326150671693828 0.30885130336962702 0 -0.46553845445045222 0.32292377735302652 0 -0.45536731290503107 0.31414791777939732 0 -0.47326150671693828 0.30885130336962702 0 -0.46553845445045222 0.32292377735302652 0 -0.45342644041040631 0.32744080480790411 0 -0.45536731290503107 0.31414791777939732 0 -0.46823298239039562 0.33556671768806118 0 -0.44409604426906601 0.34025213010075239 0 -0.46018837539549878 0.35337323300066131 0 -0.46823298239039562 0.33556671768806118 0 -0.44409604426906601 0.34025213010075239 0 -0.45342644041040631 0.32744080480790411 0 -0.46823298239039562 0.33556671768806118 0 -0.44409604426906601 0.34025213010075239 0 -0.46553845445045222 0.32292377735302652 0 -0.45342644041040631 0.32744080480790411 0 -0.46823298239039562 0.33556671768806118 0 -0.45342644041040631 0.32744080480790411 0 -0.44409604426906601 0.34025213010075239 0 -0.44032409557673402 0.32275363260086698 0 -0.45342644041040631 0.32744080480790411 0 -0.44409604426906601 0.34025213010075239 0 -0.45536731290503107 0.31414791777939732 0 -0.44032409557673402 0.32275363260086698 0 -0.44093041861641502 0.30629419798598828 0 -0.45342644041040631 0.32744080480790411 0 -0.45536731290503107 0.31414791777939732 0 -0.44032409557673402 0.32275363260086698 0 -0.44093041861641502 0.30629419798598828 0 -0.44456522433562062 0.28987896746967612 0 -0.45784842118247587 0.29630392741269229 0 -0.45536731290503107 0.31414791777939732 0 -0.44093041861641502 0.30629419798598828 0 -0.45784842118247587 0.29630392741269229 0 -0.44456522433562062 0.28987896746967612 0 -0.45784842118247587 0.29630392741269229 0 -0.45683589886731429 0.27944522996227389 0 -0.45784842118247587 0.29630392741269229 0 -0.47613016565353689 0.27920594790919162 0 -0.45683589886731429 0.27944522996227389 0 -0.45536731290503107 0.31414791777939732 0 -0.45784842118247587 0.29630392741269229 0 -0.47326150671693828 0.30885130336962702 0 -0.5 0.31375562759013931 0 -0.47326150671693828 0.30885130336962702 0 -0.47613016565353689 0.27920594790919162 0 -0.5 0.31375562759013931 0 -0.5 0.25502500317745308 0 -0.47613016565353689 0.27920594790919162 0 -0.45784842118247587 0.29630392741269229 0 -0.47326150671693828 0.30885130336962702 0 -0.47613016565353689 0.27920594790919162 0 -0.5 0.25502500317745308 0 -0.47613016565353689 0.27920594790919162 0 -0.46826200115894351 0.25268254595322559 0 -0.46826200115894351 0.25268254595322559 0 -0.46001429554523132 0.26715439528268792 0 -0.44622747097204157 0.25447826500352411 0 -0.47613016565353689 0.27920594790919162 0 -0.46001429554523132 0.26715439528268792 0 -0.45683589886731429 0.27944522996227389 0 -0.47613016565353689 0.27920594790919162 0 -0.46826200115894351 0.25268254595322559 0 -0.46001429554523132 0.26715439528268792 0 -0.44456522433562062 0.28987896746967612 0 -0.45683589886731429 0.27944522996227389 0 -0.43912327732866052 0.27082845975049152 0 -0.46001429554523132 0.26715439528268792 0 -0.45683589886731429 0.27944522996227389 0 -0.43912327732866052 0.27082845975049152 0 -0.43912327732866052 0.27082845975049152 0 -0.44622747097204157 0.25447826500352411 0 -0.4271662496375016 0.26119471126077209 0 -0.46001429554523132 0.26715439528268792 0 -0.43912327732866052 0.27082845975049152 0 -0.44622747097204157 0.25447826500352411 0 -0.43243648966469961 0.24825823729562091 0 -0.4271662496375016 0.26119471126077209 0 -0.4154354269666965 0.25327969466909228 0 -0.43243648966469961 0.24825823729562091 0 -0.44622747097204157 0.25447826500352411 0 -0.4271662496375016 0.26119471126077209 0 -0.4154354269666965 0.25327969466909228 0 -0.41608093355480807 0.27260836016490658 0 -0.3994904005985685 0.26310408063752239 0 -0.4271662496375016 0.26119471126077209 0 -0.4154354269666965 0.25327969466909228 0 -0.41608093355480807 0.27260836016490658 0 -0.43912327732866052 0.27082845975049152 0 -0.4271662496375016 0.26119471126077209 0 -0.41608093355480807 0.27260836016490658 0 -0.43912327732866052 0.27082845975049152 0 -0.41608093355480807 0.27260836016490658 0 -0.42569467822547491 0.29333324823827622 0 -0.44093041861641502 0.30629419798598828 0 -0.44456522433562062 0.28987896746967612 0 -0.42569467822547491 0.29333324823827622 0 -0.44456522433562062 0.28987896746967612 0 -0.43912327732866052 0.27082845975049152 0 -0.42569467822547491 0.29333324823827622 0 -0.42482201379485501 0.3164116993459492 0 -0.44093041861641502 0.30629419798598828 0 -0.42569467822547491 0.29333324823827622 0 -0.42482201379485501 0.3164116993459492 0 -0.42569467822547491 0.29333324823827622 0 -0.41580892915603301 0.30455156730479449 0 -0.41580892915603301 0.30455156730479449 0 -0.40133989565533279 0.29413343321372998 0 -0.40344199037643141 0.31069905435295109 0 -0.42569467822547491 0.29333324823827622 0 -0.41580892915603301 0.30455156730479449 0 -0.40133989565533279 0.29413343321372998 0 -0.42482201379485501 0.3164116993459492 0 -0.41580892915603301 0.30455156730479449 0 -0.40344199037643141 0.31069905435295109 0 -0.41608093355480807 0.27260836016490658 0 -0.42569467822547491 0.29333324823827622 0 -0.40133989565533279 0.29413343321372998 0 -0.41608093355480807 0.27260836016490658 0 -0.40133989565533279 0.29413343321372998 0 -0.40133989565533279 0.29413343321372998 0 -0.391405356210975 0.28736794428101681 0 -0.38183605444568008 0.30159254882832942 0 -0.41608093355480807 0.27260836016490658 0 -0.40133989565533279 0.29413343321372998 0 -0.39791334778191012 0.27873259344880857 0 -0.40133989565533279 0.29413343321372998 0 -0.391405356210975 0.28736794428101681 0 -0.39791334778191012 0.27873259344880857 0 -0.38659885775585739 0.31565850626255348 0 -0.40133989565533279 0.29413343321372998 0 -0.40344199037643141 0.31069905435295109 0 -0.38659885775585739 0.31565850626255348 0 -0.40133989565533279 0.29413343321372998 0 -0.38659885775585739 0.31565850626255348 0 -0.40133989565533279 0.29413343321372998 0 -0.38183605444568008 0.30159254882832942 0 -0.38183605444568008 0.30159254882832942 0 -0.37466468983423318 0.28951354051077988 0 -0.36997315068782782 0.30191223918603199 0 -0.38183605444568008 0.30159254882832942 0 -0.36997315068782782 0.30191223918603199 0 -0.3736940231061725 0.31398947852622111 0 -0.38659885775585739 0.31565850626255348 0 -0.38183605444568008 0.30159254882832942 0 -0.3736940231061725 0.31398947852622111 0 -0.391405356210975 0.28736794428101681 0 -0.38183605444568008 0.30159254882832942 0 -0.38453212696097688 0.2750132016331992 0 -0.38183605444568008 0.30159254882832942 0 -0.38453212696097688 0.2750132016331992 0 -0.37466468983423318 0.28951354051077988 0 -0.38183605444568008 0.30159254882832942 0 -0.38453212696097688 0.2750132016331992 0 -0.37672471104263361 0.27561795758142188 0 -0.38453212696097688 0.2750132016331992 0 -0.37466468983423318 0.28951354051077988 0 -0.37672471104263361 0.27561795758142188 0 -0.38453212696097688 0.2750132016331992 0 -0.37896013194671968 0.25534683486931381 0 -0.38722819947627368 0.24843385443806909 0 -0.38453212696097688 0.2750132016331992 0 -0.37896013194671968 0.25534683486931381 0 -0.37672471104263361 0.27561795758142188 0 -0.37896013194671968 0.25534683486931381 0 -0.38722819947627368 0.24843385443806909 0 -0.38453212696097688 0.2750132016331992 0 -0.3994904005985685 0.26310408063752239 0 -0.38722819947627368 0.24843385443806909 0 -0.38453212696097688 0.2750132016331992 0 -0.40101037553383972 0.24850817254535781 0 -0.4154354269666965 0.25327969466909228 0 -0.3994904005985685 0.26310408063752239 0 -0.38722819947627368 0.24843385443806909 0 -0.40101037553383972 0.24850817254535781 0 -0.3994904005985685 0.26310408063752239 0 -0.38453212696097688 0.2750132016331992 0 -0.3994904005985685 0.26310408063752239 0 -0.39791334778191012 0.27873259344880857 0 -0.41608093355480807 0.27260836016490658 0 -0.3994904005985685 0.26310408063752239 0 -0.39791334778191012 0.27873259344880857 0 -0.391405356210975 0.28736794428101681 0 -0.38453212696097688 0.2750132016331992 0 -0.39791334778191012 0.27873259344880857 0 -0.35754908974886279 0.25815157521253052 0 -0.35995394297715549 0.27846885519039472 0 -0.3399009986899495 0.26863911531903439 0 -0.34139946132247112 0.24041351753421181 0 -0.35754908974886279 0.25815157521253052 0 -0.3399009986899495 0.26863911531903439 0 -0.37672471104263361 0.27561795758142188 0 -0.37896013194671968 0.25534683486931381 0 -0.3691483330232409 0.26445373858247911 0 -0.35754908974886279 0.25815157521253052 0 -0.36759241766554501 0.2538245840294952 0 -0.3691483330232409 0.26445373858247911 0 -0.36182205832064851 0.24457456243760281 0 -0.35754908974886279 0.25815157521253052 0 -0.36759241766554501 0.2538245840294952 0 -0.37210575503526089 0.24405057661464391 0 -0.37896013194671968 0.25534683486931381 0 -0.36759241766554501 0.2538245840294952 0 -0.37896013194671968 0.25534683486931381 0 -0.36759241766554501 0.2538245840294952 0 -0.3691483330232409 0.26445373858247911 0 -0.35754908974886279 0.25815157521253052 0 -0.3691483330232409 0.26445373858247911 0 -0.35995394297715549 0.27846885519039472 0 -0.37672471104263361 0.27561795758142188 0 -0.3691483330232409 0.26445373858247911 0 -0.35995394297715549 0.27846885519039472 0 -0.37672471104263361 0.27561795758142188 0 -0.35995394297715549 0.27846885519039472 0 -0.37466468983423318 0.28951354051077988 0 -0.35995394297715549 0.27846885519039472 0 -0.37466468983423318 0.28951354051077988 0 -0.36067095067979221 0.29568292426180159 0 -0.37466468983423318 0.28951354051077988 0 -0.36067095067979221 0.29568292426180159 0 -0.36997315068782782 0.30191223918603199 0 -0.36067095067979221 0.29568292426180159 0 -0.36997315068782782 0.30191223918603199 0 -0.35820423278511537 0.31360051904281339 0 -0.36997315068782782 0.30191223918603199 0 -0.35820423278511537 0.31360051904281339 0 -0.3736940231061725 0.31398947852622111 0 -0.36067095067979221 0.29568292426180159 0 -0.33840253605742793 0.29686471310385681 0 -0.35820423278511537 0.31360051904281339 0 -0.33840253605742793 0.29686471310385681 0 -0.33690407342490619 0.32509031088867912 0 -0.35820423278511537 0.31360051904281339 0 -0.35995394297715549 0.27846885519039472 0 -0.33840253605742793 0.29686471310385681 0 -0.3399009986899495 0.26863911531903439 0 -0.35995394297715549 0.27846885519039472 0 -0.36067095067979221 0.29568292426180159 0 -0.33840253605742793 0.29686471310385681 0 -0.33840253605742793 0.29686471310385681 0 -0.3399009986899495 0.26863911531903439 0 -0.33840253605742793 0.29686471310385681 0 -0.31331907053128433 0.313878567385664 0 -0.33690407342490619 0.32509031088867912 0 -0.33840253605742793 0.29686471310385681 0 -0.33690407342490619 0.32509031088867912 0 -0.33840253605742793 0.29686471310385681 0 -0.31760133335066493 0.29423642541125972 0 -0.31331907053128433 0.313878567385664 0 -0.33840253605742793 0.29686471310385681 0 -0.31760133335066493 0.29423642541125972 0 -0.31493928155445272 0.27430993559415479 0 -0.33840253605742793 0.29686471310385681 0 -0.31493928155445272 0.27430993559415479 0 -0.3399009986899495 0.26863911531903439 0 -0.34139946132247112 0.24041351753421181 0 -0.3399009986899495 0.26863911531903439 0 -0.34139946132247112 0.24041351753421181 0 -0.3399009986899495 0.26863911531903439 0 -0.32052316857880009 0.25199218265017043 0 -0.31493928155445272 0.27430993559415479 0 -0.3399009986899495 0.26863911531903439 0 -0.32052316857880009 0.25199218265017043 0 -0.31493928155445272 0.27430993559415479 0 -0.32052316857880009 0.25199218265017043 0 -0.29813700426351908 0.2549985658140525 0 -0.31493928155445272 0.27430993559415479 0 -0.29813700426351908 0.2549985658140525 0 -0.29529200006252948 0.27158343417855851 0 -0.31493928155445272 0.27430993559415479 0 -0.29529200006252948 0.27158343417855851 0 -0.29860197381843362 0.29024571476828781 0 -0.29529200006252948 0.27158343417855851 0 -0.28356153015689661 0.26077246338072052 0 -0.28122021051934548 0.27759049133557667 0 -0.29529200006252948 0.27158343417855851 0 -0.28122021051934548 0.27759049133557667 0 -0.29860197381843362 0.29024571476828781 0 -0.29813700426351908 0.2549985658140525 0 -0.29529200006252948 0.27158343417855851 0 -0.28356153015689661 0.26077246338072052 0 -0.28520633826073721 0.24204505302591109 0 -0.29813700426351908 0.2549985658140525 0 -0.28356153015689661 0.26077246338072052 0 -0.28520633826073721 0.24204505302591109 0 -0.28356153015689661 0.26077246338072052 0 -0.26991196520069161 0.25166683223725428 0 -0.28356153015689661 0.26077246338072052 0 -0.26991196520069161 0.25166683223725428 0 -0.26982671458757052 0.26781375962876097 0 -0.28356153015689661 0.26077246338072052 0 -0.26982671458757052 0.26781375962876097 0 -0.28122021051934548 0.27759049133557667 0 -0.26982671458757052 0.26781375962876097 0 -0.28122021051934548 0.27759049133557667 0 -0.25982227492027221 0.287750399741656 0 -0.2546175921406465 0.26128861144859822 0 -0.25982227492027221 0.287750399741656 0 -0.26982671458757052 0.26781375962876097 0 -0.2546175921406465 0.26128861144859822 0 -0.25982227492027221 0.287750399741656 0 -0.2546175921406465 0.26128861144859822 0 -0.25982227492027221 0.287750399741656 0 -0.24164285362834059 0.26945109504960563 0 -0.25054816238852479 0.24059870715785611 0 -0.2546175921406465 0.26128861144859822 0 -0.26991196520069161 0.25166683223725428 0 -0.26982671458757052 0.26781375962876097 0 -0.2546175921406465 0.26128861144859822 0 -0.25993357060704247 0.2432609816545768 0 -0.26991196520069161 0.25166683223725428 0 -0.2546175921406465 0.26128861144859822 0 -0.26991196520069161 0.25166683223725428 0 -0.2546175921406465 0.26128861144859822 0 -0.25982227492027221 0.287750399741656 0 -0.26502695769989643 0.31421218803471418 0 -0.25040582964490582 0.29567583303740069 0 -0.26031873506221342 0.31817490468258641 0 -0.26502695769989643 0.31421218803471418 0 -0.25040582964490582 0.29567583303740069 0 -0.26031873506221342 0.31817490468258641 0 -0.25040582964490582 0.29567583303740069 0 -0.25982227492027221 0.287750399741656 0 -0.26502695769989643 0.31421218803471418 0 -0.25040582964490582 0.29567583303740069 0 -0.26031873506221342 0.31817490468258641 0 -0.2434150889916675 0.31528126182336752 0 -0.25040582964490582 0.29567583303740069 0 -0.25982227492027221 0.287750399741656 0 -0.2404929242275981 0.27317676139221531 0 -0.28122021051934548 0.27759049133557667 0 -0.25982227492027221 0.287750399741656 0 -0.27872696579211859 0.29653502721740232 0 -0.27872696579211859 0.29653502721740232 0 -0.2889634120026453 0.31287634220677663 0 -0.26502695769989643 0.31421218803471418 0 -0.25982227492027221 0.287750399741656 0 -0.27872696579211859 0.29653502721740232 0 -0.26502695769989643 0.31421218803471418 0 -0.27872696579211859 0.29653502721740232 0 -0.29860197381843362 0.29024571476828781 0 -0.2889634120026453 0.31287634220677663 0 -0.28122021051934548 0.27759049133557667 0 -0.27872696579211859 0.29653502721740232 0 -0.29860197381843362 0.29024571476828781 0 -0.31760133335066493 0.29423642541125972 0 -0.31493928155445272 0.27430993559415479 0 -0.29860197381843362 0.29024571476828781 0 -0.29860197381843362 0.29024571476828781 0 -0.2889634120026453 0.31287634220677663 0 -0.31331907053128433 0.313878567385664 0 -0.31760133335066493 0.29423642541125972 0 -0.29860197381843362 0.29024571476828781 0 -0.31331907053128433 0.313878567385664 0 -0.29891576475332582 0.33197597815543639 0 -0.2889634120026453 0.31287634220677663 0 -0.31331907053128433 0.313878567385664 0 -0.29891576475332582 0.33197597815543639 0 -0.31508677610875602 0.33246264155886579 0 -0.31331907053128433 0.313878567385664 0 -0.29891576475332582 0.33197597815543639 0 -0.30998113757288742 0.35016350933599311 0 -0.31508677610875602 0.33246264155886579 0 -0.29891576475332582 0.33197597815543639 0 -0.27956012110933898 0.33426516842927712 0 -0.28899367546018362 0.34990607578599969 0 -0.27956012110933898 0.33426516842927712 0 -0.27835705654663001 0.3466973614805422 0 -0.28899367546018362 0.34990607578599969 0 -0.29891576475332582 0.33197597815543639 0 -0.2889634120026453 0.31287634220677663 0 -0.27956012110933898 0.33426516842927712 0 -0.27023164047952081 0.34067397632777208 0 -0.26502695769989643 0.31421218803471418 0 -0.2889634120026453 0.31287634220677663 0 -0.27956012110933898 0.33426516842927712 0 -0.26502695769989643 0.31421218803471418 0 -0.27956012110933898 0.33426516842927712 0 -0.27023164047952081 0.34067397632777208 0 -0.26502695769989643 0.31421218803471418 0 -0.27956012110933898 0.33426516842927712 0 -0.27023164047952081 0.34067397632777208 0 -0.27835705654663001 0.3466973614805422 0 -0.27023164047952081 0.34067397632777208 0 -0.25008303346203908 0.33611797840414298 0 -0.26058904667577898 0.35313253120237981 0 -0.27023164047952081 0.34067397632777208 0 -0.25008303346203908 0.33611797840414298 0 -0.26031873506221342 0.31817490468258641 0 -0.27023164047952081 0.34067397632777208 0 -0.26031873506221342 0.31817490468258641 0 -0.27023164047952081 0.34067397632777208 0 -0.26031873506221342 0.31817490468258641 0 -0.26502695769989643 0.31421218803471418 0 -0.25008303346203908 0.33611797840414298 0 -0.26031873506221342 0.31817490468258641 0 -0.2434150889916675 0.31528126182336752 0 -0.2592717334901794 0.37344143954643821 0 -0.26058904667577898 0.35313253120237981 0 -0.245130999697667 0.35617292401417999 0 -0.2592717334901794 0.37344143954643821 0 -0.26058904667577898 0.35313253120237981 0 -0.2742317000365197 0.36101118680509853 0 -0.25008303346203908 0.33611797840414298 0 -0.26058904667577898 0.35313253120237981 0 -0.245130999697667 0.35617292401417999 0 -0.27023164047952081 0.34067397632777208 0 -0.27835705654663001 0.3466973614805422 0 -0.2742317000365197 0.36101118680509853 0 -0.27023164047952081 0.34067397632777208 0 -0.26058904667577898 0.35313253120237981 0 -0.2742317000365197 0.36101118680509853 0 -0.27023164047952081 0.34067397632777208 0 -0.2742317000365197 0.36101118680509853 0 -0.27835705654663001 0.3466973614805422 0 -0.2742317000365197 0.36101118680509853 0 -0.28899367546018362 0.34990607578599969 0 -0.2592717334901794 0.37344143954643821 0 -0.2742317000365197 0.36101118680509853 0 -0.27666944541277583 0.38068284486427251 0 -0.2742317000365197 0.36101118680509853 0 -0.2918056253057611 0.36977816091582622 0 -0.27666944541277583 0.38068284486427251 0 -0.2742317000365197 0.36101118680509853 0 -0.2918056253057611 0.36977816091582622 0 -0.28899367546018362 0.34990607578599969 0 -0.2918056253057611 0.36977816091582622 0 -0.28899367546018362 0.34990607578599969 0 -0.30998113757288742 0.35016350933599311 0 -0.29891576475332582 0.33197597815543639 0 -0.28899367546018362 0.34990607578599969 0 -0.30998113757288742 0.35016350933599311 0 -0.2918056253057611 0.36977816091582622 0 -0.30998113757288742 0.35016350933599311 0 -0.30751920709622288 0.37811993239733782 0 -0.30998113757288742 0.35016350933599311 0 -0.3241796865990505 0.37446232129606583 0 -0.30998113757288742 0.35016350933599311 0 -0.3241796865990505 0.37446232129606583 0 -0.3311814619238953 0.36217087484935062 0 -0.30998113757288742 0.35016350933599311 0 -0.3241796865990505 0.37446232129606583 0 -0.30751920709622288 0.37811993239733782 0 -0.3241796865990505 0.37446232129606583 0 -0.3311814619238953 0.36217087484935062 0 -0.3450213805631549 0.37637896488870742 0 -0.3311814619238953 0.36217087484935062 0 -0.34248144252655999 0.3449329262912757 0 -0.32671787735756741 0.34394441277493482 0 -0.30998113757288742 0.35016350933599311 0 -0.3311814619238953 0.36217087484935062 0 -0.32671787735756741 0.34394441277493482 0 -0.30998113757288742 0.35016350933599311 0 -0.32671787735756741 0.34394441277493482 0 -0.31508677610875602 0.33246264155886579 0 -0.32671787735756741 0.34394441277493482 0 -0.31508677610875602 0.33246264155886579 0 -0.33690407342490619 0.32509031088867912 0 -0.31508677610875602 0.33246264155886579 0 -0.31331907053128433 0.313878567385664 0 -0.33690407342490619 0.32509031088867912 0 -0.34248144252655999 0.3449329262912757 0 -0.32671787735756741 0.34394441277493482 0 -0.33690407342490619 0.32509031088867912 0 -0.34248144252655999 0.3449329262912757 0 -0.33690407342490619 0.32509031088867912 0 -0.35402019531300261 0.33435003863570822 0 -0.33690407342490619 0.32509031088867912 0 -0.35402019531300261 0.33435003863570822 0 -0.35820423278511537 0.31360051904281339 0 -0.35820423278511537 0.31360051904281339 0 -0.3736940231061725 0.31398947852622111 0 -0.371857819856382 0.33718357931137699 0 -0.35402019531300261 0.33435003863570822 0 -0.35820423278511537 0.31360051904281339 0 -0.371857819856382 0.33718357931137699 0 -0.35402019531300261 0.33435003863570822 0 -0.371857819856382 0.33718357931137699 0 -0.35941010751018809 0.3566911886622014 0 -0.38763875309648088 0.35121150247505228 0 -0.371857819856382 0.33718357931137699 0 -0.35941010751018809 0.3566911886622014 0 -0.38763875309648088 0.35121150247505228 0 -0.35941010751018809 0.3566911886622014 0 -0.37817844187468841 0.37049799817574158 0 -0.35941010751018809 0.3566911886622014 0 -0.36132744716974019 0.37598607000928502 0 -0.35941010751018809 0.3566911886622014 0 -0.3450213805631549 0.37637896488870742 0 -0.36132744716974019 0.37598607000928502 0 -0.3311814619238953 0.36217087484935062 0 -0.35941010751018809 0.3566911886622014 0 -0.3450213805631549 0.37637896488870742 0 -0.3311814619238953 0.36217087484935062 0 -0.35941010751018809 0.3566911886622014 0 -0.34248144252655999 0.3449329262912757 0 -0.35402019531300261 0.33435003863570822 0 -0.35941010751018809 0.3566911886622014 0 -0.3311814619238953 0.36217087484935062 0 -0.34248144252655999 0.3449329262912757 0 -0.35941010751018809 0.3566911886622014 0 -0.35813247438357998 0.40322770661363078 0 -0.35506690633984689 0.38909595593077778 0 -0.33837823562521357 0.3987611332561386 0 -0.3450213805631549 0.37637896488870742 0 -0.35506690633984689 0.38909595593077778 0 -0.36132744716974019 0.37598607000928502 0 -0.3450213805631549 0.37637896488870742 0 -0.35506690633984689 0.38909595593077778 0 -0.33837823562521357 0.3987611332561386 0 -0.37817844187468841 0.37049799817574158 0 -0.36132744716974019 0.37598607000928502 0 -0.36896039956082288 0.38726624238899698 0 -0.35506690633984689 0.38909595593077778 0 -0.36132744716974019 0.37598607000928502 0 -0.36896039956082288 0.38726624238899698 0 -0.35813247438357998 0.40322770661363078 0 -0.35506690633984689 0.38909595593077778 0 -0.36896039956082288 0.38726624238899698 0 -0.35813247438357998 0.40322770661363078 0 -0.36896039956082288 0.38726624238899698 0 -0.37495024184161951 0.39669027322643757 0 -0.35813247438357998 0.40322770661363078 0 -0.37495024184161951 0.39669027322643757 0 -0.37226667114234002 0.41030924202555608 0 -0.37226667114234002 0.41030924202555608 0 -0.37063698291958719 0.42934778893548009 0 -0.35257678465137682 0.42305994521621149 0 -0.37226667114234002 0.41030924202555608 0 -0.35257678465137682 0.42305994521621149 0 -0.35813247438357998 0.40322770661363078 0 -0.37226667114234002 0.41030924202555608 0 -0.35257678465137682 0.42305994521621149 0 -0.37063698291958719 0.42934778893548009 0 -0.35509229673206349 0.42736488897625841 0 -0.35257678465137682 0.42305994521621149 0 -0.38219330561030318 0.43733759585905729 0 -0.37063698291958719 0.42934778893548009 0 -0.37031446948010971 0.44164379239859503 0 -0.37063698291958719 0.42934778893548009 0 -0.35100800832540779 0.43373908660655719 0 -0.34797539811694939 0.44391372641119659 0 -0.35257678465137682 0.42305994521621149 0 -0.34703292232895172 0.42665001888350013 0 -0.33490384995054723 0.4214646834239163 0 -0.37063698291958719 0.42934778893548009 0 -0.35509229673206349 0.42736488897625841 0 -0.35100800832540779 0.43373908660655719 0 -0.37063698291958719 0.42934778893548009 0 -0.34797539811694939 0.44391372641119659 0 -0.35509229673206349 0.42736488897625841 0 -0.35257678465137682 0.42305994521621149 0 -0.35120601168128568 0.42714359628681298 0 -0.35509229673206349 0.42736488897625841 0 -0.35120601168128568 0.42714359628681298 0 -0.35100800832540779 0.43373908660655719 0 -0.35509229673206349 0.42736488897625841 0 -0.35257678465137682 0.42305994521621149 0 -0.35257678465137682 0.42305994521621149 0 -0.34703292232895172 0.42665001888350013 0 -0.35120601168128568 0.42714359628681298 0 -0.35257678465137682 0.42305994521621149 0 -0.34703292232895172 0.42665001888350013 0 -0.34703292232895172 0.42665001888350013 0 -0.35120601168128568 0.42714359628681298 0 -0.35100800832540779 0.43373908660655719 0 -0.34703292232895172 0.42665001888350013 0 -0.35100800832540779 0.43373908660655719 0 -0.3416144021158749 0.43307637903049229 0 -0.35100800832540779 0.43373908660655719 0 -0.3416144021158749 0.43307637903049229 0 -0.34797539811694939 0.44391372641119659 0 -0.35257678465137682 0.42305994521621149 0 -0.33837823562521357 0.3987611332561386 0 -0.35813247438357998 0.40322770661363078 0 -0.35257678465137682 0.42305994521621149 0 -0.33837823562521357 0.3987611332561386 0 -0.35257678465137682 0.42305994521621149 0 -0.33490384995054723 0.4214646834239163 0 -0.33837823562521357 0.3987611332561386 0 -0.33490384995054723 0.4214646834239163 0 -0.32139182098691871 0.40894936325787168 0 -0.33837823562521357 0.3987611332561386 0 -0.34703292232895172 0.42665001888350013 0 -0.33490384995054723 0.4214646834239163 0 -0.3416144021158749 0.43307637903049229 0 -0.33490384995054723 0.4214646834239163 0 -0.3416144021158749 0.43307637903049229 0 -0.32915885350338547 0.436077628681731 0 -0.32915885350338547 0.436077628681731 0 -0.31540425984898302 0.42282960227343241 0 -0.31037484696397899 0.44222133160263499 0 -0.33490384995054723 0.4214646834239163 0 -0.32915885350338547 0.436077628681731 0 -0.31540425984898302 0.42282960227343241 0 -0.31540425984898302 0.42282960227343241 0 -0.32139182098691871 0.40894936325787168 0 -0.30380921659141291 0.40737586576510598 0 -0.33490384995054723 0.4214646834239163 0 -0.31540425984898302 0.42282960227343241 0 -0.32139182098691871 0.40894936325787168 0 -0.32139182098691871 0.40894936325787168 0 -0.31446354291843659 0.3943155315707651 0 -0.30380921659141291 0.40737586576510598 0 -0.32139182098691871 0.40894936325787168 0 -0.31446354291843659 0.3943155315707651 0 -0.33837823562521357 0.3987611332561386 0 -0.3241796865990505 0.37446232129606583 0 -0.33837823562521357 0.3987611332561386 0 -0.3241796865990505 0.37446232129606583 0 -0.3450213805631549 0.37637896488870742 0 -0.33837823562521357 0.3987611332561386 0 -0.3241796865990505 0.37446232129606583 0 -0.31446354291843659 0.3943155315707651 0 -0.33837823562521357 0.3987611332561386 0 -0.3241796865990505 0.37446232129606583 0 -0.31446354291843659 0.3943155315707651 0 -0.30751920709622288 0.37811993239733782 0 -0.31446354291843659 0.3943155315707651 0 -0.30751920709622288 0.37811993239733782 0 -0.29017157169787189 0.39747123853798338 0 -0.31446354291843659 0.3943155315707651 0 -0.29017157169787189 0.39747123853798338 0 -0.30380921659141291 0.40737586576510598 0 -0.31446354291843659 0.3943155315707651 0 -0.29017157169787189 0.39747123853798338 0 -0.2918056253057611 0.36977816091582622 0 -0.29017157169787189 0.39747123853798338 0 -0.27666944541277583 0.38068284486427251 0 -0.2918056253057611 0.36977816091582622 0 -0.30751920709622288 0.37811993239733782 0 -0.29017157169787189 0.39747123853798338 0 -0.2592717334901794 0.37344143954643821 0 -0.27666944541277583 0.38068284486427251 0 -0.26587960047730708 0.40062694550520161 0 -0.29017157169787189 0.39747123853798338 0 -0.26587960047730708 0.40062694550520161 0 -0.29017157169787189 0.39747123853798338 0 -0.27666944541277583 0.38068284486427251 0 -0.26587960047730708 0.40062694550520161 0 -0.26587960047730708 0.40062694550520161 0 -0.24390026663595221 0.4098265108577458 0 -0.24158762925674229 0.40378265247242029 0 -0.26587960047730708 0.40062694550520161 0 -0.24855740320059311 0.38849035142128929 0 -0.24158762925674229 0.40378265247242029 0 -0.26587960047730708 0.40062694550520161 0 -0.24158762925674229 0.40378265247242029 0 -0.2592717334901794 0.37344143954643821 0 -0.24855740320059311 0.38849035142128929 0 -0.24298804513369371 0.37489662163126852 0 -0.2592717334901794 0.37344143954643821 0 -0.26587960047730708 0.40062694550520161 0 -0.24855740320059311 0.38849035142128929 0 -0.26486291021761232 0.42723466671622251 0 -0.25440434670568679 0.43727792757369249 0 -0.24390026663595221 0.4098265108577458 0 -0.26486291021761232 0.42723466671622251 0 -0.25440434670568679 0.43727792757369249 0 -0.268601175871508 0.43936588513269881 0 -0.26587960047730708 0.40062694550520161 0 -0.26486291021761232 0.42723466671622251 0 -0.24390026663595221 0.4098265108577458 0 -0.26486291021761232 0.42723466671622251 0 -0.24390026663595221 0.4098265108577458 0 -0.26587960047730708 0.40062694550520161 0 -0.26486291021761232 0.42723466671622251 0 -0.29212211282505068 0.42111929002973092 0 -0.26486291021761232 0.42723466671622251 0 -0.28582555379927221 0.44464282257469973 0 -0.26486291021761232 0.42723466671622251 0 -0.29212211282505068 0.42111929002973092 0 -0.28582555379927221 0.44464282257469973 0 -0.26486291021761232 0.42723466671622251 0 -0.28582555379927221 0.44464282257469973 0 -0.268601175871508 0.43936588513269881 0 -0.29212211282505068 0.42111929002973092 0 -0.31037484696397899 0.44222133160263499 0 -0.28582555379927221 0.44464282257469973 0 -0.29017157169787189 0.39747123853798338 0 -0.26587960047730708 0.40062694550520161 0 -0.29212211282505068 0.42111929002973092 0 -0.29017157169787189 0.39747123853798338 0 -0.29212211282505068 0.42111929002973092 0 -0.30380921659141291 0.40737586576510598 0 -0.31540425984898302 0.42282960227343241 0 -0.29212211282505068 0.42111929002973092 0 -0.30380921659141291 0.40737586576510598 0 -0.31540425984898302 0.42282960227343241 0 -0.29212211282505068 0.42111929002973092 0 -0.31037484696397899 0.44222133160263499 0 -0.31037484696397899 0.44222133160263499 0 -0.30678819738092977 0.46205097843317938 0 -0.28582555379927221 0.44464282257469973 0 -0.30678819738092977 0.46205097843317938 0 -0.28923783613749188 0.46977947950295129 0 -0.30678819738092977 0.46205097843317938 0 -0.28923783613749188 0.46977947950295129 0 -0.30891410950205461 0.46909475087526598 0 -0.30891410950205461 0.46909475087526598 0 -0.31325745709166991 0.46742329137141808 0 -0.30678819738092977 0.46205097843317938 0 -0.30891410950205461 0.46909475087526598 0 -0.31325745709166991 0.46742329137141808 0 -0.30891410950205461 0.46909475087526598 0 -0.31525562008559699 0.46908263994992622 0 -0.31325745709166991 0.46742329137141808 0 -0.30678819738092977 0.46205097843317938 0 -0.31325745709166991 0.46742329137141808 0 -0.30678819738092977 0.46205097843317938 0 -0.29206160947224158 0.45498445755246653 0 -0.28582555379927221 0.44464282257469973 0 -0.30678819738092977 0.46205097843317938 0 -0.28582555379927221 0.44464282257469973 0 -0.30678819738092977 0.46205097843317938 0 -0.29206160947224158 0.45498445755246653 0 -0.28923783613749188 0.46977947950295129 0 -0.29206160947224158 0.45498445755246653 0 -0.28923783613749188 0.46977947950295129 0 -0.29206160947224158 0.45498445755246653 0 -0.27802275223802481 0.45856884181986929 0 -0.28923783613749188 0.46977947950295129 0 -0.29206160947224158 0.45498445755246653 0 -0.28582555379927221 0.44464282257469973 0 -0.27802275223802481 0.45856884181986929 0 -0.28582555379927221 0.44464282257469973 0 -0.26931189276346068 0.44830812366618028 0 -0.27802275223802481 0.45856884181986929 0 -0.28582555379927221 0.44464282257469973 0 -0.268601175871508 0.43936588513269881 0 -0.26931189276346068 0.44830812366618028 0 -0.26931189276346068 0.44830812366618028 0 -0.27802275223802481 0.45856884181986929 0 -0.26490842677542209 0.46472934428963919 0 -0.27802275223802481 0.45856884181986929 0 -0.26490842677542209 0.46472934428963919 0 -0.27188202748178247 0.47742230712921863 0 -0.27802275223802481 0.45856884181986929 0 -0.27188202748178247 0.47742230712921863 0 -0.28923783613749188 0.46977947950295129 0 -0.26190074499161498 0.45925492802712919 0 -0.25374771190227041 0.46769530379170138 0 -0.2470835307717511 0.45204209071788648 0 -0.25440434670568679 0.43727792757369249 0 -0.26190074499161498 0.45925492802712919 0 -0.26490842677542209 0.46472934428963919 0 -0.26190074499161498 0.45925492802712919 0 -0.26490842677542209 0.46472934428963919 0 -0.25374771190227041 0.46769530379170138 0 -0.26190074499161498 0.45925492802712919 0 -0.26490842677542209 0.46472934428963919 0 -0.25440434670568679 0.43727792757369249 0 -0.26190074499161498 0.45925492802712919 0 -0.2470835307717511 0.45204209071788648 0 -0.25440434670568679 0.43727792757369249 0 -0.26490842677542209 0.46472934428963919 0 -0.25440434670568679 0.43727792757369249 0 -0.26931189276346068 0.44830812366618028 0 -0.26490842677542209 0.46472934428963919 0 -0.25440434670568679 0.43727792757369249 0 -0.268601175871508 0.43936588513269881 0 -0.26931189276346068 0.44830812366618028 0 -0.25847810702610519 0.48850414280974469 0 -0.27007053304879808 0.47822001929417107 0 -0.24534086517324849 0.48911000964708612 0 -0.25847810702610519 0.48850414280974469 0 -0.26092149103342371 0.50000000000000044 0 -0.24271601658602809 0.5 0 -0.25847810702610519 0.48850414280974469 0 -0.27201266959149478 0.48329560889354789 0 -0.25847810702610519 0.48850414280974469 0 -0.26092149103342371 0.50000000000000044 0 -0.26665442019254082 0.49000718405533439 0 -0.26490842677542209 0.46472934428963919 0 -0.25374771190227041 0.46769530379170138 0 -0.27007053304879808 0.47822001929417107 0 -0.25374771190227041 0.46769530379170138 0 -0.27007053304879808 0.47822001929417107 0 -0.24534086517324849 0.48911000964708612 0 -0.27007053304879808 0.47822001929417107 0 -0.24534086517324849 0.48911000964708612 0 -0.27188202748178247 0.47742230712921863 0 -0.28923783613749188 0.46977947950295129 0 -0.25847810702610519 0.48850414280974469 0 -0.27007053304879808 0.47822001929417107 0 -0.27201266959149478 0.48329560889354789 0 -0.27188202748178247 0.47742230712921863 0 -0.27456848518075422 0.48231204905436859 0 -0.28781911866264892 0.47721278015904062 0 -0.27007053304879808 0.47822001929417107 0 -0.27188202748178247 0.47742230712921863 0 -0.27210308472192962 0.4803444769229962 0 -0.27188202748178247 0.47742230712921863 0 -0.27456848518075422 0.48231204905436859 0 -0.27188202748178247 0.47742230712921863 0 -0.27210308472192962 0.4803444769229962 0 -0.27456848518075422 0.48231204905436859 0 -0.27007053304879808 0.47822001929417107 0 -0.27188202748178247 0.47742230712921863 0 -0.27007053304879808 0.47822001929417107 0 -0.27201266959149478 0.48329560889354789 0 -0.27210308472192962 0.4803444769229962 0 -0.27201266959149478 0.48329560889354789 0 -0.27456848518075422 0.48231204905436859 0 -0.27007053304879808 0.47822001929417107 0 -0.27210308472192962 0.4803444769229962 0 -0.27201266959149478 0.48329560889354789 0 -0.27201266959149478 0.48329560889354789 0 -0.27456848518075422 0.48231204905436859 0 -0.26490842677542209 0.46472934428963919 0 -0.27188202748178247 0.47742230712921863 0 -0.26490842677542209 0.46472934428963919 0 -0.27007053304879808 0.47822001929417107 0 -0.27188202748178247 0.47742230712921863 0 -0.26490842677542209 0.46472934428963919 0 -0.27007053304879808 0.47822001929417107 0 -0.27456848518075422 0.48231204905436859 0 -0.28781911866264892 0.47721278015904062 0 -0.26092149103342371 0.50000000000000044 0 -0.27494821351356852 0.49096737443205551 0 -0.27840448038632598 0.49999999999999989 0 -0.27456848518075422 0.48231204905436859 0 -0.27818028796098981 0.48888605298774751 0 -0.28662963421400323 0.4834450256126463 0 -0.27818028796098981 0.48888605298774751 0 -0.27494821351356852 0.49096737443205551 0 -0.27201266959149478 0.48329560889354789 0 -0.27494821351356852 0.49096737443205551 0 -0.27201266959149478 0.48329560889354789 0 -0.27456848518075422 0.48231204905436859 0 -0.27818028796098981 0.48888605298774751 0 -0.27201266959149478 0.48329560889354789 0 -0.27818028796098981 0.48888605298774751 0 -0.27494821351356852 0.49096737443205551 0 -0.27456848518075422 0.48231204905436859 0 -0.27818028796098981 0.48888605298774751 0 -0.27201266959149478 0.48329560889354789 0 -0.27494821351356852 0.49096737443205551 0 -0.26665442019254082 0.49000718405533439 0 -0.25847810702610519 0.48850414280974469 0 -0.27201266959149478 0.48329560889354789 0 -0.26665442019254082 0.49000718405533439 0 -0.26092149103342371 0.50000000000000044 0 -0.27494821351356852 0.49096737443205551 0 -0.26092149103342371 0.50000000000000044 0 -0.27494821351356852 0.49096737443205551 0 -0.26665442019254082 0.49000718405533439 0 -0.27494821351356852 0.49096737443205551 0 -0.27840448038632598 0.49999999999999989 0 -0.27818028796098981 0.48888605298774751 0 -0.27840448038632598 0.49999999999999989 0 -0.28368044823936328 0.49889714094141469 0 -0.27818028796098981 0.48888605298774751 0 -0.27494821351356852 0.49096737443205551 0 -0.27840448038632598 0.49999999999999989 0 -0.27818028796098981 0.48888605298774751 0 -0.28368044823936328 0.49889714094141469 0 -0.28368044823936328 0.49889714094141469 0 -0.29224888689071188 0.49344190183271952 0 -0.30769467815930068 0.5 0 -0.27818028796098981 0.48888605298774751 0 -0.28368044823936328 0.49889714094141469 0 -0.28662963421400323 0.4834450256126463 0 -0.28368044823936328 0.49889714094141469 0 -0.28662963421400323 0.4834450256126463 0 -0.28368044823936328 0.49889714094141469 0 -0.29224888689071188 0.49344190183271952 0 -0.28662963421400323 0.4834450256126463 0 -0.27818028796098981 0.48888605298774751 0 -0.28662963421400323 0.4834450256126463 0 -0.29224888689071188 0.49344190183271952 0 -0.28662963421400323 0.4834450256126463 0 -0.30094150763636901 0.48708058862929682 0 -0.28781911866264892 0.47721278015904062 0 -0.28923783613749188 0.46977947950295129 0 -0.30891410950205461 0.46909475087526598 0 -0.27188202748178247 0.47742230712921863 0 -0.28781911866264892 0.47721278015904062 0 -0.28923783613749188 0.46977947950295129 0 -0.28781911866264892 0.47721278015904062 0 -0.28923783613749188 0.46977947950295129 0 -0.27456848518075422 0.48231204905436859 0 -0.28781911866264892 0.47721278015904062 0 -0.28662963421400323 0.4834450256126463 0 -0.28781911866264892 0.47721278015904062 0 -0.28662963421400323 0.4834450256126463 0 -0.28662963421400323 0.4834450256126463 0 -0.30182933433063519 0.4736570512592001 0 -0.30094150763636901 0.48708058862929682 0 -0.28781911866264892 0.47721278015904062 0 -0.28662963421400323 0.4834450256126463 0 -0.30182933433063519 0.4736570512592001 0 -0.28662963421400323 0.4834450256126463 0 -0.30182933433063519 0.4736570512592001 0 -0.28781911866264892 0.47721278015904062 0 -0.30182933433063519 0.4736570512592001 0 -0.30182933433063519 0.4736570512592001 0 -0.31729910476423501 0.48596558745179752 0 -0.31525562008559699 0.46908263994992622 0 -0.30182933433063519 0.4736570512592001 0 -0.30094150763636901 0.48708058862929682 0 -0.31729910476423501 0.48596558745179752 0 -0.28781911866264892 0.47721278015904062 0 -0.30182933433063519 0.4736570512592001 0 -0.30891410950205461 0.46909475087526598 0 -0.28781911866264892 0.47721278015904062 0 -0.30891410950205461 0.46909475087526598 0 -0.30182933433063519 0.4736570512592001 0 -0.31525562008559699 0.46908263994992622 0 -0.30182933433063519 0.4736570512592001 0 -0.30891410950205461 0.46909475087526598 0 -0.31525562008559699 0.46908263994992622 0 -0.30182933433063519 0.4736570512592001 0 -0.30891410950205461 0.46909475087526598 0 -0.30094150763636901 0.48708058862929682 0 -0.30769467815930068 0.5 0 -0.31729910476423501 0.48596558745179752 0 -0.29224888689071188 0.49344190183271952 0 -0.30094150763636901 0.48708058862929682 0 -0.30769467815930068 0.5 0 -0.31729910476423501 0.48596558745179752 0 -0.33427013892530733 0.48487300084816443 0 -0.33110298975999741 0.5 0 -0.30769467815930068 0.5 0 -0.31729910476423501 0.48596558745179752 0 -0.33110298975999741 0.5 0 -0.33427013892530733 0.48487300084816443 0 -0.33110298975999741 0.5 0 -0.35451130136069398 0.4999999999999995 0 -0.33427013892530733 0.48487300084816443 0 -0.33945755539216582 0.46083690404104272 0 -0.34969032548814538 0.47637365565428952 0 -0.33427013892530733 0.48487300084816443 0 -0.31525562008559699 0.46908263994992622 0 -0.33945755539216582 0.46083690404104272 0 -0.31729910476423501 0.48596558745179752 0 -0.33427013892530733 0.48487300084816443 0 -0.31525562008559699 0.46908263994992622 0 -0.33427013892530733 0.48487300084816443 0 -0.31525562008559699 0.46908263994992622 0 -0.31525562008559699 0.46908263994992622 0 -0.31325745709166991 0.46742329137141808 0 -0.33361387207467458 0.45958948977355291 0 -0.31325745709166991 0.46742329137141808 0 -0.33024094015483157 0.45536115943149169 0 -0.33361387207467458 0.45958948977355291 0 -0.31525562008559699 0.46908263994992622 0 -0.31325745709166991 0.46742329137141808 0 -0.30678819738092977 0.46205097843317938 0 -0.32738179774893988 0.45298235242218882 0 -0.30678819738092977 0.46205097843317938 0 -0.31325745709166991 0.46742329137141808 0 -0.32738179774893988 0.45298235242218882 0 -0.31325745709166991 0.46742329137141808 0 -0.33024094015483157 0.45536115943149169 0 -0.31325745709166991 0.46742329137141808 0 -0.32738179774893988 0.45298235242218882 0 -0.33024094015483157 0.45536115943149169 0 -0.31325745709166991 0.46742329137141808 0 -0.33361387207467458 0.45958948977355291 0 -0.31525562008559699 0.46908263994992622 0 -0.33945755539216582 0.46083690404104272 0 -0.31037484696397899 0.44222133160263499 0 -0.30678819738092977 0.46205097843317938 0 -0.32738179774893988 0.45298235242218882 0 -0.32915885350338547 0.436077628681731 0 -0.31037484696397899 0.44222133160263499 0 -0.32738179774893988 0.45298235242218882 0 -0.32915885350338547 0.436077628681731 0 -0.32738179774893988 0.45298235242218882 0 -0.34797539811694939 0.44391372641119659 0 -0.32738179774893988 0.45298235242218882 0 -0.34797539811694939 0.44391372641119659 0 -0.33024094015483157 0.45536115943149169 0 -0.33361387207467458 0.45958948977355291 0 -0.34797539811694939 0.44391372641119659 0 -0.3416144021158749 0.43307637903049229 0 -0.32915885350338547 0.436077628681731 0 -0.34797539811694939 0.44391372641119659 0 -0.33024094015483157 0.45536115943149169 0 -0.34797539811694939 0.44391372641119659 0 -0.32738179774893988 0.45298235242218882 0 -0.33024094015483157 0.45536115943149169 0 -0.34797539811694939 0.44391372641119659 0 -0.31525562008559699 0.46908263994992622 0 -0.33361387207467458 0.45958948977355291 0 -0.33945755539216582 0.46083690404104272 0 -0.33361387207467458 0.45958948977355291 0 -0.33945755539216582 0.46083690404104272 0 -0.35397028705767941 0.45175568817568751 0 -0.33945755539216582 0.46083690404104272 0 -0.35397028705767941 0.45175568817568751 0 -0.3636594906987341 0.45259116813215772 0 -0.33945755539216582 0.46083690404104272 0 -0.35903601978900862 0.4668294320101527 0 -0.3636594906987341 0.45259116813215772 0 -0.33945755539216582 0.46083690404104272 0 -0.35903601978900862 0.4668294320101527 0 -0.34969032548814538 0.47637365565428952 0 -0.33361387207467458 0.45958948977355291 0 -0.35397028705767941 0.45175568817568751 0 -0.33945755539216582 0.46083690404104272 0 -0.3636594906987341 0.45259116813215772 0 -0.35397028705767941 0.45175568817568751 0 -0.34797539811694939 0.44391372641119659 0 -0.3636594906987341 0.45259116813215772 0 -0.33361387207467458 0.45958948977355291 0 -0.35397028705767941 0.45175568817568751 0 -0.34797539811694939 0.44391372641119659 0 -0.38786142600530288 0.44434543222327372 0 -0.3636594906987341 0.45259116813215772 0 -0.37031446948010971 0.44164379239859503 0 -0.34797539811694939 0.44391372641119659 0 -0.3636594906987341 0.45259116813215772 0 -0.37031446948010971 0.44164379239859503 0 -0.37063698291958719 0.42934778893548009 0 -0.34797539811694939 0.44391372641119659 0 -0.37031446948010971 0.44164379239859503 0 -0.37674471779043378 0.46289695481551602 0 -0.35903601978900862 0.4668294320101527 0 -0.3636594906987341 0.45259116813215772 0 -0.37674471779043378 0.46289695481551602 0 -0.35903601978900862 0.4668294320101527 0 -0.36562800957556379 0.48144847740775781 0 -0.37674471779043378 0.46289695481551602 0 -0.36562800957556379 0.48144847740775781 0 -0.36562800957556379 0.48144847740775781 0 -0.35451130136069398 0.4999999999999995 0 -0.37984386551400101 0.5 0 -0.36562800957556379 0.48144847740775781 0 -0.35451130136069398 0.4999999999999995 0 -0.33427013892530733 0.48487300084816443 0 -0.35451130136069398 0.4999999999999995 0 -0.34969032548814538 0.47637365565428952 0 -0.36562800957556379 0.48144847740775781 0 -0.35451130136069398 0.4999999999999995 0 -0.34969032548814538 0.47637365565428952 0 -0.35903601978900862 0.4668294320101527 0 -0.36562800957556379 0.48144847740775781 0 -0.34969032548814538 0.47637365565428952 0 -0.13298062755884579 0.48255116261061692 0 -0.15843735091332889 0.4710522502620903 0 -0.13298062755884579 0.48255116261061692 0 -0.14150291950411281 0.46425469992345519 0 -0.15843735091332889 0.4710522502620903 0 -0.13975760046378269 0.49999999999999878 0 -0.15843735091332889 0.4710522502620903 0 -0.16099880066542119 0.50000000000000022 0 -0.13975760046378269 0.49999999999999878 0 -0.13298062755884579 0.48255116261061692 0 -0.15843735091332889 0.4710522502620903 0 -0.13975760046378269 0.49999999999999878 0 -0.13298062755884579 0.48255116261061692 0 -0.13975760046378269 0.49999999999999878 0 -0.13298062755884579 0.48255116261061692 0 -0.11380605494256869 0.5 0 -0.13298062755884579 0.48255116261061692 0 -0.12544051825853689 0.4631374593356033 0 -0.14150291950411281 0.46425469992345519 0 -0.13298062755884579 0.48255116261061692 0 -0.12544051825853689 0.4631374593356033 0 -0.1336307511693739 0.45491465667522191 0 -0.12544051825853689 0.4631374593356033 0 -0.14150291950411281 0.46425469992345519 0 -0.1336307511693739 0.45491465667522191 0 -0.13175207046494611 0.44346192959665548 0 -0.11475987009784661 0.45084407402711402 0 -0.13175207046494611 0.44346192959665548 0 -0.15702534962047851 0.44961797073374349 0 -0.14544522351027661 0.43702334659483638 0 -0.1336307511693739 0.45491465667522191 0 -0.13175207046494611 0.44346192959665548 0 -0.15702534962047851 0.44961797073374349 0 -0.15702534962047851 0.44961797073374349 0 -0.14544522351027661 0.43702334659483638 0 -0.1556699124179855 0.4290423380990836 0 -0.13175207046494611 0.44346192959665548 0 -0.15702534962047851 0.44961797073374349 0 -0.1336307511693739 0.45491465667522191 0 -0.14150291950411281 0.46425469992345519 0 -0.15702534962047851 0.44961797073374349 0 -0.14150291950411281 0.46425469992345519 0 -0.15702534962047851 0.44961797073374349 0 -0.15843735091332889 0.4710522502620903 0 -0.15702534962047851 0.44961797073374349 0 -0.15843735091332889 0.4710522502620903 0 -0.16426353778385031 0.46842053638370362 0 -0.16193071402987511 0.45081281469960982 0 -0.15843735091332889 0.4710522502620903 0 -0.15702534962047851 0.44961797073374349 0 -0.16193071402987511 0.45081281469960982 0 -0.15843735091332889 0.4710522502620903 0 -0.16426353778385031 0.46842053638370362 0 -0.16193071402987511 0.45081281469960982 0 -0.17220307999619611 0.44534927840499378 0 -0.16426353778385031 0.46842053638370362 0 -0.17220307999619611 0.44534927840499378 0 -0.15702534962047851 0.44961797073374349 0 -0.1556699124179855 0.4290423380990836 0 -0.16306062424848339 0.44050736484390751 0 -0.15702534962047851 0.44961797073374349 0 -0.1556699124179855 0.4290423380990836 0 -0.16306062424848339 0.44050736484390751 0 -0.15702534962047851 0.44961797073374349 0 -0.16193071402987511 0.45081281469960982 0 -0.15702534962047851 0.44961797073374349 0 -0.16193071402987511 0.45081281469960982 0 -0.16306062424848339 0.44050736484390751 0 -0.16193071402987511 0.45081281469960982 0 -0.17220307999619611 0.44534927840499378 0 -0.16306062424848339 0.44050736484390751 0 -0.17220307999619611 0.44534927840499378 0 -0.16780974434499221 0.43040982398245581 0 -0.17220307999619611 0.44534927840499378 0 -0.18281758700689349 0.4600395918781951 0 -0.19105692089556489 0.43334490180876922 0 -0.18281758700689349 0.4600395918781951 0 -0.19105692089556489 0.43334490180876922 0 -0.18281758700689349 0.4600395918781951 0 -0.17801000380965989 0.47561572280906489 0 -0.19482622675472999 0.46587529032893948 0 -0.16426353778385031 0.46842053638370362 0 -0.17220307999619611 0.44534927840499378 0 -0.18281758700689349 0.4600395918781951 0 -0.16426353778385031 0.46842053638370362 0 -0.18281758700689349 0.4600395918781951 0 -0.17801000380965989 0.47561572280906489 0 -0.16426353778385031 0.46842053638370362 0 -0.18281758700689349 0.4600395918781951 0 -0.18281758700689349 0.4600395918781951 0 -0.17801000380965989 0.47561572280906489 0 -0.17801000380965989 0.47561572280906489 0 -0.17320242061242691 0.49119185373993512 0 -0.190689979325044 0.47856994519631457 0 -0.17801000380965989 0.47561572280906489 0 -0.17014513666291531 0.48171822366538508 0 -0.17320242061242691 0.49119185373993512 0 -0.17801000380965989 0.47561572280906489 0 -0.17320242061242691 0.49119185373993512 0 -0.16116749874829769 0.47741721571243328 0 -0.15843735091332889 0.4710522502620903 0 -0.16099880066542119 0.50000000000000022 0 -0.16426353778385031 0.46842053638370362 0 -0.17801000380965989 0.47561572280906489 0 -0.17014513666291531 0.48171822366538508 0 -0.16426353778385031 0.46842053638370362 0 -0.17014513666291531 0.48171822366538508 0 -0.16116749874829769 0.47741721571243328 0 -0.16426353778385031 0.46842053638370362 0 -0.16116749874829769 0.47741721571243328 0 -0.15843735091332889 0.4710522502620903 0 -0.16426353778385031 0.46842053638370362 0 -0.16116749874829769 0.47741721571243328 0 -0.16426353778385031 0.46842053638370362 0 -0.15843735091332889 0.4710522502620903 0 -0.17014513666291531 0.48171822366538508 0 -0.16116749874829769 0.47741721571243328 0 -0.16099880066542119 0.50000000000000022 0 -0.17014513666291531 0.48171822366538508 0 -0.16099880066542119 0.50000000000000022 0 -0.17320242061242691 0.49119185373993512 0 -0.15843735091332889 0.4710522502620903 0 -0.16099880066542119 0.50000000000000022 0 -0.17048378039640921 0.499999999999996 0 -0.17320242061242691 0.49119185373993512 0 -0.16099880066542119 0.50000000000000022 0 -0.17048378039640921 0.499999999999996 0 -0.17320242061242691 0.49119185373993512 0 -0.16099880066542119 0.50000000000000022 0 -0.17320242061242691 0.49119185373993512 0 -0.17320242061242691 0.49119185373993512 0 -0.190689979325044 0.47856994519631457 0 -0.17048378039640921 0.499999999999996 0 -0.17320242061242691 0.49119185373993512 0 -0.18581873262730181 0.49118729788902749 0 -0.17320242061242691 0.49119185373993512 0 -0.18581873262730181 0.49118729788902749 0 -0.190689979325044 0.47856994519631457 0 -0.17048378039640921 0.499999999999996 0 -0.18581873262730181 0.49118729788902749 0 -0.19554748884705389 0.5 0 -0.18581873262730181 0.49118729788902749 0 -0.19487595816744871 0.48827984865781948 0 -0.19554748884705389 0.5 0 -0.19487595816744871 0.48827984865781948 0 -0.19554748884705389 0.5 0 -0.20744763187039511 0.48336215154593609 0 -0.18581873262730181 0.49118729788902749 0 -0.19487595816744871 0.48827984865781948 0 -0.190689979325044 0.47856994519631457 0 -0.190689979325044 0.47856994519631457 0 -0.20817753803766101 0.46594803665269391 0 -0.190689979325044 0.47856994519631457 0 -0.20817753803766101 0.46594803665269391 0 -0.19482622675472999 0.46587529032893948 0 -0.19487595816744871 0.48827984865781948 0 -0.190689979325044 0.47856994519631457 0 -0.20744763187039511 0.48336215154593609 0 -0.17801000380965989 0.47561572280906489 0 -0.190689979325044 0.47856994519631457 0 -0.19482622675472999 0.46587529032893948 0 -0.190689979325044 0.47856994519631457 0 -0.20744763187039511 0.48336215154593609 0 -0.20817753803766101 0.46594803665269391 0 -0.20744763187039511 0.48336215154593609 0 -0.2232475932131088 0.47874498222143241 0 -0.20817753803766101 0.46594803665269391 0 -0.2232475932131088 0.47874498222143241 0 -0.22334275735617259 0.46647783610587229 0 -0.20817753803766101 0.46594803665269391 0 -0.19554748884705389 0.5 0 -0.20744763187039511 0.48336215154593609 0 -0.22061119729769851 0.50000000000000044 0 -0.20744763187039511 0.48336215154593609 0 -0.22061119729769851 0.50000000000000044 0 -0.2232475932131088 0.47874498222143241 0 -0.22061119729769851 0.50000000000000044 0 -0.22451054213863281 0.50000000000000233 0 -0.24534086517324849 0.48911000964708612 0 -0.22061119729769851 0.50000000000000044 0 -0.2232475932131088 0.47874498222143241 0 -0.24534086517324849 0.48911000964708612 0 -0.22061119729769851 0.50000000000000044 0 -0.24534086517324849 0.48911000964708612 0 -0.22451054213863281 0.50000000000000233 0 -0.24148255890114151 0.49421753813106339 0 -0.2232475932131088 0.47874498222143241 0 -0.23628080142364249 0.46789219744028959 0 -0.22334275735617259 0.46647783610587229 0 -0.2232475932131088 0.47874498222143241 0 -0.24534086517324849 0.48911000964708612 0 -0.23628080142364249 0.46789219744028959 0 -0.25374771190227041 0.46769530379170138 0 -0.24534086517324849 0.48911000964708612 0 -0.23628080142364249 0.46789219744028959 0 -0.22451054213863281 0.50000000000000233 0 -0.24534086517324849 0.48911000964708612 0 -0.24148255890114151 0.49421753813106339 0 -0.25847810702610519 0.48850414280974469 0 -0.24534086517324849 0.48911000964708612 0 -0.24148255890114151 0.49421753813106339 0 -0.22451054213863281 0.50000000000000233 0 -0.24271601658602809 0.5 0 -0.24148255890114151 0.49421753813106339 0 -0.25847810702610519 0.48850414280974469 0 -0.24271601658602809 0.5 0 -0.24148255890114151 0.49421753813106339 0 -0.25847810702610519 0.48850414280974469 0 -0.24148255890114151 0.49421753813106339 0 -0.25440434670568679 0.43727792757369249 0 -0.2470835307717511 0.45204209071788648 0 -0.23583124119127399 0.4374763133559072 0 -0.2470835307717511 0.45204209071788648 0 -0.2256650967502781 0.4533261281090733 0 -0.23583124119127399 0.4374763133559072 0 -0.2470835307717511 0.45204209071788648 0 -0.23628080142364249 0.46789219744028959 0 -0.2256650967502781 0.4533261281090733 0 -0.25374771190227041 0.46769530379170138 0 -0.2470835307717511 0.45204209071788648 0 -0.23628080142364249 0.46789219744028959 0 -0.22334275735617259 0.46647783610587229 0 -0.2256650967502781 0.4533261281090733 0 -0.20817753803766101 0.46594803665269391 0 -0.23628080142364249 0.46789219744028959 0 -0.22334275735617259 0.46647783610587229 0 -0.2256650967502781 0.4533261281090733 0 -0.2256650967502781 0.4533261281090733 0 -0.22084070426585289 0.43538371924467612 0 -0.23583124119127399 0.4374763133559072 0 -0.2256650967502781 0.4533261281090733 0 -0.20831066890565611 0.44852425621752878 0 -0.22084070426585289 0.43538371924467612 0 -0.2256650967502781 0.4533261281090733 0 -0.20831066890565611 0.44852425621752878 0 -0.20817753803766101 0.46594803665269391 0 -0.2256650967502781 0.4533261281090733 0 -0.20817753803766101 0.46594803665269391 0 -0.20831066890565611 0.44852425621752878 0 -0.20817753803766101 0.46594803665269391 0 -0.19482622675472999 0.46587529032893948 0 -0.18281758700689349 0.4600395918781951 0 -0.20831066890565611 0.44852425621752878 0 -0.19482622675472999 0.46587529032893948 0 -0.18281758700689349 0.4600395918781951 0 -0.20831066890565611 0.44852425621752878 0 -0.18281758700689349 0.4600395918781951 0 -0.20831066890565611 0.44852425621752878 0 -0.19105692089556489 0.43334490180876922 0 -0.20831066890565611 0.44852425621752878 0 -0.19105692089556489 0.43334490180876922 0 -0.20810391325395439 0.42398758438242701 0 -0.19105692089556489 0.43334490180876922 0 -0.1992962547842371 0.40665021173934351 0 -0.19105692089556489 0.43334490180876922 0 -0.1992962547842371 0.40665021173934351 0 -0.18014262220854191 0.42227802042628387 0 -0.1992962547842371 0.40665021173934351 0 -0.18808216442088779 0.39920676244757408 0 -0.18014262220854191 0.42227802042628387 0 -0.19105692089556489 0.43334490180876922 0 -0.1992962547842371 0.40665021173934351 0 -0.20810391325395439 0.42398758438242701 0 -0.1992962547842371 0.40665021173934351 0 -0.21742618678061951 0.40692140278904287 0 -0.20810391325395439 0.42398758438242701 0 -0.21742618678061951 0.40692140278904287 0 -0.20810391325395439 0.42398758438242701 0 -0.22035716728969429 0.42060188859009112 0 -0.20831066890565611 0.44852425621752878 0 -0.20810391325395439 0.42398758438242701 0 -0.22084070426585289 0.43538371924467612 0 -0.20810391325395439 0.42398758438242701 0 -0.22084070426585289 0.43538371924467612 0 -0.22035716728969429 0.42060188859009112 0 -0.22084070426585289 0.43538371924467612 0 -0.22806234900785671 0.42609527632417488 0 -0.23583124119127399 0.4374763133559072 0 -0.22806234900785671 0.42609527632417488 0 -0.23583124119127399 0.4374763133559072 0 -0.23813634159033989 0.42290976463926327 0 -0.22084070426585289 0.43538371924467612 0 -0.22806234900785671 0.42609527632417488 0 -0.22035716728969429 0.42060188859009112 0 -0.21742618678061951 0.40692140278904287 0 -0.22961658629595061 0.41319157683878799 0 -0.24158762925674229 0.40378265247242029 0 -0.22806234900785671 0.42609527632417488 0 -0.22035716728969429 0.42060188859009112 0 -0.22961658629595061 0.41319157683878799 0 -0.21742618678061951 0.40692140278904287 0 -0.22035716728969429 0.42060188859009112 0 -0.22961658629595061 0.41319157683878799 0 -0.22806234900785671 0.42609527632417488 0 -0.22961658629595061 0.41319157683878799 0 -0.23813634159033989 0.42290976463926327 0 -0.22961658629595061 0.41319157683878799 0 -0.239163799237434 0.41168781992760201 0 -0.23813634159033989 0.42290976463926327 0 -0.239163799237434 0.41168781992760201 0 -0.24390026663595221 0.4098265108577458 0 -0.23813634159033989 0.42290976463926327 0 -0.22961658629595061 0.41319157683878799 0 -0.239163799237434 0.41168781992760201 0 -0.24158762925674229 0.40378265247242029 0 -0.239163799237434 0.41168781992760201 0 -0.24390026663595221 0.4098265108577458 0 -0.24158762925674229 0.40378265247242029 0 -0.24390026663595221 0.4098265108577458 0 -0.24158762925674229 0.40378265247242029 0 -0.25440434670568679 0.43727792757369249 0 -0.24390026663595221 0.4098265108577458 0 -0.25440434670568679 0.43727792757369249 0 -0.23583124119127399 0.4374763133559072 0 -0.23813634159033989 0.42290976463926327 0 -0.25440434670568679 0.43727792757369249 0 -0.24390026663595221 0.4098265108577458 0 -0.23813634159033989 0.42290976463926327 0 -0.23424469339825599 0.38459258624753379 0 -0.22773539588177269 0.371785806926901 0 -0.24298804513369371 0.37489662163126852 0 -0.24855740320059311 0.38849035142128929 0 -0.23424469339825599 0.38459258624753379 0 -0.24298804513369371 0.37489662163126852 0 -0.24158762925674229 0.40378265247242029 0 -0.23424469339825599 0.38459258624753379 0 -0.24855740320059311 0.38849035142128929 0 -0.24158762925674229 0.40378265247242029 0 -0.23424469339825599 0.38459258624753379 0 -0.24158762925674229 0.40378265247242029 0 -0.22554848148559539 0.39550039904942808 0 -0.23424469339825599 0.38459258624753379 0 -0.21742618678061951 0.40692140278904287 0 -0.24158762925674229 0.40378265247242029 0 -0.21742618678061951 0.40692140278904287 0 -0.24158762925674229 0.40378265247242029 0 -0.22554848148559539 0.39550039904942808 0 -0.21742618678061951 0.40692140278904287 0 -0.22554848148559539 0.39550039904942808 0 -0.2145442316967007 0.39558569262158683 0 -0.22554848148559539 0.39550039904942808 0 -0.2206001822887777 0.38503322384510019 0 -0.2145442316967007 0.39558569262158683 0 -0.22554848148559539 0.39550039904942808 0 -0.2206001822887777 0.38503322384510019 0 -0.23424469339825599 0.38459258624753379 0 -0.2206001822887777 0.38503322384510019 0 -0.23424469339825599 0.38459258624753379 0 -0.22773539588177269 0.371785806926901 0 -0.2206001822887777 0.38503322384510019 0 -0.2075355886729093 0.37995552166991781 0 -0.22773539588177269 0.371785806926901 0 -0.2206001822887777 0.38503322384510019 0 -0.2075355886729093 0.37995552166991781 0 -0.2145442316967007 0.39558569262158683 0 -0.1992962547842371 0.40665021173934351 0 -0.21742618678061951 0.40692140278904287 0 -0.2145442316967007 0.39558569262158683 0 -0.1992962547842371 0.40665021173934351 0 -0.2075355886729093 0.37995552166991781 0 -0.2145442316967007 0.39558569262158683 0 -0.1992962547842371 0.40665021173934351 0 -0.2075355886729093 0.37995552166991781 0 -0.1992962547842371 0.40665021173934351 0 -0.2075355886729093 0.37995552166991781 0 -0.19773392862781691 0.3904870000814249 0 -0.1992962547842371 0.40665021173934351 0 -0.18808216442088779 0.39920676244757408 0 -0.19773392862781691 0.3904870000814249 0 -0.18808216442088779 0.39920676244757408 0 -0.19602170663323359 0.37613550446886429 0 -0.18808216442088779 0.39920676244757408 0 -0.19602170663323359 0.37613550446886429 0 -0.19773392862781691 0.3904870000814249 0 -0.18808216442088779 0.39920676244757408 0 -0.19602170663323359 0.37613550446886429 0 -0.18047408951467989 0.38368683415264299 0 -0.2075355886729093 0.37995552166991781 0 -0.19602170663323359 0.37613550446886429 0 -0.19773392862781691 0.3904870000814249 0 -0.18047408951467989 0.38368683415264299 0 -0.16393263101776051 0.377811301899728 0 -0.17738562461233581 0.36620191856746193 0 -0.19602170663323359 0.37613550446886429 0 -0.18047408951467989 0.38368683415264299 0 -0.18587119209385661 0.37354081621318608 0 -0.16393263101776051 0.377811301899728 0 -0.1697532507094677 0.3985670854867942 0 -0.14892453724321039 0.38998910039625528 0 -0.18047408951467989 0.38368683415264299 0 -0.16393263101776051 0.377811301899728 0 -0.1697532507094677 0.3985670854867942 0 -0.1697532507094677 0.3985670854867942 0 -0.1543144752154926 0.40846670546442382 0 -0.14892453724321039 0.38998910039625528 0 -0.18808216442088779 0.39920676244757408 0 -0.18047408951467989 0.38368683415264299 0 -0.1697532507094677 0.3985670854867942 0 -0.18808216442088779 0.39920676244757408 0 -0.1697532507094677 0.3985670854867942 0 -0.1764876300481629 0.40873099662466561 0 -0.18808216442088779 0.39920676244757408 0 -0.1764876300481629 0.40873099662466561 0 -0.18014262220854191 0.42227802042628387 0 -0.18808216442088779 0.39920676244757408 0 -0.18014262220854191 0.42227802042628387 0 -0.1764876300481629 0.40873099662466561 0 -0.18014262220854191 0.42227802042628387 0 -0.16797248285375421 0.41487211813801012 0 -0.17220307999619611 0.44534927840499378 0 -0.18014262220854191 0.42227802042628387 0 -0.17220307999619611 0.44534927840499378 0 -0.19105692089556489 0.43334490180876922 0 -0.18014262220854191 0.42227802042628387 0 -0.17220307999619611 0.44534927840499378 0 -0.18014262220854191 0.42227802042628387 0 -0.16780974434499221 0.43040982398245581 0 -0.18014262220854191 0.42227802042628387 0 -0.16780974434499221 0.43040982398245581 0 -0.16797248285375421 0.41487211813801012 0 -0.16780974434499221 0.43040982398245581 0 -0.16797248285375421 0.41487211813801012 0 -0.1556699124179855 0.4290423380990836 0 -0.16306062424848339 0.44050736484390751 0 -0.16780974434499221 0.43040982398245581 0 -0.1556699124179855 0.4290423380990836 0 -0.1697532507094677 0.3985670854867942 0 -0.1764876300481629 0.40873099662466561 0 -0.16797248285375421 0.41487211813801012 0 -0.16797248285375421 0.41487211813801012 0 -0.1543144752154926 0.40846670546442382 0 -0.1556699124179855 0.4290423380990836 0 -0.1697532507094677 0.3985670854867942 0 -0.16797248285375421 0.41487211813801012 0 -0.1543144752154926 0.40846670546442382 0 -0.1543144752154926 0.40846670546442382 0 -0.13955083839820601 0.41331054213078378 0 -0.1342738988421254 0.39940632656162323 0 -0.1543144752154926 0.40846670546442382 0 -0.1556699124179855 0.4290423380990836 0 -0.13955083839820601 0.41331054213078378 0 -0.1543144752154926 0.40846670546442382 0 -0.1556699124179855 0.4290423380990836 0 -0.14544522351027661 0.43702334659483638 0 -0.1556699124179855 0.4290423380990836 0 -0.13656638764367751 0.42782024169105087 0 -0.1556699124179855 0.4290423380990836 0 -0.13656638764367751 0.42782024169105087 0 -0.13955083839820601 0.41331054213078378 0 -0.13175207046494611 0.44346192959665548 0 -0.13656638764367751 0.42782024169105087 0 -0.1221002198223846 0.42926878838971572 0 -0.13175207046494611 0.44346192959665548 0 -0.14544522351027661 0.43702334659483638 0 -0.13656638764367751 0.42782024169105087 0 -0.13656638764367751 0.42782024169105087 0 -0.12548201032280559 0.41579856094527679 0 -0.1221002198223846 0.42926878838971572 0 -0.13955083839820601 0.41331054213078378 0 -0.12548201032280559 0.41579856094527679 0 -0.1342738988421254 0.39940632656162323 0 -0.13656638764367751 0.42782024169105087 0 -0.13955083839820601 0.41331054213078378 0 -0.12548201032280559 0.41579856094527679 0 -0.1342738988421254 0.39940632656162323 0 -0.12655549565904481 0.38459039506062281 0 -0.14892453724321039 0.38998910039625528 0 -0.12655549565904481 0.38459039506062281 0 -0.14892453724321039 0.38998910039625528 0 -0.14471747201537141 0.37109278790434008 0 -0.16393263101776051 0.377811301899728 0 -0.14892453724321039 0.38998910039625528 0 -0.14471747201537141 0.37109278790434008 0 -0.1543144752154926 0.40846670546442382 0 -0.1342738988421254 0.39940632656162323 0 -0.14892453724321039 0.38998910039625528 0 -0.14165043288496271 0.34906334461799549 0 -0.15843984593516669 0.3353087962765417 0 -0.16020893970901179 0.3578896071927124 0 -0.14165043288496271 0.34906334461799549 0 -0.14471747201537141 0.37109278790434008 0 -0.16020893970901179 0.3578896071927124 0 -0.12655549565904481 0.38459039506062281 0 -0.14471747201537141 0.37109278790434008 0 -0.12710123171609961 0.3622807710251873 0 -0.14165043288496271 0.34906334461799549 0 -0.14471747201537141 0.37109278790434008 0 -0.12710123171609961 0.3622807710251873 0 -0.14165043288496271 0.34906334461799549 0 -0.12710123171609961 0.3622807710251873 0 -0.1189994847652637 0.3425748687043878 0 -0.14165043288496271 0.34906334461799549 0 -0.1315170279352865 0.33102482385584192 0 -0.1189994847652637 0.3425748687043878 0 -0.14165043288496271 0.34906334461799549 0 -0.1315170279352865 0.33102482385584192 0 -0.1443776795059328 0.33390895980560381 0 -0.1315170279352865 0.33102482385584192 0 -0.14495419486811961 0.31734813855161759 0 -0.12577302420238409 0.3093301053864293 0 -0.1315170279352865 0.33102482385584192 0 -0.14495419486811961 0.31734813855161759 0 -0.1443776795059328 0.33390895980560381 0 -0.14495419486811961 0.31734813855161759 0 -0.15843984593516669 0.3353087962765417 0 -0.16290230207748849 0.31861206890147392 0 -0.14495419486811961 0.31734813855161759 0 -0.1443776795059328 0.33390895980560381 0 -0.15843984593516669 0.3353087962765417 0 -0.14165043288496271 0.34906334461799549 0 -0.1443776795059328 0.33390895980560381 0 -0.15843984593516669 0.3353087962765417 0 -0.15843984593516669 0.3353087962765417 0 -0.17774973011518999 0.33020764546750409 0 -0.17749789925717871 0.34686132115754031 0 -0.15843984593516669 0.3353087962765417 0 -0.16290230207748849 0.31861206890147392 0 -0.17774973011518999 0.33020764546750409 0 -0.17774973011518999 0.33020764546750409 0 -0.19720201262974121 0.32662885324472202 0 -0.17861358928141469 0.31234998356939919 0 -0.16290230207748849 0.31861206890147392 0 -0.17774973011518999 0.33020764546750409 0 -0.17861358928141469 0.31234998356939919 0 -0.17774973011518999 0.33020764546750409 0 -0.17749789925717871 0.34686132115754031 0 -0.1924972983359893 0.34358046834146699 0 -0.17749789925717871 0.34686132115754031 0 -0.17738562461233581 0.36620191856746193 0 -0.1942619271162552 0.36094369023707662 0 -0.17749789925717871 0.34686132115754031 0 -0.16020893970901179 0.3578896071927124 0 -0.17738562461233581 0.36620191856746193 0 -0.15843984593516669 0.3353087962765417 0 -0.17749789925717871 0.34686132115754031 0 -0.16020893970901179 0.3578896071927124 0 -0.16393263101776051 0.377811301899728 0 -0.16020893970901179 0.3578896071927124 0 -0.17738562461233581 0.36620191856746193 0 -0.16393263101776051 0.377811301899728 0 -0.14471747201537141 0.37109278790434008 0 -0.16020893970901179 0.3578896071927124 0 -0.18047408951467989 0.38368683415264299 0 -0.17738562461233581 0.36620191856746193 0 -0.18587119209385661 0.37354081621318608 0 -0.17738562461233581 0.36620191856746193 0 -0.18587119209385661 0.37354081621318608 0 -0.1942619271162552 0.36094369023707662 0 -0.19602170663323359 0.37613550446886429 0 -0.18587119209385661 0.37354081621318608 0 -0.1942619271162552 0.36094369023707662 0 -0.2075355886729093 0.37995552166991781 0 -0.19602170663323359 0.37613550446886429 0 -0.1942619271162552 0.36094369023707662 0 -0.1942619271162552 0.36094369023707662 0 -0.2157749225615814 0.35326083160049221 0 -0.1924972983359893 0.34358046834146699 0 -0.17749789925717871 0.34686132115754031 0 -0.1942619271162552 0.36094369023707662 0 -0.1924972983359893 0.34358046834146699 0 -0.2075355886729093 0.37995552166991781 0 -0.2157749225615814 0.35326083160049221 0 -0.2075355886729093 0.37995552166991781 0 -0.2157749225615814 0.35326083160049221 0 -0.22773539588177269 0.371785806926901 0 -0.2075355886729093 0.37995552166991781 0 -0.1942619271162552 0.36094369023707662 0 -0.2157749225615814 0.35326083160049221 0 -0.2157749225615814 0.35326083160049221 0 -0.22773539588177269 0.371785806926901 0 -0.245130999697667 0.35617292401417999 0 -0.2157749225615814 0.35326083160049221 0 -0.245130999697667 0.35617292401417999 0 -0.23295058751304551 0.34252643707592823 0 -0.25008303346203908 0.33611797840414298 0 -0.245130999697667 0.35617292401417999 0 -0.23295058751304551 0.34252643707592823 0 -0.22773539588177269 0.371785806926901 0 -0.245130999697667 0.35617292401417999 0 -0.24298804513369371 0.37489662163126852 0 -0.2592717334901794 0.37344143954643821 0 -0.245130999697667 0.35617292401417999 0 -0.24298804513369371 0.37489662163126852 0 -0.25008303346203908 0.33611797840414298 0 -0.2434150889916675 0.31528126182336752 0 -0.22401425645025361 0.32656614153106639 0 -0.25008303346203908 0.33611797840414298 0 -0.23295058751304551 0.34252643707592823 0 -0.22401425645025361 0.32656614153106639 0 -0.2157749225615814 0.35326083160049221 0 -0.22401425645025361 0.32656614153106639 0 -0.2157749225615814 0.35326083160049221 0 -0.23295058751304551 0.34252643707592823 0 -0.22401425645025361 0.32656614153106639 0 -0.2434150889916675 0.31528126182336752 0 -0.22401425645025361 0.32656614153106639 0 -0.2322535903389257 0.29987145146164079 0 -0.22401425645025361 0.32656614153106639 0 -0.2322535903389257 0.29987145146164079 0 -0.22401425645025361 0.32656614153106639 0 -0.19720201262974121 0.32662885324472202 0 -0.19906220937645289 0.30981321912625731 0 -0.2157749225615814 0.35326083160049221 0 -0.22401425645025361 0.32656614153106639 0 -0.19720201262974121 0.32662885324472202 0 -0.2157749225615814 0.35326083160049221 0 -0.1924972983359893 0.34358046834146699 0 -0.19720201262974121 0.32662885324472202 0 -0.17774973011518999 0.33020764546750409 0 -0.1924972983359893 0.34358046834146699 0 -0.19720201262974121 0.32662885324472202 0 -0.19720201262974121 0.32662885324472202 0 -0.19906220937645289 0.30981321912625731 0 -0.17861358928141469 0.31234998356939919 0 -0.19906220937645289 0.30981321912625731 0 -0.19856760929965681 0.29512163553205928 0 -0.18259298835682489 0.29782857031946008 0 -0.19085311474529701 0.28244454806871849 0 -0.19856760929965681 0.29512163553205928 0 -0.18259298835682489 0.29782857031946008 0 -0.19085311474529701 0.28244454806871849 0 -0.19856760929965681 0.29512163553205928 0 -0.2071077174296316 0.28582887531117668 0 -0.2071077174296316 0.28582887531117668 0 -0.21338280024082609 0.30038413056083629 0 -0.2192288693812762 0.28355186314419151 0 -0.19856760929965681 0.29512163553205928 0 -0.2071077174296316 0.28582887531117668 0 -0.21338280024082609 0.30038413056083629 0 -0.2071077174296316 0.28582887531117668 0 -0.2192288693812762 0.28355186314419151 0 -0.2134516182061634 0.27614892865934582 0 -0.22401425645025361 0.32656614153106639 0 -0.19906220937645289 0.30981321912625731 0 -0.21338280024082609 0.30038413056083629 0 -0.19906220937645289 0.30981321912625731 0 -0.19856760929965681 0.29512163553205928 0 -0.21338280024082609 0.30038413056083629 0 -0.22401425645025361 0.32656614153106639 0 -0.21338280024082609 0.30038413056083629 0 -0.2322535903389257 0.29987145146164079 0 -0.21338280024082609 0.30038413056083629 0 -0.2322535903389257 0.29987145146164079 0 -0.2192288693812762 0.28355186314419151 0 -0.2322535903389257 0.29987145146164079 0 -0.2192288693812762 0.28355186314419151 0 -0.2404929242275981 0.27317676139221531 0 -0.2322535903389257 0.29987145146164079 0 -0.2404929242275981 0.27317676139221531 0 -0.25040582964490582 0.29567583303740069 0 -0.2322535903389257 0.29987145146164079 0 -0.2404929242275981 0.27317676139221531 0 -0.25040582964490582 0.29567583303740069 0 -0.2404929242275981 0.27317676139221531 0 -0.25040582964490582 0.29567583303740069 0 -0.2434150889916675 0.31528126182336752 0 -0.2322535903389257 0.29987145146164079 0 -0.25054816238852479 0.24059870715785611 0 -0.2546175921406465 0.26128861144859822 0 -0.24164285362834059 0.26945109504960563 0 -0.25054816238852479 0.24059870715785611 0 -0.24164285362834059 0.26945109504960563 0 -0.24164285362834059 0.26945109504960563 0 -0.23310158204141429 0.25640081827561029 0 -0.2466801300010773 0.2452604621424746 0 -0.25054816238852479 0.24059870715785611 0 -0.24164285362834059 0.26945109504960563 0 -0.2466801300010773 0.2452604621424746 0 -0.24164285362834059 0.26945109504960563 0 -0.2394572339012683 0.27082608115536438 0 -0.23310158204141429 0.25640081827561029 0 -0.2394572339012683 0.27082608115536438 0 -0.23310158204141429 0.25640081827561029 0 -0.2546175921406465 0.26128861144859822 0 -0.24164285362834059 0.26945109504960563 0 -0.25982227492027221 0.287750399741656 0 -0.24164285362834059 0.26945109504960563 0 -0.2404929242275981 0.27317676139221531 0 -0.24164285362834059 0.26945109504960563 0 -0.2404929242275981 0.27317676139221531 0 -0.24164285362834059 0.26945109504960563 0 -0.2394572339012683 0.27082608115536438 0 -0.24164285362834059 0.26945109504960563 0 -0.2404929242275981 0.27317676139221531 0 -0.2394572339012683 0.27082608115536438 0 -0.2404929242275981 0.27317676139221531 0 -0.2394572339012683 0.27082608115536438 0 -0.2192288693812762 0.28355186314419151 0 -0.2404929242275981 0.27317676139221531 0 -0.2394572339012683 0.27082608115536438 0 -0.2192288693812762 0.28355186314419151 0 -0.2394572339012683 0.27082608115536438 0 -0.2223662512991782 0.27304179816788748 0 -0.2192288693812762 0.28355186314419151 0 -0.2394572339012683 0.27082608115536438 0 -0.2394572339012683 0.27082608115536438 0 -0.2223662512991782 0.27304179816788748 0 -0.23310158204141429 0.25640081827561029 0 -0.2223662512991782 0.27304179816788748 0 -0.23310158204141429 0.25640081827561029 0 -0.2355501434136231 0.2478522206023164 0 -0.2223662512991782 0.27304179816788748 0 -0.2355501434136231 0.2478522206023164 0 -0.2223662512991782 0.27304179816788748 0 -0.222192014233517 0.25700640751059239 0 -0.2355501434136231 0.2478522206023164 0 -0.2223662512991782 0.27304179816788748 0 -0.222192014233517 0.25700640751059239 0 -0.21287289659801359 0.26516855002046552 0 -0.222192014233517 0.25700640751059239 0 -0.22222104444170529 0.2467327462878163 0 -0.2355501434136231 0.2478522206023164 0 -0.222192014233517 0.25700640751059239 0 -0.21371201764358261 0.25214650866738469 0 -0.22222104444170529 0.2467327462878163 0 -0.222192014233517 0.25700640751059239 0 -0.21371201764358261 0.25214650866738469 0 -0.21287289659801359 0.26516855002046552 0 -0.21371201764358261 0.25214650866738469 0 -0.21287289659801359 0.26516855002046552 0 -0.20206212765223941 0.25873777709478579 0 -0.21287289659801359 0.26516855002046552 0 -0.20374397774259509 0.27266482885045462 0 -0.20206212765223941 0.25873777709478579 0 -0.21371201764358261 0.25214650866738469 0 -0.20206212765223941 0.25873777709478579 0 -0.20132404028626799 0.2438270423260239 0 -0.2192288693812762 0.28355186314419151 0 -0.2223662512991782 0.27304179816788748 0 -0.2134516182061634 0.27614892865934582 0 -0.2223662512991782 0.27304179816788748 0 -0.21287289659801359 0.26516855002046552 0 -0.2134516182061634 0.27614892865934582 0 -0.21287289659801359 0.26516855002046552 0 -0.2134516182061634 0.27614892865934582 0 -0.20374397774259509 0.27266482885045462 0 -0.2071077174296316 0.28582887531117668 0 -0.2134516182061634 0.27614892865934582 0 -0.20374397774259509 0.27266482885045462 0 -0.19085311474529701 0.28244454806871849 0 -0.2071077174296316 0.28582887531117668 0 -0.20374397774259509 0.27266482885045462 0 -0.20374397774259509 0.27266482885045462 0 -0.19076826268548239 0.26827287779833747 0 -0.20206212765223941 0.25873777709478579 0 -0.19085311474529701 0.28244454806871849 0 -0.20374397774259509 0.27266482885045462 0 -0.19076826268548239 0.26827287779833747 0 -0.19076826268548239 0.26827287779833747 0 -0.20206212765223941 0.25873777709478579 0 -0.18859670902218051 0.25052543551881717 0 -0.20206212765223941 0.25873777709478579 0 -0.18859670902218051 0.25052543551881717 0 -0.20132404028626799 0.2438270423260239 0 -0.18859670902218051 0.25052543551881717 0 -0.17798103800664031 0.2589484764895198 0 -0.1765110772481347 0.2431385849621667 0 -0.19076826268548239 0.26827287779833747 0 -0.18859670902218051 0.25052543551881717 0 -0.17798103800664031 0.2589484764895198 0 -0.1593990608277665 0.26226189644582071 0 -0.1613020889038615 0.23837444865205379 0 -0.14911298171075679 0.24967097175487091 0 -0.17798103800664031 0.2589484764895198 0 -0.1593990608277665 0.26226189644582071 0 -0.1765110772481347 0.2431385849621667 0 -0.1593990608277665 0.26226189644582071 0 -0.1613020889038615 0.23837444865205379 0 -0.17798103800664031 0.2589484764895198 0 -0.1593990608277665 0.26226189644582071 0 -0.17625891120693621 0.27267786553860818 0 -0.1593990608277665 0.26226189644582071 0 -0.1625734141651913 0.27864750634068558 0 -0.17625891120693621 0.27267786553860818 0 -0.1625734141651913 0.27864750634068558 0 -0.17625891120693621 0.27267786553860818 0 -0.1759785768112396 0.28549188808856729 0 -0.19076826268548239 0.26827287779833747 0 -0.17798103800664031 0.2589484764895198 0 -0.17625891120693621 0.27267786553860818 0 -0.19085311474529701 0.28244454806871849 0 -0.19076826268548239 0.26827287779833747 0 -0.17625891120693621 0.27267786553860818 0 -0.19085311474529701 0.28244454806871849 0 -0.17625891120693621 0.27267786553860818 0 -0.1759785768112396 0.28549188808856729 0 -0.19085311474529701 0.28244454806871849 0 -0.1759785768112396 0.28549188808856729 0 -0.18259298835682489 0.29782857031946008 0 -0.1759785768112396 0.28549188808856729 0 -0.18259298835682489 0.29782857031946008 0 -0.16136995080389721 0.29864400117774398 0 -0.17861358928141469 0.31234998356939919 0 -0.18259298835682489 0.29782857031946008 0 -0.16136995080389721 0.29864400117774398 0 -0.19906220937645289 0.30981321912625731 0 -0.17861358928141469 0.31234998356939919 0 -0.18259298835682489 0.29782857031946008 0 -0.14495419486811961 0.31734813855161759 0 -0.16290230207748849 0.31861206890147392 0 -0.16136995080389721 0.29864400117774398 0 -0.16290230207748849 0.31861206890147392 0 -0.17861358928141469 0.31234998356939919 0 -0.16136995080389721 0.29864400117774398 0 -0.1625734141651913 0.27864750634068558 0 -0.16136995080389721 0.29864400117774398 0 -0.1450808597671244 0.27950790118027541 0 -0.1625734141651913 0.27864750634068558 0 -0.1759785768112396 0.28549188808856729 0 -0.16136995080389721 0.29864400117774398 0 -0.16136995080389721 0.29864400117774398 0 -0.14126992245711781 0.29947087285495883 0 -0.1450808597671244 0.27950790118027541 0 -0.14495419486811961 0.31734813855161759 0 -0.16136995080389721 0.29864400117774398 0 -0.14126992245711781 0.29947087285495883 0 -0.14126992245711781 0.29947087285495883 0 -0.12577302420238409 0.3093301053864293 0 -0.12922822593455879 0.28960894173240792 0 -0.14495419486811961 0.31734813855161759 0 -0.14126992245711781 0.29947087285495883 0 -0.12577302420238409 0.3093301053864293 0 -0.14126992245711781 0.29947087285495883 0 -0.12922822593455879 0.28960894173240792 0 -0.1450808597671244 0.27950790118027541 0 -0.12922822593455879 0.28960894173240792 0 -0.1349930010153193 0.26255216121800568 0 -0.12922822593455879 0.28960894173240792 0 -0.1349930010153193 0.26255216121800568 0 -0.1450808597671244 0.27950790118027541 0 -0.12922822593455879 0.28960894173240792 0 -0.1349930010153193 0.26255216121800568 0 -0.1154385093851408 0.26413547420137762 0 -0.1593990608277665 0.26226189644582071 0 -0.1349930010153193 0.26255216121800568 0 -0.14911298171075679 0.24967097175487091 0 -0.1593990608277665 0.26226189644582071 0 -0.1349930010153193 0.26255216121800568 0 -0.1450808597671244 0.27950790118027541 0 -0.1593990608277665 0.26226189644582071 0 -0.1625734141651913 0.27864750634068558 0 -0.1450808597671244 0.27950790118027541 0 -0.1125365884501535 0.28353815127968629 0 -0.09362037031597753 0.26527792879994888 0 -0.1125365884501535 0.28353815127968629 0 -0.093128128460342754 0.28254352657507131 0 -0.09362037031597753 0.26527792879994888 0 -0.1154385093851408 0.26413547420137762 0 -0.1125365884501535 0.28353815127968629 0 -0.09362037031597753 0.26527792879994888 0 -0.1154385093851408 0.26413547420137762 0 -0.09362037031597753 0.26527792879994888 0 -0.097135213821017974 0.2450179218164267 0 -0.1154385093851408 0.26413547420137762 0 -0.097135213821017974 0.2450179218164267 0 -0.11832329044822951 0.24304604882281969 0 -0.1349930010153193 0.26255216121800568 0 -0.1154385093851408 0.26413547420137762 0 -0.11832329044822951 0.24304604882281969 0 -0.12922822593455879 0.28960894173240792 0 -0.1154385093851408 0.26413547420137762 0 -0.1125365884501535 0.28353815127968629 0 -0.12922822593455879 0.28960894173240792 0 -0.1125365884501535 0.28353815127968629 0 -0.11715930820710339 0.29724977554595788 0 -0.1125365884501535 0.28353815127968629 0 -0.11715930820710339 0.29724977554595788 0 -0.1038404580068167 0.30398166541893579 0 -0.12577302420238409 0.3093301053864293 0 -0.1038404580068167 0.30398166541893579 0 -0.11250071635914489 0.32397018824961021 0 -0.12577302420238409 0.3093301053864293 0 -0.11715930820710339 0.29724977554595788 0 -0.1038404580068167 0.30398166541893579 0 -0.12577302420238409 0.3093301053864293 0 -0.12922822593455879 0.28960894173240792 0 -0.11715930820710339 0.29724977554595788 0 -0.1125365884501535 0.28353815127968629 0 -0.1038404580068167 0.30398166541893579 0 -0.093128128460342754 0.28254352657507131 0 -0.083140595227089928 0.29591471829194321 0 -0.093128128460342754 0.28254352657507131 0 -0.06936539161773822 0.28020753346750782 0 -0.1038404580068167 0.30398166541893579 0 -0.083140595227089928 0.29591471829194321 0 -0.093128128460342754 0.28254352657507131 0 -0.1038404580068167 0.30398166541893579 0 -0.083140595227089928 0.29591471829194321 0 -0.090988500091643998 0.31647506579520901 0 -0.083140595227089928 0.29591471829194321 0 -0.073171874186503463 0.31004866742903531 0 -0.090988500091643998 0.31647506579520901 0 -0.083140595227089928 0.29591471829194321 0 -0.073171874186503463 0.31004866742903531 0 -0.058649820332164468 0.29485946887662068 0 -0.073171874186503463 0.31004866742903531 0 -0.058649820332164468 0.29485946887662068 0 -0.056101506374375817 0.3128319137626559 0 -0.083140595227089928 0.29591471829194321 0 -0.06936539161773822 0.28020753346750782 0 -0.058649820332164468 0.29485946887662068 0 -0.06936539161773822 0.28020753346750782 0 -0.077315147936728598 0.26324091235374891 0 -0.061029816546774987 0.26105054837526498 0 -0.093128128460342754 0.28254352657507131 0 -0.09362037031597753 0.26527792879994888 0 -0.077315147936728598 0.26324091235374891 0 -0.093128128460342754 0.28254352657507131 0 -0.06936539161773822 0.28020753346750782 0 -0.077315147936728598 0.26324091235374891 0 -0.09362037031597753 0.26527792879994888 0 -0.097135213821017974 0.2450179218164267 0 -0.074704152181801681 0.24701770632021169 0 -0.09362037031597753 0.26527792879994888 0 -0.077315147936728598 0.26324091235374891 0 -0.074704152181801681 0.24701770632021169 0 -0.09362037031597753 0.26527792879994888 0 -0.074704152181801681 0.24701770632021169 0 -0.061029816546774987 0.26105054837526498 0 -0.074704152181801681 0.24701770632021169 0 -0.057747386715908428 0.24463041023760571 0 -0.077315147936728598 0.26324091235374891 0 -0.061029816546774987 0.26105054837526498 0 -0.074704152181801681 0.24701770632021169 0 -0.061029816546774987 0.26105054837526498 0 -0.03742977218140614 0.26357467527551443 0 -0.046594812073733123 0.24823599275617891 0 -0.061029816546774987 0.26105054837526498 0 -0.046594812073733123 0.24823599275617891 0 -0.057747386715908428 0.24463041023760571 0 -0.06936539161773822 0.28020753346750782 0 -0.061029816546774987 0.26105054837526498 0 -0.048476972550706023 0.27982564543664679 0 -0.061029816546774987 0.26105054837526498 0 -0.048476972550706023 0.27982564543664679 0 -0.03742977218140614 0.26357467527551443 0 -0.061029816546774987 0.26105054837526498 0 -0.048476972550706023 0.27982564543664679 0 -0.048476972550706023 0.27982564543664679 0 -0.031819983271387867 0.27999546987022927 0 -0.03742977218140614 0.26357467527551443 0 -0.03742977218140614 0.26357467527551443 0 -0.03189830216395443 0.24568919817845219 0 -0.046594812073733123 0.24823599275617891 0 -0.03742977218140614 0.26357467527551443 0 -0.020565667716041462 0.25572736355358933 0 -0.03189830216395443 0.24568919817845219 0 -0.03742977218140614 0.26357467527551443 0 -0.020565667716041462 0.25572736355358933 0 -0.022715456858953278 0.26994870387583431 0 -0.020565667716041462 0.25572736355358933 0 -0.022715456858953278 0.26994870387583431 0 -0.0080731797928139601 0.26595294531788349 0 -0.031819983271387867 0.27999546987022927 0 -0.03742977218140614 0.26357467527551443 0 -0.022715456858953278 0.26994870387583431 0 -0.031819983271387867 0.27999546987022927 0 -0.022715456858953278 0.26994870387583431 0 -0.01304989637173277 0.28246747093767138 0 -0.022715456858953278 0.26994870387583431 0 -0.0080731797928139601 0.26595294531788349 0 -0.01304989637173277 0.28246747093767138 0 -0.0080731797928139601 0.26595294531788349 0 -0.01304989637173277 0.28246747093767138 0 0.0042686616650212863 0.27440264234540929 0 -0.0080731797928139601 0.26595294531788349 0 -0.004361582131907446 0.25012675423618741 0 0.0045166499774289158 0.26107549289106269 0 -0.020565667716041462 0.25572736355358933 0 -0.0080731797928139601 0.26595294531788349 0 -0.004361582131907446 0.25012675423618741 0 -0.0025045175740335168 0.31031314766219981 0 -0.001308369768482999 0.29320410557187471 0 -0.016598711115656001 0.30159589275249321 0 -0.0025045175740335168 0.31031314766219981 0 -0.016598711115656001 0.30159589275249321 0 -0.021593132986752129 0.32003539370993961 0 -0.001308369768482999 0.29320410557187471 0 -0.01304989637173277 0.28246747093767138 0 0.0042686616650212863 0.27440264234540929 0 -0.001308369768482999 0.29320410557187471 0 -0.01304989637173277 0.28246747093767138 0 -0.016598711115656001 0.30159589275249321 0 -0.01304989637173277 0.28246747093767138 0 -0.035924128554638488 0.29860074249802943 0 -0.01304989637173277 0.28246747093767138 0 -0.016598711115656001 0.30159589275249321 0 -0.035924128554638488 0.29860074249802943 0 -0.031819983271387867 0.27999546987022927 0 -0.01304989637173277 0.28246747093767138 0 -0.035924128554638488 0.29860074249802943 0 -0.016598711115656001 0.30159589275249321 0 -0.035924128554638488 0.29860074249802943 0 -0.021593132986752129 0.32003539370993961 0 -0.035924128554638488 0.29860074249802943 0 -0.021593132986752129 0.32003539370993961 0 -0.035924128554638488 0.29860074249802943 0 -0.056101506374375817 0.3128319137626559 0 -0.035924128554638488 0.29860074249802943 0 -0.038849285662232391 0.31623083740802288 0 -0.021593132986752129 0.32003539370993961 0 -0.035924128554638488 0.29860074249802943 0 -0.056101506374375817 0.3128319137626559 0 -0.038849285662232391 0.31623083740802288 0 -0.048476972550706023 0.27982564543664679 0 -0.031819983271387867 0.27999546987022927 0 -0.035924128554638488 0.29860074249802943 0 -0.048476972550706023 0.27982564543664679 0 -0.035924128554638488 0.29860074249802943 0 -0.06936539161773822 0.28020753346750782 0 -0.048476972550706023 0.27982564543664679 0 -0.058649820332164468 0.29485946887662068 0 -0.048476972550706023 0.27982564543664679 0 -0.035924128554638488 0.29860074249802943 0 -0.058649820332164468 0.29485946887662068 0 -0.035924128554638488 0.29860074249802943 0 -0.058649820332164468 0.29485946887662068 0 -0.056101506374375817 0.3128319137626559 0 -0.056101506374375817 0.3128319137626559 0 -0.061273612338163523 0.34168082392211641 0 -0.041778374733163148 0.33345529966146709 0 -0.041778374733163148 0.33345529966146709 0 -0.038849285662232391 0.31623083740802288 0 -0.021593132986752129 0.32003539370993961 0 -0.056101506374375817 0.3128319137626559 0 -0.041778374733163148 0.33345529966146709 0 -0.038849285662232391 0.31623083740802288 0 -0.021593132986752129 0.32003539370993961 0 -0.0072621374188671052 0.34147004492185079 0 -0.026756520995263839 0.34622662442059521 0 -0.041778374733163148 0.33345529966146709 0 -0.021593132986752129 0.32003539370993961 0 -0.026756520995263839 0.34622662442059521 0 -0.021593132986752129 0.32003539370993961 0 -0.0072621374188671052 0.34147004492185079 0 -0.021593132986752129 0.32003539370993961 0 -0.0072621374188671052 0.34147004492185079 0 -0.00017254440855824261 0.32560037032276101 0 -0.0025045175740335168 0.31031314766219981 0 -0.021593132986752129 0.32003539370993961 0 -0.00017254440855824261 0.32560037032276101 0 -0.017975249263795932 0.36469023687930041 0 -0.0036227877329230301 0.37947700469323042 0 0.0070688581490178301 0.36290469613376197 0 -0.017975249263795932 0.36469023687930041 0 -0.017202423973373768 0.37968737263981228 0 -0.0036227877329230301 0.37947700469323042 0 -0.0072621374188671052 0.34147004492185079 0 0.0070688581490178301 0.36290469613376197 0 -0.0072621374188671052 0.34147004492185079 0 -0.017975249263795932 0.36469023687930041 0 0.0070688581490178301 0.36290469613376197 0 -0.0072621374188671052 0.34147004492185079 0 -0.026756520995263839 0.34622662442059521 0 -0.017975249263795932 0.36469023687930041 0 -0.026756520995263839 0.34622662442059521 0 -0.017975249263795932 0.36469023687930041 0 -0.044972299261370183 0.36017708579622421 0 -0.017975249263795932 0.36469023687930041 0 -0.044972299261370183 0.36017708579622421 0 -0.033696569954803593 0.38151106350699548 0 -0.044972299261370183 0.36017708579622421 0 -0.056355392512392112 0.37995563405969551 0 -0.033696569954803593 0.38151106350699548 0 -0.041778374733163148 0.33345529966146709 0 -0.026756520995263839 0.34622662442059521 0 -0.044972299261370183 0.36017708579622421 0 -0.061273612338163523 0.34168082392211641 0 -0.044972299261370183 0.36017708579622421 0 -0.06521228616511808 0.36405037212009378 0 -0.061273612338163523 0.34168082392211641 0 -0.041778374733163148 0.33345529966146709 0 -0.044972299261370183 0.36017708579622421 0 -0.044972299261370183 0.36017708579622421 0 -0.06521228616511808 0.36405037212009378 0 -0.056355392512392112 0.37995563405969551 0 -0.06521228616511808 0.36405037212009378 0 -0.083611302269088666 0.35468926302163939 0 -0.079848824444575958 0.38374905380079372 0 -0.083611302269088666 0.35468926302163939 0 -0.096975471326963783 0.37148378381343322 0 -0.079848824444575958 0.38374905380079372 0 -0.061273612338163523 0.34168082392211641 0 -0.06521228616511808 0.36405037212009378 0 -0.083611302269088666 0.35468926302163939 0 -0.061273612338163523 0.34168082392211641 0 -0.083611302269088666 0.35468926302163939 0 -0.076278884194113258 0.32706308502728249 0 -0.056101506374375817 0.3128319137626559 0 -0.076278884194113258 0.32706308502728249 0 -0.056101506374375817 0.3128319137626559 0 -0.061273612338163523 0.34168082392211641 0 -0.076278884194113258 0.32706308502728249 0 -0.073171874186503463 0.31004866742903531 0 -0.056101506374375817 0.3128319137626559 0 -0.076278884194113258 0.32706308502728249 0 -0.076278884194113258 0.32706308502728249 0 -0.090988500091643998 0.31647506579520901 0 -0.096998472576195746 0.33787207035444761 0 -0.073171874186503463 0.31004866742903531 0 -0.076278884194113258 0.32706308502728249 0 -0.090988500091643998 0.31647506579520901 0 -0.083611302269088666 0.35468926302163939 0 -0.076278884194113258 0.32706308502728249 0 -0.096998472576195746 0.33787207035444761 0 -0.090988500091643998 0.31647506579520901 0 -0.096998472576195746 0.33787207035444761 0 -0.11250071635914489 0.32397018824961021 0 -0.1038404580068167 0.30398166541893579 0 -0.090988500091643998 0.31647506579520901 0 -0.11250071635914489 0.32397018824961021 0 -0.1315170279352865 0.33102482385584192 0 -0.12577302420238409 0.3093301053864293 0 -0.11250071635914489 0.32397018824961021 0 -0.1315170279352865 0.33102482385584192 0 -0.11250071635914489 0.32397018824961021 0 -0.1189994847652637 0.3425748687043878 0 -0.096998472576195746 0.33787207035444761 0 -0.11250071635914489 0.32397018824961021 0 -0.1189994847652637 0.3425748687043878 0 -0.12710123171609961 0.3622807710251873 0 -0.1189994847652637 0.3425748687043878 0 -0.1089146800649551 0.3561770594294375 0 -0.12710123171609961 0.3622807710251873 0 -0.1130895959368447 0.37246627340933908 0 -0.1089146800649551 0.3561770594294375 0 -0.12655549565904481 0.38459039506062281 0 -0.12710123171609961 0.3622807710251873 0 -0.1130895959368447 0.37246627340933908 0 -0.1130895959368447 0.37246627340933908 0 -0.096975471326963783 0.37148378381343322 0 -0.1089146800649551 0.3561770594294375 0 -0.083611302269088666 0.35468926302163939 0 -0.096975471326963783 0.37148378381343322 0 -0.1089146800649551 0.3561770594294375 0 -0.096998472576195746 0.33787207035444761 0 -0.1189994847652637 0.3425748687043878 0 -0.1089146800649551 0.3561770594294375 0 -0.083611302269088666 0.35468926302163939 0 -0.096998472576195746 0.33787207035444761 0 -0.1089146800649551 0.3561770594294375 0 -0.10335637586111809 0.38776536102133979 0 -0.1122756033997336 0.40440751886529608 0 -0.092626744140319878 0.40339206391310989 0 -0.1130895959368447 0.37246627340933908 0 -0.096975471326963783 0.37148378381343322 0 -0.10335637586111809 0.38776536102133979 0 -0.12655549565904481 0.38459039506062281 0 -0.1130895959368447 0.37246627340933908 0 -0.10335637586111809 0.38776536102133979 0 -0.12655549565904481 0.38459039506062281 0 -0.10335637586111809 0.38776536102133979 0 -0.1122756033997336 0.40440751886529608 0 -0.1342738988421254 0.39940632656162323 0 -0.12655549565904481 0.38459039506062281 0 -0.1122756033997336 0.40440751886529608 0 -0.12548201032280559 0.41579856094527679 0 -0.1122756033997336 0.40440751886529608 0 -0.1104394098233438 0.42174348832390141 0 -0.12548201032280559 0.41579856094527679 0 -0.1342738988421254 0.39940632656162323 0 -0.1122756033997336 0.40440751886529608 0 -0.13175207046494611 0.44346192959665548 0 -0.1221002198223846 0.42926878838971572 0 -0.1064787913094135 0.43730588845956792 0 -0.12548201032280559 0.41579856094527679 0 -0.1104394098233438 0.42174348832390141 0 -0.1221002198223846 0.42926878838971572 0 -0.1104394098233438 0.42174348832390141 0 -0.1221002198223846 0.42926878838971572 0 -0.1064787913094135 0.43730588845956792 0 -0.1064787913094135 0.43730588845956792 0 -0.08120551215388104 0.43114984732248018 0 -0.1064787913094135 0.43730588845956792 0 -0.097026127818036836 0.42472771569137829 0 -0.08120551215388104 0.43114984732248018 0 -0.1104394098233438 0.42174348832390141 0 -0.1064787913094135 0.43730588845956792 0 -0.097026127818036836 0.42472771569137829 0 -0.1122756033997336 0.40440751886529608 0 -0.098824778170087071 0.41543684488035082 0 -0.092626744140319878 0.40339206391310989 0 -0.1122756033997336 0.40440751886529608 0 -0.1104394098233438 0.42174348832390141 0 -0.098824778170087071 0.41543684488035082 0 -0.1104394098233438 0.42174348832390141 0 -0.097026127818036836 0.42472771569137829 0 -0.098824778170087071 0.41543684488035082 0 -0.097026127818036836 0.42472771569137829 0 -0.098824778170087071 0.41543684488035082 0 -0.088182147633458732 0.41800250947059109 0 -0.088182147633458732 0.41800250947059109 0 -0.075766822878524695 0.41019172804676379 0 -0.092626744140319878 0.40339206391310989 0 -0.088182147633458732 0.41800250947059109 0 -0.08120551215388104 0.43114984732248018 0 -0.075766822878524695 0.41019172804676379 0 -0.098824778170087071 0.41543684488035082 0 -0.088182147633458732 0.41800250947059109 0 -0.092626744140319878 0.40339206391310989 0 -0.08120551215388104 0.43114984732248018 0 -0.071684821312473307 0.43663440229273398 0 -0.093222345705159748 0.44373923815992428 0 -0.097026127818036836 0.42472771569137829 0 -0.088182147633458732 0.41800250947059109 0 -0.08120551215388104 0.43114984732248018 0 -0.1064787913094135 0.43730588845956792 0 -0.08120551215388104 0.43114984732248018 0 -0.093222345705159748 0.44373923815992428 0 -0.065135249615538293 0.42231944082984091 0 -0.071684821312473307 0.43663440229273398 0 -0.055943765893954757 0.43144171565494821 0 -0.065135249615538293 0.42231944082984091 0 -0.071684821312473307 0.43663440229273398 0 -0.075766822878524695 0.41019172804676379 0 -0.08120551215388104 0.43114984732248018 0 -0.071684821312473307 0.43663440229273398 0 -0.075766822878524695 0.41019172804676379 0 -0.071684821312473307 0.43663440229273398 0 -0.055943765893954757 0.43144171565494821 0 -0.071684821312473307 0.43663440229273398 0 -0.075766822878524695 0.41019172804676379 0 -0.065135249615538293 0.42231944082984091 0 -0.075766822878524695 0.41019172804676379 0 -0.05600936231039217 0.41342904923233581 0 -0.075766822878524695 0.41019172804676379 0 -0.063299398534094969 0.39691509799282482 0 -0.05600936231039217 0.41342904923233581 0 -0.075766822878524695 0.41019172804676379 0 -0.063299398534094969 0.39691509799282482 0 -0.079848824444575958 0.38374905380079372 0 -0.075766822878524695 0.41019172804676379 0 -0.079848824444575958 0.38374905380079372 0 -0.10335637586111809 0.38776536102133979 0 -0.092626744140319878 0.40339206391310989 0 -0.079848824444575958 0.38374905380079372 0 -0.075766822878524695 0.41019172804676379 0 -0.092626744140319878 0.40339206391310989 0 -0.079848824444575958 0.38374905380079372 0 -0.096975471326963783 0.37148378381343322 0 -0.10335637586111809 0.38776536102133979 0 -0.079848824444575958 0.38374905380079372 0 -0.06521228616511808 0.36405037212009378 0 -0.079848824444575958 0.38374905380079372 0 -0.056355392512392112 0.37995563405969551 0 -0.063299398534094969 0.39691509799282482 0 -0.079848824444575958 0.38374905380079372 0 -0.056355392512392112 0.37995563405969551 0 -0.063299398534094969 0.39691509799282482 0 -0.056355392512392112 0.37995563405969551 0 -0.048516590524589932 0.3972500248245352 0 -0.063299398534094969 0.39691509799282482 0 -0.048516590524589932 0.3972500248245352 0 -0.05600936231039217 0.41342904923233581 0 -0.048516590524589932 0.3972500248245352 0 -0.032850518460687449 0.39898186447299261 0 -0.037770955976974781 0.41204834058667128 0 -0.048516590524589932 0.3972500248245352 0 -0.032850518460687449 0.39898186447299261 0 -0.033696569954803593 0.38151106350699548 0 -0.056355392512392112 0.37995563405969551 0 -0.048516590524589932 0.3972500248245352 0 -0.033696569954803593 0.38151106350699548 0 -0.017975249263795932 0.36469023687930041 0 -0.033696569954803593 0.38151106350699548 0 -0.017202423973373768 0.37968737263981228 0 -0.033696569954803593 0.38151106350699548 0 -0.017202423973373768 0.37968737263981228 0 -0.018646700241063071 0.39302480292672293 0 -0.018646700241063071 0.39302480292672293 0 -0.0081246324890641812 0.40805065625530412 0 -0.02380123978217763 0.41023834757766542 0 -0.032850518460687449 0.39898186447299261 0 -0.018646700241063071 0.39302480292672293 0 -0.02380123978217763 0.41023834757766542 0 -0.032850518460687449 0.39898186447299261 0 -0.033696569954803593 0.38151106350699548 0 -0.018646700241063071 0.39302480292672293 0 -0.018646700241063071 0.39302480292672293 0 -0.0081246324890641812 0.40805065625530412 0 0.0058412231562265226 0.39891749499975832 0 -0.018646700241063071 0.39302480292672293 0 -0.0036227877329230301 0.37947700469323042 0 0.0058412231562265226 0.39891749499975832 0 -0.017202423973373768 0.37968737263981228 0 -0.018646700241063071 0.39302480292672293 0 -0.0036227877329230301 0.37947700469323042 0 -0.0072392309157056894 0.43649428994281841 0 -0.01082192781792536 0.4212785973985777 0 -0.025245314308565012 0.42614172839533782 0 -0.0072392309157056894 0.43649428994281841 0 -0.01082192781792536 0.4212785973985777 0 0.0059488009041311612 0.41735624870114602 0 -0.0081246324890641812 0.40805065625530412 0 -0.01082192781792536 0.4212785973985777 0 -0.02380123978217763 0.41023834757766542 0 -0.0081246324890641812 0.40805065625530412 0 -0.01082192781792536 0.4212785973985777 0 0.0059488009041311612 0.41735624870114602 0 -0.02380123978217763 0.41023834757766542 0 -0.025245314308565012 0.42614172839533782 0 -0.037770955976974781 0.41204834058667128 0 -0.01082192781792536 0.4212785973985777 0 -0.02380123978217763 0.41023834757766542 0 -0.025245314308565012 0.42614172839533782 0 -0.0072392309157056894 0.43649428994281841 0 -0.025245314308565012 0.42614172839533782 0 -0.027102965719072159 0.44246949839488359 0 -0.025245314308565012 0.42614172839533782 0 -0.040202710475436512 0.4262490290171615 0 -0.027102965719072159 0.44246949839488359 0 -0.040202710475436512 0.4262490290171615 0 -0.037770955976974781 0.41204834058667128 0 -0.05600936231039217 0.41342904923233581 0 -0.032850518460687449 0.39898186447299261 0 -0.02380123978217763 0.41023834757766542 0 -0.037770955976974781 0.41204834058667128 0 -0.025245314308565012 0.42614172839533782 0 -0.040202710475436512 0.4262490290171615 0 -0.037770955976974781 0.41204834058667128 0 -0.048516590524589932 0.3972500248245352 0 -0.037770955976974781 0.41204834058667128 0 -0.05600936231039217 0.41342904923233581 0 -0.040202710475436512 0.4262490290171615 0 -0.055943765893954757 0.43144171565494821 0 -0.065135249615538293 0.42231944082984091 0 -0.05600936231039217 0.41342904923233581 0 -0.055943765893954757 0.43144171565494821 0 -0.040202710475436512 0.4262490290171615 0 -0.055943765893954757 0.43144171565494821 0 -0.044517274739645132 0.44459183642540612 0 -0.040202710475436512 0.4262490290171615 0 -0.05600936231039217 0.41342904923233581 0 -0.055943765893954757 0.43144171565494821 0 -0.058335943557526457 0.44624868987483279 0 -0.051109653666529857 0.46081922680591902 0 -0.044517274739645132 0.44459183642540612 0 -0.071684821312473307 0.43663440229273398 0 -0.055943765893954757 0.43144171565494821 0 -0.058335943557526457 0.44624868987483279 0 -0.055943765893954757 0.43144171565494821 0 -0.058335943557526457 0.44624868987483279 0 -0.044517274739645132 0.44459183642540612 0 -0.051109653666529857 0.46081922680591902 0 -0.065163583037585071 0.47887813409757868 0 -0.068424202175029258 0.45775626819515641 0 -0.058335943557526457 0.44624868987483279 0 -0.051109653666529857 0.46081922680591902 0 -0.068424202175029258 0.45775626819515641 0 -0.051109653666529857 0.46081922680591902 0 -0.032757904119458489 0.46093040696708881 0 -0.044531910374045837 0.48023148171387958 0 -0.051109653666529857 0.46081922680591902 0 -0.032757904119458489 0.46093040696708881 0 -0.044517274739645132 0.44459183642540612 0 -0.040202710475436512 0.4262490290171615 0 -0.044517274739645132 0.44459183642540612 0 -0.027102965719072159 0.44246949839488359 0 -0.032757904119458489 0.46093040696708881 0 -0.044517274739645132 0.44459183642540612 0 -0.027102965719072159 0.44246949839488359 0 -0.0072392309157056894 0.43649428994281841 0 -0.027102965719072159 0.44246949839488359 0 -0.01461213653914459 0.45725057482734738 0 -0.032757904119458489 0.46093040696708881 0 -0.027102965719072159 0.44246949839488359 0 -0.01461213653914459 0.45725057482734738 0 -0.032757904119458489 0.46093040696708881 0 -0.01461213653914459 0.45725057482734738 0 -0.02185909025790168 0.48076112241269181 0 -0.01461213653914459 0.45725057482734738 0 -0.003089566724048357 0.47326761514296101 0 0.0026031304198410629 0.45131346537392758 0 -0.0072392309157056894 0.43649428994281841 0 -0.01461213653914459 0.45725057482734738 0 0.0026031304198410629 0.45131346537392758 0 -0.0068935706251778139 0.5 0 -0.003089566724048357 0.47326761514296101 0 -0.02185909025790168 0.48076112241269181 0 -0.01461213653914459 0.45725057482734738 0 -0.003089566724048357 0.47326761514296101 0 -0.02185909025790168 0.48076112241269181 0 -0.0068935706251778139 0.5 0 -0.02185909025790168 0.48076112241269181 0 -0.034398267262659273 0.5 0 -0.02185909025790168 0.48076112241269181 0 -0.034398267262659273 0.5 0 -0.044531910374045837 0.48023148171387958 0 -0.032757904119458489 0.46093040696708881 0 -0.02185909025790168 0.48076112241269181 0 -0.044531910374045837 0.48023148171387958 0 -0.051109653666529857 0.46081922680591902 0 -0.044531910374045837 0.48023148171387958 0 -0.065163583037585071 0.47887813409757868 0 -0.044531910374045837 0.48023148171387958 0 -0.061902963900140731 0.50000000000000089 0 -0.065163583037585071 0.47887813409757868 0 -0.034398267262659273 0.5 0 -0.044531910374045837 0.48023148171387958 0 -0.061902963900140731 0.50000000000000089 0 -0.061902963900140731 0.50000000000000089 0 -0.065163583037585071 0.47887813409757868 0 -0.061902963900140731 0.50000000000000089 0 -0.077838109667281524 0.48710250329852411 0 -0.087854509421354754 0.5 0 -0.061902963900140731 0.50000000000000089 0 -0.077838109667281524 0.48710250329852411 0 -0.065163583037585071 0.47887813409757868 0 -0.077838109667281524 0.48710250329852411 0 -0.087854509421354754 0.5 0 -0.093631833857276997 0.48378290981445132 0 -0.077838109667281524 0.48710250329852411 0 -0.093631833857276997 0.48378290981445132 0 -0.080637658120050082 0.47285147258059063 0 -0.093631833857276997 0.48378290981445132 0 -0.080637658120050082 0.47285147258059063 0 -0.095304075467821936 0.46893627996427029 0 -0.080637658120050082 0.47285147258059063 0 -0.065163583037585071 0.47887813409757868 0 -0.068424202175029258 0.45775626819515641 0 -0.077838109667281524 0.48710250329852411 0 -0.080637658120050082 0.47285147258059063 0 -0.065163583037585071 0.47887813409757868 0 -0.065163583037585071 0.47887813409757868 0 -0.068424202175029258 0.45775626819515641 0 -0.068424202175029258 0.45775626819515641 0 -0.079579065155363032 0.44906004053067289 0 -0.084984891428789844 0.45811025347487683 0 -0.080637658120050082 0.47285147258059063 0 -0.068424202175029258 0.45775626819515641 0 -0.084984891428789844 0.45811025347487683 0 -0.071684821312473307 0.43663440229273398 0 -0.058335943557526457 0.44624868987483279 0 -0.068424202175029258 0.45775626819515641 0 -0.071684821312473307 0.43663440229273398 0 -0.068424202175029258 0.45775626819515641 0 -0.071684821312473307 0.43663440229273398 0 -0.068424202175029258 0.45775626819515641 0 -0.079579065155363032 0.44906004053067289 0 -0.071684821312473307 0.43663440229273398 0 -0.079579065155363032 0.44906004053067289 0 -0.093222345705159748 0.44373923815992428 0 -0.071684821312473307 0.43663440229273398 0 -0.093222345705159748 0.44373923815992428 0 -0.079579065155363032 0.44906004053067289 0 -0.093222345705159748 0.44373923815992428 0 -0.084984891428789844 0.45811025347487683 0 -0.093222345705159748 0.44373923815992428 0 -0.084984891428789844 0.45811025347487683 0 -0.099437105326258865 0.45731761566948659 0 -0.084984891428789844 0.45811025347487683 0 -0.099437105326258865 0.45731761566948659 0 -0.095304075467821936 0.46893627996427029 0 -0.080637658120050082 0.47285147258059063 0 -0.084984891428789844 0.45811025347487683 0 -0.095304075467821936 0.46893627996427029 0 -0.099437105326258865 0.45731761566948659 0 -0.10891434393167621 0.46495823272124781 0 -0.095304075467821936 0.46893627996427029 0 -0.099437105326258865 0.45731761566948659 0 -0.10891434393167621 0.46495823272124781 0 -0.11475987009784661 0.45084407402711402 0 -0.093222345705159748 0.44373923815992428 0 -0.099437105326258865 0.45731761566948659 0 -0.11475987009784661 0.45084407402711402 0 -0.1064787913094135 0.43730588845956792 0 -0.093222345705159748 0.44373923815992428 0 -0.11475987009784661 0.45084407402711402 0 -0.093222345705159748 0.44373923815992428 0 -0.11475987009784661 0.45084407402711402 0 -0.13175207046494611 0.44346192959665548 0 -0.1064787913094135 0.43730588845956792 0 -0.13175207046494611 0.44346192959665548 0 -0.1064787913094135 0.43730588845956792 0 -0.11475987009784661 0.45084407402711402 0 -0.1336307511693739 0.45491465667522191 0 -0.12544051825853689 0.4631374593356033 0 -0.11475987009784661 0.45084407402711402 0 -0.12544051825853689 0.4631374593356033 0 -0.10891434393167621 0.46495823272124781 0 -0.1136160252334053 0.47771856728300521 0 -0.12544051825853689 0.4631374593356033 0 -0.10891434393167621 0.46495823272124781 0 -0.11475987009784661 0.45084407402711402 0 -0.13298062755884579 0.48255116261061692 0 -0.12544051825853689 0.4631374593356033 0 -0.1136160252334053 0.47771856728300521 0 -0.13298062755884579 0.48255116261061692 0 -0.1058458182692171 0.49480807365413371 0 -0.13298062755884579 0.48255116261061692 0 -0.11380605494256869 0.5 0 -0.1058458182692171 0.49480807365413371 0 -0.13298062755884579 0.48255116261061692 0 -0.1136160252334053 0.47771856728300521 0 -0.1058458182692171 0.49480807365413371 0 -0.087854509421354754 0.5 0 -0.11380605494256869 0.5 0 -0.1058458182692171 0.49480807365413371 0 -0.087854509421354754 0.5 0 -0.093631833857276997 0.48378290981445132 0 -0.1058458182692171 0.49480807365413371 0 -0.1136160252334053 0.47771856728300521 0 -0.1058458182692171 0.49480807365413371 0 -0.1043559736166358 0.48381945471134902 0 -0.093631833857276997 0.48378290981445132 0 -0.1058458182692171 0.49480807365413371 0 -0.1043559736166358 0.48381945471134902 0 -0.093631833857276997 0.48378290981445132 0 -0.1048057889081305 0.47442420204765762 0 -0.1043559736166358 0.48381945471134902 0 -0.093631833857276997 0.48378290981445132 0 -0.095304075467821936 0.46893627996427029 0 -0.1048057889081305 0.47442420204765762 0 -0.10891434393167621 0.46495823272124781 0 -0.1136160252334053 0.47771856728300521 0 -0.1048057889081305 0.47442420204765762 0 -0.10891434393167621 0.46495823272124781 0 -0.095304075467821936 0.46893627996427029 0 -0.1048057889081305 0.47442420204765762 0 -0.1136160252334053 0.47771856728300521 0 -0.1048057889081305 0.47442420204765762 0 -0.1043559736166358 0.48381945471134902 0 -0.16372231175516949 0.08442819848465731 0 -0.15093626356447659 0.087069345181943508 0 -0.15518952671466241 0.069788713381716036 0 -0.16372231175516949 0.08442819848465731 0 -0.1756345505012066 0.070889783495268699 0 -0.1751333004977583 0.097143888168289519 0 -0.16372231175516949 0.08442819848465731 0 -0.1751333004977583 0.097143888168289519 0 -0.16171791749774381 0.097249262196068775 0 -0.16372231175516949 0.08442819848465731 0 -0.16171791749774381 0.097249262196068775 0 -0.15093626356447659 0.087069345181943508 0 -0.16372231175516949 0.08442819848465731 0 -0.1756345505012066 0.070889783495268699 0 -0.15518952671466241 0.069788713381716036 0 -0.1756345505012066 0.070889783495268699 0 -0.15518952671466241 0.069788713381716036 0 -0.16223695238926561 0.052594200190125132 0 -0.1756345505012066 0.070889783495268699 0 -0.19053419445951161 0.052610770621845292 0 -0.19612483249420401 0.068091746174319415 0 -0.1756345505012066 0.070889783495268699 0 -0.18871947576181089 0.093673214670465021 0 -0.19612483249420401 0.068091746174319415 0 -0.1756345505012066 0.070889783495268699 0 -0.1751333004977583 0.097143888168289519 0 -0.1756345505012066 0.070889783495268699 0 -0.1751333004977583 0.097143888168289519 0 -0.18871947576181089 0.093673214670465021 0 -0.18131411902941769 0.11925468316661041 0 -0.18871947576181089 0.093673214670465021 0 -0.1751333004977583 0.097143888168289519 0 -0.18131411902941769 0.11925468316661041 0 -0.18871947576181089 0.093673214670465021 0 -0.1751333004977583 0.097143888168289519 0 -0.17463205049430791 0.1233979928413103 0 -0.18131411902941769 0.11925468316661041 0 -0.17463205049430791 0.1233979928413103 0 -0.19892457962824481 0.1205653340059829 0 -0.17463205049430791 0.1233979928413103 0 -0.19892457962824481 0.1205653340059829 0 -0.18530606321329801 0.12949084902847491 0 -0.1751333004977583 0.097143888168289519 0 -0.18131411902941769 0.11925468316661041 0 -0.17463205049430791 0.1233979928413103 0 -0.17463205049430791 0.1233979928413103 0 -0.19892457962824481 0.1205653340059829 0 -0.1751333004977583 0.097143888168289519 0 -0.17463205049430791 0.1233979928413103 0 -0.165591889364022 0.1100935584672583 0 -0.17463205049430791 0.1233979928413103 0 -0.1598554046101329 0.12512104095579701 0 -0.17463205049430791 0.1233979928413103 0 -0.16396547557359309 0.1179523604009539 0 -0.1598554046101329 0.12512104095579701 0 -0.17463205049430791 0.1233979928413103 0 -0.165591889364022 0.1100935584672583 0 -0.16396547557359309 0.1179523604009539 0 -0.165591889364022 0.1100935584672583 0 -0.16396547557359309 0.1179523604009539 0 -0.1557825578259103 0.11319684933944919 0 -0.16396547557359309 0.1179523604009539 0 -0.1557825578259103 0.11319684933944919 0 -0.1598554046101329 0.12512104095579701 0 -0.1751333004977583 0.097143888168289519 0 -0.165591889364022 0.1100935584672583 0 -0.16171791749774381 0.097249262196068775 0 -0.165591889364022 0.1100935584672583 0 -0.1513048045227823 0.10252569531319269 0 -0.1557825578259103 0.11319684933944919 0 -0.165591889364022 0.1100935584672583 0 -0.16171791749774381 0.097249262196068775 0 -0.1513048045227823 0.10252569531319269 0 -0.1513048045227823 0.10252569531319269 0 -0.1355182161913136 0.10914070680675041 0 -0.13964798444238999 0.092855372928561969 0 -0.16171791749774381 0.097249262196068775 0 -0.1513048045227823 0.10252569531319269 0 -0.15093626356447659 0.087069345181943508 0 -0.1513048045227823 0.10252569531319269 0 -0.1557825578259103 0.11319684933944919 0 -0.1355182161913136 0.10914070680675041 0 -0.1513048045227823 0.10252569531319269 0 -0.13964798444238999 0.092855372928561969 0 -0.15093626356447659 0.087069345181943508 0 -0.1557825578259103 0.11319684933944919 0 -0.1355182161913136 0.10914070680675041 0 -0.1598554046101329 0.12512104095579701 0 -0.1355182161913136 0.10914070680675041 0 -0.1598554046101329 0.12512104095579701 0 -0.14280445220814469 0.1192500300409249 0 -0.1598554046101329 0.12512104095579701 0 -0.13922952195075211 0.12752614618091959 0 -0.14280445220814469 0.1192500300409249 0 -0.1355182161913136 0.10914070680675041 0 -0.1598554046101329 0.12512104095579701 0 -0.13074244959953979 0.11946175785799951 0 -0.1355182161913136 0.10914070680675041 0 -0.123743476780604 0.10140915347104661 0 -0.14280445220814469 0.1192500300409249 0 -0.13074244959953979 0.11946175785799951 0 -0.13922952195075211 0.12752614618091959 0 -0.14280445220814469 0.1192500300409249 0 -0.1355182161913136 0.10914070680675041 0 -0.14280445220814469 0.1192500300409249 0 -0.13074244959953979 0.11946175785799951 0 -0.1355182161913136 0.10914070680675041 0 -0.1355182161913136 0.10914070680675041 0 -0.12576525993317081 0.095608920700106598 0 -0.13964798444238999 0.092855372928561969 0 -0.1355182161913136 0.10914070680675041 0 -0.12576525993317081 0.095608920700106598 0 -0.1355182161913136 0.10914070680675041 0 -0.12576525993317081 0.095608920700106598 0 -0.123743476780604 0.10140915347104661 0 -0.1355182161913136 0.10914070680675041 0 -0.123743476780604 0.10140915347104661 0 -0.12576525993317081 0.095608920700106598 0 -0.13964798444238999 0.092855372928561969 0 -0.13471537800020611 0.069932196640817734 0 -0.12576525993317081 0.095608920700106598 0 -0.13471537800020611 0.069932196640817734 0 -0.1158200249735767 0.081810356583590621 0 -0.12576525993317081 0.095608920700106598 0 -0.13471537800020611 0.069932196640817734 0 -0.13964798444238999 0.092855372928561969 0 -0.15093626356447659 0.087069345181943508 0 -0.13471537800020611 0.069932196640817734 0 -0.15093626356447659 0.087069345181943508 0 -0.15518952671466241 0.069788713381716036 0 -0.13471537800020611 0.069932196640817734 0 -0.13471537800020611 0.069932196640817734 0 -0.12657932631233151 0.049909814768299969 0 -0.1143187324205953 0.061132814960732959 0 -0.13471537800020611 0.069932196640817734 0 -0.14366549606724091 0.044255472581528732 0 -0.13471537800020611 0.069932196640817734 0 -0.12657932631233151 0.049909814768299969 0 -0.14366549606724091 0.044255472581528732 0 -0.12657932631233151 0.049909814768299969 0 -0.1284208098020175 0.033179877632891097 0 -0.14366549606724091 0.044255472581528732 0 -0.1284208098020175 0.033179877632891097 0 -0.14366549606724091 0.044255472581528732 0 -0.1467564914265658 0.025061264112791169 0 -0.14366549606724091 0.044255472581528732 0 -0.16223695238926561 0.052594200190125132 0 -0.1605593881585633 0.033401352669864208 0 -0.14366549606724091 0.044255472581528732 0 -0.1467564914265658 0.025061264112791169 0 -0.1605593881585633 0.033401352669864208 0 -0.15518952671466241 0.069788713381716036 0 -0.13471537800020611 0.069932196640817734 0 -0.14366549606724091 0.044255472581528732 0 -0.15518952671466241 0.069788713381716036 0 -0.14366549606724091 0.044255472581528732 0 -0.16223695238926561 0.052594200190125132 0 -0.13137048688310951 -0.003337023478303953 0 -0.13460564055411489 0.01723703355858653 0 -0.11131614731463491 0.019777731715017489 0 -0.13137048688310951 -0.003337023478303953 0 -0.13460564055411489 0.01723703355858653 0 -0.1433170204333889 0.0042533116210359059 0 -0.13137048688310951 -0.003337023478303953 0 -0.1433170204333889 0.0042533116210359059 0 -0.1284208098020175 0.033179877632891097 0 -0.13460564055411489 0.01723703355858653 0 -0.1467564914265658 0.025061264112791169 0 -0.13460564055411489 0.01723703355858653 0 -0.1467564914265658 0.025061264112791169 0 -0.15542372099760421 0.0119454102405231 0 -0.1467564914265658 0.025061264112791169 0 -0.15542372099760421 0.0119454102405231 0 -0.1605593881585633 0.033401352669864208 0 -0.13460564055411489 0.01723703355858653 0 -0.15542372099760421 0.0119454102405231 0 -0.1433170204333889 0.0042533116210359059 0 -0.15542372099760421 0.0119454102405231 0 -0.1433170204333889 0.0042533116210359059 0 -0.1564869492866878 -0.00059129627401754796 0 -0.15542372099760421 0.0119454102405231 0 -0.1433170204333889 0.0042533116210359059 0 -0.15542372099760421 0.0119454102405231 0 -0.17947695511209899 0.027227843959349921 0 -0.17208342559322409 0.0058404778805985873 0 -0.1564869492866878 -0.00059129627401754796 0 -0.15542372099760421 0.0119454102405231 0 -0.17208342559322409 0.0058404778805985873 0 -0.15542372099760421 0.0119454102405231 0 -0.17947695511209899 0.027227843959349921 0 -0.1605593881585633 0.033401352669864208 0 -0.15542372099760421 0.0119454102405231 0 -0.17947695511209899 0.027227843959349921 0 -0.18418091461086311 -0.0067458590849352237 0 -0.17208342559322409 0.0058404778805985873 0 -0.19246094727398991 0.01350162855121731 0 -0.17947695511209899 0.027227843959349921 0 -0.17208342559322409 0.0058404778805985873 0 -0.19246094727398991 0.01350162855121731 0 -0.1756345505012066 0.070889783495268699 0 -0.16223695238926561 0.052594200190125132 0 -0.17613580050465499 0.044635678822247941 0 -0.16223695238926561 0.052594200190125132 0 -0.1605593881585633 0.033401352669864208 0 -0.17613580050465499 0.044635678822247941 0 -0.17947695511209899 0.027227843959349921 0 -0.17613580050465499 0.044635678822247941 0 -0.19053419445951161 0.052610770621845292 0 -0.17947695511209899 0.027227843959349921 0 -0.1605593881585633 0.033401352669864208 0 -0.17613580050465499 0.044635678822247941 0 -0.1756345505012066 0.070889783495268699 0 -0.17613580050465499 0.044635678822247941 0 -0.1756345505012066 0.070889783495268699 0 -0.17613580050465499 0.044635678822247941 0 -0.19053419445951161 0.052610770621845292 0 -0.20353018922659619 0.042510277678173593 0 -0.19612483249420401 0.068091746174319415 0 -0.19053419445951161 0.052610770621845292 0 -0.20353018922659619 0.042510277678173593 0 -0.19612483249420401 0.068091746174319415 0 -0.17947695511209899 0.027227843959349921 0 -0.20353018922659619 0.042510277678173593 0 -0.17947695511209899 0.027227843959349921 0 -0.19053419445951161 0.052610770621845292 0 -0.20353018922659619 0.042510277678173593 0 -0.20353018922659619 0.042510277678173593 0 -0.21955159654467851 0.052689619643397433 0 -0.22113039192623851 0.032431486205985689 0 -0.20353018922659619 0.042510277678173593 0 -0.2127216369241372 0.066942535097736622 0 -0.19612483249420401 0.068091746174319415 0 -0.20353018922659619 0.042510277678173593 0 -0.21955159654467851 0.052689619643397433 0 -0.20353018922659619 0.042510277678173593 0 -0.21955159654467851 0.052689619643397433 0 -0.2127216369241372 0.066942535097736622 0 -0.2008908429601583 -0.001101000049535744 0 -0.19246094727398991 0.01350162855121731 0 -0.21117588750041991 0.016098560242972841 0 -0.18418091461086311 -0.0067458590849352237 0 -0.2008908429601583 -0.001101000049535744 0 -0.19246094727398991 0.01350162855121731 0 -0.17947695511209899 0.027227843959349921 0 -0.20353018922659619 0.042510277678173593 0 -0.19246094727398991 0.01350162855121731 0 -0.20353018922659619 0.042510277678173593 0 -0.19246094727398991 0.01350162855121731 0 -0.21117588750041991 0.016098560242972841 0 -0.20353018922659619 0.042510277678173593 0 -0.21117588750041991 0.016098560242972841 0 -0.22113039192623851 0.032431486205985689 0 -0.20353018922659619 0.042510277678173593 0 -0.21117588750041991 0.016098560242972841 0 -0.21882158577424271 -0.0103131571922281 0 -0.21117588750041991 0.016098560242972841 0 -0.2008908429601583 -0.001101000049535744 0 -0.21882158577424271 -0.0103131571922281 0 -0.21117588750041991 0.016098560242972841 0 -0.21882158577424271 -0.0103131571922281 0 -0.21117588750041991 0.016098560242972841 0 -0.23546354233931949 0.0078270751002715265 0 -0.23546354233931949 0.0078270751002715265 0 -0.22113039192623851 0.032431486205985689 0 -0.24192231969137759 0.032530148466345048 0 -0.21117588750041991 0.016098560242972841 0 -0.23546354233931949 0.0078270751002715265 0 -0.22113039192623851 0.032431486205985689 0 -0.26249405175029211 0.007662734938978108 0 -0.23546354233931949 0.0078270751002715265 0 -0.24192231969137759 0.032530148466345048 0 -0.21955159654467851 0.052689619643397433 0 -0.235573003862763 0.062868961608618018 0 -0.21955159654467851 0.052689619643397433 0 -0.235573003862763 0.062868961608618018 0 -0.2127216369241372 0.066942535097736622 0 -0.21955159654467851 0.052689619643397433 0 -0.24450296286368231 0.049373315754277197 0 -0.235573003862763 0.062868961608618018 0 -0.21955159654467851 0.052689619643397433 0 -0.22113039192623851 0.032431486205985689 0 -0.24192231969137759 0.032530148466345048 0 -0.21955159654467851 0.052689619643397433 0 -0.24192231969137759 0.032530148466345048 0 -0.24450296286368231 0.049373315754277197 0 -0.2559826395353394 0.061597363551489349 0 -0.24450296286368231 0.049373315754277197 0 -0.235573003862763 0.062868961608618018 0 -0.2559826395353394 0.061597363551489349 0 -0.235573003862763 0.062868961608618018 0 -0.24672703352553629 0.080158677613093823 0 -0.235573003862763 0.062868961608618018 0 -0.24672703352553629 0.080158677613093823 0 -0.2291931736768115 0.079240865998811236 0 -0.24672703352553629 0.080158677613093823 0 -0.2291931736768115 0.079240865998811236 0 -0.23621836434907981 0.095400964388867249 0 -0.25734245126200062 0.1014160866788785 0 -0.24672703352553629 0.080158677613093823 0 -0.23621836434907981 0.095400964388867249 0 -0.2291931736768115 0.079240865998811236 0 -0.21482055865464289 0.083254774020096164 0 -0.2224133943648228 0.095863443882093446 0 -0.2291931736768115 0.079240865998811236 0 -0.2224133943648228 0.095863443882093446 0 -0.23621836434907981 0.095400964388867249 0 -0.235573003862763 0.062868961608618018 0 -0.2291931736768115 0.079240865998811236 0 -0.2127216369241372 0.066942535097736622 0 -0.2291931736768115 0.079240865998811236 0 -0.2127216369241372 0.066942535097736622 0 -0.21482055865464289 0.083254774020096164 0 -0.2127216369241372 0.066942535097736622 0 -0.21482055865464289 0.083254774020096164 0 -0.203099952488771 0.082051867707200909 0 -0.2127216369241372 0.066942535097736622 0 -0.203099952488771 0.082051867707200909 0 -0.19612483249420401 0.068091746174319415 0 -0.21482055865464289 0.083254774020096164 0 -0.203099952488771 0.082051867707200909 0 -0.20375886312158339 0.098403164090322431 0 -0.21482055865464289 0.083254774020096164 0 -0.20375886312158339 0.098403164090322431 0 -0.2224133943648228 0.095863443882093446 0 -0.203099952488771 0.082051867707200909 0 -0.18871947576181089 0.093673214670465021 0 -0.19612483249420401 0.068091746174319415 0 -0.203099952488771 0.082051867707200909 0 -0.18871947576181089 0.093673214670465021 0 -0.20375886312158339 0.098403164090322431 0 -0.18871947576181089 0.093673214670465021 0 -0.19612483249420401 0.068091746174319415 0 -0.18131411902941769 0.11925468316661041 0 -0.19892457962824481 0.1205653340059829 0 -0.19516396372389291 0.10855896077987801 0 -0.19892457962824481 0.1205653340059829 0 -0.19516396372389291 0.10855896077987801 0 -0.2064149638336307 0.1103678524700213 0 -0.18131411902941769 0.11925468316661041 0 -0.18871947576181089 0.093673214670465021 0 -0.19516396372389291 0.10855896077987801 0 -0.18871947576181089 0.093673214670465021 0 -0.19516396372389291 0.10855896077987801 0 -0.20375886312158339 0.098403164090322431 0 -0.19516396372389291 0.10855896077987801 0 -0.20375886312158339 0.098403164090322431 0 -0.2064149638336307 0.1103678524700213 0 -0.20375886312158339 0.098403164090322431 0 -0.21522430961498251 0.1066047727861448 0 -0.2064149638336307 0.1103678524700213 0 -0.20375886312158339 0.098403164090322431 0 -0.21522430961498251 0.1066047727861448 0 -0.2224133943648228 0.095863443882093446 0 -0.19892457962824481 0.1205653340059829 0 -0.2064149638336307 0.1103678524700213 0 -0.22321710876218179 0.117732675170656 0 -0.19892457962824481 0.1205653340059829 0 -0.22321710876218179 0.117732675170656 0 -0.21198243415042209 0.1273270768851994 0 -0.19892457962824481 0.1205653340059829 0 -0.22321710876218179 0.117732675170656 0 -0.21522430961498251 0.1066047727861448 0 -0.2064149638336307 0.1103678524700213 0 -0.22321710876218179 0.117732675170656 0 -0.22321710876218179 0.117732675170656 0 -0.22699489982736379 0.11729216141517949 0 -0.22321710876218179 0.117732675170656 0 -0.22699489982736379 0.11729216141517949 0 -0.22407622611686431 0.1086811689817279 0 -0.21522430961498251 0.1066047727861448 0 -0.22321710876218179 0.117732675170656 0 -0.21522430961498251 0.1066047727861448 0 -0.22321710876218179 0.117732675170656 0 -0.22407622611686431 0.1086811689817279 0 -0.22699489982736379 0.11729216141517949 0 -0.22407622611686431 0.1086811689817279 0 -0.23779668997176759 0.1099640720218579 0 -0.21522430961498251 0.1066047727861448 0 -0.2224133943648228 0.095863443882093446 0 -0.22407622611686431 0.1086811689817279 0 -0.22407622611686431 0.1086811689817279 0 -0.23621836434907981 0.095400964388867249 0 -0.23779668997176759 0.1099640720218579 0 -0.2224133943648228 0.095863443882093446 0 -0.22407622611686431 0.1086811689817279 0 -0.23621836434907981 0.095400964388867249 0 -0.25734245126200062 0.1014160866788785 0 -0.23621836434907981 0.095400964388867249 0 -0.23779668997176759 0.1099640720218579 0 -0.25734245126200062 0.1014160866788785 0 -0.23779668997176759 0.1099640720218579 0 -0.24895710550971339 0.12165530893482571 0 -0.2385801137665676 0.122701518390659 0 -0.23779668997176759 0.1099640720218579 0 -0.24895710550971339 0.12165530893482571 0 -0.22699489982736379 0.11729216141517949 0 -0.2385801137665676 0.122701518390659 0 -0.23779668997176759 0.1099640720218579 0 -0.22699489982736379 0.11729216141517949 0 -0.2385801137665676 0.122701518390659 0 -0.2405717597574257 0.1418945311907728 0 -0.2385801137665676 0.122701518390659 0 -0.24895710550971339 0.12165530893482571 0 -0.2405717597574257 0.1418945311907728 0 -0.25608290515330878 0.14176455504424121 0 -0.24895710550971339 0.12165530893482571 0 -0.2405717597574257 0.1418945311907728 0 -0.24895710550971339 0.12165530893482571 0 -0.2405717597574257 0.1418945311907728 0 -0.22321710876218179 0.117732675170656 0 -0.22354757195218369 0.13155214617265881 0 -0.2405717597574257 0.1418945311907728 0 -0.22321710876218179 0.117732675170656 0 -0.22699489982736379 0.11729216141517949 0 -0.2405717597574257 0.1418945311907728 0 -0.22321710876218179 0.117732675170656 0 -0.2405717597574257 0.1418945311907728 0 -0.22354757195218369 0.13155214617265881 0 -0.22866128532361621 0.14153149423513051 0 -0.2405717597574257 0.1418945311907728 0 -0.21878746546912231 0.1392010645796998 0 -0.22354757195218369 0.13155214617265881 0 -0.22866128532361621 0.14153149423513051 0 -0.21878746546912231 0.1392010645796998 0 -0.22354757195218369 0.13155214617265881 0 -0.2159650745918322 0.13357921232561451 0 -0.22321710876218179 0.117732675170656 0 -0.22354757195218369 0.13155214617265881 0 -0.21198243415042209 0.1273270768851994 0 -0.22866128532361621 0.14153149423513051 0 -0.2405717597574257 0.1418945311907728 0 -0.23379856030635021 0.15824260950785349 0 -0.2220979066771098 0.14976549412664819 0 -0.22866128532361621 0.14153149423513051 0 -0.23379856030635021 0.15824260950785349 0 -0.2220979066771098 0.14976549412664819 0 -0.23379856030635021 0.15824260950785349 0 -0.21909321543322929 0.1606009590281276 0 -0.21878746546912231 0.1392010645796998 0 -0.2220979066771098 0.14976549412664819 0 -0.22866128532361621 0.14153149423513051 0 -0.25072842261960387 0.15603505327837411 0 -0.2405717597574257 0.1418945311907728 0 -0.23379856030635021 0.15824260950785349 0 -0.2405717597574257 0.1418945311907728 0 -0.23379856030635021 0.15824260950785349 0 -0.25072842261960387 0.15603505327837411 0 -0.25608290515330878 0.14176455504424121 0 -0.2405717597574257 0.1418945311907728 0 -0.25072842261960387 0.15603505327837411 0 -0.2405717597574257 0.1418945311907728 0 -0.24346313069296871 0.16633892637512099 0 -0.22702536085527411 0.17459068782493389 0 -0.23379856030635021 0.15824260950785349 0 -0.25072842261960387 0.15603505327837411 0 -0.24346313069296871 0.16633892637512099 0 -0.23379856030635021 0.15824260950785349 0 -0.24593749817207319 0.17922101447869401 0 -0.22702536085527411 0.17459068782493389 0 -0.23531355475386351 0.19206411553567329 0 -0.24346313069296871 0.16633892637512099 0 -0.24593749817207319 0.17922101447869401 0 -0.22702536085527411 0.17459068782493389 0 -0.22702536085527411 0.17459068782493389 0 -0.23531355475386351 0.19206411553567329 0 -0.21668486691279551 0.1896349297876268 0 -0.22702536085527411 0.17459068782493389 0 -0.21909321543322929 0.1606009590281276 0 -0.21078083849551829 0.1734645188772713 0 -0.22702536085527411 0.17459068782493389 0 -0.23379856030635021 0.15824260950785349 0 -0.22702536085527411 0.17459068782493389 0 -0.23379856030635021 0.15824260950785349 0 -0.21909321543322929 0.1606009590281276 0 -0.21909321543322929 0.1606009590281276 0 -0.20917883787537819 0.16210322782447459 0 -0.21014900685323101 0.14925134328242939 0 -0.21909321543322929 0.1606009590281276 0 -0.20917883787537819 0.16210322782447459 0 -0.21078083849551829 0.1734645188772713 0 -0.20917883787537819 0.16210322782447459 0 -0.21078083849551829 0.1734645188772713 0 -0.19690649474481761 0.16930016240990661 0 -0.22702536085527411 0.17459068782493389 0 -0.21078083849551829 0.1734645188772713 0 -0.21668486691279551 0.1896349297876268 0 -0.21078083849551829 0.1734645188772713 0 -0.21668486691279551 0.1896349297876268 0 -0.19675568901559279 0.189567439062066 0 -0.21078083849551829 0.1734645188772713 0 -0.19690649474481761 0.16930016240990661 0 -0.19675568901559279 0.189567439062066 0 -0.19690649474481761 0.16930016240990661 0 -0.19675568901559279 0.189567439062066 0 -0.1806498087268969 0.1809583004820513 0 -0.20917883787537819 0.16210322782447459 0 -0.20149615309500679 0.15718250099910261 0 -0.19690649474481761 0.16930016240990661 0 -0.20149615309500679 0.15718250099910261 0 -0.19690649474481761 0.16930016240990661 0 -0.1900737238031488 0.15648625425656729 0 -0.19690649474481761 0.16930016240990661 0 -0.1900737238031488 0.15648625425656729 0 -0.18329050548046091 0.16641049957591181 0 -0.1900737238031488 0.15648625425656729 0 -0.1892816596668532 0.14729824464464031 0 -0.18348409084234379 0.15060627553684849 0 -0.1900737238031488 0.15648625425656729 0 -0.19814782504055481 0.14911065488519101 0 -0.1892816596668532 0.14729824464464031 0 -0.20149615309500679 0.15718250099910261 0 -0.1900737238031488 0.15648625425656729 0 -0.19814782504055481 0.14911065488519101 0 -0.19814782504055481 0.14911065488519101 0 -0.2022681758196824 0.14167303138421811 0 -0.1943649823155553 0.141902467696427 0 -0.19814782504055481 0.14911065488519101 0 -0.1943649823155553 0.141902467696427 0 -0.1892816596668532 0.14729824464464031 0 -0.1943649823155553 0.141902467696427 0 -0.1892816596668532 0.14729824464464031 0 -0.18843187665971381 0.14117764216521481 0 -0.1943649823155553 0.141902467696427 0 -0.18843187665971381 0.14117764216521481 0 -0.1909929067815555 0.135001194222511 0 -0.18843187665971381 0.14117764216521481 0 -0.1909929067815555 0.135001194222511 0 -0.18421136551585299 0.13733957154214979 0 -0.19892457962824481 0.1205653340059829 0 -0.1909929067815555 0.135001194222511 0 -0.18530606321329801 0.12949084902847491 0 -0.19892457962824481 0.1205653340059829 0 -0.1909929067815555 0.135001194222511 0 -0.20124287374027899 0.13384974139548031 0 -0.2022681758196824 0.14167303138421811 0 -0.1943649823155553 0.141902467696427 0 -0.20124287374027899 0.13384974139548031 0 -0.1943649823155553 0.141902467696427 0 -0.1909929067815555 0.135001194222511 0 -0.20124287374027899 0.13384974139548031 0 -0.2022681758196824 0.14167303138421811 0 -0.20124287374027899 0.13384974139548031 0 -0.20954282679560091 0.1362365616649002 0 -0.20124287374027899 0.13384974139548031 0 -0.20954282679560091 0.1362365616649002 0 -0.21198243415042209 0.1273270768851994 0 -0.19892457962824481 0.1205653340059829 0 -0.20124287374027899 0.13384974139548031 0 -0.21198243415042209 0.1273270768851994 0 -0.22354757195218369 0.13155214617265881 0 -0.21198243415042209 0.1273270768851994 0 -0.2159650745918322 0.13357921232561451 0 -0.20954282679560091 0.1362365616649002 0 -0.21198243415042209 0.1273270768851994 0 -0.2159650745918322 0.13357921232561451 0 -0.21878746546912231 0.1392010645796998 0 -0.20954282679560091 0.1362365616649002 0 -0.2159650745918322 0.13357921232561451 0 -0.21878746546912231 0.1392010645796998 0 -0.2220979066771098 0.14976549412664819 0 -0.21014900685323101 0.14925134328242939 0 -0.21878746546912231 0.1392010645796998 0 -0.20954282679560091 0.1362365616649002 0 -0.21014900685323101 0.14925134328242939 0 -0.2220979066771098 0.14976549412664819 0 -0.21909321543322929 0.1606009590281276 0 -0.21014900685323101 0.14925134328242939 0 -0.20149615309500679 0.15718250099910261 0 -0.19814782504055481 0.14911065488519101 0 -0.21014900685323101 0.14925134328242939 0 -0.20917883787537819 0.16210322782447459 0 -0.20149615309500679 0.15718250099910261 0 -0.21014900685323101 0.14925134328242939 0 -0.19814782504055481 0.14911065488519101 0 -0.2022681758196824 0.14167303138421811 0 -0.21014900685323101 0.14925134328242939 0 -0.2022681758196824 0.14167303138421811 0 -0.20954282679560091 0.1362365616649002 0 -0.21014900685323101 0.14925134328242939 0 -0.2254770662958033 0.23770261769940551 0 -0.2355501434136231 0.2478522206023164 0 -0.23301571208005251 0.22631711136445781 0 -0.2254770662958033 0.23770261769940551 0 -0.21946187770755399 0.2272335662722752 0 -0.2144294763495698 0.23954399660221651 0 -0.22222104444170529 0.2467327462878163 0 -0.2254770662958033 0.23770261769940551 0 -0.2144294763495698 0.23954399660221651 0 -0.22222104444170529 0.2467327462878163 0 -0.2254770662958033 0.23770261769940551 0 -0.2355501434136231 0.2478522206023164 0 -0.25210514226647263 0.23555423440704959 0 -0.2355501434136231 0.2478522206023164 0 -0.2466801300010773 0.2452604621424746 0 -0.2355501434136231 0.2478522206023164 0 -0.248734035528067 0.22266264303674471 0 -0.25210514226647263 0.23555423440704959 0 -0.2355501434136231 0.2478522206023164 0 -0.248734035528067 0.22266264303674471 0 -0.23310158204141429 0.25640081827561029 0 -0.2355501434136231 0.2478522206023164 0 -0.2466801300010773 0.2452604621424746 0 -0.25210514226647263 0.23555423440704959 0 -0.2466801300010773 0.2452604621424746 0 -0.25054816238852479 0.24059870715785611 0 -0.25210514226647263 0.23555423440704959 0 -0.2466801300010773 0.2452604621424746 0 -0.25272816581491458 0.21503132644266379 0 -0.23589780562791721 0.22466705357138941 0 -0.2355501434136231 0.2478522206023164 0 -0.23589780562791721 0.22466705357138941 0 -0.23301571208005251 0.22631711136445781 0 -0.2355501434136231 0.2478522206023164 0 -0.248734035528067 0.22266264303674471 0 -0.23589780562791721 0.22466705357138941 0 -0.25272816581491458 0.21503132644266379 0 -0.248734035528067 0.22266264303674471 0 -0.23589780562791721 0.22466705357138941 0 -0.248734035528067 0.22266264303674471 0 -0.23589780562791721 0.22466705357138941 0 -0.23589780562791721 0.22466705357138941 0 -0.23301571208005251 0.22631711136445781 0 -0.23589780562791721 0.22466705357138941 0 -0.21946187770755399 0.2272335662722752 0 -0.225888155969557 0.21631124094479351 0 -0.23589780562791721 0.22466705357138941 0 -0.23301571208005251 0.22631711136445781 0 -0.21946187770755399 0.2272335662722752 0 -0.23589780562791721 0.22466705357138941 0 -0.21946187770755399 0.2272335662722752 0 -0.2254770662958033 0.23770261769940551 0 -0.23301571208005251 0.22631711136445781 0 -0.21946187770755399 0.2272335662722752 0 -0.21946187770755399 0.2272335662722752 0 -0.225888155969557 0.21631124094479351 0 -0.2147498456923036 0.21679580952784941 0 -0.225888155969557 0.21631124094479351 0 -0.2163983660951504 0.20664118688365379 0 -0.2147498456923036 0.21679580952784941 0 -0.225888155969557 0.21631124094479351 0 -0.22900898315534271 0.20498679461036609 0 -0.2163983660951504 0.20664118688365379 0 -0.225888155969557 0.21631124094479351 0 -0.22900898315534271 0.20498679461036609 0 -0.23632785610705401 0.21457891752941979 0 -0.23589780562791721 0.22466705357138941 0 -0.225888155969557 0.21631124094479351 0 -0.23632785610705401 0.21457891752941979 0 -0.25272816581491458 0.21503132644266379 0 -0.23632785610705401 0.21457891752941979 0 -0.24165148627456459 0.20791054123727601 0 -0.25272816581491458 0.21503132644266379 0 -0.23589780562791721 0.22466705357138941 0 -0.23632785610705401 0.21457891752941979 0 -0.25462413856064708 0.2114088186030785 0 -0.24165148627456459 0.20791054123727601 0 -0.23531355475386351 0.19206411553567329 0 -0.25272816581491458 0.21503132644266379 0 -0.25462413856064708 0.2114088186030785 0 -0.24165148627456459 0.20791054123727601 0 -0.22900898315534271 0.20498679461036609 0 -0.23632785610705401 0.21457891752941979 0 -0.24165148627456459 0.20791054123727601 0 -0.25193880530206408 0.19370481573741441 0 -0.24593749817207319 0.17922101447869401 0 -0.23531355475386351 0.19206411553567329 0 -0.25462413856064708 0.2114088186030785 0 -0.23531355475386351 0.19206411553567329 0 -0.25193880530206408 0.19370481573741441 0 -0.25462413856064708 0.2114088186030785 0 -0.23531355475386351 0.19206411553567329 0 -0.22900898315534271 0.20498679461036609 0 -0.24165148627456459 0.20791054123727601 0 -0.23531355475386351 0.19206411553567329 0 -0.22900898315534271 0.20498679461036609 0 -0.21668486691279551 0.1896349297876268 0 -0.2163983660951504 0.20664118688365379 0 -0.22900898315534271 0.20498679461036609 0 -0.23531355475386351 0.19206411553567329 0 -0.21668486691279551 0.1896349297876268 0 -0.21668486691279551 0.1896349297876268 0 -0.20588600075920099 0.20051631774142969 0 -0.2163983660951504 0.20664118688365379 0 -0.21668486691279551 0.1896349297876268 0 -0.20588600075920099 0.20051631774142969 0 -0.19675568901559279 0.189567439062066 0 -0.20588600075920099 0.20051631774142969 0 -0.19675568901559279 0.189567439062066 0 -0.1872373767624223 0.2114249087681892 0 -0.20588600075920099 0.20051631774142969 0 -0.203925412238775 0.2130566048024192 0 -0.1872373767624223 0.2114249087681892 0 -0.203925412238775 0.2130566048024192 0 -0.20302594978719091 0.22980007897316179 0 -0.1872373767624223 0.2114249087681892 0 -0.20588600075920099 0.20051631774142969 0 -0.203925412238775 0.2130566048024192 0 -0.2163983660951504 0.20664118688365379 0 -0.203925412238775 0.2130566048024192 0 -0.2163983660951504 0.20664118688365379 0 -0.2147498456923036 0.21679580952784941 0 -0.21946187770755399 0.2272335662722752 0 -0.20302594978719091 0.22980007897316179 0 -0.2144294763495698 0.23954399660221651 0 -0.21946187770755399 0.2272335662722752 0 -0.20302594978719091 0.22980007897316179 0 -0.21946187770755399 0.2272335662722752 0 -0.2147498456923036 0.21679580952784941 0 -0.20302594978719091 0.22980007897316179 0 -0.203925412238775 0.2130566048024192 0 -0.2147498456923036 0.21679580952784941 0 -0.20302594978719091 0.22980007897316179 0 -0.20302594978719091 0.22980007897316179 0 -0.1861179612628448 0.23220845709977719 0 -0.1872373767624223 0.2114249087681892 0 -0.18859670902218051 0.25052543551881717 0 -0.20132404028626799 0.2438270423260239 0 -0.1861179612628448 0.23220845709977719 0 -0.20302594978719091 0.22980007897316179 0 -0.20132404028626799 0.2438270423260239 0 -0.1861179612628448 0.23220845709977719 0 -0.21371201764358261 0.25214650866738469 0 -0.20132404028626799 0.2438270423260239 0 -0.2144294763495698 0.23954399660221651 0 -0.20302594978719091 0.22980007897316179 0 -0.20132404028626799 0.2438270423260239 0 -0.2144294763495698 0.23954399660221651 0 -0.21371201764358261 0.25214650866738469 0 -0.22222104444170529 0.2467327462878163 0 -0.2144294763495698 0.23954399660221651 0 -0.1613020889038615 0.23837444865205379 0 -0.1765110772481347 0.2431385849621667 0 -0.17254032084098081 0.22750047358122369 0 -0.1593990608277665 0.26226189644582071 0 -0.1613020889038615 0.23837444865205379 0 -0.1765110772481347 0.2431385849621667 0 -0.18859670902218051 0.25052543551881717 0 -0.1765110772481347 0.2431385849621667 0 -0.1861179612628448 0.23220845709977719 0 -0.17254032084098081 0.22750047358122369 0 -0.1861179612628448 0.23220845709977719 0 -0.1872373767624223 0.2114249087681892 0 -0.1765110772481347 0.2431385849621667 0 -0.17254032084098081 0.22750047358122369 0 -0.1861179612628448 0.23220845709977719 0 -0.1613020889038615 0.23837444865205379 0 -0.17254032084098081 0.22750047358122369 0 -0.16320511697995649 0.2144870008582867 0 -0.1613020889038615 0.23837444865205379 0 -0.16320511697995649 0.2144870008582867 0 -0.1529468832891846 0.22419885760078639 0 -0.1613020889038615 0.23837444865205379 0 -0.16320511697995649 0.2144870008582867 0 -0.16320511697995649 0.2144870008582867 0 -0.1872373767624223 0.2114249087681892 0 -0.17633970375998559 0.20030682361007979 0 -0.17254032084098081 0.22750047358122369 0 -0.16320511697995649 0.2144870008582867 0 -0.1872373767624223 0.2114249087681892 0 -0.19675568901559279 0.189567439062066 0 -0.17633970375998559 0.20030682361007979 0 -0.1806498087268969 0.1809583004820513 0 -0.19675568901559279 0.189567439062066 0 -0.1872373767624223 0.2114249087681892 0 -0.17633970375998559 0.20030682361007979 0 -0.17633970375998559 0.20030682361007979 0 -0.16510814505605159 0.19059955306451951 0 -0.1806498087268969 0.1809583004820513 0 -0.16320511697995649 0.2144870008582867 0 -0.16510814505605159 0.19059955306451951 0 -0.16320511697995649 0.2144870008582867 0 -0.17633970375998559 0.20030682361007979 0 -0.16510814505605159 0.19059955306451951 0 -0.16320511697995649 0.2144870008582867 0 -0.16510814505605159 0.19059955306451951 0 -0.15189646247486119 0.19678216421774269 0 -0.15189646247486119 0.19678216421774269 0 -0.1348313290251755 0.19391948141146001 0 -0.14981517013628179 0.1764661855652461 0 -0.15189646247486119 0.19678216421774269 0 -0.1348313290251755 0.19391948141146001 0 -0.1465225511768404 0.20843860018920141 0 -0.16510814505605159 0.19059955306451951 0 -0.15189646247486119 0.19678216421774269 0 -0.14981517013628179 0.1764661855652461 0 -0.1348313290251755 0.19391948141146001 0 -0.1252468427212147 0.2168953735999099 0 -0.1203089118816133 0.20055052938219861 0 -0.1348313290251755 0.19391948141146001 0 -0.1252468427212147 0.2168953735999099 0 -0.1465225511768404 0.20843860018920141 0 -0.16320511697995649 0.2144870008582867 0 -0.1465225511768404 0.20843860018920141 0 -0.1529468832891846 0.22419885760078639 0 -0.16320511697995649 0.2144870008582867 0 -0.15189646247486119 0.19678216421774269 0 -0.1465225511768404 0.20843860018920141 0 -0.1465225511768404 0.20843860018920141 0 -0.14075777609607981 0.2354953807036036 0 -0.1465225511768404 0.20843860018920141 0 -0.1529468832891846 0.22419885760078639 0 -0.14075777609607981 0.2354953807036036 0 -0.1613020889038615 0.23837444865205379 0 -0.1529468832891846 0.22419885760078639 0 -0.14075777609607981 0.2354953807036036 0 -0.1252468427212147 0.2168953735999099 0 -0.1465225511768404 0.20843860018920141 0 -0.14075777609607981 0.2354953807036036 0 -0.1252468427212147 0.2168953735999099 0 -0.14075777609607981 0.2354953807036036 0 -0.11832329044822951 0.24304604882281969 0 -0.1349930010153193 0.26255216121800568 0 -0.14075777609607981 0.2354953807036036 0 -0.1349930010153193 0.26255216121800568 0 -0.14075777609607981 0.2354953807036036 0 -0.11832329044822951 0.24304604882281969 0 -0.1349930010153193 0.26255216121800568 0 -0.14075777609607981 0.2354953807036036 0 -0.14911298171075679 0.24967097175487091 0 -0.1613020889038615 0.23837444865205379 0 -0.14075777609607981 0.2354953807036036 0 -0.14911298171075679 0.24967097175487091 0 -0.1662144153725649 0.14970975453020571 0 -0.1667765488875127 0.13812225091292091 0 -0.17427879965612819 0.14190030589397651 0 -0.1662144153725649 0.14970975453020571 0 -0.15453424001036289 0.15945434353378279 0 -0.15202557664741981 0.14720865995561999 0 -0.1662144153725649 0.14970975453020571 0 -0.15911751616331751 0.1391979048316449 0 -0.15202557664741981 0.14720865995561999 0 -0.1662144153725649 0.14970975453020571 0 -0.15911751616331751 0.1391979048316449 0 -0.1667765488875127 0.13812225091292091 0 -0.15911751616331751 0.1391979048316449 0 -0.1598554046101329 0.12512104095579701 0 -0.1667765488875127 0.13812225091292091 0 -0.15911751616331751 0.1391979048316449 0 -0.1598554046101329 0.12512104095579701 0 -0.1500033633973421 0.13584755301834109 0 -0.1598554046101329 0.12512104095579701 0 -0.1667765488875127 0.13812225091292091 0 -0.1744166086354216 0.1346822483529781 0 -0.17463205049430791 0.1233979928413103 0 -0.1598554046101329 0.12512104095579701 0 -0.1744166086354216 0.1346822483529781 0 -0.1598554046101329 0.12512104095579701 0 -0.1744166086354216 0.1346822483529781 0 -0.1667765488875127 0.13812225091292091 0 -0.1744166086354216 0.1346822483529781 0 -0.17427879965612819 0.14190030589397651 0 -0.1744166086354216 0.1346822483529781 0 -0.17427879965612819 0.14190030589397651 0 -0.1744166086354216 0.1346822483529781 0 -0.17777111929803571 0.13688489396563699 0 -0.17427879965612819 0.14190030589397651 0 -0.1744166086354216 0.1346822483529781 0 -0.17777111929803571 0.13688489396563699 0 -0.1744166086354216 0.1346822483529781 0 -0.17777111929803571 0.13688489396563699 0 -0.1798721579770142 0.13261044405125519 0 -0.17777111929803571 0.13688489396563699 0 -0.17908323016457489 0.14155253666455231 0 -0.17427879965612819 0.14190030589397651 0 -0.17463205049430791 0.1233979928413103 0 -0.1744166086354216 0.1346822483529781 0 -0.1798721579770142 0.13261044405125519 0 -0.17463205049430791 0.1233979928413103 0 -0.1744166086354216 0.1346822483529781 0 -0.17463205049430791 0.1233979928413103 0 -0.18530606321329801 0.12949084902847491 0 -0.1798721579770142 0.13261044405125519 0 -0.1909929067815555 0.135001194222511 0 -0.18530606321329801 0.12949084902847491 0 -0.18421136551585299 0.13733957154214979 0 -0.18530606321329801 0.12949084902847491 0 -0.1798721579770142 0.13261044405125519 0 -0.18421136551585299 0.13733957154214979 0 -0.17777111929803571 0.13688489396563699 0 -0.18421136551585299 0.13733957154214979 0 -0.17908323016457489 0.14155253666455231 0 -0.17777111929803571 0.13688489396563699 0 -0.1798721579770142 0.13261044405125519 0 -0.18421136551585299 0.13733957154214979 0 -0.1892816596668532 0.14729824464464031 0 -0.18843187665971381 0.14117764216521481 0 -0.183308469018752 0.14434673272034601 0 -0.18843187665971381 0.14117764216521481 0 -0.18421136551585299 0.13733957154214979 0 -0.183308469018752 0.14434673272034601 0 -0.1892816596668532 0.14729824464464031 0 -0.183308469018752 0.14434673272034601 0 -0.18348409084234379 0.15060627553684849 0 -0.183308469018752 0.14434673272034601 0 -0.1769770860414964 0.14813931566199959 0 -0.18348409084234379 0.15060627553684849 0 -0.183308469018752 0.14434673272034601 0 -0.17908323016457489 0.14155253666455231 0 -0.1769770860414964 0.14813931566199959 0 -0.18421136551585299 0.13733957154214979 0 -0.183308469018752 0.14434673272034601 0 -0.17908323016457489 0.14155253666455231 0 -0.1662144153725649 0.14970975453020571 0 -0.1769770860414964 0.14813931566199959 0 -0.17427879965612819 0.14190030589397651 0 -0.17908323016457489 0.14155253666455231 0 -0.1769770860414964 0.14813931566199959 0 -0.17427879965612819 0.14190030589397651 0 -0.1662144153725649 0.14970975453020571 0 -0.1769770860414964 0.14813931566199959 0 -0.17777951568146841 0.15676083040068911 0 -0.1769770860414964 0.14813931566199959 0 -0.18348409084234379 0.15060627553684849 0 -0.17777951568146841 0.15676083040068911 0 -0.1900737238031488 0.15648625425656729 0 -0.18348409084234379 0.15060627553684849 0 -0.17777951568146841 0.15676083040068911 0 -0.18329050548046091 0.16641049957591181 0 -0.1806498087268969 0.1809583004820513 0 -0.16701117313214661 0.16671210527075239 0 -0.18329050548046091 0.16641049957591181 0 -0.17777951568146841 0.15676083040068911 0 -0.16701117313214661 0.16671210527075239 0 -0.1900737238031488 0.15648625425656729 0 -0.18329050548046091 0.16641049957591181 0 -0.17777951568146841 0.15676083040068911 0 -0.19690649474481761 0.16930016240990661 0 -0.18329050548046091 0.16641049957591181 0 -0.1806498087268969 0.1809583004820513 0 -0.16510814505605159 0.19059955306451951 0 -0.16701117313214661 0.16671210527075239 0 -0.16510814505605159 0.19059955306451951 0 -0.1806498087268969 0.1809583004820513 0 -0.16701117313214661 0.16671210527075239 0 -0.16510814505605159 0.19059955306451951 0 -0.16701117313214661 0.16671210527075239 0 -0.14981517013628179 0.1764661855652461 0 -0.1662144153725649 0.14970975453020571 0 -0.16701117313214661 0.16671210527075239 0 -0.15453424001036289 0.15945434353378279 0 -0.1662144153725649 0.14970975453020571 0 -0.17777951568146841 0.15676083040068911 0 -0.16701117313214661 0.16671210527075239 0 -0.16701117313214661 0.16671210527075239 0 -0.15453424001036289 0.15945434353378279 0 -0.14981517013628179 0.1764661855652461 0 -0.14981517013628179 0.1764661855652461 0 -0.13268914273538329 0.1750509562650924 0 -0.1400456084615111 0.15909886324928099 0 -0.15453424001036289 0.15945434353378279 0 -0.14981517013628179 0.1764661855652461 0 -0.1400456084615111 0.15909886324928099 0 -0.1348313290251755 0.19391948141146001 0 -0.13268914273538329 0.1750509562650924 0 -0.1144809389531023 0.1869767666301351 0 -0.1348313290251755 0.19391948141146001 0 -0.14981517013628179 0.1764661855652461 0 -0.13268914273538329 0.1750509562650924 0 -0.1400456084615111 0.15909886324928099 0 -0.12711493411718411 0.1494661060528254 0 -0.1194513481457689 0.1635609988765839 0 -0.13268914273538329 0.1750509562650924 0 -0.1400456084615111 0.15909886324928099 0 -0.1194513481457689 0.1635609988765839 0 -0.1400456084615111 0.15909886324928099 0 -0.12711493411718411 0.1494661060528254 0 -0.1393467656979451 0.14225431360183649 0 -0.12711493411718411 0.1494661060528254 0 -0.1393467656979451 0.14225431360183649 0 -0.12653041952395039 0.1354161737842513 0 -0.1400456084615111 0.15909886324928099 0 -0.1393467656979451 0.14225431360183649 0 -0.15202557664741981 0.14720865995561999 0 -0.1393467656979451 0.14225431360183649 0 -0.15202557664741981 0.14720865995561999 0 -0.1500033633973421 0.13584755301834109 0 -0.15911751616331751 0.1391979048316449 0 -0.15202557664741981 0.14720865995561999 0 -0.1500033633973421 0.13584755301834109 0 -0.15453424001036289 0.15945434353378279 0 -0.1400456084615111 0.15909886324928099 0 -0.15202557664741981 0.14720865995561999 0 -0.1598554046101329 0.12512104095579701 0 -0.1500033633973421 0.13584755301834109 0 -0.13922952195075211 0.12752614618091959 0 -0.1598554046101329 0.12512104095579701 0 -0.13922952195075211 0.12752614618091959 0 -0.1393467656979451 0.14225431360183649 0 -0.1500033633973421 0.13584755301834109 0 -0.13922952195075211 0.12752614618091959 0 -0.13074244959953979 0.11946175785799951 0 -0.13922952195075211 0.12752614618091959 0 -0.12653041952395039 0.1354161737842513 0 -0.1393467656979451 0.14225431360183649 0 -0.13922952195075211 0.12752614618091959 0 -0.12653041952395039 0.1354161737842513 0 -0.12653041952395039 0.1354161737842513 0 -0.11549744085296181 0.12506595749432459 0 -0.1072514049253199 0.14872276151760261 0 -0.13074244959953979 0.11946175785799951 0 -0.12653041952395039 0.1354161737842513 0 -0.11549744085296181 0.12506595749432459 0 -0.11549744085296181 0.12506595749432459 0 -0.1072514049253199 0.14872276151760261 0 -0.11549744085296181 0.12506595749432459 0 -0.097351596905396909 0.1366011738647028 0 -0.095157466154961498 0.1222738246889692 0 -0.11549744085296181 0.12506595749432459 0 -0.097351596905396909 0.1366011738647028 0 -0.1072514049253199 0.14872276151760261 0 -0.097351596905396909 0.1366011738647028 0 -0.1072514049253199 0.14872276151760261 0 -0.095429287301162569 0.1538271060288352 0 -0.12711493411718411 0.1494661060528254 0 -0.12653041952395039 0.1354161737842513 0 -0.1072514049253199 0.14872276151760261 0 -0.12711493411718411 0.1494661060528254 0 -0.1072514049253199 0.14872276151760261 0 -0.1194513481457689 0.1635609988765839 0 -0.1194513481457689 0.1635609988765839 0 -0.1144809389531023 0.1869767666301351 0 -0.099005368997678006 0.1723795655408806 0 -0.13268914273538329 0.1750509562650924 0 -0.1194513481457689 0.1635609988765839 0 -0.1144809389531023 0.1869767666301351 0 -0.1144809389531023 0.1869767666301351 0 -0.099005368997678006 0.1723795655408806 0 -0.0907593330700361 0.19603636956415871 0 -0.099005368997678006 0.1723795655408806 0 -0.0907593330700361 0.19603636956415871 0 -0.1072514049253199 0.14872276151760261 0 -0.1194513481457689 0.1635609988765839 0 -0.099005368997678006 0.1723795655408806 0 -0.1072514049253199 0.14872276151760261 0 -0.095429287301162569 0.1538271060288352 0 -0.099005368997678006 0.1723795655408806 0 -0.1072514049253199 0.14872276151760261 0 -0.099005368997678006 0.1723795655408806 0 -0.095429287301162569 0.1538271060288352 0 -0.099005368997678006 0.1723795655408806 0 -0.089264976304947813 0.16305913715607981 0 -0.089264976304947813 0.16305913715607981 0 -0.078726297129264447 0.1568051313220773 0 -0.070728802668765189 0.16298784849958539 0 -0.099005368997678006 0.1723795655408806 0 -0.089264976304947813 0.16305913715607981 0 -0.083173158014857834 0.1819778711413477 0 -0.089264976304947813 0.16305913715607981 0 -0.083173158014857834 0.1819778711413477 0 -0.06435517074193417 0.179531982830265 0 -0.099005368997678006 0.1723795655408806 0 -0.083173158014857834 0.1819778711413477 0 -0.0907593330700361 0.19603636956415871 0 -0.083173158014857834 0.1819778711413477 0 -0.06435517074193417 0.179531982830265 0 -0.072480940959693013 0.1988823006153542 0 -0.089264976304947813 0.16305913715607981 0 -0.06435517074193417 0.179531982830265 0 -0.070728802668765189 0.16298784849958539 0 -0.089264976304947813 0.16305913715607981 0 -0.06435517074193417 0.179531982830265 0 -0.06435517074193417 0.179531982830265 0 -0.070728802668765189 0.16298784849958539 0 -0.060817304647522517 0.16063211997463811 0 -0.078726297129264447 0.1568051313220773 0 -0.070728802668765189 0.16298784849958539 0 -0.070638320170874583 0.15280064756773359 0 -0.070728802668765189 0.16298784849958539 0 -0.070638320170874583 0.15280064756773359 0 -0.060817304647522517 0.16063211997463811 0 -0.070638320170874583 0.15280064756773359 0 -0.06050925962069742 0.14933122419088271 0 -0.060817304647522517 0.16063211997463811 0 -0.078726297129264447 0.1568051313220773 0 -0.070638320170874583 0.15280064756773359 0 -0.084273089372470245 0.14837289206491031 0 -0.070638320170874583 0.15280064756773359 0 -0.073986689617270868 0.1403986132245284 0 -0.084273089372470245 0.14837289206491031 0 -0.073986689617270868 0.1403986132245284 0 -0.060395274942560528 0.13416549391068189 0 -0.06050925962069742 0.14933122419088271 0 -0.070638320170874583 0.15280064756773359 0 -0.073986689617270868 0.1403986132245284 0 -0.06050925962069742 0.14933122419088271 0 -0.073986689617270868 0.1403986132245284 0 -0.079964733767734122 0.12668506296934109 0 -0.060395274942560528 0.13416549391068189 0 -0.060395274942560528 0.13416549391068189 0 -0.068008023874607193 0.1194813826226566 0 -0.073986689617270868 0.1403986132245284 0 -0.085757333202322553 0.1342092020786384 0 -0.079964733767734122 0.12668506296934109 0 -0.097351596905396909 0.1366011738647028 0 -0.085757333202322553 0.1342092020786384 0 -0.095157466154961498 0.1222738246889692 0 -0.085757333202322553 0.1342092020786384 0 -0.079964733767734122 0.12668506296934109 0 -0.095157466154961498 0.1222738246889692 0 -0.097351596905396909 0.1366011738647028 0 -0.085757333202322553 0.1342092020786384 0 -0.084273089372470245 0.14837289206491031 0 -0.097351596905396909 0.1366011738647028 0 -0.095429287301162569 0.1538271060288352 0 -0.084273089372470245 0.14837289206491031 0 -0.095429287301162569 0.1538271060288352 0 -0.089264976304947813 0.16305913715607981 0 -0.084273089372470245 0.14837289206491031 0 -0.089264976304947813 0.16305913715607981 0 -0.078726297129264447 0.1568051313220773 0 -0.084273089372470245 0.14837289206491031 0 -0.073986689617270868 0.1403986132245284 0 -0.085757333202322553 0.1342092020786384 0 -0.084273089372470245 0.14837289206491031 0 -0.097135213821017974 0.2450179218164267 0 -0.11832329044822951 0.24304604882281969 0 -0.10188732904743091 0.22416775388930879 0 -0.1252468427212147 0.2168953735999099 0 -0.11832329044822951 0.24304604882281969 0 -0.10188732904743091 0.22416775388930879 0 -0.10188732904743091 0.22416775388930879 0 -0.10553645135762139 0.20639637139721009 0 -0.085647611720234704 0.211582202570961 0 -0.10553645135762139 0.20639637139721009 0 -0.0907593330700361 0.19603636956415871 0 -0.085647611720234704 0.211582202570961 0 -0.1252468427212147 0.2168953735999099 0 -0.10553645135762139 0.20639637139721009 0 -0.1203089118816133 0.20055052938219861 0 -0.1252468427212147 0.2168953735999099 0 -0.10188732904743091 0.22416775388930879 0 -0.10553645135762139 0.20639637139721009 0 -0.1144809389531023 0.1869767666301351 0 -0.10553645135762139 0.20639637139721009 0 -0.1203089118816133 0.20055052938219861 0 -0.1348313290251755 0.19391948141146001 0 -0.1144809389531023 0.1869767666301351 0 -0.1203089118816133 0.20055052938219861 0 -0.1144809389531023 0.1869767666301351 0 -0.10553645135762139 0.20639637139721009 0 -0.0907593330700361 0.19603636956415871 0 -0.083173158014857834 0.1819778711413477 0 -0.0907593330700361 0.19603636956415871 0 -0.072480940959693013 0.1988823006153542 0 -0.0907593330700361 0.19603636956415871 0 -0.072480940959693013 0.1988823006153542 0 -0.085647611720234704 0.211582202570961 0 -0.06435517074193417 0.179531982830265 0 -0.072480940959693013 0.1988823006153542 0 -0.057501641022342467 0.1963435114306189 0 -0.065516926835851183 0.21659017637723951 0 -0.085647611720234704 0.211582202570961 0 -0.078837631547527487 0.22646261886489361 0 -0.072480940959693013 0.1988823006153542 0 -0.065516926835851183 0.21659017637723951 0 -0.085647611720234704 0.211582202570961 0 -0.072480940959693013 0.1988823006153542 0 -0.065516926835851183 0.21659017637723951 0 -0.056774781747103042 0.20807563334730969 0 -0.097135213821017974 0.2450179218164267 0 -0.10188732904743091 0.22416775388930879 0 -0.078837631547527487 0.22646261886489361 0 -0.10188732904743091 0.22416775388930879 0 -0.078837631547527487 0.22646261886489361 0 -0.10188732904743091 0.22416775388930879 0 -0.085647611720234704 0.211582202570961 0 -0.078837631547527487 0.22646261886489361 0 -0.078837631547527487 0.22646261886489361 0 -0.055787934047623812 0.22875748384047651 0 -0.078837631547527487 0.22646261886489361 0 -0.074704152181801681 0.24701770632021169 0 -0.055787934047623812 0.22875748384047651 0 -0.065516926835851183 0.21659017637723951 0 -0.078837631547527487 0.22646261886489361 0 -0.055787934047623812 0.22875748384047651 0 -0.074704152181801681 0.24701770632021169 0 -0.055787934047623812 0.22875748384047651 0 -0.074704152181801681 0.24701770632021169 0 -0.057747386715908428 0.24463041023760571 0 -0.055787934047623812 0.22875748384047651 0 -0.097135213821017974 0.2450179218164267 0 -0.078837631547527487 0.22646261886489361 0 -0.074704152181801681 0.24701770632021169 0 -0.03189830216395443 0.24568919817845219 0 -0.04135776092400012 0.23809779795821551 0 -0.030614146685572802 0.23126382662090891 0 -0.04135776092400012 0.23809779795821551 0 -0.046594812073733123 0.24823599275617891 0 -0.049952252460554 0.2397627017524232 0 -0.03189830216395443 0.24568919817845219 0 -0.04135776092400012 0.23809779795821551 0 -0.046594812073733123 0.24823599275617891 0 -0.046594812073733123 0.24823599275617891 0 -0.057747386715908428 0.24463041023760571 0 -0.049952252460554 0.2397627017524232 0 -0.057747386715908428 0.24463041023760571 0 -0.049952252460554 0.2397627017524232 0 -0.055787934047623812 0.22875748384047651 0 -0.04135776092400012 0.23809779795821551 0 -0.049952252460554 0.2397627017524232 0 -0.055787934047623812 0.22875748384047651 0 -0.055787934047623812 0.22875748384047651 0 -0.052323738254648429 0.22541342291643321 0 -0.065516926835851183 0.21659017637723951 0 -0.055787934047623812 0.22875748384047651 0 -0.054616056031908368 0.21893633417385969 0 -0.055787934047623812 0.22875748384047651 0 -0.052323738254648429 0.22541342291643321 0 -0.042225130782071622 0.22351742659662871 0 -0.054616056031908368 0.21893633417385969 0 -0.052323738254648429 0.22541342291643321 0 -0.049046602241481829 0.2206752111693363 0 -0.052323738254648429 0.22541342291643321 0 -0.049046602241481829 0.2206752111693363 0 -0.042225130782071622 0.22351742659662871 0 -0.055787934047623812 0.22875748384047651 0 -0.054616056031908368 0.21893633417385969 0 -0.052323738254648429 0.22541342291643321 0 -0.055787934047623812 0.22875748384047651 0 -0.042225130782071622 0.22351742659662871 0 -0.030614146685572802 0.23126382662090891 0 -0.055787934047623812 0.22875748384047651 0 -0.030614146685572802 0.23126382662090891 0 -0.049046602241481829 0.2206752111693363 0 -0.042225130782071622 0.22351742659662871 0 -0.047021483897298919 0.2148336609904237 0 -0.04135776092400012 0.23809779795821551 0 -0.055787934047623812 0.22875748384047651 0 -0.030614146685572802 0.23126382662090891 0 -0.042225130782071622 0.22351742659662871 0 -0.035706106933987618 0.212040288753787 0 -0.024813853389476559 0.2211714782904188 0 -0.042225130782071622 0.22351742659662871 0 -0.024813853389476559 0.2211714782904188 0 -0.030614146685572802 0.23126382662090891 0 -0.035706106933987618 0.212040288753787 0 -0.047940973094851513 0.204892605264445 0 -0.039445365178920423 0.19600482850445031 0 -0.035706106933987618 0.212040288753787 0 -0.047021483897298919 0.2148336609904237 0 -0.047940973094851513 0.204892605264445 0 -0.042225130782071622 0.22351742659662871 0 -0.035706106933987618 0.212040288753787 0 -0.047021483897298919 0.2148336609904237 0 -0.054616056031908368 0.21893633417385969 0 -0.049046602241481829 0.2206752111693363 0 -0.047021483897298919 0.2148336609904237 0 -0.054616056031908368 0.21893633417385969 0 -0.047021483897298919 0.2148336609904237 0 -0.056774781747103042 0.20807563334730969 0 -0.065516926835851183 0.21659017637723951 0 -0.054616056031908368 0.21893633417385969 0 -0.056774781747103042 0.20807563334730969 0 -0.047021483897298919 0.2148336609904237 0 -0.056774781747103042 0.20807563334730969 0 -0.047940973094851513 0.204892605264445 0 -0.047940973094851513 0.204892605264445 0 -0.057501641022342467 0.1963435114306189 0 -0.039445365178920423 0.19600482850445031 0 -0.06435517074193417 0.179531982830265 0 -0.039445365178920423 0.19600482850445031 0 -0.072480940959693013 0.1988823006153542 0 -0.056774781747103042 0.20807563334730969 0 -0.057501641022342467 0.1963435114306189 0 -0.056774781747103042 0.20807563334730969 0 -0.047940973094851513 0.204892605264445 0 -0.057501641022342467 0.1963435114306189 0 -0.06435517074193417 0.179531982830265 0 -0.057501641022342467 0.1963435114306189 0 -0.039445365178920423 0.19600482850445031 0 -0.039445365178920423 0.19600482850445031 0 -0.027727343604313569 0.197178151178412 0 -0.038616654050395688 0.17617393208916859 0 -0.039445365178920423 0.19600482850445031 0 -0.027727343604313569 0.197178151178412 0 -0.014535559615906669 0.2124776741786355 0 -0.027727343604313569 0.197178151178412 0 -0.010915521324717001 0.1993315760592379 0 -0.014535559615906669 0.2124776741786355 0 -0.027727343604313569 0.197178151178412 0 -0.010915521324717001 0.1993315760592379 0 -0.020104729349334449 0.1840085448946619 0 -0.027727343604313569 0.197178151178412 0 -0.028750072776026619 0.18228756371234331 0 -0.020104729349334449 0.1840085448946619 0 -0.010915521324717001 0.1993315760592379 0 -0.0058150648891281392 0.18464487058732859 0 0.0047479160901643591 0.19966970600779571 0 -0.010915521324717001 0.1993315760592379 0 -0.020104729349334449 0.1840085448946619 0 -0.0058150648891281392 0.18464487058732859 0 -0.010915521324717001 0.1993315760592379 0 -0.001618838316679704 0.21186515805952549 0 -0.014535559615906669 0.2124776741786355 0 -0.010915521324717001 0.1993315760592379 0 -0.001618838316679704 0.21186515805952549 0 0.0047479160901643591 0.19966970600779571 0 -0.001618838316679704 0.21186515805952549 0 -0.010819744977475119 0.2201826338773481 0 0.0022205822065663882 0.22338098429998751 0 -0.001618838316679704 0.21186515805952549 0 -0.014535559615906669 0.2124776741786355 0 -0.010819744977475119 0.2201826338773481 0 -0.039445365178920423 0.19600482850445031 0 -0.014535559615906669 0.2124776741786355 0 -0.035706106933987618 0.212040288753787 0 -0.039445365178920423 0.19600482850445031 0 -0.014535559615906669 0.2124776741786355 0 -0.014535559615906669 0.2124776741786355 0 -0.024813853389476559 0.2211714782904188 0 -0.010819744977475119 0.2201826338773481 0 -0.035706106933987618 0.212040288753787 0 -0.014535559615906669 0.2124776741786355 0 -0.024813853389476559 0.2211714782904188 0 -0.030614146685572802 0.23126382662090891 0 -0.0054403593235216562 0.23377016940133941 0 -0.030614146685572802 0.23126382662090891 0 -0.0054403593235216562 0.23377016940133941 0 -0.01514813330815701 0.23061359466582701 0 -0.024813853389476559 0.2211714782904188 0 -0.030614146685572802 0.23126382662090891 0 -0.01514813330815701 0.23061359466582701 0 -0.024813853389476559 0.2211714782904188 0 -0.010819744977475119 0.2201826338773481 0 -0.01514813330815701 0.23061359466582701 0 -0.010819744977475119 0.2201826338773481 0 -0.01514813330815701 0.23061359466582701 0 0.0022205822065663882 0.22338098429998751 0 -0.01514813330815701 0.23061359466582701 0 0.0022205822065663882 0.22338098429998751 0 -0.0054403593235216562 0.23377016940133941 0 -0.01514813330815701 0.23061359466582701 0 0.0022205822065663882 0.22338098429998751 0 -0.004361582131907446 0.25012675423618741 0 -0.0054403593235216562 0.23377016940133941 0 0.0051881906427589239 0.2429023142665572 0 -0.004361582131907446 0.25012675423618741 0 -0.0054403593235216562 0.23377016940133941 0 -0.018506566158488919 0.2431339505957798 0 -0.020565667716041462 0.25572736355358933 0 -0.004361582131907446 0.25012675423618741 0 -0.018506566158488919 0.2431339505957798 0 -0.030614146685572802 0.23126382662090891 0 -0.0054403593235216562 0.23377016940133941 0 -0.018506566158488919 0.2431339505957798 0 -0.03189830216395443 0.24568919817845219 0 -0.030614146685572802 0.23126382662090891 0 -0.018506566158488919 0.2431339505957798 0 -0.020565667716041462 0.25572736355358933 0 -0.03189830216395443 0.24568919817845219 0 -0.018506566158488919 0.2431339505957798 0 -0.042460363287522958 0.14347988613362259 0 -0.044473419521311869 0.15297756029890641 0 -0.037891307588098999 0.15301779907060481 0 -0.044473419521311869 0.15297756029890641 0 -0.037891307588098999 0.15301779907060481 0 -0.031636506627965313 0.16150224911057051 0 -0.042460363287522958 0.14347988613362259 0 -0.035174347344809967 0.15001976644272921 0 -0.037891307588098999 0.15301779907060481 0 -0.035174347344809967 0.15001976644272921 0 -0.037891307588098999 0.15301779907060481 0 -0.033404653207921721 0.15507918068198209 0 -0.035174347344809967 0.15001976644272921 0 -0.033404653207921721 0.15507918068198209 0 -0.02776282729533102 0.15476173176141739 0 -0.035174347344809967 0.15001976644272921 0 -0.034180114506779158 0.14292432320853909 0 -0.02883591677782232 0.14796437992771719 0 -0.042460363287522958 0.14347988613362259 0 -0.035174347344809967 0.15001976644272921 0 -0.034180114506779158 0.14292432320853909 0 -0.042460363287522958 0.14347988613362259 0 -0.034180114506779158 0.14292432320853909 0 -0.038211226953362397 0.13781437243294631 0 -0.034180114506779158 0.14292432320853909 0 -0.032488323731578138 0.13717556183428281 0 -0.038211226953362397 0.13781437243294631 0 -0.034180114506779158 0.14292432320853909 0 -0.032488323731578138 0.13717556183428281 0 -0.027483842170251089 0.14162756103877569 0 -0.032488323731578138 0.13717556183428281 0 -0.035266368379565052 0.13009707587939279 0 -0.02667969692195489 0.13460984520473249 0 -0.032488323731578138 0.13717556183428281 0 -0.038211226953362397 0.13781437243294631 0 -0.035266368379565052 0.13009707587939279 0 -0.035266368379565052 0.13009707587939279 0 -0.046331318124510253 0.13174141938699169 0 -0.041763705598505362 0.11912362676530031 0 -0.038211226953362397 0.13781437243294631 0 -0.035266368379565052 0.13009707587939279 0 -0.046331318124510253 0.13174141938699169 0 -0.042460363287522958 0.14347988613362259 0 -0.038211226953362397 0.13781437243294631 0 -0.046331318124510253 0.13174141938699169 0 -0.042460363287522958 0.14347988613362259 0 -0.046331318124510253 0.13174141938699169 0 -0.060395274942560528 0.13416549391068189 0 -0.046331318124510253 0.13174141938699169 0 -0.060395274942560528 0.13416549391068189 0 -0.057376161549244957 0.12328487032798489 0 -0.060395274942560528 0.13416549391068189 0 -0.057376161549244957 0.12328487032798489 0 -0.068008023874607193 0.1194813826226566 0 -0.044473419521311869 0.15297756029890641 0 -0.060395274942560528 0.13416549391068189 0 -0.049505964496477838 0.1551697129999251 0 -0.060395274942560528 0.13416549391068189 0 -0.049505964496477838 0.1551697129999251 0 -0.060395274942560528 0.13416549391068189 0 -0.049505964496477838 0.1551697129999251 0 -0.06050925962069742 0.14933122419088271 0 -0.042460363287522958 0.14347988613362259 0 -0.044473419521311869 0.15297756029890641 0 -0.060395274942560528 0.13416549391068189 0 -0.044473419521311869 0.15297756029890641 0 -0.060395274942560528 0.13416549391068189 0 -0.06050925962069742 0.14933122419088271 0 -0.055951783244603238 0.15683636846341581 0 -0.060817304647522517 0.16063211997463811 0 -0.049505964496477838 0.1551697129999251 0 -0.06050925962069742 0.14933122419088271 0 -0.055951783244603238 0.15683636846341581 0 -0.06435517074193417 0.179531982830265 0 -0.060817304647522517 0.16063211997463811 0 -0.054190933413391887 0.1696376128955723 0 -0.055951783244603238 0.15683636846341581 0 -0.060817304647522517 0.16063211997463811 0 -0.051816527970478227 0.163689949284544 0 -0.060817304647522517 0.16063211997463811 0 -0.054190933413391887 0.1696376128955723 0 -0.051816527970478227 0.163689949284544 0 -0.054190933413391887 0.1696376128955723 0 -0.051816527970478227 0.163689949284544 0 -0.038616654050395688 0.17617393208916859 0 -0.049505964496477838 0.1551697129999251 0 -0.055951783244603238 0.15683636846341581 0 -0.051816527970478227 0.163689949284544 0 -0.06435517074193417 0.179531982830265 0 -0.039445365178920423 0.19600482850445031 0 -0.038616654050395688 0.17617393208916859 0 -0.06435517074193417 0.179531982830265 0 -0.054190933413391887 0.1696376128955723 0 -0.038616654050395688 0.17617393208916859 0 -0.027727343604313569 0.197178151178412 0 -0.038616654050395688 0.17617393208916859 0 -0.027727343604313569 0.197178151178412 0 -0.038616654050395688 0.17617393208916859 0 -0.028750072776026619 0.18228756371234331 0 -0.038616654050395688 0.17617393208916859 0 -0.028551564100062751 0.1717896266871306 0 -0.028750072776026619 0.18228756371234331 0 -0.044473419521311869 0.15297756029890641 0 -0.028551564100062751 0.1717896266871306 0 -0.049505964496477838 0.1551697129999251 0 -0.051816527970478227 0.163689949284544 0 -0.038616654050395688 0.17617393208916859 0 -0.044473419521311869 0.15297756029890641 0 -0.031636506627965313 0.16150224911057051 0 -0.028551564100062751 0.1717896266871306 0 -0.049505964496477838 0.1551697129999251 0 -0.038616654050395688 0.17617393208916859 0 -0.044473419521311869 0.15297756029890641 0 -0.049505964496477838 0.1551697129999251 0 -0.038616654050395688 0.17617393208916859 0 -0.044473419521311869 0.15297756029890641 0 -0.038616654050395688 0.17617393208916859 0 -0.028551564100062751 0.1717896266871306 0 -0.037891307588098999 0.15301779907060481 0 -0.033404653207921721 0.15507918068198209 0 -0.031636506627965313 0.16150224911057051 0 -0.031636506627965313 0.16150224911057051 0 -0.02253447650115362 0.1626338424728738 0 -0.02776282729533102 0.15476173176141739 0 -0.033404653207921721 0.15507918068198209 0 -0.031636506627965313 0.16150224911057051 0 -0.02776282729533102 0.15476173176141739 0 -0.031636506627965313 0.16150224911057051 0 -0.028551564100062751 0.1717896266871306 0 -0.02253447650115362 0.1626338424728738 0 -0.028551564100062751 0.1717896266871306 0 -0.02253447650115362 0.1626338424728738 0 -0.01498566762474032 0.1721399223420339 0 -0.02253447650115362 0.1626338424728738 0 -0.01498566762474032 0.1721399223420339 0 -0.012046897657486009 0.15973393686910059 0 -0.02253447650115362 0.1626338424728738 0 -0.012046897657486009 0.15973393686910059 0 -0.01974455104335017 0.1550417818637245 0 -0.02253447650115362 0.1626338424728738 0 -0.01974455104335017 0.1550417818637245 0 -0.02776282729533102 0.15476173176141739 0 -0.028551564100062751 0.1717896266871306 0 -0.028750072776026619 0.18228756371234331 0 -0.020104729349334449 0.1840085448946619 0 -0.028551564100062751 0.1717896266871306 0 -0.020104729349334449 0.1840085448946619 0 -0.01498566762474032 0.1721399223420339 0 -0.020104729349334449 0.1840085448946619 0 -0.01498566762474032 0.1721399223420339 0 -0.0058150648891281392 0.18464487058732859 0 -0.01498566762474032 0.1721399223420339 0 -0.0058150648891281392 0.18464487058732859 0 9.8439874396488518e-06 0.16909653965514321 0 -0.01498566762474032 0.1721399223420339 0 -0.012046897657486009 0.15973393686910059 0 9.8439874396488518e-06 0.16909653965514321 0 -0.012046897657486009 0.15973393686910059 0 -0.001399927819642065 0.15853034608675531 0 -0.0067216127360385028 0.15176017281181059 0 -0.012046897657486009 0.15973393686910059 0 -0.001399927819642065 0.15853034608675531 0 9.8439874396488518e-06 0.16909653965514321 0 -0.0067216127360385028 0.15176017281181059 0 -0.001932496299644968 0.1459540675981712 0 0.002037105597096525 0.15151695060409001 0 -0.001399927819642065 0.15853034608675531 0 -0.0067216127360385028 0.15176017281181059 0 0.002037105597096525 0.15151695060409001 0 -0.001932496299644968 0.1459540675981712 0 -0.0047871023855838284 0.14117591745817429 0 0.000228448927285114 0.14012311706009631 0 -0.0067216127360385028 0.15176017281181059 0 -0.001932496299644968 0.1459540675981712 0 -0.0088873299160877918 0.1454187600715697 0 -0.001932496299644968 0.1459540675981712 0 -0.0047871023855838284 0.14117591745817429 0 -0.0088873299160877918 0.1454187600715697 0 -0.0047871023855838284 0.14117591745817429 0 -0.0088873299160877918 0.1454187600715697 0 -0.010460643721398131 0.13913610184510419 0 -0.0088873299160877918 0.1454187600715697 0 -0.015535574841907601 0.14368344141407929 0 -0.010460643721398131 0.13913610184510419 0 -0.0088873299160877918 0.1454187600715697 0 -0.015535574841907601 0.14368344141407929 0 -0.014413369338275051 0.15020994658701309 0 -0.012046897657486009 0.15973393686910059 0 -0.014413369338275051 0.15020994658701309 0 -0.01974455104335017 0.1550417818637245 0 -0.012046897657486009 0.15973393686910059 0 -0.0067216127360385028 0.15176017281181059 0 -0.014413369338275051 0.15020994658701309 0 -0.0067216127360385028 0.15176017281181059 0 -0.0088873299160877918 0.1454187600715697 0 -0.014413369338275051 0.15020994658701309 0 -0.01974455104335017 0.1550417818637245 0 -0.021965184424505169 0.1478694516282176 0 -0.02776282729533102 0.15476173176141739 0 -0.014413369338275051 0.15020994658701309 0 -0.01974455104335017 0.1550417818637245 0 -0.021965184424505169 0.1478694516282176 0 -0.015535574841907601 0.14368344141407929 0 -0.014413369338275051 0.15020994658701309 0 -0.021965184424505169 0.1478694516282176 0 -0.015535574841907601 0.14368344141407929 0 -0.02085887518683055 0.14051112573817109 0 -0.01572570720539903 0.1386245228663322 0 -0.015535574841907601 0.14368344141407929 0 -0.021965184424505169 0.1478694516282176 0 -0.02085887518683055 0.14051112573817109 0 -0.021965184424505169 0.1478694516282176 0 -0.027483842170251089 0.14162756103877569 0 -0.02085887518683055 0.14051112573817109 0 -0.021965184424505169 0.1478694516282176 0 -0.027483842170251089 0.14162756103877569 0 -0.02883591677782232 0.14796437992771719 0 -0.034180114506779158 0.14292432320853909 0 -0.027483842170251089 0.14162756103877569 0 -0.02883591677782232 0.14796437992771719 0 -0.035174347344809967 0.15001976644272921 0 -0.02883591677782232 0.14796437992771719 0 -0.02776282729533102 0.15476173176141739 0 -0.021965184424505169 0.1478694516282176 0 -0.02883591677782232 0.14796437992771719 0 -0.02776282729533102 0.15476173176141739 0 -0.035266368379565052 0.13009707587939279 0 -0.02498016711913827 0.1241785180753891 0 -0.033110622576494379 0.1214386067867833 0 -0.02667969692195489 0.13460984520473249 0 -0.019000604944366228 0.13406922866238341 0 -0.02498016711913827 0.1241785180753891 0 -0.035266368379565052 0.13009707587939279 0 -0.02667969692195489 0.13460984520473249 0 -0.02498016711913827 0.1241785180753891 0 -0.032488323731578138 0.13717556183428281 0 -0.027483842170251089 0.14162756103877569 0 -0.02667969692195489 0.13460984520473249 0 -0.027483842170251089 0.14162756103877569 0 -0.02667969692195489 0.13460984520473249 0 -0.02085887518683055 0.14051112573817109 0 -0.02667969692195489 0.13460984520473249 0 -0.02085887518683055 0.14051112573817109 0 -0.019000604944366228 0.13406922866238341 0 -0.02085887518683055 0.14051112573817109 0 -0.01572570720539903 0.1386245228663322 0 -0.019000604944366228 0.13406922866238341 0 -0.019000604944366228 0.13406922866238341 0 -0.013108962008021981 0.1259178359004969 0 -0.02498016711913827 0.1241785180753891 0 -0.019000604944366228 0.13406922866238341 0 -0.013108962008021981 0.1259178359004969 0 -0.011245417678365909 0.1339710152718474 0 -0.013108962008021981 0.1259178359004969 0 -0.011245417678365909 0.1339710152718474 0 -0.0043823690024683438 0.12942386948176529 0 -0.015535574841907601 0.14368344141407929 0 -0.01572570720539903 0.1386245228663322 0 -0.010460643721398131 0.13913610184510419 0 -0.01572570720539903 0.1386245228663322 0 -0.011245417678365909 0.1339710152718474 0 -0.010460643721398131 0.13913610184510419 0 -0.01572570720539903 0.1386245228663322 0 -0.019000604944366228 0.13406922866238341 0 -0.011245417678365909 0.1339710152718474 0 -0.011245417678365909 0.1339710152718474 0 -0.010460643721398131 0.13913610184510419 0 -0.0049074646713017818 0.13634897063783119 0 -0.0047871023855838284 0.14117591745817429 0 -0.010460643721398131 0.13913610184510419 0 -0.0049074646713017818 0.13634897063783119 0 -0.011245417678365909 0.1339710152718474 0 -0.0049074646713017818 0.13634897063783119 0 -0.0043823690024683438 0.12942386948176529 0 -0.0049074646713017818 0.13634897063783119 0 -0.0043823690024683438 0.12942386948176529 0 0.0012022958327204049 0.13426380270999949 0 -0.0047871023855838284 0.14117591745817429 0 -0.0049074646713017818 0.13634897063783119 0 0.000228448927285114 0.14012311706009631 0 -0.0049074646713017818 0.13634897063783119 0 0.000228448927285114 0.14012311706009631 0 0.0012022958327204049 0.13426380270999949 0 -0.0043823690024683438 0.12942386948176529 0 -0.0015382865690094869 0.1195819360983075 0 0.0028297340199113529 0.12737786763030409 0 -0.0043823690024683438 0.12942386948176529 0 0.0028297340199113529 0.12737786763030409 0 0.0012022958327204049 0.13426380270999949 0 -0.013108962008021981 0.1259178359004969 0 -0.0015382865690094869 0.1195819360983075 0 -0.018013141318310021 0.1118215823196331 0 -0.0015382865690094869 0.1195819360983075 0 -0.0093267163156350585 0.10220622611456499 0 -0.018013141318310021 0.1118215823196331 0 -0.0015382865690094869 0.1195819360983075 0 -0.0093267163156350585 0.10220622611456499 0 0.0088418889268726004 0.1125261115153213 0 -0.013108962008021981 0.1259178359004969 0 -0.0043823690024683438 0.12942386948176529 0 -0.0015382865690094869 0.1195819360983075 0 -0.0093267163156350585 0.10220622611456499 0 -0.028384651446471159 0.094232735224306696 0 -0.028384651446471159 0.094232735224306696 0 -0.030432249208768851 0.112355206427051 0 -0.018013141318310021 0.1118215823196331 0 -0.0093267163156350585 0.10220622611456499 0 -0.028384651446471159 0.094232735224306696 0 -0.018013141318310021 0.1118215823196331 0 -0.030432249208768851 0.112355206427051 0 -0.02498016711913827 0.1241785180753891 0 -0.018013141318310021 0.1118215823196331 0 -0.030432249208768851 0.112355206427051 0 -0.02498016711913827 0.1241785180753891 0 -0.033110622576494379 0.1214386067867833 0 -0.013108962008021981 0.1259178359004969 0 -0.02498016711913827 0.1241785180753891 0 -0.018013141318310021 0.1118215823196331 0 -0.019815605255134251 0.077564307382831099 0 -0.01123722517146284 0.061714947321965113 0 0.0078113760670387236 0.068869370431613411 0 -0.019815605255134251 0.077564307382831099 0 0.0078113760670387236 0.068869370431613411 0 -0.0022168413230157229 0.085736250976024914 0 -0.019815605255134251 0.077564307382831099 0 0.0078113760670387236 0.068869370431613411 0 -0.0093267163156350585 0.10220622611456499 0 -0.0022168413230157229 0.085736250976024914 0 -0.019815605255134251 0.077564307382831099 0 -0.0093267163156350585 0.10220622611456499 0 -0.028384651446471159 0.094232735224306696 0 -0.019815605255134251 0.077564307382831099 0 -0.019815605255134251 0.077564307382831099 0 -0.02897814582929455 0.062873885781940531 0 -0.01123722517146284 0.061714947321965113 0 -0.019815605255134251 0.077564307382831099 0 -0.02897814582929455 0.062873885781940531 0 -0.037351726516990362 0.072256576054196331 0 -0.037351726516990362 0.072256576054196331 0 -0.04744258657730735 0.086259244334048468 0 -0.048521472395479701 0.069705355416953899 0 -0.042000822527735973 0.064880087355207783 0 -0.037351726516990362 0.072256576054196331 0 -0.048521472395479701 0.069705355416953899 0 -0.042000822527735973 0.064880087355207783 0 -0.048521472395479701 0.069705355416953899 0 -0.048543751051203898 0.057697742817346243 0 -0.02897814582929455 0.062873885781940531 0 -0.042000822527735973 0.064880087355207783 0 -0.037351726516990362 0.072256576054196331 0 -0.028384651446471159 0.094232735224306696 0 -0.048484368781985768 0.092953390863835139 0 -0.04744258657730735 0.086259244334048468 0 -0.019815605255134251 0.077564307382831099 0 -0.037351726516990362 0.072256576054196331 0 -0.04744258657730735 0.086259244334048468 0 -0.019815605255134251 0.077564307382831099 0 -0.04744258657730735 0.086259244334048468 0 -0.028384651446471159 0.094232735224306696 0 -0.04744258657730735 0.086259244334048468 0 -0.028384651446471159 0.094232735224306696 0 -0.019815605255134251 0.077564307382831099 0 -0.04744258657730735 0.086259244334048468 0 -0.04744258657730735 0.086259244334048468 0 -0.056352896539992578 0.082531333895216066 0 -0.048521472395479701 0.069705355416953899 0 -0.04744258657730735 0.086259244334048468 0 -0.055667229109567583 0.088847755450422561 0 -0.048484368781985768 0.092953390863835139 0 -0.04744258657730735 0.086259244334048468 0 -0.055667229109567583 0.088847755450422561 0 -0.055667229109567583 0.088847755450422561 0 -0.056352896539992578 0.082531333895216066 0 -0.055667229109567583 0.088847755450422561 0 -0.056352896539992578 0.082531333895216066 0 -0.068535421204038979 0.084669133357873919 0 -0.04744258657730735 0.086259244334048468 0 -0.055667229109567583 0.088847755450422561 0 -0.056352896539992578 0.082531333895216066 0 -0.04744258657730735 0.086259244334048468 0 -0.056352896539992578 0.082531333895216066 0 -0.056352896539992578 0.082531333895216066 0 -0.048521472395479701 0.069705355416953899 0 -0.059557339835071388 0.053011753697425897 0 -0.056352896539992578 0.082531333895216066 0 -0.065455038900646412 0.063135680861219914 0 -0.059557339835071388 0.053011753697425897 0 -0.056352896539992578 0.082531333895216066 0 -0.059557339835071388 0.053011753697425897 0 -0.041763705598505362 0.11912362676530031 0 -0.040355805924582322 0.10811297036328291 0 -0.053061720868948711 0.1128498994681193 0 -0.030432249208768851 0.112355206427051 0 -0.041763705598505362 0.11912362676530031 0 -0.033110622576494379 0.1214386067867833 0 -0.035266368379565052 0.13009707587939279 0 -0.041763705598505362 0.11912362676530031 0 -0.033110622576494379 0.1214386067867833 0 -0.030432249208768851 0.112355206427051 0 -0.041763705598505362 0.11912362676530031 0 -0.040355805924582322 0.10811297036328291 0 -0.028384651446471159 0.094232735224306696 0 -0.040355805924582322 0.10811297036328291 0 -0.047601570349403252 0.1001146928854318 0 -0.028384651446471159 0.094232735224306696 0 -0.048484368781985768 0.092953390863835139 0 -0.047601570349403252 0.1001146928854318 0 -0.028384651446471159 0.094232735224306696 0 -0.030432249208768851 0.112355206427051 0 -0.040355805924582322 0.10811297036328291 0 -0.055667229109567583 0.088847755450422561 0 -0.047601570349403252 0.1001146928854318 0 -0.053061720868948711 0.1128498994681193 0 -0.055667229109567583 0.088847755450422561 0 -0.053061720868948711 0.1128498994681193 0 -0.040355805924582322 0.10811297036328291 0 -0.047601570349403252 0.1001146928854318 0 -0.053061720868948711 0.1128498994681193 0 -0.055667229109567583 0.088847755450422561 0 -0.061317563763440802 0.10299561175118491 0 -0.053061720868948711 0.1128498994681193 0 -0.048484368781985768 0.092953390863835139 0 -0.055667229109567583 0.088847755450422561 0 -0.047601570349403252 0.1001146928854318 0 -0.055667229109567583 0.088847755450422561 0 -0.061317563763440802 0.10299561175118491 0 -0.06797342141030252 0.10030920148610591 0 -0.061317563763440802 0.10299561175118491 0 -0.053061720868948711 0.1128498994681193 0 -0.066574353573826517 0.1091611438734031 0 -0.046331318124510253 0.13174141938699169 0 -0.041763705598505362 0.11912362676530031 0 -0.057376161549244957 0.12328487032798489 0 -0.041763705598505362 0.11912362676530031 0 -0.053061720868948711 0.1128498994681193 0 -0.057376161549244957 0.12328487032798489 0 -0.053061720868948711 0.1128498994681193 0 -0.057376161549244957 0.12328487032798489 0 -0.068008023874607193 0.1194813826226566 0 -0.060395274942560528 0.13416549391068189 0 -0.068008023874607193 0.1194813826226566 0 -0.077957056184904241 0.1134158145620357 0 -0.060395274942560528 0.13416549391068189 0 -0.077957056184904241 0.1134158145620357 0 -0.079964733767734122 0.12668506296934109 0 -0.060395274942560528 0.13416549391068189 0 -0.077957056184904241 0.1134158145620357 0 -0.053061720868948711 0.1128498994681193 0 -0.068008023874607193 0.1194813826226566 0 -0.066574353573826517 0.1091611438734031 0 -0.068008023874607193 0.1194813826226566 0 -0.075620772806654399 0.1047972713346316 0 -0.066574353573826517 0.1091611438734031 0 -0.068008023874607193 0.1194813826226566 0 -0.077957056184904241 0.1134158145620357 0 -0.075620772806654399 0.1047972713346316 0 -0.068008023874607193 0.1194813826226566 0 -0.075620772806654399 0.1047972713346316 0 -0.079964733767734122 0.12668506296934109 0 -0.077957056184904241 0.1134158145620357 0 -0.086534582504385088 0.1156474293511931 0 -0.077957056184904241 0.1134158145620357 0 -0.086534582504385088 0.1156474293511931 0 -0.083947310206231279 0.1074935535689709 0 -0.086534582504385088 0.1156474293511931 0 -0.095157466154961498 0.1222738246889692 0 -0.093760682860616423 0.1071519620079809 0 -0.086534582504385088 0.1156474293511931 0 -0.083947310206231279 0.1074935535689709 0 -0.093760682860616423 0.1071519620079809 0 -0.079964733767734122 0.12668506296934109 0 -0.086534582504385088 0.1156474293511931 0 -0.095157466154961498 0.1222738246889692 0 -0.084868150004751591 0.098297010781769723 0 -0.085645907343274513 0.087820148674278453 0 -0.093949525724613639 0.096173232947952741 0 -0.084868150004751591 0.098297010781769723 0 -0.093760682860616423 0.1071519620079809 0 -0.093949525724613639 0.096173232947952741 0 -0.083947310206231279 0.1074935535689709 0 -0.084868150004751591 0.098297010781769723 0 -0.093760682860616423 0.1071519620079809 0 -0.083947310206231279 0.1074935535689709 0 -0.084868150004751591 0.098297010781769723 0 -0.075620772806654399 0.1047972713346316 0 -0.077957056184904241 0.1134158145620357 0 -0.083947310206231279 0.1074935535689709 0 -0.075620772806654399 0.1047972713346316 0 -0.084868150004751591 0.098297010781769723 0 -0.07416284546680918 0.094668811910581629 0 -0.075620772806654399 0.1047972713346316 0 -0.07416284546680918 0.094668811910581629 0 -0.075620772806654399 0.1047972713346316 0 -0.06797342141030252 0.10030920148610591 0 -0.055667229109567583 0.088847755450422561 0 -0.07416284546680918 0.094668811910581629 0 -0.06797342141030252 0.10030920148610591 0 -0.075620772806654399 0.1047972713346316 0 -0.066574353573826517 0.1091611438734031 0 -0.06797342141030252 0.10030920148610591 0 -0.061317563763440802 0.10299561175118491 0 -0.066574353573826517 0.1091611438734031 0 -0.06797342141030252 0.10030920148610591 0 -0.055667229109567583 0.088847755450422561 0 -0.07416284546680918 0.094668811910581629 0 -0.055667229109567583 0.088847755450422561 0 -0.07416284546680918 0.094668811910581629 0 -0.068535421204038979 0.084669133357873919 0 -0.056352896539992578 0.082531333895216066 0 -0.068535421204038979 0.084669133357873919 0 -0.079954973421325709 0.072656657351692189 0 -0.068535421204038979 0.084669133357873919 0 -0.077074786858862099 0.084953687823606544 0 -0.079954973421325709 0.072656657351692189 0 -0.07416284546680918 0.094668811910581629 0 -0.068535421204038979 0.084669133357873919 0 -0.077074786858862099 0.084953687823606544 0 -0.056352896539992578 0.082531333895216066 0 -0.079954973421325709 0.072656657351692189 0 -0.056352896539992578 0.082531333895216066 0 -0.065455038900646412 0.063135680861219914 0 -0.079954973421325709 0.072656657351692189 0 -0.065455038900646412 0.063135680861219914 0 -0.079954973421325709 0.072656657351692189 0 -0.065455038900646412 0.063135680861219914 0 -0.079954973421325709 0.072656657351692189 0 -0.076524839145482512 0.060394734624827362 0 -0.079954973421325709 0.072656657351692189 0 -0.093524594780215381 0.066979376389898315 0 -0.098442440583084309 0.07567796336267002 0 -0.079954973421325709 0.072656657351692189 0 -0.087851637875022454 0.059069255740853588 0 -0.076524839145482512 0.060394734624827362 0 -0.079954973421325709 0.072656657351692189 0 -0.093524594780215381 0.066979376389898315 0 -0.079954973421325709 0.072656657351692189 0 -0.093524594780215381 0.066979376389898315 0 -0.087851637875022454 0.059069255740853588 0 -0.079954973421325709 0.072656657351692189 0 -0.085645907343274513 0.087820148674278453 0 -0.1018492251009645 0.087032905411369765 0 -0.079954973421325709 0.072656657351692189 0 -0.1018492251009645 0.087032905411369765 0 -0.079954973421325709 0.072656657351692189 0 -0.1018492251009645 0.087032905411369765 0 -0.098442440583084309 0.07567796336267002 0 -0.084868150004751591 0.098297010781769723 0 -0.07416284546680918 0.094668811910581629 0 -0.085645907343274513 0.087820148674278453 0 -0.07416284546680918 0.094668811910581629 0 -0.077074786858862099 0.084953687823606544 0 -0.085645907343274513 0.087820148674278453 0 -0.077074786858862099 0.084953687823606544 0 -0.079954973421325709 0.072656657351692189 0 -0.085645907343274513 0.087820148674278453 0 -0.085645907343274513 0.087820148674278453 0 -0.1018492251009645 0.087032905411369765 0 -0.093949525724613639 0.096173232947952741 0 -0.1018492251009645 0.087032905411369765 0 -0.098442440583084309 0.07567796336267002 0 -0.1104905068726369 0.082990227197258584 0 -0.093524594780215381 0.066979376389898315 0 -0.106392902740279 0.068730650463131246 0 -0.095695867018895209 0.061386095523021718 0 -0.093524594780215381 0.066979376389898315 0 -0.098442440583084309 0.07567796336267002 0 -0.106392902740279 0.068730650463131246 0 -0.098442440583084309 0.07567796336267002 0 -0.106392902740279 0.068730650463131246 0 -0.1104905068726369 0.082990227197258584 0 -0.106392902740279 0.068730650463131246 0 -0.1143187324205953 0.061132814960732959 0 -0.1040003188276042 0.06051796656090451 0 -0.13471537800020611 0.069932196640817734 0 -0.1158200249735767 0.081810356583590621 0 -0.1143187324205953 0.061132814960732959 0 -0.1158200249735767 0.081810356583590621 0 -0.1143187324205953 0.061132814960732959 0 -0.106392902740279 0.068730650463131246 0 -0.1158200249735767 0.081810356583590621 0 -0.1143187324205953 0.061132814960732959 0 -0.106392902740279 0.068730650463131246 0 -0.1104905068726369 0.082990227197258584 0 -0.1158200249735767 0.081810356583590621 0 -0.106392902740279 0.068730650463131246 0 -0.1158200249735767 0.081810356583590621 0 -0.1104905068726369 0.082990227197258584 0 -0.1158200249735767 0.081810356583590621 0 -0.123743476780604 0.10140915347104661 0 -0.12576525993317081 0.095608920700106598 0 -0.1158200249735767 0.081810356583590621 0 -0.123743476780604 0.10140915347104661 0 -0.1018492251009645 0.087032905411369765 0 -0.1104905068726369 0.082990227197258584 0 -0.123743476780604 0.10140915347104661 0 -0.12576525993317081 0.095608920700106598 0 -0.1158200249735767 0.081810356583590621 0 -0.1018492251009645 0.087032905411369765 0 -0.123743476780604 0.10140915347104661 0 -0.10362366331346121 0.1005641378643648 0 -0.123743476780604 0.10140915347104661 0 -0.1048537663643479 0.1137288284916211 0 -0.10362366331346121 0.1005641378643648 0 -0.1018492251009645 0.087032905411369765 0 -0.123743476780604 0.10140915347104661 0 -0.12576525993317081 0.095608920700106598 0 -0.123743476780604 0.10140915347104661 0 -0.13074244959953979 0.11946175785799951 0 -0.11549744085296181 0.12506595749432459 0 -0.123743476780604 0.10140915347104661 0 -0.11549744085296181 0.12506595749432459 0 -0.123743476780604 0.10140915347104661 0 -0.1048537663643479 0.1137288284916211 0 -0.11549744085296181 0.12506595749432459 0 -0.123743476780604 0.10140915347104661 0 -0.11549744085296181 0.12506595749432459 0 -0.1048537663643479 0.1137288284916211 0 -0.095157466154961498 0.1222738246889692 0 -0.1048537663643479 0.1137288284916211 0 -0.095157466154961498 0.1222738246889692 0 -0.093760682860616423 0.1071519620079809 0 -0.1048537663643479 0.1137288284916211 0 -0.093760682860616423 0.1071519620079809 0 -0.10362366331346121 0.1005641378643648 0 -0.093760682860616423 0.1071519620079809 0 -0.093949525724613639 0.096173232947952741 0 -0.10362366331346121 0.1005641378643648 0 -0.1018492251009645 0.087032905411369765 0 -0.093949525724613639 0.096173232947952741 0 -0.10362366331346121 0.1005641378643648 0 -0.098111174817663571 0.029299933210101211 0 -0.11131614731463491 0.019777731715017489 0 -0.093270919285344131 0.021002023320940321 0 -0.099902477996615974 0.0097047614334804834 0 -0.11131614731463491 0.019777731715017489 0 -0.093270919285344131 0.021002023320940321 0 -0.098111174817663571 0.029299933210101211 0 -0.11131614731463491 0.019777731715017489 0 -0.1037154685123088 0.036850908914803658 0 -0.11131614731463491 0.019777731715017489 0 -0.1037154685123088 0.036850908914803658 0 -0.099902477996615974 0.0097047614334804834 0 -0.1099986790197032 0.001632030897992919 0 -0.11131614731463491 0.019777731715017489 0 -0.097318817554363779 -0.0057286893867275063 0 -0.099902477996615974 0.0097047614334804834 0 -0.087524390624848222 0.006688577221896419 0 -0.097318817554363779 -0.0057286893867275063 0 -0.099902477996615974 0.0097047614334804834 0 -0.1099986790197032 0.001632030897992919 0 -0.1236122261121546 -0.0078425818954372464 0 -0.13137048688310951 -0.003337023478303953 0 -0.11131614731463491 0.019777731715017489 0 -0.1099986790197032 0.001632030897992919 0 -0.11131614731463491 0.019777731715017489 0 -0.1236122261121546 -0.0078425818954372464 0 -0.1099986790197032 0.001632030897992919 0 -0.11131614731463491 0.019777731715017489 0 -0.1236122261121546 -0.0078425818954372464 0 -0.11131614731463491 0.019777731715017489 0 -0.1284208098020175 0.033179877632891097 0 -0.13460564055411489 0.01723703355858653 0 -0.11131614731463491 0.019777731715017489 0 -0.11131614731463491 0.019777731715017489 0 -0.1128174398676144 0.040455273337875242 0 -0.1284208098020175 0.033179877632891097 0 -0.11131614731463491 0.019777731715017489 0 -0.1128174398676144 0.040455273337875242 0 -0.12657932631233151 0.049909814768299969 0 -0.1284208098020175 0.033179877632891097 0 -0.1128174398676144 0.040455273337875242 0 -0.12657932631233151 0.049909814768299969 0 -0.1128174398676144 0.040455273337875242 0 -0.1143187324205953 0.061132814960732959 0 -0.1128174398676144 0.040455273337875242 0 -0.1143187324205953 0.061132814960732959 0 -0.1082223027228006 0.050485275180462093 0 -0.1128174398676144 0.040455273337875242 0 -0.1143187324205953 0.061132814960732959 0 -0.1143187324205953 0.061132814960732959 0 -0.10610639822075781 0.055771586811031351 0 -0.1082223027228006 0.050485275180462093 0 -0.1025152677102278 0.050750948389364392 0 -0.096114789709981496 0.053924086114589299 0 -0.1037154685123088 0.036850908914803658 0 -0.106392902740279 0.068730650463131246 0 -0.1040003188276042 0.06051796656090451 0 -0.096965780506980889 0.055650944342672051 0 -0.106392902740279 0.068730650463131246 0 -0.096965780506980889 0.055650944342672051 0 -0.1143187324205953 0.061132814960732959 0 -0.1040003188276042 0.06051796656090451 0 -0.10610639822075781 0.055771586811031351 0 -0.1040003188276042 0.06051796656090451 0 -0.10610639822075781 0.055771586811031351 0 -0.1014753694225613 0.055970928963692809 0 -0.10610639822075781 0.055771586811031351 0 -0.1025152677102278 0.050750948389364392 0 -0.1014753694225613 0.055970928963692809 0 -0.10610639822075781 0.055771586811031351 0 -0.1082223027228006 0.050485275180462093 0 -0.1025152677102278 0.050750948389364392 0 -0.1082223027228006 0.050485275180462093 0 -0.1025152677102278 0.050750948389364392 0 -0.1067356553623631 0.044178634216678392 0 -0.096408734094846682 0.047028599374544268 0 -0.094016665615900177 0.045027451179461733 0 -0.091788012541196298 0.052311951289322388 0 -0.096114789709981496 0.053924086114589299 0 -0.093744419191978248 0.056500250678553403 0 -0.091788012541196298 0.052311951289322388 0 -0.096408734094846682 0.047028599374544268 0 -0.096114789709981496 0.053924086114589299 0 -0.091788012541196298 0.052311951289322388 0 -0.096114789709981496 0.053924086114589299 0 -0.099124967027144822 0.054450492792824511 0 -0.096965780506980889 0.055650944342672051 0 -0.1025152677102278 0.050750948389364392 0 -0.096114789709981496 0.053924086114589299 0 -0.099124967027144822 0.054450492792824511 0 -0.1025152677102278 0.050750948389364392 0 -0.099124967027144822 0.054450492792824511 0 -0.1014753694225613 0.055970928963692809 0 -0.106392902740279 0.068730650463131246 0 -0.096965780506980889 0.055650944342672051 0 -0.095695867018895209 0.061386095523021718 0 -0.1040003188276042 0.06051796656090451 0 -0.1014753694225613 0.055970928963692809 0 -0.096965780506980889 0.055650944342672051 0 -0.099124967027144822 0.054450492792824511 0 -0.1014753694225613 0.055970928963692809 0 -0.096965780506980889 0.055650944342672051 0 -0.096965780506980889 0.055650944342672051 0 -0.095695867018895209 0.061386095523021718 0 -0.093744419191978248 0.056500250678553403 0 -0.096114789709981496 0.053924086114589299 0 -0.096965780506980889 0.055650944342672051 0 -0.093744419191978248 0.056500250678553403 0 -0.096408734094846682 0.047028599374544268 0 -0.096114789709981496 0.053924086114589299 0 -0.1037154685123088 0.036850908914803658 0 -0.11131614731463491 0.019777731715017489 0 -0.1128174398676144 0.040455273337875242 0 -0.1037154685123088 0.036850908914803658 0 -0.096114789709981496 0.053924086114589299 0 -0.1037154685123088 0.036850908914803658 0 -0.1128174398676144 0.040455273337875242 0 -0.1037154685123088 0.036850908914803658 0 -0.1067356553623631 0.044178634216678392 0 -0.1128174398676144 0.040455273337875242 0 -0.1082223027228006 0.050485275180462093 0 -0.1067356553623631 0.044178634216678392 0 -0.1025152677102278 0.050750948389364392 0 -0.1037154685123088 0.036850908914803658 0 -0.1067356553623631 0.044178634216678392 0 -0.096408734094846682 0.047028599374544268 0 -0.1037154685123088 0.036850908914803658 0 -0.094016665615900177 0.045027451179461733 0 -0.1037154685123088 0.036850908914803658 0 -0.094016665615900177 0.045027451179461733 0 -0.094491571965461013 0.037104767562455593 0 -0.098111174817663571 0.029299933210101211 0 -0.1037154685123088 0.036850908914803658 0 -0.094491571965461013 0.037104767562455593 0 -0.098111174817663571 0.029299933210101211 0 -0.094491571965461013 0.037104767562455593 0 -0.087647185425064736 0.031842659612238623 0 -0.087647185425064736 0.031842659612238623 0 -0.089854685869044451 0.040908764775179712 0 -0.081629424010395357 0.041419166804349421 0 -0.094491571965461013 0.037104767562455593 0 -0.087647185425064736 0.031842659612238623 0 -0.089854685869044451 0.040908764775179712 0 -0.089854685869044451 0.040908764775179712 0 -0.081629424010395357 0.041419166804349421 0 -0.086707275669269182 0.049908642651155542 0 -0.094016665615900177 0.045027451179461733 0 -0.089854685869044451 0.040908764775179712 0 -0.086707275669269182 0.049908642651155542 0 -0.094016665615900177 0.045027451179461733 0 -0.094491571965461013 0.037104767562455593 0 -0.089854685869044451 0.040908764775179712 0 -0.087647185425064736 0.031842659612238623 0 -0.081629424010395357 0.041419166804349421 0 -0.076164181077954182 0.032009494226678391 0 -0.095695867018895209 0.061386095523021718 0 -0.087851637875022454 0.059069255740853588 0 -0.093744419191978248 0.056500250678553403 0 -0.093524594780215381 0.066979376389898315 0 -0.095695867018895209 0.061386095523021718 0 -0.087851637875022454 0.059069255740853588 0 -0.087851637875022454 0.059069255740853588 0 -0.093744419191978248 0.056500250678553403 0 -0.091788012541196298 0.052311951289322388 0 -0.087851637875022454 0.059069255740853588 0 -0.091788012541196298 0.052311951289322388 0 -0.086707275669269182 0.049908642651155542 0 -0.094016665615900177 0.045027451179461733 0 -0.091788012541196298 0.052311951289322388 0 -0.086707275669269182 0.049908642651155542 0 -0.086707275669269182 0.049908642651155542 0 -0.081818850965788142 0.055238295402956307 0 -0.077896340682555187 0.050949615115596543 0 -0.081629424010395357 0.041419166804349421 0 -0.086707275669269182 0.049908642651155542 0 -0.077896340682555187 0.050949615115596543 0 -0.087851637875022454 0.059069255740853588 0 -0.086707275669269182 0.049908642651155542 0 -0.081818850965788142 0.055238295402956307 0 -0.081818850965788142 0.055238295402956307 0 -0.076524839145482512 0.060394734624827362 0 -0.077896340682555187 0.050949615115596543 0 -0.087851637875022454 0.059069255740853588 0 -0.081818850965788142 0.055238295402956307 0 -0.076524839145482512 0.060394734624827362 0 -0.076524839145482512 0.060394734624827362 0 -0.077896340682555187 0.050949615115596543 0 -0.069328576095109715 0.053744354209428961 0 -0.065455038900646412 0.063135680861219914 0 -0.076524839145482512 0.060394734624827362 0 -0.069328576095109715 0.053744354209428961 0 -0.077896340682555187 0.050949615115596543 0 -0.069328576095109715 0.053744354209428961 0 -0.071506875338484571 0.042895824445247768 0 -0.069328576095109715 0.053744354209428961 0 -0.071506875338484571 0.042895824445247768 0 -0.059557339835071388 0.053011753697425897 0 -0.065455038900646412 0.063135680861219914 0 -0.069328576095109715 0.053744354209428961 0 -0.059557339835071388 0.053011753697425897 0 -0.076164181077954182 0.032009494226678391 0 -0.071506875338484571 0.042895824445247768 0 -0.062761783130148519 0.02349217349963555 0 -0.071506875338484571 0.042895824445247768 0 -0.062761783130148519 0.02349217349963555 0 -0.059557339835071388 0.053011753697425897 0 -0.081629424010395357 0.041419166804349421 0 -0.076164181077954182 0.032009494226678391 0 -0.071506875338484571 0.042895824445247768 0 -0.081629424010395357 0.041419166804349421 0 -0.077896340682555187 0.050949615115596543 0 -0.071506875338484571 0.042895824445247768 0 -0.076164181077954182 0.032009494226678391 0 -0.062761783130148519 0.02349217349963555 0 -0.078304733749917463 0.018406078267593839 0 -0.087647185425064736 0.031842659612238623 0 -0.076164181077954182 0.032009494226678391 0 -0.078304733749917463 0.018406078267593839 0 -0.098111174817663571 0.029299933210101211 0 -0.087647185425064736 0.031842659612238623 0 -0.093270919285344131 0.021002023320940321 0 -0.087647185425064736 0.031842659612238623 0 -0.078304733749917463 0.018406078267593839 0 -0.093270919285344131 0.021002023320940321 0 -0.099902477996615974 0.0097047614334804834 0 -0.093270919285344131 0.021002023320940321 0 -0.087524390624848222 0.006688577221896419 0 -0.078304733749917463 0.018406078267593839 0 -0.093270919285344131 0.021002023320940321 0 -0.087524390624848222 0.006688577221896419 0 -0.065966226425225663 -0.0060274066981548767 0 -0.062761783130148519 0.02349217349963555 0 -0.078304733749917463 0.018406078267593839 0 -0.065966226425225663 -0.0060274066981548767 0 -0.078304733749917463 0.018406078267593839 0 -0.087524390624848222 0.006688577221896419 0 -0.065966226425225663 -0.0060274066981548767 0 -0.062761783130148519 0.02349217349963555 0 -0.065966226425225663 -0.0060274066981548767 0 -0.062761783130148519 0.02349217349963555 0 -0.041285176168578859 0.002941795093874656 0 -0.062761783130148519 0.02349217349963555 0 -0.036272784281526353 0.030700192342145501 0 -0.041285176168578859 0.002941795093874656 0 -0.036272784281526353 0.030700192342145501 0 -0.041285176168578859 0.002941795093874656 0 -0.01693898921702304 0.0117618500821222 0 -0.048521472395479701 0.069705355416953899 0 -0.048543751051203898 0.057697742817346243 0 -0.059557339835071388 0.053011753697425897 0 -0.048543751051203898 0.057697742817346243 0 -0.059557339835071388 0.053011753697425897 0 -0.04189961413571635 0.0481337511233643 0 -0.062761783130148519 0.02349217349963555 0 -0.059557339835071388 0.053011753697425897 0 -0.062761783130148519 0.02349217349963555 0 -0.036272784281526353 0.030700192342145501 0 -0.04189961413571635 0.0481337511233643 0 -0.062761783130148519 0.02349217349963555 0 -0.059557339835071388 0.053011753697425897 0 -0.04189961413571635 0.0481337511233643 0 -0.036272784281526353 0.030700192342145501 0 -0.04189961413571635 0.0481337511233643 0 -0.022255981323007819 0.049811798938199467 0 -0.042000822527735973 0.064880087355207783 0 -0.048543751051203898 0.057697742817346243 0 -0.04189961413571635 0.0481337511233643 0 -0.02897814582929455 0.062873885781940531 0 -0.042000822527735973 0.064880087355207783 0 -0.04189961413571635 0.0481337511233643 0 -0.02897814582929455 0.062873885781940531 0 -0.022255981323007819 0.049811798938199467 0 -0.01123722517146284 0.061714947321965113 0 -0.02897814582929455 0.062873885781940531 0 -0.04189961413571635 0.0481337511233643 0 -0.022255981323007819 0.049811798938199467 0 -0.036272784281526353 0.030700192342145501 0 -0.022255981323007819 0.049811798938199467 0 -0.01438021634244922 0.03170234610626791 0 -0.01438021634244922 0.03170234610626791 0 0.0022615025708572051 0.02103125876278546 0 0.0031430691038015031 0.043008717564808917 0 -0.022255981323007819 0.049811798938199467 0 -0.01438021634244922 0.03170234610626791 0 0.0031430691038015031 0.043008717564808917 0 -0.022255981323007819 0.049811798938199467 0 -0.01123722517146284 0.061714947321965113 0 0.0031430691038015031 0.043008717564808917 0 -0.01123722517146284 0.061714947321965113 0 0.0031430691038015031 0.043008717564808917 0 0.0078113760670387236 0.068869370431613411 0 -0.018090432812363919 -0.0051789454257338127 0 -0.041285176168578859 0.002941795093874656 0 -0.01693898921702304 0.0117618500821222 0 -0.036272784281526353 0.030700192342145501 0 -0.01693898921702304 0.0117618500821222 0 -0.036272784281526353 0.030700192342145501 0 -0.01438021634244922 0.03170234610626791 0 -0.01693898921702304 0.0117618500821222 0 -0.01438021634244922 0.03170234610626791 0 -0.01693898921702304 0.0117618500821222 0 0.0022615025708572051 0.02103125876278546 0 -0.01693898921702304 0.0117618500821222 0 0.002394805847480138 -0.0071764921779012506 0 -0.01693898921702304 0.0117618500821222 0 0.0022615025708572051 0.02103125876278546 0 0.002394805847480138 -0.0071764921779012506 0 0.0022615025708572051 0.02103125876278546 0 0.01988593924933146 0.01021281285273932 0 0.002394805847480138 -0.0071764921779012506 0 0.01988593924933146 0.01021281285273932 0 0.018044735406519189 -0.0027914786915071068 0 0.002394805847480138 -0.0071764921779012506 0 0.01988593924933146 0.01021281285273932 0 0.002394805847480138 -0.0071764921779012506 0 0.0022615025708572051 0.02103125876278546 0 0.01988593924933146 0.01021281285273932 0 0.01967507988536589 0.033248318378640847 0 0.01988593924933146 0.01021281285273932 0 0.037377072651182792 0.027602117883379889 0 0.01988593924933146 0.01021281285273932 0 0.01967507988536589 0.033248318378640847 0 0.037377072651182792 0.027602117883379889 0 0.01988593924933146 0.01021281285273932 0 0.035622497167505339 0.0063925700628825917 0 0.018044735406519189 -0.0027914786915071068 0 0.01988593924933146 0.01021281285273932 0 0.035622497167505339 0.0063925700628825917 0 0.037377072651182792 0.027602117883379889 0 0.0031430691038015031 0.043008717564808917 0 0.019783223174817739 0.050872415177661792 0 0.0078113760670387236 0.068869370431613411 0 0.0031430691038015031 0.043008717564808917 0 0.0078113760670387236 0.068869370431613411 0 0.0031430691038015031 0.043008717564808917 0 0.01967507988536589 0.033248318378640847 0 0.019783223174817739 0.050872415177661792 0 0.0022615025708572051 0.02103125876278546 0 0.0031430691038015031 0.043008717564808917 0 0.01967507988536589 0.033248318378640847 0 0.01967507988536589 0.033248318378640847 0 0.019783223174817739 0.050872415177661792 0 0.035662389103733989 0.047481221614176811 0 0.01967507988536589 0.033248318378640847 0 0.035662389103733989 0.047481221614176811 0 0.037377072651182792 0.027602117883379889 0 0.019783223174817739 0.050872415177661792 0 0.035662389103733989 0.047481221614176811 0 0.032141493454138102 0.060275729162332752 0 0.019783223174817739 0.050872415177661792 0 0.021142096610139102 0.064673842397447556 0 0.0078113760670387236 0.068869370431613411 0 0.019783223174817739 0.050872415177661792 0 0.032141493454138102 0.060275729162332752 0 0.021142096610139102 0.064673842397447556 0 0.035662389103733989 0.047481221614176811 0 0.032141493454138102 0.060275729162332752 0 0.049290572992936238 0.066355209737614357 0 0.035662389103733989 0.047481221614176811 0 0.054868206053034503 0.044991422914020113 0 0.049290572992936238 0.066355209737614357 0 0.054868206053034503 0.044991422914020113 0 0.037377072651182792 0.027602117883379889 0 0.035662389103733989 0.047481221614176811 0 0.054868206053034503 0.044991422914020113 0 0.037377072651182792 0.027602117883379889 0 0.054868206053034503 0.044991422914020113 0 0.037377072651182792 0.027602117883379889 0 0.059466454908930037 0.027378932586910581 0 0.054868206053034503 0.044991422914020113 0 0.059466454908930037 0.027378932586910581 0 0.054868206053034503 0.044991422914020113 0 0.049290572992936238 0.066355209737614357 0 0.054868206053034503 0.044991422914020113 0 0.067806688972275458 0.057854581689803772 0 0.049290572992936238 0.066355209737614357 0 0.054868206053034503 0.044991422914020113 0 0.067806688972275458 0.057854581689803772 0 0.035622497167505339 0.0063925700628825917 0 0.048661329883321183 0.016868832195515299 0 0.04884534130661923 0.0054823796607835363 0 0.035622497167505339 0.0063925700628825917 0 0.04884534130661923 0.0054823796607835363 0 0.045210290485040869 -0.0034719151203993228 0 0.035622497167505339 0.0063925700628825917 0 0.037377072651182792 0.027602117883379889 0 0.048661329883321183 0.016868832195515299 0 0.037377072651182792 0.027602117883379889 0 0.048661329883321183 0.016868832195515299 0 0.059466454908930037 0.027378932586910581 0 0.048661329883321183 0.016868832195515299 0 0.059466454908930037 0.027378932586910581 0 0.059551554903704583 0.012329945274186901 0 0.048661329883321183 0.016868832195515299 0 0.059551554903704583 0.012329945274186901 0 0.04884534130661923 0.0054823796607835363 0 0.04884534130661923 0.0054823796607835363 0 0.058196269712748661 -0.0010094984802769141 0 0.045210290485040869 -0.0034719151203993228 0 0.059551554903704583 0.012329945274186901 0 0.04884534130661923 0.0054823796607835363 0 0.058196269712748661 -0.0010094984802769141 0 0.059551554903704583 0.012329945274186901 0 0.070381517258247442 0.0054324954822656396 0 0.058196269712748661 -0.0010094984802769141 0 0.059551554903704583 0.012329945274186901 0 0.070381517258247442 0.0054324954822656396 0 0.071076364355982968 0.019572888861291889 0 0.070381517258247442 0.0054324954822656396 0 0.083131704911828669 0.010948624559543209 0 0.071076364355982968 0.019572888861291889 0 0.083131704911828669 0.010948624559543209 0 0.096167504599054904 0.0042442054759202954 0 0.09879577097810871 0.02017555683513389 0 0.070381517258247442 0.0054324954822656396 0 0.083131704911828669 0.010948624559543209 0 0.081717153665888317 -0.0025063239881197622 0 0.083131704911828669 0.010948624559543209 0 0.096167504599054904 0.0042442054759202954 0 0.081717153665888317 -0.0025063239881197622 0 0.083131704911828669 0.010948624559543209 0 0.084020254894405358 0.02481244236443322 0 0.09879577097810871 0.02017555683513389 0 0.084020254894405358 0.02481244236443322 0 0.089449236229465365 0.03685286092118592 0 0.09879577097810871 0.02017555683513389 0 0.083131704911828669 0.010948624559543209 0 0.084020254894405358 0.02481244236443322 0 0.071076364355982968 0.019572888861291889 0 0.084020254894405358 0.02481244236443322 0 0.071076364355982968 0.019572888861291889 0 0.073196751006103261 0.040000434485980937 0 0.059466454908930037 0.027378932586910581 0 0.071076364355982968 0.019572888861291889 0 0.073196751006103261 0.040000434485980937 0 0.059466454908930037 0.027378932586910581 0 0.059551554903704583 0.012329945274186901 0 0.071076364355982968 0.019572888861291889 0 0.054868206053034503 0.044991422914020113 0 0.059466454908930037 0.027378932586910581 0 0.073196751006103261 0.040000434485980937 0 0.073196751006103261 0.040000434485980937 0 0.067806688972275458 0.057854581689803772 0 0.092977810154944648 0.053070117425326267 0 0.054868206053034503 0.044991422914020113 0 0.073196751006103261 0.040000434485980937 0 0.067806688972275458 0.057854581689803772 0 0.092977810154944648 0.053070117425326267 0 0.080745171891517087 0.070717740465586792 0 0.067806688972275458 0.057854581689803772 0 0.092977810154944648 0.053070117425326267 0 0.080745171891517087 0.070717740465586792 0 0.084020254894405358 0.02481244236443322 0 0.073196751006103261 0.040000434485980937 0 0.089449236229465365 0.03685286092118592 0 0.073196751006103261 0.040000434485980937 0 0.092977810154944648 0.053070117425326267 0 0.089449236229465365 0.03685286092118592 0 0.092977810154944648 0.053070117425326267 0 0.10521044841837041 0.035422494385064417 0 0.092977810154944648 0.053070117425326267 0 0.089449236229465365 0.03685286092118592 0 0.10521044841837041 0.035422494385064417 0 0.092977810154944648 0.053070117425326267 0 0.1133392402374467 0.053204142399891047 0 0.1035655079248483 0.069632380985197889 0 0.092977810154944648 0.053070117425326267 0 0.10521044841837041 0.035422494385064417 0 0.1133392402374467 0.053204142399891047 0 0.1133392402374467 0.053204142399891047 0 0.1220245952479405 0.07004619687739172 0 0.13318341665519781 0.054736537254868822 0 0.1133392402374467 0.053204142399891047 0 0.12506256882025399 0.035699134337412737 0 0.13318341665519781 0.054736537254868822 0 0.10521044841837041 0.035422494385064417 0 0.1133392402374467 0.053204142399891047 0 0.12506256882025399 0.035699134337412737 0 0.10521044841837041 0.035422494385064417 0 0.11744308668179609 0.017774871344802521 0 0.12506256882025399 0.035699134337412737 0 0.10521044841837041 0.035422494385064417 0 0.11744308668179609 0.017774871344802521 0 0.10847276501169199 0.0092252325767439008 0 0.12681727907172599 0.0028609529651058472 0 0.11158832231026521 -0.002538519333972472 0 0.11744308668179609 0.017774871344802521 0 0.10847276501169199 0.0092252325767439008 0 0.12681727907172599 0.0028609529651058472 0 0.10847276501169199 0.0092252325767439008 0 0.096167504599054904 0.0042442054759202954 0 0.09879577097810871 0.02017555683513389 0 0.10847276501169199 0.0092252325767439008 0 0.096167504599054904 0.0042442054759202954 0 0.11158832231026521 -0.002538519333972472 0 0.10521044841837041 0.035422494385064417 0 0.11744308668179609 0.017774871344802521 0 0.09879577097810871 0.02017555683513389 0 0.089449236229465365 0.03685286092118592 0 0.10521044841837041 0.035422494385064417 0 0.09879577097810871 0.02017555683513389 0 0.11744308668179609 0.017774871344802521 0 0.10847276501169199 0.0092252325767439008 0 0.09879577097810871 0.02017555683513389 0 0.10882650996042049 0.098635597023528671 0 0.099321881767187231 0.10979448526446239 0 0.11057203073837581 0.10974959828000851 0 0.10882650996042049 0.098635597023528671 0 0.099321881767187231 0.10979448526446239 0 0.093532106097527157 0.097201512098380446 0 0.099321881767187231 0.10979448526446239 0 0.10718004060487731 0.1186919078288297 0 0.094925170845575335 0.12812185349131111 0 0.099321881767187231 0.10979448526446239 0 0.10718004060487731 0.1186919078288297 0 0.11057203073837581 0.10974959828000851 0 0.10718004060487731 0.1186919078288297 0 0.11057203073837581 0.10974959828000851 0 0.11923934643535521 0.1171320194813406 0 0.11923934643535521 0.1171320194813406 0 0.11184177323789279 0.12866158262702601 0 0.12877089149896251 0.12628235461406201 0 0.11057203073837581 0.10974959828000851 0 0.11923934643535521 0.1171320194813406 0 0.1204523462490521 0.10350528248164099 0 0.10718004060487731 0.1186919078288297 0 0.11923934643535521 0.1171320194813406 0 0.11184177323789279 0.12866158262702601 0 0.11923934643535521 0.1171320194813406 0 0.1204523462490521 0.10350528248164099 0 0.13278919984088661 0.11230677671938701 0 0.10882650996042049 0.098635597023528671 0 0.1204523462490521 0.10350528248164099 0 0.1175203890912727 0.086079419998433368 0 0.1204523462490521 0.10350528248164099 0 0.1175203890912727 0.086079419998433368 0 0.13376660142800201 0.097128283387147629 0 0.10882650996042049 0.098635597023528671 0 0.11057203073837581 0.10974959828000851 0 0.1204523462490521 0.10350528248164099 0 0.1175203890912727 0.086079419998433368 0 0.1220245952479405 0.07004619687739172 0 0.1035655079248483 0.069632380985197889 0 0.1133392402374467 0.053204142399891047 0 0.1220245952479405 0.07004619687739172 0 0.1035655079248483 0.069632380985197889 0 0.1175203890912727 0.086079419998433368 0 0.1035655079248483 0.069632380985197889 0 0.094785840925968687 0.084676668744557898 0 0.10882650996042049 0.098635597023528671 0 0.1175203890912727 0.086079419998433368 0 0.094785840925968687 0.084676668744557898 0 0.10882650996042049 0.098635597023528671 0 0.094785840925968687 0.084676668744557898 0 0.10882650996042049 0.098635597023528671 0 0.094785840925968687 0.084676668744557898 0 0.093532106097527157 0.097201512098380446 0 0.094785840925968687 0.084676668744557898 0 0.083309168386930019 0.090214104788044758 0 0.093532106097527157 0.097201512098380446 0 0.094785840925968687 0.084676668744557898 0 0.083309168386930019 0.090214104788044758 0 0.080745171891517087 0.070717740465586792 0 0.092977810154944648 0.053070117425326267 0 0.1035655079248483 0.069632380985197889 0 0.080745171891517087 0.070717740465586792 0 0.1035655079248483 0.069632380985197889 0 0.094785840925968687 0.084676668744557898 0 0.080745171891517087 0.070717740465586792 0 0.094785840925968687 0.084676668744557898 0 0.080745171891517087 0.070717740465586792 0 0.067806688972275458 0.057854581689803772 0 0.080745171891517087 0.070717740465586792 0 0.06101355018332804 0.07564509050647375 0 0.067806688972275458 0.057854581689803772 0 0.080745171891517087 0.070717740465586792 0 0.080745171891517087 0.070717740465586792 0 0.063512377127071362 0.095578924078155048 0 0.083309168386930019 0.090214104788044758 0 0.080745171891517087 0.070717740465586792 0 0.063512377127071362 0.095578924078155048 0 0.080745171891517087 0.070717740465586792 0 0.063512377127071362 0.095578924078155048 0 0.06101355018332804 0.07564509050647375 0 0.083309168386930019 0.090214104788044758 0 0.063512377127071362 0.095578924078155048 0 0.081417129447129324 0.1026867046713085 0 0.063512377127071362 0.095578924078155048 0 0.081417129447129324 0.1026867046713085 0 0.063512377127071362 0.095578924078155048 0 0.081417129447129324 0.1026867046713085 0 0.067817743154455989 0.1135840018968045 0 0.099321881767187231 0.10979448526446239 0 0.081417129447129324 0.1026867046713085 0 0.093532106097527157 0.097201512098380446 0 0.099321881767187231 0.10979448526446239 0 0.081417129447129324 0.1026867046713085 0 0.083309168386930019 0.090214104788044758 0 0.081417129447129324 0.1026867046713085 0 0.093532106097527157 0.097201512098380446 0 0.099321881767187231 0.10979448526446239 0 0.081417129447129324 0.1026867046713085 0 0.08262403040743542 0.1174427642681065 0 0.099321881767187231 0.10979448526446239 0 0.08262403040743542 0.1174427642681065 0 0.094925170845575335 0.12812185349131111 0 0.067817743154455989 0.1135840018968045 0 0.056785074219297037 0.123962922715022 0 0.069638226822829233 0.13302677601664631 0 0.08262403040743542 0.1174427642681065 0 0.067817743154455989 0.1135840018968045 0 0.069638226822829233 0.13302677601664631 0 0.081417129447129324 0.1026867046713085 0 0.08262403040743542 0.1174427642681065 0 0.067817743154455989 0.1135840018968045 0 0.067817743154455989 0.1135840018968045 0 0.056785074219297037 0.123962922715022 0 0.051472524226887043 0.11294842204475181 0 0.056785074219297037 0.123962922715022 0 0.051472524226887043 0.11294842204475181 0 0.045358146108277778 0.122235841909611 0 0.063512377127071362 0.095578924078155048 0 0.067817743154455989 0.1135840018968045 0 0.051472524226887043 0.11294842204475181 0 0.063512377127071362 0.095578924078155048 0 0.04894346805059932 0.099918275759685315 0 0.043712939932840048 0.087718996561209156 0 0.063512377127071362 0.095578924078155048 0 0.051472524226887043 0.11294842204475181 0 0.04894346805059932 0.099918275759685315 0 0.063512377127071362 0.095578924078155048 0 0.051472524226887043 0.11294842204475181 0 0.038417021745327531 0.1080037420749501 0 0.043712939932840048 0.087718996561209156 0 0.028330160343379221 0.096092512071592709 0 0.051472524226887043 0.11294842204475181 0 0.04894346805059932 0.099918275759685315 0 0.038417021745327531 0.1080037420749501 0 0.04894346805059932 0.099918275759685315 0 0.038417021745327531 0.1080037420749501 0 0.043712939932840048 0.087718996561209156 0 0.038417021745327531 0.1080037420749501 0 0.043712939932840048 0.087718996561209156 0 0.038417021745327531 0.1080037420749501 0 0.028403759718925791 0.1183090902513565 0 0.03312110355781811 0.12828848758869171 0 0.038417021745327531 0.1080037420749501 0 0.03312110355781811 0.12828848758869171 0 0.038417021745327531 0.1080037420749501 0 0.045358146108277778 0.122235841909611 0 0.03312110355781811 0.12828848758869171 0 0.051472524226887043 0.11294842204475181 0 0.038417021745327531 0.1080037420749501 0 0.045358146108277778 0.122235841909611 0 0.06101355018332804 0.07564509050647375 0 0.049290572992936238 0.066355209737614357 0 0.043712939932840048 0.087718996561209156 0 0.067806688972275458 0.057854581689803772 0 0.06101355018332804 0.07564509050647375 0 0.049290572992936238 0.066355209737614357 0 0.063512377127071362 0.095578924078155048 0 0.06101355018332804 0.07564509050647375 0 0.043712939932840048 0.087718996561209156 0 0.063512377127071362 0.095578924078155048 0 0.043712939932840048 0.087718996561209156 0 0.043712939932840048 0.087718996561209156 0 0.034829185389063419 0.071995956884763276 0 0.02079066235970875 0.078619372239532512 0 0.043712939932840048 0.087718996561209156 0 0.02079066235970875 0.078619372239532512 0 0.032141493454138102 0.060275729162332752 0 0.049290572992936238 0.066355209737614357 0 0.034829185389063419 0.071995956884763276 0 0.049290572992936238 0.066355209737614357 0 0.043712939932840048 0.087718996561209156 0 0.049290572992936238 0.066355209737614357 0 0.043712939932840048 0.087718996561209156 0 0.034829185389063419 0.071995956884763276 0 0.032141493454138102 0.060275729162332752 0 0.034829185389063419 0.071995956884763276 0 0.021142096610139102 0.064673842397447556 0 0.034829185389063419 0.071995956884763276 0 0.021142096610139102 0.064673842397447556 0 0.02079066235970875 0.078619372239532512 0 0.021142096610139102 0.064673842397447556 0 0.02079066235970875 0.078619372239532512 0 0.0078113760670387236 0.068869370431613411 0 0.043712939932840048 0.087718996561209156 0 0.02079066235970875 0.078619372239532512 0 0.028330160343379221 0.096092512071592709 0 0.02079066235970875 0.078619372239532512 0 0.028330160343379221 0.096092512071592709 0 0.013121597576430799 0.098285986815611973 0 -0.0022168413230157229 0.085736250976024914 0 0.0078113760670387236 0.068869370431613411 0 0.013121597576430799 0.098285986815611973 0 0.02079066235970875 0.078619372239532512 0 0.0078113760670387236 0.068869370431613411 0 0.013121597576430799 0.098285986815611973 0 0.0078113760670387236 0.068869370431613411 0 0.013121597576430799 0.098285986815611973 0 0.021142096610139102 0.064673842397447556 0 0.0078113760670387236 0.068869370431613411 0 0.013121597576430799 0.098285986815611973 0 0.018955942675363529 0.12769885014017149 0 0.018915766464259819 0.12208814763948179 0 0.025608580102588829 0.10783446266666021 0 0.013121597576430799 0.098285986815611973 0 0.018915766464259819 0.12208814763948179 0 0.013121597576430799 0.098285986815611973 0 0.018955942675363529 0.12769885014017149 0 0.018915766464259819 0.12208814763948179 0 0.018955942675363529 0.12769885014017149 0 0.028403759718925791 0.1183090902513565 0 0.025756287217072099 0.1254558848223972 0 0.03312110355781811 0.12828848758869171 0 0.018915766464259819 0.12208814763948179 0 0.028403759718925791 0.1183090902513565 0 0.025756287217072099 0.1254558848223972 0 0.038417021745327531 0.1080037420749501 0 0.028403759718925791 0.1183090902513565 0 0.025608580102588829 0.10783446266666021 0 0.018915766464259819 0.12208814763948179 0 0.028403759718925791 0.1183090902513565 0 0.025608580102588829 0.10783446266666021 0 0.038417021745327531 0.1080037420749501 0 0.025608580102588829 0.10783446266666021 0 0.028330160343379221 0.096092512071592709 0 0.025608580102588829 0.10783446266666021 0 0.028330160343379221 0.096092512071592709 0 0.013121597576430799 0.098285986815611973 0 -0.0093267163156350585 0.10220622611456499 0 -0.0022168413230157229 0.085736250976024914 0 0.013121597576430799 0.098285986815611973 0 -0.0093267163156350585 0.10220622611456499 0 0.013121597576430799 0.098285986815611973 0 0.0088418889268726004 0.1125261115153213 0 -0.0015382865690094869 0.1195819360983075 0 0.0088418889268726004 0.1125261115153213 0 0.0068357907514690393 0.1194307534492897 0 0.013121597576430799 0.098285986815611973 0 0.0088418889268726004 0.1125261115153213 0 0.018955942675363529 0.12769885014017149 0 0.01159030187937234 0.123800118292041 0 0.0068357907514690393 0.1194307534492897 0 0.0093864348306887096 0.12963523465885829 0 0.0088418889268726004 0.1125261115153213 0 0.01159030187937234 0.123800118292041 0 0.0068357907514690393 0.1194307534492897 0 0.0088418889268726004 0.1125261115153213 0 0.01159030187937234 0.123800118292041 0 0.018955942675363529 0.12769885014017149 0 -0.0015382865690094869 0.1195819360983075 0 0.0068357907514690393 0.1194307534492897 0 0.0028297340199113529 0.12737786763030409 0 0.0068357907514690393 0.1194307534492897 0 0.0028297340199113529 0.12737786763030409 0 0.0093864348306887096 0.12963523465885829 0 0.0028297340199113529 0.12737786763030409 0 0.0012022958327204049 0.13426380270999949 0 0.0063902301850321547 0.13414384741273511 0 0.0028297340199113529 0.12737786763030409 0 0.0063902301850321547 0.13414384741273511 0 0.0093864348306887096 0.12963523465885829 0 0.000228448927285114 0.14012311706009631 0 0.0012022958327204049 0.13426380270999949 0 0.0046739851119457828 0.13844047711548191 0 0.0012022958327204049 0.13426380270999949 0 0.0063902301850321547 0.13414384741273511 0 0.0046739851119457828 0.13844047711548191 0 0.0063902301850321547 0.13414384741273511 0 0.0046739851119457828 0.13844047711548191 0 0.0087417741184536643 0.13987837293796551 0 0.0063902301850321547 0.13414384741273511 0 0.0087417741184536643 0.13987837293796551 0 0.01188448664637911 0.13630481734698929 0 0.0087417741184536643 0.13987837293796551 0 0.01188448664637911 0.13630481734698929 0 0.01238480926519909 0.14086949425419931 0 0.0063902301850321547 0.13414384741273511 0 0.01188448664637911 0.13630481734698929 0 0.0093864348306887096 0.12963523465885829 0 0.01538181754864224 0.13462442671806851 0 0.01188448664637911 0.13630481734698929 0 0.01363814740762942 0.13063558522106289 0 0.01538181754864224 0.13462442671806851 0 0.01188448664637911 0.13630481734698929 0 0.014424460637306021 0.13832412831929569 0 0.01188448664637911 0.13630481734698929 0 0.014424460637306021 0.13832412831929569 0 0.01238480926519909 0.14086949425419931 0 0.014424460637306021 0.13832412831929569 0 0.01238480926519909 0.14086949425419931 0 0.015363480448823189 0.14129096320990631 0 0.01159030187937234 0.123800118292041 0 0.0093864348306887096 0.12963523465885829 0 0.01363814740762942 0.13063558522106289 0 0.01188448664637911 0.13630481734698929 0 0.0093864348306887096 0.12963523465885829 0 0.01363814740762942 0.13063558522106289 0 0.01159030187937234 0.123800118292041 0 0.01363814740762942 0.13063558522106289 0 0.018955942675363529 0.12769885014017149 0 0.018915766464259819 0.12208814763948179 0 0.018955942675363529 0.12769885014017149 0 0.022387711081268351 0.13069146168119281 0 0.025814451866404291 0.1323851931955756 0 0.019064338777337181 0.1428366210673169 0 0.044351282800083193 0.13793169854198151 0 0.018915766464259819 0.12208814763948179 0 0.022387711081268351 0.13069146168119281 0 0.025756287217072099 0.1254558848223972 0 0.01538181754864224 0.13462442671806851 0 0.01363814740762942 0.13063558522106289 0 0.018955942675363529 0.12769885014017149 0 0.022387711081268351 0.13069146168119281 0 0.025814451866404291 0.1323851931955756 0 0.019064338777337181 0.1428366210673169 0 0.01538181754864224 0.13462442671806851 0 0.018955942675363529 0.12769885014017149 0 0.01710770927748647 0.13853094006731531 0 0.018955942675363529 0.12769885014017149 0 0.01710770927748647 0.13853094006731531 0 0.019064338777337181 0.1428366210673169 0 0.018955942675363529 0.12769885014017149 0 0.019064338777337181 0.1428366210673169 0 0.018955942675363529 0.12769885014017149 0 0.022387711081268351 0.13069146168119281 0 0.019064338777337181 0.1428366210673169 0 0.01538181754864224 0.13462442671806851 0 0.014424460637306021 0.13832412831929569 0 0.01710770927748647 0.13853094006731531 0 0.014424460637306021 0.13832412831929569 0 0.01710770927748647 0.13853094006731531 0 0.015363480448823189 0.14129096320990631 0 0.01710770927748647 0.13853094006731531 0 0.017202595513394939 0.14154074390788901 0 0.015363480448823189 0.14129096320990631 0 0.025756287217072099 0.1254558848223972 0 0.025814451866404291 0.1323851931955756 0 0.03312110355781811 0.12828848758869171 0 0.022387711081268351 0.13069146168119281 0 0.025756287217072099 0.1254558848223972 0 0.025814451866404291 0.1323851931955756 0 0.019064338777337181 0.1428366210673169 0 0.01923932509198778 0.16727387202292701 0 0.034840635627581551 0.15270641195697809 0 0.019064338777337181 0.1428366210673169 0 0.01923932509198778 0.16727387202292701 0 0.01710770927748647 0.13853094006731531 0 0.019064338777337181 0.1428366210673169 0 0.017202595513394939 0.14154074390788901 0 0.019064338777337181 0.1428366210673169 0 0.017214352546369539 0.14319546392027949 0 0.017202595513394939 0.14154074390788901 0 0.019064338777337181 0.1428366210673169 0 0.017214352546369539 0.14319546392027949 0 0.017214352546369539 0.14319546392027949 0 0.017202595513394939 0.14154074390788901 0 0.015363480448823189 0.14129096320990631 0 0.019064338777337181 0.1428366210673169 0 0.010573304973877311 0.14810099588445341 0 0.0097219217107780143 0.1605441304936322 0 0.019064338777337181 0.1428366210673169 0 0.017214352546369539 0.14319546392027949 0 0.010573304973877311 0.14810099588445341 0 0.017214352546369539 0.14319546392027949 0 0.015363480448823189 0.14129096320990631 0 0.01311844662929992 0.14341517628664141 0 0.01238480926519909 0.14086949425419931 0 0.015363480448823189 0.14129096320990631 0 0.01311844662929992 0.14341517628664141 0 0.01238480926519909 0.14086949425419931 0 0.01311844662929992 0.14341517628664141 0 0.010056285912230499 0.14361896416436881 0 0.017214352546369539 0.14319546392027949 0 0.01311844662929992 0.14341517628664141 0 0.010573304973877311 0.14810099588445341 0 0.010573304973877311 0.14810099588445341 0 0.010056285912230499 0.14361896416436881 0 0.0052711451322874966 0.14430649706712931 0 0.01311844662929992 0.14341517628664141 0 0.010573304973877311 0.14810099588445341 0 0.010056285912230499 0.14361896416436881 0 0.0087417741184536643 0.13987837293796551 0 0.010056285912230499 0.14361896416436881 0 0.0052711451322874966 0.14430649706712931 0 0.0087417741184536643 0.13987837293796551 0 0.01238480926519909 0.14086949425419931 0 0.010056285912230499 0.14361896416436881 0 0.010573304973877311 0.14810099588445341 0 0.0052711451322874966 0.14430649706712931 0 0.002037105597096525 0.15151695060409001 0 0.0046739851119457828 0.13844047711548191 0 0.0087417741184536643 0.13987837293796551 0 0.0052711451322874966 0.14430649706712931 0 -0.001932496299644968 0.1459540675981712 0 0.0052711451322874966 0.14430649706712931 0 0.002037105597096525 0.15151695060409001 0 -0.001932496299644968 0.1459540675981712 0 0.000228448927285114 0.14012311706009631 0 0.0052711451322874966 0.14430649706712931 0 0.000228448927285114 0.14012311706009631 0 0.0046739851119457828 0.13844047711548191 0 0.0052711451322874966 0.14430649706712931 0 0.010573304973877311 0.14810099588445341 0 0.002037105597096525 0.15151695060409001 0 0.0097219217107780143 0.1605441304936322 0 -0.001399927819642065 0.15853034608675531 0 9.8439874396488518e-06 0.16909653965514321 0 0.0097219217107780143 0.1605441304936322 0 9.8439874396488518e-06 0.16909653965514321 0 0.0097219217107780143 0.1605441304936322 0 0.01923932509198778 0.16727387202292701 0 -0.001399927819642065 0.15853034608675531 0 0.002037105597096525 0.15151695060409001 0 0.0097219217107780143 0.1605441304936322 0 0.0075192663374202447 0.1824792222503463 0 0.01923932509198778 0.16727387202292701 0 0.019414311406637581 0.19171112297853721 0 9.8439874396488518e-06 0.16909653965514321 0 0.0075192663374202447 0.1824792222503463 0 0.01923932509198778 0.16727387202292701 0 -0.0058150648891281392 0.18464487058732859 0 9.8439874396488518e-06 0.16909653965514321 0 0.0075192663374202447 0.1824792222503463 0 0.01923932509198778 0.16727387202292701 0 0.019414311406637581 0.19171112297853721 0 0.01923932509198778 0.16727387202292701 0 0.041253151311174942 0.18351428487242299 0 0.019414311406637581 0.19171112297853721 0 0.019064338777337181 0.1428366210673169 0 0.0097219217107780143 0.1605441304936322 0 0.01923932509198778 0.16727387202292701 0 0.01923932509198778 0.16727387202292701 0 0.045192968381937218 0.16506141320240761 0 0.034840635627581551 0.15270641195697809 0 0.01923932509198778 0.16727387202292701 0 0.045192968381937218 0.16506141320240761 0 0.041253151311174942 0.18351428487242299 0 0.041253151311174942 0.18351428487242299 0 0.056495320393279057 0.1758938039325593 0 0.06399941055398814 0.19765529411200519 0 0.045192968381937218 0.16506141320240761 0 0.041253151311174942 0.18351428487242299 0 0.056495320393279057 0.1758938039325593 0 0.045192968381937218 0.16506141320240761 0 0.058418108920392182 0.16045602069262471 0 0.053913444208845418 0.15009958673064799 0 0.045192968381937218 0.16506141320240761 0 0.056495320393279057 0.1758938039325593 0 0.058418108920392182 0.16045602069262471 0 0.058418108920392182 0.16045602069262471 0 0.053913444208845418 0.15009958673064799 0 0.071039442700249214 0.1514151999732502 0 0.053913444208845418 0.15009958673064799 0 0.044351282800083193 0.13793169854198151 0 0.069638226822829233 0.13302677601664631 0 0.044351282800083193 0.13793169854198151 0 0.069638226822829233 0.13302677601664631 0 0.056785074219297037 0.123962922715022 0 0.045358146108277778 0.122235841909611 0 0.044351282800083193 0.13793169854198151 0 0.056785074219297037 0.123962922715022 0 0.044351282800083193 0.13793169854198151 0 0.069638226822829233 0.13302677601664631 0 0.025814451866404291 0.1323851931955756 0 0.044351282800083193 0.13793169854198151 0 0.03312110355781811 0.12828848758869171 0 0.045358146108277778 0.122235841909611 0 0.044351282800083193 0.13793169854198151 0 0.03312110355781811 0.12828848758869171 0 0.019064338777337181 0.1428366210673169 0 0.044351282800083193 0.13793169854198151 0 0.053913444208845418 0.15009958673064799 0 0.044351282800083193 0.13793169854198151 0 0.034840635627581551 0.15270641195697809 0 0.045192968381937218 0.16506141320240761 0 0.053913444208845418 0.15009958673064799 0 0.034840635627581551 0.15270641195697809 0 0.019064338777337181 0.1428366210673169 0 0.044351282800083193 0.13793169854198151 0 0.034840635627581551 0.15270641195697809 0 0.019733428038529611 0.23627651218177001 0 0.032395297456559217 0.24990448186487541 0 0.01992807415890703 0.26345930130890138 0 0.019733428038529611 0.23627651218177001 0 0.01992807415890703 0.26345930130890138 0 0.019733428038529611 0.23627651218177001 0 0.032900500049065431 0.23758744706011731 0 0.032395297456559217 0.24990448186487541 0 0.019733428038529611 0.23627651218177001 0 0.032900500049065431 0.23758744706011731 0 -0.0054403593235216562 0.23377016940133941 0 0.019733428038529611 0.23627651218177001 0 -0.0054403593235216562 0.23377016940133941 0 0.019733428038529611 0.23627651218177001 0 0.0051881906427589239 0.2429023142665572 0 0.019733428038529611 0.23627651218177001 0 0.0051881906427589239 0.2429023142665572 0 0.0108212759879371 0.25143582124693198 0 -0.004361582131907446 0.25012675423618741 0 0.0051881906427589239 0.2429023142665572 0 0.0108212759879371 0.25143582124693198 0 -0.0054403593235216562 0.23377016940133941 0 0.019733428038529611 0.23627651218177001 0 0.0022205822065663882 0.22338098429998751 0 0.0022205822065663882 0.22338098429998751 0 0.019589297721289551 0.2161483739341474 0 0.019733428038529611 0.23627651218177001 0 0.0022205822065663882 0.22338098429998751 0 0.019589297721289551 0.2161483739341474 0 0.019733428038529611 0.23627651218177001 0 0.019589297721289551 0.2161483739341474 0 0.034101449494264802 0.22244897456428839 0 0.019733428038529611 0.23627651218177001 0 0.019589297721289551 0.2161483739341474 0 0.019733428038529611 0.23627651218177001 0 0.034101449494264802 0.22244897456428839 0 0.032900500049065431 0.23758744706011731 0 0.019589297721289551 0.2161483739341474 0 0.019414311406637581 0.19171112297853721 0 0.041794354137638927 0.20690183402307669 0 0.019589297721289551 0.2161483739341474 0 0.041794354137638927 0.20690183402307669 0 0.019589297721289551 0.2161483739341474 0 0.019414311406637581 0.19171112297853721 0 -0.001618838316679704 0.21186515805952549 0 0.0022205822065663882 0.22338098429998751 0 0.019589297721289551 0.2161483739341474 0 -0.001618838316679704 0.21186515805952549 0 0.019589297721289551 0.2161483739341474 0 0.0047479160901643591 0.19966970600779571 0 0.0075192663374202447 0.1824792222503463 0 0.0047479160901643591 0.19966970600779571 0 0.019414311406637581 0.19171112297853721 0 0.019589297721289551 0.2161483739341474 0 0.0047479160901643591 0.19966970600779571 0 0.019414311406637581 0.19171112297853721 0 -0.0058150648891281392 0.18464487058732859 0 0.0075192663374202447 0.1824792222503463 0 0.0047479160901643591 0.19966970600779571 0 0.041253151311174942 0.18351428487242299 0 0.019414311406637581 0.19171112297853721 0 0.041794354137638927 0.20690183402307669 0 0.041253151311174942 0.18351428487242299 0 0.041794354137638927 0.20690183402307669 0 0.06399941055398814 0.19765529411200519 0 0.041794354137638927 0.20690183402307669 0 0.06399941055398814 0.19765529411200519 0 0.061093413050727782 0.21440081318481749 0 0.041794354137638927 0.20690183402307669 0 0.06399941055398814 0.19765529411200519 0 0.061093413050727782 0.21440081318481749 0 0.041794354137638927 0.20690183402307669 0 0.049967951794046297 0.22590254710105601 0 0.019589297721289551 0.2161483739341474 0 0.041794354137638927 0.20690183402307669 0 0.034101449494264802 0.22244897456428839 0 0.041794354137638927 0.20690183402307669 0 0.034101449494264802 0.22244897456428839 0 0.049967951794046297 0.22590254710105601 0 0.034101449494264802 0.22244897456428839 0 0.049967951794046297 0.22590254710105601 0 0.032900500049065431 0.23758744706011731 0 0.049967951794046297 0.22590254710105601 0 0.049298807743375681 0.24401567068345059 0 0.070152213389441304 0.23042254488525729 0 0.061093413050727782 0.21440081318481749 0 0.049967951794046297 0.22590254710105601 0 0.070152213389441304 0.23042254488525729 0 0.049298807743375681 0.24401567068345059 0 0.032900500049065431 0.23758744706011731 0 0.032395297456559217 0.24990448186487541 0 0.049967951794046297 0.22590254710105601 0 0.049298807743375681 0.24401567068345059 0 0.032900500049065431 0.23758744706011731 0 0.081494970558903312 0.2413152449973858 0 0.068539877812152941 0.25484826761588569 0 0.094153496178737847 0.25278652485753728 0 0.081494970558903312 0.2413152449973858 0 0.092408256837057293 0.22639029288367121 0 0.094153496178737847 0.25278652485753728 0 0.081494970558903312 0.2413152449973858 0 0.070152213389441304 0.23042254488525729 0 0.068539877812152941 0.25484826761588569 0 0.049298807743375681 0.24401567068345059 0 0.070152213389441304 0.23042254488525729 0 0.068539877812152941 0.25484826761588569 0 0.070152213389441304 0.23042254488525729 0 0.079553135378524209 0.21112184580269211 0 0.081494970558903312 0.2413152449973858 0 0.070152213389441304 0.23042254488525729 0 0.092408256837057293 0.22639029288367121 0 0.070152213389441304 0.23042254488525729 0 0.092408256837057293 0.22639029288367121 0 0.079553135378524209 0.21112184580269211 0 0.092408256837057293 0.22639029288367121 0 0.090685729118578778 0.2092827598877062 0 0.079553135378524209 0.21112184580269211 0 0.090685729118578778 0.2092827598877062 0 0.079553135378524209 0.21112184580269211 0 0.088954057367607559 0.19182114672012679 0 0.061093413050727782 0.21440081318481749 0 0.070152213389441304 0.23042254488525729 0 0.079553135378524209 0.21112184580269211 0 0.061093413050727782 0.21440081318481749 0 0.079553135378524209 0.21112184580269211 0 0.06399941055398814 0.19765529411200519 0 0.079553135378524209 0.21112184580269211 0 0.06399941055398814 0.19765529411200519 0 0.086204466970337151 0.18840875420093359 0 0.06399941055398814 0.19765529411200519 0 0.086204466970337151 0.18840875420093359 0 0.079553135378524209 0.21112184580269211 0 0.088954057367607559 0.19182114672012679 0 0.079553135378524209 0.21112184580269211 0 0.086204466970337151 0.18840875420093359 0 0.088954057367607559 0.19182114672012679 0 0.088954057367607559 0.19182114672012679 0 0.091738629482519291 0.1861042405989983 0 0.086204466970337151 0.18840875420093359 0 0.088954057367607559 0.19182114672012679 0 0.091738629482519291 0.1861042405989983 0 0.086204466970337151 0.18840875420093359 0 0.088954057367607559 0.19182114672012679 0 0.10188013338443321 0.1945805347119858 0 0.1223034951297057 0.2015047654836217 0 0.1018274668911264 0.2077977541443348 0 0.090685729118578778 0.2092827598877062 0 0.088954057367607559 0.19182114672012679 0 0.1018274668911264 0.2077977541443348 0 0.088954057367607559 0.19182114672012679 0 0.10188013338443321 0.1945805347119858 0 0.1018274668911264 0.2077977541443348 0 0.088954057367607559 0.19182114672012679 0 0.1018274668911264 0.2077977541443348 0 0.088954057367607559 0.19182114672012679 0 0.10188013338443321 0.1945805347119858 0 0.091738629482519291 0.1861042405989983 0 0.10188013338443321 0.1945805347119858 0 0.1223034951297057 0.2015047654836217 0 0.1143056367611561 0.17670697857169981 0 0.1223034951297057 0.2015047654836217 0 0.1018274668911264 0.2077977541443348 0 0.11470087641464451 0.22377436156854341 0 0.1223034951297057 0.2015047654836217 0 0.11470087641464451 0.22377436156854341 0 0.12985428442346111 0.22473904082679019 0 0.092408256837057293 0.22639029288367121 0 0.090685729118578778 0.2092827598877062 0 0.1018274668911264 0.2077977541443348 0 0.1018274668911264 0.2077977541443348 0 0.11470087641464451 0.22377436156854341 0 0.092408256837057293 0.22639029288367121 0 0.11470087641464451 0.22377436156854341 0 0.1077236677954151 0.23904346403323151 0 0.092408256837057293 0.22639029288367121 0 0.1018274668911264 0.2077977541443348 0 0.11470087641464451 0.22377436156854341 0 0.11470087641464451 0.22377436156854341 0 0.12757428593816261 0.239750968992752 0 0.11470087641464451 0.22377436156854341 0 0.1077236677954151 0.23904346403323151 0 0.12757428593816261 0.239750968992752 0 0.11470087641464451 0.22377436156854341 0 0.12757428593816261 0.239750968992752 0 0.12985428442346111 0.22473904082679019 0 0.1077236677954151 0.23904346403323151 0 0.12757428593816261 0.239750968992752 0 0.1197671145453226 0.2507247820991888 0 0.1077236677954151 0.23904346403323151 0 0.1197671145453226 0.2507247820991888 0 0.094153496178737847 0.25278652485753728 0 0.092408256837057293 0.22639029288367121 0 0.1077236677954151 0.23904346403323151 0 0.094153496178737847 0.25278652485753728 0 0.089241880289002096 0.14489141207420311 0 0.071039442700249214 0.1514151999732502 0 0.087740544640930687 0.16123122417456451 0 0.08262403040743542 0.1174427642681065 0 0.069638226822829233 0.13302677601664631 0 0.094925170845575335 0.12812185349131111 0 0.069638226822829233 0.13302677601664631 0 0.094925170845575335 0.12812185349131111 0 0.089241880289002096 0.14489141207420311 0 0.069638226822829233 0.13302677601664631 0 0.094925170845575335 0.12812185349131111 0 0.053913444208845418 0.15009958673064799 0 0.069638226822829233 0.13302677601664631 0 0.071039442700249214 0.1514151999732502 0 0.089241880289002096 0.14489141207420311 0 0.069638226822829233 0.13302677601664631 0 0.071039442700249214 0.1514151999732502 0 0.058418108920392182 0.16045602069262471 0 0.071039442700249214 0.1514151999732502 0 0.073612962798902823 0.17278200678333611 0 0.071039442700249214 0.1514151999732502 0 0.073612962798902823 0.17278200678333611 0 0.087740544640930687 0.16123122417456451 0 0.056495320393279057 0.1758938039325593 0 0.058418108920392182 0.16045602069262471 0 0.073612962798902823 0.17278200678333611 0 0.06399941055398814 0.19765529411200519 0 0.086204466970337151 0.18840875420093359 0 0.073612962798902823 0.17278200678333611 0 0.056495320393279057 0.1758938039325593 0 0.06399941055398814 0.19765529411200519 0 0.073612962798902823 0.17278200678333611 0 0.086204466970337151 0.18840875420093359 0 0.073612962798902823 0.17278200678333611 0 0.086204466970337151 0.18840875420093359 0 0.073612962798902823 0.17278200678333611 0 0.087615468279621078 0.1760345128920231 0 0.087615468279621078 0.1760345128920231 0 0.091738629482519291 0.1861042405989983 0 0.098780737505415703 0.17164633870228399 0 0.086204466970337151 0.18840875420093359 0 0.087615468279621078 0.1760345128920231 0 0.091738629482519291 0.1861042405989983 0 0.086204466970337151 0.18840875420093359 0 0.091738629482519291 0.1861042405989983 0 0.073612962798902823 0.17278200678333611 0 0.087615468279621078 0.1760345128920231 0 0.087740544640930687 0.16123122417456451 0 0.087615468279621078 0.1760345128920231 0 0.087740544640930687 0.16123122417456451 0 0.098780737505415703 0.17164633870228399 0 0.087740544640930687 0.16123122417456451 0 0.098780737505415703 0.17164633870228399 0 0.10582284552831139 0.15718843680556929 0 0.098780737505415703 0.17164633870228399 0 0.1143056367611561 0.17670697857169981 0 0.11439408025226031 0.1643128731168863 0 0.098780737505415703 0.17164633870228399 0 0.10582284552831139 0.15718843680556929 0 0.11439408025226031 0.1643128731168863 0 0.098780737505415703 0.17164633870228399 0 0.10582284552831139 0.15718843680556929 0 0.091738629482519291 0.1861042405989983 0 0.1143056367611561 0.17670697857169981 0 0.10188013338443321 0.1945805347119858 0 0.091738629482519291 0.1861042405989983 0 0.1143056367611561 0.17670697857169981 0 0.091738629482519291 0.1861042405989983 0 0.098780737505415703 0.17164633870228399 0 0.1143056367611561 0.17670697857169981 0 0.091738629482519291 0.1861042405989983 0 0.098780737505415703 0.17164633870228399 0 0.1223034951297057 0.2015047654836217 0 0.1143056367611561 0.17670697857169981 0 0.12984245568560021 0.18336402612102581 0 0.10582284552831139 0.15718843680556929 0 0.11439408025226031 0.1643128731168863 0 0.118827144549028 0.15045938834785799 0 0.1143056367611561 0.17670697857169981 0 0.11439408025226031 0.1643128731168863 0 0.1269873440417035 0.1621457976822499 0 0.11439408025226031 0.1643128731168863 0 0.118827144549028 0.15045938834785799 0 0.1269873440417035 0.1621457976822499 0 0.10582284552831139 0.15718843680556929 0 0.118827144549028 0.15045938834785799 0 0.1060715668831175 0.14085190817348309 0 0.118827144549028 0.15045938834785799 0 0.1060715668831175 0.14085190817348309 0 0.12165438094055341 0.1382202250837688 0 0.089241880289002096 0.14489141207420311 0 0.10582284552831139 0.15718843680556929 0 0.1060715668831175 0.14085190817348309 0 0.089241880289002096 0.14489141207420311 0 0.087740544640930687 0.16123122417456451 0 0.10582284552831139 0.15718843680556929 0 0.1060715668831175 0.14085190817348309 0 0.094925170845575335 0.12812185349131111 0 0.11184177323789279 0.12866158262702601 0 0.10718004060487731 0.1186919078288297 0 0.094925170845575335 0.12812185349131111 0 0.11184177323789279 0.12866158262702601 0 0.089241880289002096 0.14489141207420311 0 0.1060715668831175 0.14085190817348309 0 0.094925170845575335 0.12812185349131111 0 0.11184177323789279 0.12866158262702601 0 0.12165438094055341 0.1382202250837688 0 0.12877089149896251 0.12628235461406201 0 0.1060715668831175 0.14085190817348309 0 0.11184177323789279 0.12866158262702601 0 0.12165438094055341 0.1382202250837688 0 0.12877089149896251 0.12628235461406201 0 0.13720160688724839 0.13964518263404729 0 0.14559099576285081 0.1211645137464301 0 0.12165438094055341 0.1382202250837688 0 0.13720160688724839 0.13964518263404729 0 0.12165438094055341 0.1382202250837688 0 0.12877089149896251 0.12628235461406201 0 0.13720160688724839 0.13964518263404729 0 0.13720160688724839 0.13964518263404729 0 0.15632661280319129 0.13068902382275449 0 0.14559099576285081 0.1211645137464301 0 0.13720160688724839 0.13964518263404729 0 0.14559099576285081 0.1211645137464301 0 0.13720160688724839 0.13964518263404729 0 0.15632661280319129 0.13068902382275449 0 0.16429194695006341 0.14212810690262639 0 0.13720160688724839 0.13964518263404729 0 0.16429194695006341 0.14212810690262639 0 0.13720160688724839 0.13964518263404729 0 0.14941591407077959 0.14904867938194569 0 0.13673045112737631 0.1565089734740045 0 0.13720160688724839 0.13964518263404729 0 0.14941591407077959 0.14904867938194569 0 0.16429194695006341 0.14212810690262639 0 0.14941591407077959 0.14904867938194569 0 0.13673045112737631 0.1565089734740045 0 0.15943965131843141 0.15791245451710681 0 0.118827144549028 0.15045938834785799 0 0.13720160688724839 0.13964518263404729 0 0.1269873440417035 0.1621457976822499 0 0.13720160688724839 0.13964518263404729 0 0.1269873440417035 0.1621457976822499 0 0.13720160688724839 0.13964518263404729 0 0.1269873440417035 0.1621457976822499 0 0.13673045112737631 0.1565089734740045 0 0.118827144549028 0.15045938834785799 0 0.12165438094055341 0.1382202250837688 0 0.13720160688724839 0.13964518263404729 0 0.1143056367611561 0.17670697857169981 0 0.1269873440417035 0.1621457976822499 0 0.1368726440397933 0.1673097165444021 0 0.1269873440417035 0.1621457976822499 0 0.1368726440397933 0.1673097165444021 0 0.13673045112737631 0.1565089734740045 0 0.1143056367611561 0.17670697857169981 0 0.1368726440397933 0.1673097165444021 0 0.12984245568560021 0.18336402612102581 0 0.1143056367611561 0.17670697857169981 0 0.1368726440397933 0.1673097165444021 0 0.1368726440397933 0.1673097165444021 0 0.12984245568560021 0.18336402612102581 0 0.14395995749662011 0.19046676877908139 0 0.1368726440397933 0.1673097165444021 0 0.1557014301669345 0.17418450516490519 0 0.14395995749662011 0.19046676877908139 0 0.13673045112737631 0.1565089734740045 0 0.15943965131843141 0.15791245451710681 0 0.1368726440397933 0.1673097165444021 0 0.15943965131843141 0.15791245451710681 0 0.1368726440397933 0.1673097165444021 0 0.1557014301669345 0.17418450516490519 0 0.15943965131843141 0.15791245451710681 0 0.1368726440397933 0.1673097165444021 0 0.13673045112737631 0.1565089734740045 0 0.15943965131843141 0.15791245451710681 0 0.1557014301669345 0.17418450516490519 0 0.15943965131843141 0.15791245451710681 0 0.16838221510295989 0.1692040805085635 0 0.15943965131843141 0.15791245451710681 0 0.16838221510295989 0.1692040805085635 0 0.17970147406593759 0.15916468197935521 0 0.15943965131843141 0.15791245451710681 0 0.17970147406593759 0.15916468197935521 0 0.1557014301669345 0.17418450516490519 0 0.16985268287686869 0.18602950547537461 0 0.14395995749662011 0.19046676877908139 0 0.1557014301669345 0.17418450516490519 0 0.16838221510295989 0.1692040805085635 0 0.16985268287686869 0.18602950547537461 0 0.16985268287686869 0.18602950547537461 0 0.17776577537378679 0.1717491724038096 0 0.19009851561998109 0.17546705170333859 0 0.16985268287686869 0.18602950547537461 0 0.1921007491770006 0.19413511782623061 0 0.19009851561998109 0.17546705170333859 0 0.16838221510295989 0.1692040805085635 0 0.16985268287686869 0.18602950547537461 0 0.17776577537378679 0.1717491724038096 0 0.17776577537378679 0.1717491724038096 0 0.17970147406593759 0.15916468197935521 0 0.19009851561998109 0.17546705170333859 0 0.16838221510295989 0.1692040805085635 0 0.17776577537378679 0.1717491724038096 0 0.17970147406593759 0.15916468197935521 0 0.17970147406593759 0.15916468197935521 0 0.17541096916565421 0.151261742844153 0 0.19138228701287849 0.14461103117120311 0 0.17541096916565421 0.151261742844153 0 0.19138228701287849 0.14461103117120311 0 0.17541096916565421 0.151261742844153 0 0.16429194695006341 0.14212810690262639 0 0.19138228701287849 0.14461103117120311 0 0.16429194695006341 0.14212810690262639 0 0.19138228701287849 0.14461103117120311 0 0.1826996939178501 0.134395064982826 0 0.17014020092281509 0.1303647164313487 0 0.16429194695006341 0.14212810690262639 0 0.1826996939178501 0.134395064982826 0 0.16429194695006341 0.14212810690262639 0 0.19138228701287849 0.14461103117120311 0 0.1826996939178501 0.134395064982826 0 0.19400001601888209 0.1301444430180784 0 0.18282874988353909 0.12176719670840121 0 0.1826996939178501 0.134395064982826 0 0.17014020092281509 0.1303647164313487 0 0.18282874988353909 0.12176719670840121 0 0.17014020092281509 0.1303647164313487 0 0.15632661280319129 0.13068902382275449 0 0.1644083134929788 0.12014259939932 0 0.17014020092281509 0.1303647164313487 0 0.15632661280319129 0.13068902382275449 0 0.16429194695006341 0.14212810690262639 0 0.14941591407077959 0.14904867938194569 0 0.15943965131843141 0.15791245451710681 0 0.16429194695006341 0.14212810690262639 0 0.15943965131843141 0.15791245451710681 0 0.17970147406593759 0.15916468197935521 0 0.17541096916565421 0.151261742844153 0 0.15943965131843141 0.15791245451710681 0 0.17541096916565421 0.151261742844153 0 0.15943965131843141 0.15791245451710681 0 0.17541096916565421 0.151261742844153 0 0.16429194695006341 0.14212810690262639 0 0.15269041899089261 0.24018887904249059 0 0.1453807329119074 0.24866303934084041 0 0.15466915334416509 0.25190660019890743 0 0.15269041899089261 0.24018887904249059 0 0.1453807329119074 0.24866303934084041 0 0.14060451702156199 0.2357308345711725 0 0.1453807329119074 0.24866303934084041 0 0.12757428593816261 0.239750968992752 0 0.14060451702156199 0.2357308345711725 0 0.1453807329119074 0.24866303934084041 0 0.1197671145453226 0.2507247820991888 0 0.1453807329119074 0.24866303934084041 0 0.12757428593816261 0.239750968992752 0 0.1197671145453226 0.2507247820991888 0 0.14060451702156199 0.2357308345711725 0 0.12985428442346111 0.22473904082679019 0 0.14752286284338639 0.22531224465298941 0 0.12985428442346111 0.22473904082679019 0 0.14752286284338639 0.22531224465298941 0 0.1398831682024731 0.2101323370399282 0 0.12757428593816261 0.239750968992752 0 0.14060451702156199 0.2357308345711725 0 0.12985428442346111 0.22473904082679019 0 0.15269041899089261 0.24018887904249059 0 0.14752286284338639 0.22531224465298941 0 0.16513181717874489 0.22933158445530699 0 0.14752286284338639 0.22531224465298941 0 0.155775241119192 0.20863886545715829 0 0.16513181717874489 0.22933158445530699 0 0.15269041899089261 0.24018887904249059 0 0.14060451702156199 0.2357308345711725 0 0.14752286284338639 0.22531224465298941 0 0.14752286284338639 0.22531224465298941 0 0.155775241119192 0.20863886545715829 0 0.1398831682024731 0.2101323370399282 0 0.1223034951297057 0.2015047654836217 0 0.12985428442346111 0.22473904082679019 0 0.1398831682024731 0.2101323370399282 0 0.1223034951297057 0.2015047654836217 0 0.12984245568560021 0.18336402612102581 0 0.14395995749662011 0.19046676877908139 0 0.1223034951297057 0.2015047654836217 0 0.1398831682024731 0.2101323370399282 0 0.14395995749662011 0.19046676877908139 0 0.155775241119192 0.20863886545715829 0 0.1398831682024731 0.2101323370399282 0 0.14395995749662011 0.19046676877908139 0 0.16985268287686869 0.18602950547537461 0 0.155775241119192 0.20863886545715829 0 0.17615578699577941 0.211297655888005 0 0.16985268287686869 0.18602950547537461 0 0.155775241119192 0.20863886545715829 0 0.14395995749662011 0.19046676877908139 0 0.16985268287686869 0.18602950547537461 0 0.17615578699577941 0.211297655888005 0 0.1921007491770006 0.19413511782623061 0 0.155775241119192 0.20863886545715829 0 0.17615578699577941 0.211297655888005 0 0.16513181717874489 0.22933158445530699 0 0.17615578699577941 0.211297655888005 0 0.1832321526603185 0.22988712241990911 0 0.19922996910836269 0.2206298732412626 0 0.17615578699577941 0.211297655888005 0 0.16513181717874489 0.22933158445530699 0 0.1832321526603185 0.22988712241990911 0 0.1832321526603185 0.22988712241990911 0 0.17921266192405369 0.24485401564359771 0 0.19643052809465181 0.2433224828713732 0 0.16513181717874489 0.22933158445530699 0 0.1832321526603185 0.22988712241990911 0 0.17921266192405369 0.24485401564359771 0 0.17921266192405369 0.24485401564359771 0 0.19643052809465181 0.2433224828713732 0 0.18608903078984079 0.25995697105729071 0 0.17921266192405369 0.24485401564359771 0 0.1648484701696567 0.24744362212440471 0 0.17332134199895571 0.25758983019522791 0 0.15269041899089261 0.24018887904249059 0 0.16513181717874489 0.22933158445530699 0 0.1648484701696567 0.24744362212440471 0 0.16513181717874489 0.22933158445530699 0 0.17921266192405369 0.24485401564359771 0 0.1648484701696567 0.24744362212440471 0 0.15269041899089261 0.24018887904249059 0 0.1648484701696567 0.24744362212440471 0 0.15466915334416509 0.25190660019890743 0 0.21227379049082179 0.2367256787841478 0 0.19643052809465181 0.2433224828713732 0 0.21668623523937189 0.25273648673926968 0 0.21227379049082179 0.2367256787841478 0 0.19643052809465181 0.2433224828713732 0 0.19922996910836269 0.2206298732412626 0 0.1832321526603185 0.22988712241990911 0 0.19643052809465181 0.2433224828713732 0 0.19922996910836269 0.2206298732412626 0 0.21227379049082179 0.2367256787841478 0 0.19922996910836269 0.2206298732412626 0 0.219709047837161 0.22243828454522341 0 0.19922996910836269 0.2206298732412626 0 0.21843520523288221 0.2053181895842969 0 0.1921007491770006 0.19413511782623061 0 0.19922996910836269 0.2206298732412626 0 0.21843520523288221 0.2053181895842969 0 0.219709047837161 0.22243828454522341 0 0.17615578699577941 0.211297655888005 0 0.19922996910836269 0.2206298732412626 0 0.1921007491770006 0.19413511782623061 0 0.21843520523288221 0.2053181895842969 0 0.1921007491770006 0.19413511782623061 0 0.21508853132578909 0.18630480878971589 0 0.21843520523288221 0.2053181895842969 0 0.1921007491770006 0.19413511782623061 0 0.21843520523288221 0.2053181895842969 0 0.23255597692269961 0.1986700960591046 0 0.21508853132578909 0.18630480878971589 0 0.23255597692269961 0.1986700960591046 0 0.21508853132578909 0.18630480878971589 0 0.23658713197922801 0.1849604865578777 0 0.23255597692269961 0.1986700960591046 0 0.24443808169503289 0.19165573435540739 0 0.23658713197922801 0.1849604865578777 0 0.24443808169503289 0.19165573435540739 0 0.2445919001722652 0.2027793092260104 0 0.25672659357731442 0.18931439154619459 0 0.23255597692269961 0.1986700960591046 0 0.24443808169503289 0.19165573435540739 0 0.2445919001722652 0.2027793092260104 0 0.2445919001722652 0.2027793092260104 0 0.2447696612887639 0.21650126134236319 0 0.26045320274891359 0.2075872277184421 0 0.23255597692269961 0.1986700960591046 0 0.2445919001722652 0.2027793092260104 0 0.2447696612887639 0.21650126134236319 0 0.21843520523288221 0.2053181895842969 0 0.2447696612887639 0.21650126134236319 0 0.21843520523288221 0.2053181895842969 0 0.2447696612887639 0.21650126134236319 0 0.2325803478497725 0.22060216126394189 0 0.21843520523288221 0.2053181895842969 0 0.219709047837161 0.22243828454522341 0 0.2325803478497725 0.22060216126394189 0 0.21843520523288221 0.2053181895842969 0 0.23255597692269961 0.1986700960591046 0 0.2447696612887639 0.21650126134236319 0 0.219709047837161 0.22243828454522341 0 0.2325803478497725 0.22060216126394189 0 0.2358022310961575 0.23066856374322481 0 0.21227379049082179 0.2367256787841478 0 0.219709047837161 0.22243828454522341 0 0.2358022310961575 0.23066856374322481 0 0.2325803478497725 0.22060216126394189 0 0.24210869832250451 0.2249280049623063 0 0.2358022310961575 0.23066856374322481 0 0.2447696612887639 0.21650126134236319 0 0.2325803478497725 0.22060216126394189 0 0.24210869832250451 0.2249280049623063 0 0.2447696612887639 0.21650126134236319 0 0.24210869832250451 0.2249280049623063 0 0.24965972363503919 0.22122943443424911 0 0.24210869832250451 0.2249280049623063 0 0.24965972363503919 0.22122943443424911 0 0.2477315277427897 0.2356386040277525 0 0.24210869832250451 0.2249280049623063 0 0.2358022310961575 0.23066856374322481 0 0.2477315277427897 0.2356386040277525 0 0.2477315277427897 0.2356386040277525 0 0.24791323415382371 0.2458877298954085 0 0.23190300684591059 0.2469757189771403 0 0.2358022310961575 0.23066856374322481 0 0.2477315277427897 0.2356386040277525 0 0.23190300684591059 0.2469757189771403 0 0.21227379049082179 0.2367256787841478 0 0.23190300684591059 0.2469757189771403 0 0.21227379049082179 0.2367256787841478 0 0.23190300684591059 0.2469757189771403 0 0.21668623523937189 0.25273648673926968 0 0.21227379049082179 0.2367256787841478 0 0.2358022310961575 0.23066856374322481 0 0.23190300684591059 0.2469757189771403 0 0.20748271977021249 0.138902265540051 0 0.1939758213121906 0.1435310420930529 0 0.2197013820994709 0.14720657512863261 0 0.19138228701287849 0.14461103117120311 0 0.19996329681344399 0.160416909441601 0 0.2197013820994709 0.14720657512863261 0 0.19138228701287849 0.14461103117120311 0 0.2197013820994709 0.14720657512863261 0 0.2166933327952508 0.13146831334115849 0 0.20748271977021249 0.138902265540051 0 0.2197013820994709 0.14720657512863261 0 0.2166933327952508 0.13146831334115849 0 0.20603233854846789 0.12643210165642249 0 0.20748271977021249 0.138902265540051 0 0.20603233854846789 0.12643210165642249 0 0.20748271977021249 0.138902265540051 0 0.1992161984030385 0.13597632749908109 0 0.20748271977021249 0.138902265540051 0 0.1992161984030385 0.13597632749908109 0 0.1939758213121906 0.1435310420930529 0 0.20603233854846789 0.12643210165642249 0 0.1992161984030385 0.13597632749908109 0 0.19400001601888209 0.1301444430180784 0 0.20603233854846789 0.12643210165642249 0 0.19400001601888209 0.1301444430180784 0 0.19603586944622961 0.11914225126713909 0 0.1826996939178501 0.134395064982826 0 0.19400001601888209 0.1301444430180784 0 0.19225480333296779 0.137731581752848 0 0.1826996939178501 0.134395064982826 0 0.19225480333296779 0.137731581752848 0 0.19138228701287849 0.14461103117120311 0 0.1992161984030385 0.13597632749908109 0 0.19225480333296779 0.137731581752848 0 0.1939758213121906 0.1435310420930529 0 0.1992161984030385 0.13597632749908109 0 0.19400001601888209 0.1301444430180784 0 0.19225480333296779 0.137731581752848 0 0.17970147406593759 0.15916468197935521 0 0.19138228701287849 0.14461103117120311 0 0.19996329681344399 0.160416909441601 0 0.19138228701287849 0.14461103117120311 0 0.1939758213121906 0.1435310420930529 0 0.2197013820994709 0.14720657512863261 0 0.19225480333296779 0.137731581752848 0 0.19138228701287849 0.14461103117120311 0 0.1939758213121906 0.1435310420930529 0 0.19138228701287849 0.14461103117120311 0 0.1939758213121906 0.1435310420930529 0 0.17970147406593759 0.15916468197935521 0 0.19996329681344399 0.160416909441601 0 0.19009851561998109 0.17546705170333859 0 0.19996329681344399 0.160416909441601 0 0.19009851561998109 0.17546705170333859 0 0.20950303158443601 0.17060862998040069 0 0.17970147406593759 0.15916468197935521 0 0.19996329681344399 0.160416909441601 0 0.1921007491770006 0.19413511782623061 0 0.19009851561998109 0.17546705170333859 0 0.21508853132578909 0.18630480878971589 0 0.19009851561998109 0.17546705170333859 0 0.21508853132578909 0.18630480878971589 0 0.20950303158443601 0.17060862998040069 0 0.21508853132578909 0.18630480878971589 0 0.20950303158443601 0.17060862998040069 0 0.2262564526410854 0.1725101510884221 0 0.19996329681344399 0.160416909441601 0 0.22022511956095039 0.16166913690384679 0 0.2197013820994709 0.14720657512863261 0 0.19996329681344399 0.160416909441601 0 0.22022511956095039 0.16166913690384679 0 0.20950303158443601 0.17060862998040069 0 0.22022511956095039 0.16166913690384679 0 0.2262564526410854 0.1725101510884221 0 0.19996329681344399 0.160416909441601 0 0.20950303158443601 0.17060862998040069 0 0.22022511956095039 0.16166913690384679 0 0.22022511956095039 0.16166913690384679 0 0.23219216216083469 0.16070882341124321 0 0.2197013820994709 0.14720657512863261 0 0.23219216216083469 0.16070882341124321 0 0.2262564526410854 0.1725101510884221 0 0.24394273923527451 0.1708090208874482 0 0.22022511956095039 0.16166913690384679 0 0.23219216216083469 0.16070882341124321 0 0.2262564526410854 0.1725101510884221 0 0.21508853132578909 0.18630480878971589 0 0.2262564526410854 0.1725101510884221 0 0.23658713197922801 0.1849604865578777 0 0.2262564526410854 0.1725101510884221 0 0.23658713197922801 0.1849604865578777 0 0.24394273923527451 0.1708090208874482 0 0.23658713197922801 0.1849604865578777 0 0.24394273923527451 0.1708090208874482 0 0.25069145747160237 0.17986975870422739 0 0.24443808169503289 0.19165573435540739 0 0.23658713197922801 0.1849604865578777 0 0.25069145747160237 0.17986975870422739 0 0.23219216216083469 0.16070882341124321 0 0.24394273923527451 0.1708090208874482 0 0.24802047718606329 0.14980211908606039 0 0.24802047718606329 0.14980211908606039 0 0.2197013820994709 0.14720657512863261 0 0.23748423865396681 0.1372069433891186 0 0.24802047718606329 0.14980211908606039 0 0.23748423865396681 0.1372069433891186 0 0.23219216216083469 0.16070882341124321 0 0.24802047718606329 0.14980211908606039 0 0.2197013820994709 0.14720657512863261 0 0.24802047718606329 0.14980211908606039 0 0.2197013820994709 0.14720657512863261 0 0.2166933327952508 0.13146831334115849 0 0.23748423865396681 0.1372069433891186 0 0.2269480001218708 0.1246117676921763 0 0.2166933327952508 0.13146831334115849 0 0.2197013820994709 0.14720657512863261 0 0.23748423865396681 0.1372069433891186 0 0.23748423865396681 0.1372069433891186 0 0.2269480001218708 0.1246117676921763 0 0.23748423865396681 0.1372069433891186 0 0.23787758618680691 0.12376630322824581 0 0.2269480001218708 0.1246117676921763 0 0.24802047718606329 0.14980211908606039 0 0.23748423865396681 0.1372069433891186 0 0.25370366287882878 0.1241816415692342 0 0.23748423865396681 0.1372069433891186 0 0.23787758618680691 0.12376630322824581 0 0.25370366287882878 0.1241816415692342 0 0.24537668551697431 0.097277083683747018 0 0.23337444309256139 0.1090648602624541 0 0.25370366287882878 0.1241816415692342 0 0.24537668551697431 0.097277083683747018 0 0.25370366287882878 0.1241816415692342 0 0.23787758618680691 0.12376630322824581 0 0.23337444309256139 0.1090648602624541 0 0.25370366287882878 0.1241816415692342 0 0.24537668551697431 0.097277083683747018 0 0.23337444309256139 0.1090648602624541 0 0.22484289426170589 0.086614640480542404 0 0.23337444309256139 0.1090648602624541 0 0.21826071202707401 0.1016769895838342 0 0.22484289426170589 0.086614640480542404 0 0.23337444309256139 0.1090648602624541 0 0.21899261390952071 0.1157063141952675 0 0.21826071202707401 0.1016769895838342 0 0.2166933327952508 0.13146831334115849 0 0.2269480001218708 0.1246117676921763 0 0.21899261390952071 0.1157063141952675 0 0.23787758618680691 0.12376630322824581 0 0.23337444309256139 0.1090648602624541 0 0.2269480001218708 0.1246117676921763 0 0.23337444309256139 0.1090648602624541 0 0.2269480001218708 0.1246117676921763 0 0.21899261390952071 0.1157063141952675 0 0.20603233854846789 0.12643210165642249 0 0.21899261390952071 0.1157063141952675 0 0.20619401079708341 0.1103047766005421 0 0.2166933327952508 0.13146831334115849 0 0.20603233854846789 0.12643210165642249 0 0.21899261390952071 0.1157063141952675 0 0.20619401079708341 0.1103047766005421 0 0.20469956129863859 0.094216075576966402 0 0.21826071202707401 0.1016769895838342 0 0.21899261390952071 0.1157063141952675 0 0.20619401079708341 0.1103047766005421 0 0.21826071202707401 0.1016769895838342 0 0.20469956129863859 0.094216075576966402 0 0.21826071202707401 0.1016769895838342 0 0.22484289426170589 0.086614640480542404 0 0.20469956129863859 0.094216075576966402 0 0.1920226837756919 0.1062731432897658 0 0.18562998291260069 0.083724599791867624 0 0.20619401079708341 0.1103047766005421 0 0.20469956129863859 0.094216075576966402 0 0.1920226837756919 0.1062731432897658 0 0.1920226837756919 0.1062731432897658 0 0.19603586944622961 0.11914225126713909 0 0.18282874988353909 0.12176719670840121 0 0.20603233854846789 0.12643210165642249 0 0.20619401079708341 0.1103047766005421 0 0.19603586944622961 0.11914225126713909 0 0.19400001601888209 0.1301444430180784 0 0.19603586944622961 0.11914225126713909 0 0.18282874988353909 0.12176719670840121 0 0.20619401079708341 0.1103047766005421 0 0.1920226837756919 0.1062731432897658 0 0.19603586944622961 0.11914225126713909 0 0.19477888427106471 0.068028226971776184 0 0.20783404156105389 0.078077887697304768 0 0.18562998291260069 0.083724599791867624 0 0.20469956129863859 0.094216075576966402 0 0.20783404156105389 0.078077887697304768 0 0.18562998291260069 0.083724599791867624 0 0.20469956129863859 0.094216075576966402 0 0.20783404156105389 0.078077887697304768 0 0.22484289426170589 0.086614640480542404 0 0.20783404156105389 0.078077887697304768 0 0.2213202312424721 0.066581526905057059 0 0.20805697342917059 0.059178341543759817 0 0.20783404156105389 0.078077887697304768 0 0.2213202312424721 0.066581526905057059 0 0.22484289426170589 0.086614640480542404 0 0.19477888427106471 0.068028226971776184 0 0.20783404156105389 0.078077887697304768 0 0.20805697342917059 0.059178341543759817 0 0.2213202312424721 0.066581526905057059 0 0.23704970815511969 0.070372525798259866 0 0.2300545306497668 0.055557326715756347 0 0.2213202312424721 0.066581526905057059 0 0.22484289426170589 0.086614640480542404 0 0.23704970815511969 0.070372525798259866 0 0.24537668551697431 0.097277083683747018 0 0.22484289426170589 0.086614640480542404 0 0.23704970815511969 0.070372525798259866 0 0.24537668551697431 0.097277083683747018 0 0.23704970815511969 0.070372525798259866 0 0.25923100858263742 0.079351551944828513 0 0.24537668551697431 0.097277083683747018 0 0.23704970815511969 0.070372525798259866 0 0.23704970815511969 0.070372525798259866 0 0.24612717135886061 0.053158967820149818 0 0.25923100858263742 0.079351551944828513 0 0.23704970815511969 0.070372525798259866 0 0.24612717135886061 0.053158967820149818 0 0.2300545306497668 0.055557326715756347 0 0.24612717135886061 0.053158967820149818 0 0.22874243829254329 0.043439904086905012 0 0.2300545306497668 0.055557326715756347 0 0.24612717135886061 0.053158967820149818 0 0.24915942417082321 0.043562136642382059 0 0.25194780840825542 0.047502886957762752 0 0.24612717135886061 0.053158967820149818 0 0.2330233341350838 0.026966383695471149 0 0.24915942417082321 0.043562136642382059 0 0.24442705739527931 0.034620488068712277 0 0.25585841565974538 0.042233258010133973 0 0.24442705739527931 0.034620488068712277 0 0.2489069739425 0.021637400389674748 0 0.25585841565974538 0.042233258010133973 0 0.24612717135886061 0.053158967820149818 0 0.24442705739527931 0.034620488068712277 0 0.2330233341350838 0.026966383695471149 0 0.24612717135886061 0.053158967820149818 0 0.24915942417082321 0.043562136642382059 0 0.24442705739527931 0.034620488068712277 0 0.24612717135886061 0.053158967820149818 0 0.22874243829254329 0.043439904086905012 0 0.2330233341350838 0.026966383695471149 0 0.22874243829254329 0.043439904086905012 0 0.2330233341350838 0.026966383695471149 0 0.21578861999574539 0.032179983081358873 0 0.22874243829254329 0.043439904086905012 0 0.21871853532325961 0.049336859121788867 0 0.21578861999574539 0.032179983081358873 0 0.22874243829254329 0.043439904086905012 0 0.2300545306497668 0.055557326715756347 0 0.21871853532325961 0.049336859121788867 0 0.2213202312424721 0.066581526905057059 0 0.2300545306497668 0.055557326715756347 0 0.21871853532325961 0.049336859121788867 0 0.2489069739425 0.021637400389674748 0 0.2403210271001277 -0.0038011986657945939 0 0.2489069739425 0.021637400389674748 0 0.25900523844679291 0.0090906536209348996 0 0.2403210271001277 -0.0038011986657945939 0 0.23441323542690259 0.011205599980234709 0 0.2489069739425 0.021637400389674748 0 0.2403210271001277 -0.0038011986657945939 0 0.23441323542690259 0.011205599980234709 0 0.24019265022494121 0.023607468033523541 0 0.2330233341350838 0.026966383695471149 0 0.23441323542690259 0.011205599980234709 0 0.2489069739425 0.021637400389674748 0 0.23441323542690259 0.011205599980234709 0 0.2489069739425 0.021637400389674748 0 0.24019265022494121 0.023607468033523541 0 0.24442705739527931 0.034620488068712277 0 0.2489069739425 0.021637400389674748 0 0.24019265022494121 0.023607468033523541 0 0.24442705739527931 0.034620488068712277 0 0.24019265022494121 0.023607468033523541 0 0.2330233341350838 0.026966383695471149 0 0.2330233341350838 0.026966383695471149 0 0.2171386306806895 0.017395263111216398 0 0.21578861999574539 0.032179983081358873 0 0.23441323542690259 0.011205599980234709 0 0.2330233341350838 0.026966383695471149 0 0.21991949691130641 0.00077379957079282309 0 0.2330233341350838 0.026966383695471149 0 0.21991949691130641 0.00077379957079282309 0 0.2171386306806895 0.017395263111216398 0 0.2330233341350838 0.026966383695471149 0 0.21991949691130641 0.00077379957079282309 0 0.23441323542690259 0.011205599980234709 0 0.21991949691130641 0.00077379957079282309 0 0.2403210271001277 -0.0038011986657945939 0 0.23441323542690259 0.011205599980234709 0 0.21991949691130641 0.00077379957079282309 0 0.21991949691130641 0.00077379957079282309 0 0.21233724185039379 0.0083260795074358591 0 0.2171386306806895 0.017395263111216398 0 0.1913914811785945 0.0015479160267864781 0 0.21709144706251299 -0.0012616760615819459 0 0.21233724185039379 0.0083260795074358591 0 0.1913914811785945 0.0015479160267864781 0 0.21709144706251299 -0.0012616760615819459 0 0.21991949691130641 0.00077379957079282309 0 0.21233724185039379 0.0083260795074358591 0 0.21709144706251299 -0.0012616760615819459 0 0.21233724185039379 0.0083260795074358591 0 0.20462446051091829 0.018730069701022731 0 0.2171386306806895 0.017395263111216398 0 0.20462446051091829 0.018730069701022731 0 0.21578861999574539 0.032179983081358873 0 0.19600975553610309 0.033109727657073172 0 0.20462446051091829 0.018730069701022731 0 0.2171386306806895 0.017395263111216398 0 0.21578861999574539 0.032179983081358873 0 0.20462446051091829 0.018730069701022731 0 0.18949896143577891 0.016667400663256809 0 0.19600975553610309 0.033109727657073172 0 0.18949896143577891 0.016667400663256809 0 0.19600975553610309 0.033109727657073172 0 0.17707217964719771 0.025267716345226881 0 0.20462446051091829 0.018730069701022731 0 0.18949896143577891 0.016667400663256809 0 0.1913914811785945 0.0015479160267864781 0 0.21233724185039379 0.0083260795074358591 0 0.20462446051091829 0.018730069701022731 0 0.1913914811785945 0.0015479160267864781 0 0.2213202312424721 0.066581526905057059 0 0.20805697342917059 0.059178341543759817 0 0.21871853532325961 0.049336859121788867 0 0.20805697342917059 0.059178341543759817 0 0.2071731341036451 0.043988411023532258 0 0.1951942265281848 0.052365244609145413 0 0.20805697342917059 0.059178341543759817 0 0.21871853532325961 0.049336859121788867 0 0.2071731341036451 0.043988411023532258 0 0.21578861999574539 0.032179983081358873 0 0.2071731341036451 0.043988411023532258 0 0.19600975553610309 0.033109727657073172 0 0.21871853532325961 0.049336859121788867 0 0.21578861999574539 0.032179983081358873 0 0.2071731341036451 0.043988411023532258 0 0.19600975553610309 0.033109727657073172 0 0.1951942265281848 0.052365244609145413 0 0.18205947828297289 0.04260924739081328 0 0.2071731341036451 0.043988411023532258 0 0.19600975553610309 0.033109727657073172 0 0.1951942265281848 0.052365244609145413 0 0.19477888427106471 0.068028226971776184 0 0.20805697342917059 0.059178341543759817 0 0.1951942265281848 0.052365244609145413 0 0.19477888427106471 0.068028226971776184 0 0.1951942265281848 0.052365244609145413 0 0.1764837945120816 0.061910742511003793 0 0.1951942265281848 0.052365244609145413 0 0.1764837945120816 0.061910742511003793 0 0.18205947828297289 0.04260924739081328 0 0.1764837945120816 0.061910742511003793 0 0.18205947828297289 0.04260924739081328 0 0.16553743519129729 0.040392805831617133 0 0.18205947828297289 0.04260924739081328 0 0.16553743519129729 0.040392805831617133 0 0.17707217964719771 0.025267716345226881 0 0.19600975553610309 0.033109727657073172 0 0.18205947828297289 0.04260924739081328 0 0.17707217964719771 0.025267716345226881 0 0.16553743519129729 0.040392805831617133 0 0.1613139894326964 0.024121653580078981 0 0.1482006011997502 0.031747138067586222 0 0.1764837945120816 0.061910742511003793 0 0.16553743519129729 0.040392805831617133 0 0.15002216982279071 0.058334232048501217 0 0.177795833794237 0.0058736288592868176 0 0.17707217964719771 0.025267716345226881 0 0.16471785852727919 0.01090484445761932 0 0.18949896143577891 0.016667400663256809 0 0.1913914811785945 0.0015479160267864781 0 0.177795833794237 0.0058736288592868176 0 0.18949896143577891 0.016667400663256809 0 0.177795833794237 0.0058736288592868176 0 0.17707217964719771 0.025267716345226881 0 0.16553743519129729 0.040392805831617133 0 0.17707217964719771 0.025267716345226881 0 0.1613139894326964 0.024121653580078981 0 0.17707217964719771 0.025267716345226881 0 0.1613139894326964 0.024121653580078981 0 0.16471785852727919 0.01090484445761932 0 0.1613139894326964 0.024121653580078981 0 0.16471785852727919 0.01090484445761932 0 0.1510418725979574 0.012295763198345371 0 0.16471785852727919 0.01090484445761932 0 0.15628357420278671 0.003810722324721363 0 0.1510418725979574 0.012295763198345371 0 0.16471785852727919 0.01090484445761932 0 0.15628357420278671 0.003810722324721363 0 0.16638725000284621 -0.0041024332455818144 0 0.177795833794237 0.0058736288592868176 0 0.16471785852727919 0.01090484445761932 0 0.16638725000284621 -0.0041024332455818144 0 0.15628357420278671 0.003810722324721363 0 0.1463790325767105 0.0051600440866713393 0 0.1510418725979574 0.012295763198345371 0 0.15628357420278671 0.003810722324721363 0 0.1463790325767105 0.0051600440866713393 0 0.15462421245165581 -0.0058893527151400796 0 0.1463790325767105 0.0051600440866713393 0 0.1510418725979574 0.012295763198345371 0 0.1613139894326964 0.024121653580078981 0 0.1510418725979574 0.012295763198345371 0 0.1482006011997502 0.031747138067586222 0 0.1463790325767105 0.0051600440866713393 0 0.1482006011997502 0.031747138067586222 0 0.1463790325767105 0.0051600440866713393 0 0.1510418725979574 0.012295763198345371 0 0.1482006011997502 0.031747138067586222 0 0.1463790325767105 0.0051600440866713393 0 0.13437116548480091 0.018926778797625429 0 0.1482006011997502 0.031747138067586222 0 0.11744308668179609 0.017774871344802521 0 0.13437116548480091 0.018926778797625429 0 0.12506256882025399 0.035699134337412737 0 0.13437116548480091 0.018926778797625429 0 0.1482006011997502 0.031747138067586222 0 0.12506256882025399 0.035699134337412737 0 0.11744308668179609 0.017774871344802521 0 0.13437116548480091 0.018926778797625429 0 0.12681727907172599 0.0028609529651058472 0 0.1463790325767105 0.0051600440866713393 0 0.13437116548480091 0.018926778797625429 0 0.12681727907172599 0.0028609529651058472 0 0.15002216982279071 0.058334232048501217 0 0.1482006011997502 0.031747138067586222 0 0.13318341665519781 0.054736537254868822 0 0.16553743519129729 0.040392805831617133 0 0.15002216982279071 0.058334232048501217 0 0.1482006011997502 0.031747138067586222 0 0.15002216982279071 0.058334232048501217 0 0.1482006011997502 0.031747138067586222 0 0.1482006011997502 0.031747138067586222 0 0.12506256882025399 0.035699134337412737 0 0.13318341665519781 0.054736537254868822 0 0.1220245952479405 0.07004619687739172 0 0.13318341665519781 0.054736537254868822 0 0.140451324603005 0.079388379798429956 0 0.15002216982279071 0.058334232048501217 0 0.13318341665519781 0.054736537254868822 0 0.140451324603005 0.079388379798429956 0 0.15002216982279071 0.058334232048501217 0 0.140451324603005 0.079388379798429956 0 0.16236977351405571 0.08420317597119574 0 0.140451324603005 0.079388379798429956 0 0.13376660142800201 0.097128283387147629 0 0.1539803846384532 0.10268384485881291 0 0.140451324603005 0.079388379798429956 0 0.1539803846384532 0.10268384485881291 0 0.16236977351405571 0.08420317597119574 0 0.1175203890912727 0.086079419998433368 0 0.140451324603005 0.079388379798429956 0 0.13376660142800201 0.097128283387147629 0 0.1175203890912727 0.086079419998433368 0 0.1220245952479405 0.07004619687739172 0 0.140451324603005 0.079388379798429956 0 0.13376660142800201 0.097128283387147629 0 0.13278919984088661 0.11230677671938701 0 0.1539803846384532 0.10268384485881291 0 0.1204523462490521 0.10350528248164099 0 0.13376660142800201 0.097128283387147629 0 0.13278919984088661 0.11230677671938701 0 0.12877089149896251 0.12628235461406201 0 0.13278919984088661 0.11230677671938701 0 0.14559099576285081 0.1211645137464301 0 0.11923934643535521 0.1171320194813406 0 0.12877089149896251 0.12628235461406201 0 0.13278919984088661 0.11230677671938701 0 0.14559099576285081 0.1211645137464301 0 0.1539803846384532 0.10268384485881291 0 0.15632661280319129 0.13068902382275449 0 0.14559099576285081 0.1211645137464301 0 0.1644083134929788 0.12014259939932 0 0.13278919984088661 0.11230677671938701 0 0.14559099576285081 0.1211645137464301 0 0.1539803846384532 0.10268384485881291 0 0.14559099576285081 0.1211645137464301 0 0.1539803846384532 0.10268384485881291 0 0.1644083134929788 0.12014259939932 0 0.1539803846384532 0.10268384485881291 0 0.1644083134929788 0.12014259939932 0 0.1735399813695532 0.1031324266698939 0 0.1539803846384532 0.10268384485881291 0 0.1735399813695532 0.1031324266698939 0 0.16236977351405571 0.08420317597119574 0 0.1644083134929788 0.12014259939932 0 0.18282874988353909 0.12176719670840121 0 0.1735399813695532 0.1031324266698939 0 0.17014020092281509 0.1303647164313487 0 0.1644083134929788 0.12014259939932 0 0.18282874988353909 0.12176719670840121 0 0.1920226837756919 0.1062731432897658 0 0.18282874988353909 0.12176719670840121 0 0.1735399813695532 0.1031324266698939 0 0.1920226837756919 0.1062731432897658 0 0.1735399813695532 0.1031324266698939 0 0.18562998291260069 0.083724599791867624 0 0.1735399813695532 0.1031324266698939 0 0.18562998291260069 0.083724599791867624 0 0.16236977351405571 0.08420317597119574 0 0.1764837945120816 0.061910742511003793 0 0.18562998291260069 0.083724599791867624 0 0.16236977351405571 0.08420317597119574 0 0.19477888427106471 0.068028226971776184 0 0.1764837945120816 0.061910742511003793 0 0.18562998291260069 0.083724599791867624 0 0.1764837945120816 0.061910742511003793 0 0.15002216982279071 0.058334232048501217 0 0.16236977351405571 0.08420317597119574 0 0.1539803846384532 0.10268384485881291 0 0.16236977351405571 0.08420317597119574 0 0.1048222847563673 0.4786668097115272 0 0.091479988498646442 0.48354315307299939 0 0.09327677099031946 0.46903920507515112 0 0.1048222847563673 0.4786668097115272 0 0.10316008329641591 0.49260778903299252 0 0.092978519966910561 0.49654355170423659 0 0.1048222847563673 0.4786668097115272 0 0.092978519966910561 0.49654355170423659 0 0.1048222847563673 0.4786668097115272 0 0.091479988498646442 0.48354315307299939 0 0.092978519966910561 0.49654355170423659 0 0.10316008329641591 0.49260778903299252 0 0.10312521592474901 0.5 0 0.092978519966910561 0.49654355170423659 0 0.10316008329641591 0.49260778903299252 0 0.10312521592474901 0.5 0 0.1137569863567818 0.48891352741171218 0 0.1048222847563673 0.4786668097115272 0 0.10316008329641591 0.49260778903299252 0 0.1137569863567818 0.48891352741171218 0 0.1048222847563673 0.4786668097115272 0 0.10316008329641591 0.49260778903299252 0 0.1137569863567818 0.48891352741171218 0 0.12567845600013469 0.47929569400969452 0 0.1306299125622308 0.5 0 0.10312521592474901 0.5 0 0.1137569863567818 0.48891352741171218 0 0.1306299125622308 0.5 0 0.1048222847563673 0.4786668097115272 0 0.11648320602364499 0.46106604807885698 0 0.12567845600013469 0.47929569400969452 0 0.1048222847563673 0.4786668097115272 0 0.1137569863567818 0.48891352741171218 0 0.12567845600013469 0.47929569400969452 0 0.1048222847563673 0.4786668097115272 0 0.11648320602364499 0.46106604807885698 0 0.1048222847563673 0.4786668097115272 0 0.11648320602364499 0.46106604807885698 0 0.1073203574995146 0.45771532982499841 0 0.1119099515656637 0.4541769576285038 0 0.11648320602364499 0.46106604807885698 0 0.1073203574995146 0.45771532982499841 0 0.1119099515656637 0.4541769576285038 0 0.11648320602364499 0.46106604807885698 0 0.128144127290927 0.44346528644618949 0 0.1119099515656637 0.4541769576285038 0 0.1098184302426566 0.43676384993846878 0 0.128144127290927 0.44346528644618949 0 0.1119099515656637 0.4541769576285038 0 0.1073203574995146 0.45771532982499841 0 0.1098184302426566 0.43676384993846878 0 0.11648320602364499 0.46106604807885698 0 0.128144127290927 0.44346528644618949 0 0.1119099515656637 0.4541769576285038 0 0.1098184302426566 0.43676384993846878 0 0.1007171253458153 0.44820701469258212 0 0.1073203574995146 0.45771532982499841 0 0.1098184302426566 0.43676384993846878 0 0.1073203574995146 0.45771532982499841 0 0.1098184302426566 0.43676384993846878 0 0.1007171253458153 0.44820701469258212 0 0.097642268156116166 0.44157878137516282 0 0.1098184302426566 0.43676384993846878 0 0.097642268156116166 0.44157878137516282 0 0.1020591419526216 0.43422428691783338 0 0.1098184302426566 0.43676384993846878 0 0.097642268156116166 0.44157878137516282 0 0.1098184302426566 0.43676384993846878 0 0.09475968248970798 0.44694335582238792 0 0.1007171253458153 0.44820701469258212 0 0.092889002414179245 0.45276651635374332 0 0.1007171253458153 0.44820701469258212 0 0.096868601935243229 0.45789063626048049 0 0.092889002414179245 0.45276651635374332 0 0.09475968248970798 0.44694335582238792 0 0.1007171253458153 0.44820701469258212 0 0.097642268156116166 0.44157878137516282 0 0.09475968248970798 0.44694335582238792 0 0.097642268156116166 0.44157878137516282 0 0.088987703810336438 0.44500113512203671 0 0.1007171253458153 0.44820701469258212 0 0.097642268156116166 0.44157878137516282 0 0.1048222847563673 0.4786668097115272 0 0.1073203574995146 0.45771532982499841 0 0.09327677099031946 0.46903920507515112 0 0.1048222847563673 0.4786668097115272 0 0.1073203574995146 0.45771532982499841 0 0.1007171253458153 0.44820701469258212 0 0.1073203574995146 0.45771532982499841 0 0.096868601935243229 0.45789063626048049 0 0.1073203574995146 0.45771532982499841 0 0.096868601935243229 0.45789063626048049 0 0.09327677099031946 0.46903920507515112 0 0.090139753426387581 0.46172511535592747 0 0.079256630923375745 0.46616111205340521 0 0.09327677099031946 0.46903920507515112 0 0.096868601935243229 0.45789063626048049 0 0.090139753426387581 0.46172511535592747 0 0.09327677099031946 0.46903920507515112 0 0.090139753426387581 0.46172511535592747 0 0.092889002414179245 0.45276651635374332 0 0.081384578054001289 0.45283886102268139 0 0.096868601935243229 0.45789063626048049 0 0.090139753426387581 0.46172511535592747 0 0.092889002414179245 0.45276651635374332 0 0.090139753426387581 0.46172511535592747 0 0.079256630923375745 0.46616111205340521 0 0.081384578054001289 0.45283886102268139 0 0.088987703810336438 0.44500113512203671 0 0.082419728037930629 0.44071508101891732 0 0.08961571608665983 0.43565438773200948 0 0.097642268156116166 0.44157878137516282 0 0.088987703810336438 0.44500113512203671 0 0.097642268156116166 0.44157878137516282 0 0.088987703810336438 0.44500113512203671 0 0.08961571608665983 0.43565438773200948 0 0.088987703810336438 0.44500113512203671 0 0.092889002414179245 0.45276651635374332 0 0.081384578054001289 0.45283886102268139 0 0.09475968248970798 0.44694335582238792 0 0.088987703810336438 0.44500113512203671 0 0.092889002414179245 0.45276651635374332 0 0.088987703810336438 0.44500113512203671 0 0.081384578054001289 0.45283886102268139 0 0.082419728037930629 0.44071508101891732 0 0.067599685253138281 0.45287595272104653 0 0.081892131328371143 0.4314429342789402 0 0.067599685253138281 0.45287595272104653 0 0.066001473138610989 0.43632828312433408 0 0.081892131328371143 0.4314429342789402 0 0.082419728037930629 0.44071508101891732 0 0.067599685253138281 0.45287595272104653 0 0.081892131328371143 0.4314429342789402 0 0.081384578054001289 0.45283886102268139 0 0.082419728037930629 0.44071508101891732 0 0.067599685253138281 0.45287595272104653 0 0.079256630923375745 0.46616111205340521 0 0.067599685253138281 0.45287595272104653 0 0.069001794002684108 0.47224329730437981 0 0.067599685253138281 0.45287595272104653 0 0.069001794002684108 0.47224329730437981 0 0.053307239177905349 0.47430897116315313 0 0.079256630923375745 0.46616111205340521 0 0.081384578054001289 0.45283886102268139 0 0.067599685253138281 0.45287595272104653 0 0.069001794002684108 0.47224329730437981 0 0.079794243665170225 0.47979706117662119 0 0.065051170993830898 0.48807338940767292 0 0.079256630923375745 0.46616111205340521 0 0.069001794002684108 0.47224329730437981 0 0.079794243665170225 0.47979706117662119 0 0.079256630923375745 0.46616111205340521 0 0.079794243665170225 0.47979706117662119 0 0.09327677099031946 0.46903920507515112 0 0.079794243665170225 0.47979706117662119 0 0.091479988498646442 0.48354315307299939 0 0.09327677099031946 0.46903920507515112 0 0.092978519966910561 0.49654355170423659 0 0.084553660660575528 0.49009386622585083 0 0.075620519287267318 0.5 0 0.10312521592474901 0.5 0 0.092978519966910561 0.49654355170423659 0 0.075620519287267318 0.5 0 0.091479988498646442 0.48354315307299939 0 0.092978519966910561 0.49654355170423659 0 0.084553660660575528 0.49009386622585083 0 0.079794243665170225 0.47979706117662119 0 0.091479988498646442 0.48354315307299939 0 0.084553660660575528 0.49009386622585083 0 0.079794243665170225 0.47979706117662119 0 0.084553660660575528 0.49009386622585083 0 0.065051170993830898 0.48807338940767292 0 0.065051170993830898 0.48807338940767292 0 0.075620519287267318 0.5 0 0.048115822649785527 0.5 0 0.084553660660575528 0.49009386622585083 0 0.065051170993830898 0.48807338940767292 0 0.075620519287267318 0.5 0 0.065051170993830898 0.48807338940767292 0 0.048115822649785527 0.5 0 0.053307239177905349 0.47430897116315313 0 0.069001794002684108 0.47224329730437981 0 0.065051170993830898 0.48807338940767292 0 0.053307239177905349 0.47430897116315313 0 0.053307239177905349 0.47430897116315313 0 0.036467756559221701 0.47774208688151631 0 0.038707058205945111 0.46145460703462421 0 0.036467756559221701 0.47774208688151631 0 0.024551868698660679 0.47115282030446087 0 0.038707058205945111 0.46145460703462421 0 0.053307239177905349 0.47430897116315313 0 0.036467756559221701 0.47774208688151631 0 0.039014793102672522 0.49574198960525939 0 0.053307239177905349 0.47430897116315313 0 0.039014793102672522 0.49574198960525939 0 0.048115822649785527 0.5 0 0.053307239177905349 0.47430897116315313 0 0.039014793102672522 0.49574198960525939 0 0.048115822649785527 0.5 0 0.039014793102672522 0.49574198960525939 0 0.020611126012303801 0.5 0 0.036467756559221701 0.47774208688151631 0 0.039014793102672522 0.49574198960525939 0 0.026757823610924832 0.48605204630008392 0 0.039014793102672522 0.49574198960525939 0 0.020611126012303801 0.5 0 0.026757823610924832 0.48605204630008392 0 0.020611126012303801 0.5 0 0.026757823610924832 0.48605204630008392 0 0.01184792134048173 0.48364435332619582 0 0.036467756559221701 0.47774208688151631 0 0.026757823610924832 0.48605204630008392 0 0.024551868698660679 0.47115282030446087 0 0.024551868698660679 0.47115282030446087 0 0.01184792134048173 0.48364435332619582 0 0.0113986727330041 0.46548394976725249 0 0.026757823610924832 0.48605204630008392 0 0.024551868698660679 0.47115282030446087 0 0.01184792134048173 0.48364435332619582 0 -0.003089566724048357 0.47326761514296101 0 0.01184792134048173 0.48364435332619582 0 0.0113986727330041 0.46548394976725249 0 -0.0068935706251778139 0.5 0 -0.003089566724048357 0.47326761514296101 0 0.01184792134048173 0.48364435332619582 0 -0.0068935706251778139 0.5 0 0.020611126012303801 0.5 0 0.01184792134048173 0.48364435332619582 0 -0.0072392309157056894 0.43649428994281841 0 0.0026031304198410629 0.45131346537392758 0 0.017959463550051329 0.43401198815683267 0 0.0026031304198410629 0.45131346537392758 0 0.021372524407465811 0.45253342051953771 0 0.017959463550051329 0.43401198815683267 0 0.0026031304198410629 0.45131346537392758 0 0.0113986727330041 0.46548394976725249 0 0.021372524407465811 0.45253342051953771 0 -0.003089566724048357 0.47326761514296101 0 0.0026031304198410629 0.45131346537392758 0 0.0113986727330041 0.46548394976725249 0 0.024551868698660679 0.47115282030446087 0 0.0113986727330041 0.46548394976725249 0 0.021372524407465811 0.45253342051953771 0 0.024551868698660679 0.47115282030446087 0 0.021372524407465811 0.45253342051953771 0 0.038707058205945111 0.46145460703462421 0 0.021372524407465811 0.45253342051953771 0 0.037958531274121507 0.44366308696102769 0 0.017959463550051329 0.43401198815683267 0 0.037958531274121507 0.44366308696102769 0 0.05227214254911447 0.45021359508833869 0 0.050058868244965561 0.43265066952584708 0 0.021372524407465811 0.45253342051953771 0 0.037958531274121507 0.44366308696102769 0 0.038707058205945111 0.46145460703462421 0 0.037958531274121507 0.44366308696102769 0 0.038707058205945111 0.46145460703462421 0 0.05227214254911447 0.45021359508833869 0 0.067599685253138281 0.45287595272104653 0 0.053307239177905349 0.47430897116315313 0 0.053307239177905349 0.47430897116315313 0 0.038707058205945111 0.46145460703462421 0 0.05227214254911447 0.45021359508833869 0 0.067599685253138281 0.45287595272104653 0 0.053307239177905349 0.47430897116315313 0 0.05227214254911447 0.45021359508833869 0 0.05227214254911447 0.45021359508833869 0 0.050058868244965561 0.43265066952584708 0 0.066001473138610989 0.43632828312433408 0 0.067599685253138281 0.45287595272104653 0 0.05227214254911447 0.45021359508833869 0 0.066001473138610989 0.43632828312433408 0 0.050058868244965561 0.43265066952584708 0 0.068804754243522781 0.41994166461739918 0 0.066001473138610989 0.43632828312433408 0 0.050058868244965561 0.43265066952584708 0 0.048852687291388877 0.41459777654824598 0 0.068804754243522781 0.41994166461739918 0 0.048852687291388877 0.41459777654824598 0 0.061313779414970418 0.39987885693449271 0 0.068804754243522781 0.41994166461739918 0 0.048852687291388877 0.41459777654824598 0 0.068804754243522781 0.41994166461739918 0 0.048852687291388877 0.41459777654824598 0 0.036746034139956453 0.42683548193420928 0 0.028900620339254991 0.40925388847909272 0 0.048852687291388877 0.41459777654824598 0 0.028900620339254991 0.40925388847909272 0 0.048852687291388877 0.41459777654824598 0 0.028900620339254991 0.40925388847909272 0 0.042007131815748507 0.39655655075565333 0 0.050058868244965561 0.43265066952584708 0 0.048852687291388877 0.41459777654824598 0 0.036746034139956453 0.42683548193420928 0 0.037958531274121507 0.44366308696102769 0 0.050058868244965561 0.43265066952584708 0 0.036746034139956453 0.42683548193420928 0 0.037958531274121507 0.44366308696102769 0 0.036746034139956453 0.42683548193420928 0 0.017959463550051329 0.43401198815683267 0 0.036746034139956453 0.42683548193420928 0 0.017959463550051329 0.43401198815683267 0 0.028900620339254991 0.40925388847909272 0 0.017959463550051329 0.43401198815683267 0 0.028900620339254991 0.40925388847909272 0 0.0059488009041311612 0.41735624870114602 0 0.028900620339254991 0.40925388847909272 0 0.0059488009041311612 0.41735624870114602 0 0.0058412231562265226 0.39891749499975832 0 -0.0081246324890641812 0.40805065625530412 0 0.0059488009041311612 0.41735624870114602 0 0.0058412231562265226 0.39891749499975832 0 -0.0072392309157056894 0.43649428994281841 0 0.017959463550051329 0.43401198815683267 0 0.0059488009041311612 0.41735624870114602 0 -0.0036227877329230301 0.37947700469323042 0 0.0058412231562265226 0.39891749499975832 0 0.017841208666312069 0.37762534579018298 0 0.028900620339254991 0.40925388847909272 0 0.0058412231562265226 0.39891749499975832 0 0.024450360446550148 0.39274026509825583 0 0.024450360446550148 0.39274026509825583 0 0.017841208666312069 0.37762534579018298 0 0.035089121590226528 0.38253825820529852 0 0.0058412231562265226 0.39891749499975832 0 0.024450360446550148 0.39274026509825583 0 0.017841208666312069 0.37762534579018298 0 0.035089121590226528 0.38253825820529852 0 0.042007131815748507 0.39655655075565333 0 0.051605655867250001 0.38149668432143541 0 0.035089121590226528 0.38253825820529852 0 0.051605655867250001 0.38149668432143541 0 0.039541251155271878 0.36427244506096468 0 0.024450360446550148 0.39274026509825583 0 0.035089121590226528 0.38253825820529852 0 0.042007131815748507 0.39655655075565333 0 0.028900620339254991 0.40925388847909272 0 0.024450360446550148 0.39274026509825583 0 0.042007131815748507 0.39655655075565333 0 0.048852687291388877 0.41459777654824598 0 0.042007131815748507 0.39655655075565333 0 0.061313779414970418 0.39987885693449271 0 0.042007131815748507 0.39655655075565333 0 0.061313779414970418 0.39987885693449271 0 0.051605655867250001 0.38149668432143541 0 0.051605655867250001 0.38149668432143541 0 0.071205150989249344 0.38459031979425368 0 0.062117748859898458 0.36500130546073062 0 0.061313779414970418 0.39987885693449271 0 0.051605655867250001 0.38149668432143541 0 0.071205150989249344 0.38459031979425368 0 0.071205150989249344 0.38459031979425368 0 0.082619379705498486 0.3760424233717975 0 0.075022727430642186 0.36942391052545742 0 0.082619379705498486 0.3760424233717975 0 0.089989672908486834 0.38531380646189939 0 0.096111415589441723 0.36906918257109511 0 0.071205150989249344 0.38459031979425368 0 0.082619379705498486 0.3760424233717975 0 0.089989672908486834 0.38531380646189939 0 0.071205150989249344 0.38459031979425368 0 0.089989672908486834 0.38531380646189939 0 0.080292553118600216 0.40417933412777668 0 0.089989672908486834 0.38531380646189939 0 0.080292553118600216 0.40417933412777668 0 0.098794269534858231 0.4008464147916751 0 0.071205150989249344 0.38459031979425368 0 0.080292553118600216 0.40417933412777668 0 0.061313779414970418 0.39987885693449271 0 0.071205150989249344 0.38459031979425368 0 0.080292553118600216 0.40417933412777668 0 0.061313779414970418 0.39987885693449271 0 0.080292553118600216 0.40417933412777668 0 0.068804754243522781 0.41994166461739918 0 0.068804754243522781 0.41994166461739918 0 0.066001473138610989 0.43632828312433408 0 0.081892131328371143 0.4314429342789402 0 0.068804754243522781 0.41994166461739918 0 0.088756821195656727 0.42528555268655249 0 0.089379955247950782 0.42376834846129979 0 0.068804754243522781 0.41994166461739918 0 0.081892131328371143 0.4314429342789402 0 0.088756821195656727 0.42528555268655249 0 0.068804754243522781 0.41994166461739918 0 0.088756821195656727 0.42528555268655249 0 0.097642268156116166 0.44157878137516282 0 0.090272059233259302 0.42569138845737808 0 0.08961571608665983 0.43565438773200948 0 0.082419728037930629 0.44071508101891732 0 0.088756821195656727 0.42528555268655249 0 0.082419728037930629 0.44071508101891732 0 0.081892131328371143 0.4314429342789402 0 0.088756821195656727 0.42528555268655249 0 0.088756821195656727 0.42528555268655249 0 0.090272059233259302 0.42569138845737808 0 0.08961571608665983 0.43565438773200948 0 0.089379955247950782 0.42376834846129979 0 0.090272059233259302 0.42569138845737808 0 0.100849049247472 0.42323949502706593 0 0.088756821195656727 0.42528555268655249 0 0.089379955247950782 0.42376834846129979 0 0.090272059233259302 0.42569138845737808 0 0.088756821195656727 0.42528555268655249 0 0.090272059233259302 0.42569138845737808 0 0.089379955247950782 0.42376834846129979 0 0.090272059233259302 0.42569138845737808 0 0.088756821195656727 0.42528555268655249 0 0.089379955247950782 0.42376834846129979 0 0.082419728037930629 0.44071508101891732 0 0.088756821195656727 0.42528555268655249 0 0.08961571608665983 0.43565438773200948 0 0.080292553118600216 0.40417933412777668 0 0.089379955247950782 0.42376834846129979 0 0.080292553118600216 0.40417933412777668 0 0.068804754243522781 0.41994166461739918 0 0.089379955247950782 0.42376834846129979 0 0.080292553118600216 0.40417933412777668 0 0.089379955247950782 0.42376834846129979 0 0.098794269534858231 0.4008464147916751 0 0.089379955247950782 0.42376834846129979 0 0.10179294521624289 0.41380452076605601 0 0.098794269534858231 0.4008464147916751 0 0.089379955247950782 0.42376834846129979 0 0.098794269534858231 0.4008464147916751 0 0.10179294521624289 0.41380452076605601 0 0.1107041231999616 0.42933549212480232 0 0.10945635351086461 0.40362998662342647 0 0.089379955247950782 0.42376834846129979 0 0.10179294521624289 0.41380452076605601 0 0.100849049247472 0.42323949502706593 0 0.097642268156116166 0.44157878137516282 0 0.090272059233259302 0.42569138845737808 0 0.1020591419526216 0.43422428691783338 0 0.090272059233259302 0.42569138845737808 0 0.1020591419526216 0.43422428691783338 0 0.1093682320879097 0.430806037006286 0 0.090272059233259302 0.42569138845737808 0 0.1093682320879097 0.430806037006286 0 0.090272059233259302 0.42569138845737808 0 0.100849049247472 0.42323949502706593 0 0.1093682320879097 0.430806037006286 0 0.097642268156116166 0.44157878137516282 0 0.090272059233259302 0.42569138845737808 0 0.100849049247472 0.42323949502706593 0 0.1093682320879097 0.430806037006286 0 0.1107041231999616 0.42933549212480232 0 0.10179294521624289 0.41380452076605601 0 0.100849049247472 0.42323949502706593 0 0.1107041231999616 0.42933549212480232 0 0.1020591419526216 0.43422428691783338 0 0.1093682320879097 0.430806037006286 0 0.1103398931765668 0.43239031029619718 0 0.1020591419526216 0.43422428691783338 0 0.1098184302426566 0.43676384993846878 0 0.1103398931765668 0.43239031029619718 0 0.1020591419526216 0.43422428691783338 0 0.1103398931765668 0.43239031029619718 0 0.1103398931765668 0.43239031029619718 0 0.1206950902667107 0.42206632785564402 0 0.13429496844172059 0.42708486797366702 0 0.1098184302426566 0.43676384993846878 0 0.1103398931765668 0.43239031029619718 0 0.13429496844172059 0.42708486797366702 0 0.1098184302426566 0.43676384993846878 0 0.13429496844172059 0.42708486797366702 0 0.128144127290927 0.44346528644618949 0 0.1103398931765668 0.43239031029619718 0 0.13429496844172059 0.42708486797366702 0 0.1098184302426566 0.43676384993846878 0 0.13429496844172059 0.42708486797366702 0 0.1098184302426566 0.43676384993846878 0 0.1103398931765668 0.43239031029619718 0 0.1093682320879097 0.430806037006286 0 0.1103398931765668 0.43239031029619718 0 0.1107041231999616 0.42933549212480232 0 0.1103398931765668 0.43239031029619718 0 0.1107041231999616 0.42933549212480232 0 0.1103398931765668 0.43239031029619718 0 0.1107041231999616 0.42933549212480232 0 0.1206950902667107 0.42206632785564402 0 0.1107041231999616 0.42933549212480232 0 0.10945635351086461 0.40362998662342647 0 0.1107041231999616 0.42933549212480232 0 0.1127079119913361 0.41252960019287183 0 0.10945635351086461 0.40362998662342647 0 0.1107041231999616 0.42933549212480232 0 0.1206950902667107 0.42206632785564402 0 0.1127079119913361 0.41252960019287183 0 0.1107041231999616 0.42933549212480232 0 0.1127079119913361 0.41252960019287183 0 0.1127079119913361 0.41252960019287183 0 0.11966152561727041 0.40521647558469348 0 0.10945635351086461 0.40362998662342647 0 0.1206950902667107 0.42206632785564402 0 0.1127079119913361 0.41252960019287183 0 0.1238244133614653 0.41259348140785829 0 0.1127079119913361 0.41252960019287183 0 0.1238244133614653 0.41259348140785829 0 0.11966152561727041 0.40521647558469348 0 0.10945635351086461 0.40362998662342647 0 0.12302526621810631 0.39483339242702431 0 0.1082085838217669 0.37792448112205068 0 0.11966152561727041 0.40521647558469348 0 0.12302526621810631 0.39483339242702431 0 0.1317921164680903 0.40545952647836342 0 0.11966152561727041 0.40521647558469348 0 0.10945635351086461 0.40362998662342647 0 0.12302526621810631 0.39483339242702431 0 0.12302526621810631 0.39483339242702431 0 0.1082085838217669 0.37792448112205068 0 0.12936302614305781 0.3806702380723882 0 0.1082085838217669 0.37792448112205068 0 0.1269429757455281 0.3700741961410311 0 0.12936302614305781 0.3806702380723882 0 0.089989672908486834 0.38531380646189939 0 0.1082085838217669 0.37792448112205068 0 0.098794269534858231 0.4008464147916751 0 0.089989672908486834 0.38531380646189939 0 0.1082085838217669 0.37792448112205068 0 0.096111415589441723 0.36906918257109511 0 0.1082085838217669 0.37792448112205068 0 0.098794269534858231 0.4008464147916751 0 0.10945635351086461 0.40362998662342647 0 0.1082085838217669 0.37792448112205068 0 0.098794269534858231 0.4008464147916751 0 0.10945635351086461 0.40362998662342647 0 0.1082085838217669 0.37792448112205068 0 0.10179294521624289 0.41380452076605601 0 0.10945635351086461 0.40362998662342647 0 0.098794269534858231 0.4008464147916751 0 0.1071786794515654 0.3567072543489932 0 0.10614877508136331 0.33549002757593549 0 0.1071786794515654 0.3567072543489932 0 0.113306419652784 0.34577619835524942 0 0.10614877508136331 0.33549002757593549 0 0.1071786794515654 0.3567072543489932 0 0.095546341163152998 0.34721348103654748 0 0.10614877508136331 0.33549002757593549 0 0.1071786794515654 0.3567072543489932 0 0.095546341163152998 0.34721348103654748 0 0.095306363846323322 0.35760506086541671 0 0.1082085838217669 0.37792448112205068 0 0.1071786794515654 0.3567072543489932 0 0.096111415589441723 0.36906918257109511 0 0.1082085838217669 0.37792448112205068 0 0.1071786794515654 0.3567072543489932 0 0.1071786794515654 0.3567072543489932 0 0.095306363846323322 0.35760506086541671 0 0.096111415589441723 0.36906918257109511 0 0.1082085838217669 0.37792448112205068 0 0.1071786794515654 0.3567072543489932 0 0.1164276567709608 0.35791271614101089 0 0.1082085838217669 0.37792448112205068 0 0.1207019799918789 0.36117572882690419 0 0.1269429757455281 0.3700741961410311 0 0.1082085838217669 0.37792448112205068 0 0.1207019799918789 0.36117572882690419 0 0.1164276567709608 0.35791271614101089 0 0.1082085838217669 0.37792448112205068 0 0.1164276567709608 0.35791271614101089 0 0.1207019799918789 0.36117572882690419 0 0.12020614592151201 0.35183052892485178 0 0.1164276567709608 0.35791271614101089 0 0.1207019799918789 0.36117572882690419 0 0.12020614592151201 0.35183052892485178 0 0.1327104347709552 0.34833671648866182 0 0.1071786794515654 0.3567072543489932 0 0.1164276567709608 0.35791271614101089 0 0.1142797254492055 0.35305667444252631 0 0.1071786794515654 0.3567072543489932 0 0.1142797254492055 0.35305667444252631 0 0.113306419652784 0.34577619835524942 0 0.12020614592151201 0.35183052892485178 0 0.1164276567709608 0.35791271614101089 0 0.1142797254492055 0.35305667444252631 0 0.12020614592151201 0.35183052892485178 0 0.1142797254492055 0.35305667444252631 0 0.113306419652784 0.34577619835524942 0 0.12020614592151201 0.35183052892485178 0 0.113306419652784 0.34577619835524942 0 0.12565642337597641 0.34531162420386119 0 0.113306419652784 0.34577619835524942 0 0.10614877508136331 0.33549002757593549 0 0.12728204636342119 0.33264440370185788 0 0.113306419652784 0.34577619835524942 0 0.12728204636342119 0.33264440370185788 0 0.12565642337597641 0.34531162420386119 0 0.1046413786221535 0.32421374287331212 0 0.10614877508136331 0.33549002757593549 0 0.12728204636342119 0.33264440370185788 0 0.1046413786221535 0.32421374287331212 0 0.12728204636342119 0.33264440370185788 0 0.1167242617350734 0.31677866348064548 0 0.1046413786221535 0.32421374287331212 0 0.12728204636342119 0.33264440370185788 0 0.1167242617350734 0.31677866348064548 0 0.1046413786221535 0.32421374287331212 0 0.1046413786221535 0.32421374287331212 0 0.077692308094581719 0.31417877058986282 0 0.103629968386694 0.31192557858664272 0 0.1167242617350734 0.31677866348064548 0 0.1046413786221535 0.32421374287331212 0 0.103629968386694 0.31192557858664272 0 0.1046413786221535 0.32421374287331212 0 0.08294133613319174 0.33756664360252769 0 0.1046413786221535 0.32421374287331212 0 0.10614877508136331 0.33549002757593549 0 0.08294133613319174 0.33756664360252769 0 0.095546341163152998 0.34721348103654748 0 0.10614877508136331 0.33549002757593549 0 0.08294133613319174 0.33756664360252769 0 0.1046413786221535 0.32421374287331212 0 0.077692308094581719 0.31417877058986282 0 0.1046413786221535 0.32421374287331212 0 0.08294133613319174 0.33756664360252769 0 0.077692308094581719 0.31417877058986282 0 0.077692308094581719 0.31417877058986282 0 0.067976715374811009 0.32361441744144559 0 0.058789612577710128 0.31476722793512929 0 0.08294133613319174 0.33756664360252769 0 0.077692308094581719 0.31417877058986282 0 0.067976715374811009 0.32361441744144559 0 0.08294133613319174 0.33756664360252769 0 0.067976715374811009 0.32361441744144559 0 0.060135280265193262 0.33376627043538171 0 0.08294133613319174 0.33756664360252769 0 0.061241293644231747 0.35091954433174621 0 0.060135280265193262 0.33376627043538171 0 0.08294133613319174 0.33756664360252769 0 0.061241293644231747 0.35091954433174621 0 0.08294133613319174 0.33756664360252769 0 0.074215767858206258 0.35718016320722129 0 0.061241293644231747 0.35091954433174621 0 0.074215767858206258 0.35718016320722129 0 0.062117748859898458 0.36500130546073062 0 0.061241293644231747 0.35091954433174621 0 0.08294133613319174 0.33756664360252769 0 0.074215767858206258 0.35718016320722129 0 0.086887140600208246 0.35260595290123381 0 0.074215767858206258 0.35718016320722129 0 0.086887140600208246 0.35260595290123381 0 0.085272644414092907 0.36373677956425621 0 0.095546341163152998 0.34721348103654748 0 0.095306363846323322 0.35760506086541671 0 0.086887140600208246 0.35260595290123381 0 0.095306363846323322 0.35760506086541671 0 0.086887140600208246 0.35260595290123381 0 0.085272644414092907 0.36373677956425621 0 0.095546341163152998 0.34721348103654748 0 0.08294133613319174 0.33756664360252769 0 0.086887140600208246 0.35260595290123381 0 0.082619379705498486 0.3760424233717975 0 0.096111415589441723 0.36906918257109511 0 0.085272644414092907 0.36373677956425621 0 0.095306363846323322 0.35760506086541671 0 0.096111415589441723 0.36906918257109511 0 0.085272644414092907 0.36373677956425621 0 0.074215767858206258 0.35718016320722129 0 0.085272644414092907 0.36373677956425621 0 0.075022727430642186 0.36942391052545742 0 0.082619379705498486 0.3760424233717975 0 0.085272644414092907 0.36373677956425621 0 0.075022727430642186 0.36942391052545742 0 0.071205150989249344 0.38459031979425368 0 0.075022727430642186 0.36942391052545742 0 0.062117748859898458 0.36500130546073062 0 0.071205150989249344 0.38459031979425368 0 0.062117748859898458 0.36500130546073062 0 0.074215767858206258 0.35718016320722129 0 0.075022727430642186 0.36942391052545742 0 0.062117748859898458 0.36500130546073062 0 0.062117748859898458 0.36500130546073062 0 0.061241293644231747 0.35091954433174621 0 0.039541251155271878 0.36427244506096468 0 0.051605655867250001 0.38149668432143541 0 0.062117748859898458 0.36500130546073062 0 0.039541251155271878 0.36427244506096468 0 0.061241293644231747 0.35091954433174621 0 0.039541251155271878 0.36427244506096468 0 0.061241293644231747 0.35091954433174621 0 0.044784474582475392 0.34869393697364293 0 0.052607857505341568 0.34198871306916279 0 0.061241293644231747 0.35091954433174621 0 0.044784474582475392 0.34869393697364293 0 0.039541251155271878 0.36427244506096468 0 0.044784474582475392 0.34869393697364293 0 0.039541251155271878 0.36427244506096468 0 0.023969970644136189 0.34780247639640383 0 0.017841208666312069 0.37762534579018298 0 0.039541251155271878 0.36427244506096468 0 0.022364176625033282 0.36301365865426333 0 0.017841208666312069 0.37762534579018298 0 0.035089121590226528 0.38253825820529852 0 0.039541251155271878 0.36427244506096468 0 0.017841208666312069 0.37762534579018298 0 0.039541251155271878 0.36427244506096468 0 0.017841208666312069 0.37762534579018298 0 0.022364176625033282 0.36301365865426333 0 0.0070688581490178301 0.36290469613376197 0 0.022364176625033282 0.36301365865426333 0 0.023969970644136189 0.34780247639640383 0 0.0070688581490178301 0.36290469613376197 0 0.039541251155271878 0.36427244506096468 0 0.022364176625033282 0.36301365865426333 0 0.023969970644136189 0.34780247639640383 0 0.023969970644136189 0.34780247639640383 0 0.0070688581490178301 0.36290469613376197 0 0.010160838263171251 0.33572436441868259 0 -0.0072621374188671052 0.34147004492185079 0 0.0070688581490178301 0.36290469613376197 0 0.010160838263171251 0.33572436441868259 0 -0.0036227877329230301 0.37947700469323042 0 0.017841208666312069 0.37762534579018298 0 0.0070688581490178301 0.36290469613376197 0 -0.00017254440855824261 0.32560037032276101 0 0.010160838263171251 0.33572436441868259 0 0.020336227673690289 0.32045890090113183 0 -0.0025045175740335168 0.31031314766219981 0 -0.00017254440855824261 0.32560037032276101 0 0.020336227673690289 0.32045890090113183 0 -0.0072621374188671052 0.34147004492185079 0 -0.00017254440855824261 0.32560037032276101 0 0.010160838263171251 0.33572436441868259 0 0.023969970644136189 0.34780247639640383 0 0.010160838263171251 0.33572436441868259 0 0.020336227673690289 0.32045890090113183 0 0.023969970644136189 0.34780247639640383 0 0.020336227673690289 0.32045890090113183 0 0.041998086792626607 0.33406523967628299 0 0.04333949094528719 0.3160267531553359 0 0.041998086792626607 0.33406523967628299 0 0.052729264779742331 0.32427979797466039 0 0.020336227673690289 0.32045890090113183 0 0.04333949094528719 0.3160267531553359 0 0.041998086792626607 0.33406523967628299 0 0.044784474582475392 0.34869393697364293 0 0.023969970644136189 0.34780247639640383 0 0.041998086792626607 0.33406523967628299 0 0.044784474582475392 0.34869393697364293 0 0.041998086792626607 0.33406523967628299 0 0.052607857505341568 0.34198871306916279 0 0.061241293644231747 0.35091954433174621 0 0.052607857505341568 0.34198871306916279 0 0.060135280265193262 0.33376627043538171 0 0.041998086792626607 0.33406523967628299 0 0.060135280265193262 0.33376627043538171 0 0.052729264779742331 0.32427979797466039 0 0.041998086792626607 0.33406523967628299 0 0.052607857505341568 0.34198871306916279 0 0.060135280265193262 0.33376627043538171 0 0.04333949094528719 0.3160267531553359 0 0.052729264779742331 0.32427979797466039 0 0.058789612577710128 0.31476722793512929 0 0.067976715374811009 0.32361441744144559 0 0.052729264779742331 0.32427979797466039 0 0.058789612577710128 0.31476722793512929 0 0.067976715374811009 0.32361441744144559 0 0.060135280265193262 0.33376627043538171 0 0.052729264779742331 0.32427979797466039 0 0.058789612577710128 0.31476722793512929 0 0.050743237567011198 0.30414379830640997 0 0.077692308094581719 0.31417877058986282 0 0.058789612577710128 0.31476722793512929 0 0.050743237567011198 0.30414379830640997 0 0.04333949094528719 0.3160267531553359 0 0.058789612577710128 0.31476722793512929 0 0.050743237567011198 0.30414379830640997 0 0.050743237567011198 0.30414379830640997 0 0.057014991513141711 0.27962034081982778 0 0.068251428351683213 0.29416468787043332 0 0.050743237567011198 0.30414379830640997 0 0.035335655862959579 0.28380154980765537 0 0.057014991513141711 0.27962034081982778 0 0.050743237567011198 0.30414379830640997 0 0.035335655862959579 0.28380154980765537 0 0.050743237567011198 0.30414379830640997 0 0.035335655862959579 0.28380154980765537 0 0.035440516280943121 0.29844555413839979 0 0.020336227673690289 0.32045890090113183 0 0.04333949094528719 0.3160267531553359 0 0.035440516280943121 0.29844555413839979 0 0.04333949094528719 0.3160267531553359 0 0.050743237567011198 0.30414379830640997 0 0.035440516280943121 0.29844555413839979 0 0.050743237567011198 0.30414379830640997 0 0.035440516280943121 0.29844555413839979 0 0.020336227673690289 0.32045890090113183 0 0.035440516280943121 0.29844555413839979 0 0.020137794994874249 0.2927473099703915 0 0.020336227673690289 0.32045890090113183 0 0.020137794994874249 0.2927473099703915 0 0.020336227673690289 0.32045890090113183 0 0.020137794994874249 0.2927473099703915 0 0.010209922096268529 0.3014659822355169 0 0.035335655862959579 0.28380154980765537 0 0.035440516280943121 0.29844555413839979 0 0.020137794994874249 0.2927473099703915 0 0.035440516280943121 0.29844555413839979 0 0.020137794994874249 0.2927473099703915 0 0.020137794994874249 0.2927473099703915 0 0.014388475155295941 0.29060644707198668 0 0.01992807415890703 0.26345930130890138 0 0.020137794994874249 0.2927473099703915 0 0.014388475155295941 0.29060644707198668 0 0.020137794994874249 0.2927473099703915 0 0.014388475155295941 0.29060644707198668 0 0.010209922096268529 0.3014659822355169 0 -0.001308369768482999 0.29320410557187471 0 0.014388475155295941 0.29060644707198668 0 0.010209922096268529 0.3014659822355169 0 -0.001308369768482999 0.29320410557187471 0 0.014388475155295941 0.29060644707198668 0 0.0042686616650212863 0.27440264234540929 0 -0.0025045175740335168 0.31031314766219981 0 0.020336227673690289 0.32045890090113183 0 0.010209922096268529 0.3014659822355169 0 -0.0025045175740335168 0.31031314766219981 0 -0.001308369768482999 0.29320410557187471 0 0.010209922096268529 0.3014659822355169 0 0.0108212759879371 0.25143582124693198 0 0.0045166499774289158 0.26107549289106269 0 0.01992807415890703 0.26345930130890138 0 0.0108212759879371 0.25143582124693198 0 0.01992807415890703 0.26345930130890138 0 -0.004361582131907446 0.25012675423618741 0 0.0108212759879371 0.25143582124693198 0 0.0045166499774289158 0.26107549289106269 0 -0.0080731797928139601 0.26595294531788349 0 0.0045166499774289158 0.26107549289106269 0 0.0042686616650212863 0.27440264234540929 0 0.014388475155295941 0.29060644707198668 0 0.0042686616650212863 0.27440264234540929 0 0.01992807415890703 0.26345930130890138 0 0.0045166499774289158 0.26107549289106269 0 0.0042686616650212863 0.27440264234540929 0 0.01992807415890703 0.26345930130890138 0 0.020137794994874249 0.2927473099703915 0 0.01992807415890703 0.26345930130890138 0 0.035335655862959579 0.28380154980765537 0 0.020137794994874249 0.2927473099703915 0 0.01992807415890703 0.26345930130890138 0 0.035335655862959579 0.28380154980765537 0 0.01992807415890703 0.26345930130890138 0 0.019733428038529611 0.23627651218177001 0 0.0108212759879371 0.25143582124693198 0 0.01992807415890703 0.26345930130890138 0 0.032395297456559217 0.24990448186487541 0 0.01992807415890703 0.26345930130890138 0 0.043558334625058162 0.26267399305688549 0 0.049298807743375681 0.24401567068345059 0 0.032395297456559217 0.24990448186487541 0 0.043558334625058162 0.26267399305688549 0 0.035335655862959579 0.28380154980765537 0 0.01992807415890703 0.26345930130890138 0 0.043558334625058162 0.26267399305688549 0 0.035335655862959579 0.28380154980765537 0 0.043558334625058162 0.26267399305688549 0 0.057014991513141711 0.27962034081982778 0 0.043558334625058162 0.26267399305688549 0 0.057014991513141711 0.27962034081982778 0 0.068539877812152941 0.25484826761588569 0 0.049298807743375681 0.24401567068345059 0 0.043558334625058162 0.26267399305688549 0 0.068539877812152941 0.25484826761588569 0 0.068539877812152941 0.25484826761588569 0 0.094153496178737847 0.25278652485753728 0 0.068539877812152941 0.25484826761588569 0 0.094153496178737847 0.25278652485753728 0 0.094570315268327418 0.27155612350054997 0 0.076756394676448791 0.2775889904003081 0 0.087579642181032397 0.29054902922906578 0 0.094570315268327418 0.27155612350054997 0 0.068539877812152941 0.25484826761588569 0 0.076756394676448791 0.2775889904003081 0 0.094570315268327418 0.27155612350054997 0 0.057014991513141711 0.27962034081982778 0 0.068539877812152941 0.25484826761588569 0 0.076756394676448791 0.2775889904003081 0 0.076756394676448791 0.2775889904003081 0 0.068251428351683213 0.29416468787043332 0 0.087579642181032397 0.29054902922906578 0 0.057014991513141711 0.27962034081982778 0 0.076756394676448791 0.2775889904003081 0 0.068251428351683213 0.29416468787043332 0 0.077692308094581719 0.31417877058986282 0 0.050743237567011198 0.30414379830640997 0 0.068251428351683213 0.29416468787043332 0 0.077692308094581719 0.31417877058986282 0 0.050743237567011198 0.30414379830640997 0 0.077692308094581719 0.31417877058986282 0 0.068251428351683213 0.29416468787043332 0 0.087579642181032397 0.29054902922906578 0 0.077692308094581719 0.31417877058986282 0 0.087579642181032397 0.29054902922906578 0 0.1000908984509512 0.30112340397666981 0 0.087579642181032397 0.29054902922906578 0 0.1081165082442021 0.28468219903657133 0 0.1000908984509512 0.30112340397666981 0 0.1081165082442021 0.28468219903657133 0 0.1000908984509512 0.30112340397666981 0 0.1144297267004354 0.30168664743999352 0 0.087579642181032397 0.29054902922906578 0 0.1081165082442021 0.28468219903657133 0 0.094570315268327418 0.27155612350054997 0 0.077692308094581719 0.31417877058986282 0 0.1000908984509512 0.30112340397666981 0 0.103629968386694 0.31192557858664272 0 0.1000908984509512 0.30112340397666981 0 0.103629968386694 0.31192557858664272 0 0.1144297267004354 0.30168664743999352 0 0.1167242617350734 0.31677866348064548 0 0.1144297267004354 0.30168664743999352 0 0.13022117462186741 0.30154725623692402 0 0.1167242617350734 0.31677866348064548 0 0.103629968386694 0.31192557858664272 0 0.1144297267004354 0.30168664743999352 0 0.1081165082442021 0.28468219903657133 0 0.1144297267004354 0.30168664743999352 0 0.12390947864198219 0.28542069115612873 0 0.1144297267004354 0.30168664743999352 0 0.12390947864198219 0.28542069115612873 0 0.13022117462186741 0.30154725623692402 0 0.112671388523889 0.26641905049976811 0 0.123100174820058 0.26168293397560438 0 0.12910128816626559 0.2715879755468264 0 0.1081165082442021 0.28468219903657133 0 0.12390947864198219 0.28542069115612873 0 0.112671388523889 0.26641905049976811 0 0.12390947864198219 0.28542069115612873 0 0.112671388523889 0.26641905049976811 0 0.12910128816626559 0.2715879755468264 0 0.112671388523889 0.26641905049976811 0 0.123100174820058 0.26168293397560438 0 0.1197671145453226 0.2507247820991888 0 0.112671388523889 0.26641905049976811 0 0.1197671145453226 0.2507247820991888 0 0.094153496178737847 0.25278652485753728 0 0.112671388523889 0.26641905049976811 0 0.094153496178737847 0.25278652485753728 0 0.094570315268327418 0.27155612350054997 0 0.1197671145453226 0.2507247820991888 0 0.094153496178737847 0.25278652485753728 0 0.1081165082442021 0.28468219903657133 0 0.112671388523889 0.26641905049976811 0 0.094570315268327418 0.27155612350054997 0 0.1484138213405074 0.25936399499983281 0 0.14891678559523411 0.28660101817668943 0 0.16201232330786131 0.26387346548696822 0 0.1484138213405074 0.25936399499983281 0 0.1401857002278207 0.2693725498640136 0 0.14891678559523411 0.28660101817668943 0 0.1484138213405074 0.25936399499983281 0 0.14891678559523411 0.28660101817668943 0 0.15466915334416509 0.25190660019890743 0 0.1484138213405074 0.25936399499983281 0 0.16201232330786131 0.26387346548696822 0 0.1453807329119074 0.24866303934084041 0 0.15466915334416509 0.25190660019890743 0 0.1484138213405074 0.25936399499983281 0 0.1453807329119074 0.24866303934084041 0 0.1484138213405074 0.25936399499983281 0 0.13431090580927579 0.25993721073270593 0 0.1484138213405074 0.25936399499983281 0 0.13431090580927579 0.25993721073270593 0 0.1401857002278207 0.2693725498640136 0 0.1453807329119074 0.24866303934084041 0 0.1197671145453226 0.2507247820991888 0 0.13431090580927579 0.25993721073270593 0 0.123100174820058 0.26168293397560438 0 0.1197671145453226 0.2507247820991888 0 0.13431090580927579 0.25993721073270593 0 0.123100174820058 0.26168293397560438 0 0.13431090580927579 0.25993721073270593 0 0.12910128816626559 0.2715879755468264 0 0.12910128816626559 0.2715879755468264 0 0.1401857002278207 0.2693725498640136 0 0.14891678559523411 0.28660101817668943 0 0.12390947864198219 0.28542069115612873 0 0.12910128816626559 0.2715879755468264 0 0.14891678559523411 0.28660101817668943 0 0.13431090580927579 0.25993721073270593 0 0.12910128816626559 0.2715879755468264 0 0.1401857002278207 0.2693725498640136 0 0.12390947864198219 0.28542069115612873 0 0.13022117462186741 0.30154725623692402 0 0.14891678559523411 0.28660101817668943 0 0.13022117462186741 0.30154725623692402 0 0.1494197498499607 0.31383804135354598 0 0.13362732087883861 0.31825791726589631 0 0.1167242617350734 0.31677866348064548 0 0.13022117462186741 0.30154725623692402 0 0.13362732087883861 0.31825791726589631 0 0.14891678559523411 0.28660101817668943 0 0.16502192730860321 0.29833672799327199 0 0.1494197498499607 0.31383804135354598 0 0.14891678559523411 0.28660101817668943 0 0.1494197498499607 0.31383804135354598 0 0.13022117462186741 0.30154725623692402 0 0.14891678559523411 0.28660101817668943 0 0.1494197498499607 0.31383804135354598 0 0.14891678559523411 0.28660101817668943 0 0.16502192730860321 0.29833672799327199 0 0.17258825255407231 0.27567175281796641 0 0.16502192730860321 0.29833672799327199 0 0.17750724151807151 0.31691505049664243 0 0.1494197498499607 0.31383804135354598 0 0.16502192730860321 0.29833672799327199 0 0.18306544781706219 0.29535972807124689 0 0.17750724151807151 0.31691505049664243 0 0.18306544781706219 0.29535972807124689 0 0.19825331032735899 0.30649929221888439 0 0.17750724151807151 0.31691505049664243 0 0.16502192730860321 0.29833672799327199 0 0.18306544781706219 0.29535972807124689 0 0.17258825255407231 0.27567175281796641 0 0.18306544781706219 0.29535972807124689 0 0.17258825255407231 0.27567175281796641 0 0.19225514168233229 0.27637801024750158 0 0.17258825255407231 0.27567175281796641 0 0.18608903078984079 0.25995697105729071 0 0.19225514168233229 0.27637801024750158 0 0.17258825255407231 0.27567175281796641 0 0.16201232330786131 0.26387346548696822 0 0.17332134199895571 0.25758983019522791 0 0.14891678559523411 0.28660101817668943 0 0.17258825255407231 0.27567175281796641 0 0.16201232330786131 0.26387346548696822 0 0.1648484701696567 0.24744362212440471 0 0.15466915334416509 0.25190660019890743 0 0.16201232330786131 0.26387346548696822 0 0.1648484701696567 0.24744362212440471 0 0.16201232330786131 0.26387346548696822 0 0.17332134199895571 0.25758983019522791 0 0.17921266192405369 0.24485401564359771 0 0.17332134199895571 0.25758983019522791 0 0.18608903078984079 0.25995697105729071 0 0.17258825255407231 0.27567175281796641 0 0.17332134199895571 0.25758983019522791 0 0.18608903078984079 0.25995697105729071 0 0.19643052809465181 0.2433224828713732 0 0.18608903078984079 0.25995697105729071 0 0.20272625848497891 0.26192573456807738 0 0.18608903078984079 0.25995697105729071 0 0.20272625848497891 0.26192573456807738 0 0.19225514168233229 0.27637801024750158 0 0.19225514168233229 0.27637801024750158 0 0.20931999553351249 0.2747097540570328 0 0.20479240245397259 0.28930189362021808 0 0.20272625848497891 0.26192573456807738 0 0.19225514168233229 0.27637801024750158 0 0.20931999553351249 0.2747097540570328 0 0.20272625848497891 0.26192573456807738 0 0.20931999553351249 0.2747097540570328 0 0.22276706595432569 0.26722786124429282 0 0.19643052809465181 0.2433224828713732 0 0.20272625848497891 0.26192573456807738 0 0.21668623523937189 0.25273648673926968 0 0.20272625848497891 0.26192573456807738 0 0.21668623523937189 0.25273648673926968 0 0.22276706595432569 0.26722786124429282 0 0.23190300684591059 0.2469757189771403 0 0.21668623523937189 0.25273648673926968 0 0.2340167615655426 0.26024144399058702 0 0.21668623523937189 0.25273648673926968 0 0.2340167615655426 0.26024144399058702 0 0.22276706595432569 0.26722786124429282 0 0.20931999553351249 0.2747097540570328 0 0.22276706595432569 0.26722786124429282 0 0.23407023324957901 0.28358253799766081 0 0.22276706595432569 0.26722786124429282 0 0.2428012282252888 0.27040414858390061 0 0.23407023324957901 0.28358253799766081 0 0.2340167615655426 0.26024144399058702 0 0.22276706595432569 0.26722786124429282 0 0.2428012282252888 0.27040414858390061 0 0.2428012282252888 0.27040414858390061 0 0.23407023324957901 0.28358253799766081 0 0.25491758893057909 0.27951005592881761 0 0.2428012282252888 0.27040414858390061 0 0.23407023324957901 0.28358253799766081 0 0.2428012282252888 0.27040414858390061 0 0.25153222320099622 0.25722575917013901 0 0.25536006440587672 0.26878811273571068 0 0.2428012282252888 0.27040414858390061 0 0.25153222320099622 0.25722575917013901 0 0.2340167615655426 0.26024144399058702 0 0.2428012282252888 0.27040414858390061 0 0.25153222320099622 0.25722575917013901 0 0.24791323415382371 0.2458877298954085 0 0.23190300684591059 0.2469757189771403 0 0.25153222320099622 0.25722575917013901 0 0.23190300684591059 0.2469757189771403 0 0.2340167615655426 0.26024144399058702 0 0.25153222320099622 0.25722575917013901 0 0.23190300684591059 0.2469757189771403 0 0.25153222320099622 0.25722575917013901 0 0.24543399627141721 0.29887735901603257 0 0.2199905643657564 0.30483410896799212 0 0.2412863906095909 0.31706614216088019 0 0.24543399627141721 0.29887735901603257 0 0.2412863906095909 0.31706614216088019 0 0.26071219069447599 0.31197788889560879 0 0.24543399627141721 0.29887735901603257 0 0.23407023324957901 0.28358253799766081 0 0.25491758893057909 0.27951005592881761 0 0.23407023324957901 0.28358253799766081 0 0.25491758893057909 0.27951005592881761 0 0.23407023324957901 0.28358253799766081 0 0.2199905643657564 0.30483410896799212 0 0.20479240245397259 0.28930189362021808 0 0.24543399627141721 0.29887735901603257 0 0.23407023324957901 0.28358253799766081 0 0.2199905643657564 0.30483410896799212 0 0.23407023324957901 0.28358253799766081 0 0.20479240245397259 0.28930189362021808 0 0.23407023324957901 0.28358253799766081 0 0.2199905643657564 0.30483410896799212 0 0.2199905643657564 0.30483410896799212 0 0.19825331032735899 0.30649929221888439 0 0.20591089548193209 0.32608567993832238 0 0.2199905643657564 0.30483410896799212 0 0.20479240245397259 0.28930189362021808 0 0.19825331032735899 0.30649929221888439 0 0.20931999553351249 0.2747097540570328 0 0.23407023324957901 0.28358253799766081 0 0.20479240245397259 0.28930189362021808 0 0.18306544781706219 0.29535972807124689 0 0.19225514168233229 0.27637801024750158 0 0.20479240245397259 0.28930189362021808 0 0.18306544781706219 0.29535972807124689 0 0.20479240245397259 0.28930189362021808 0 0.19825331032735899 0.30649929221888439 0 0.19825331032735899 0.30649929221888439 0 0.20591089548193209 0.32608567993832238 0 0.17750724151807151 0.31691505049664243 0 0.20591089548193209 0.32608567993832238 0 0.1834453935528689 0.33477958080273051 0 0.17750724151807151 0.31691505049664243 0 0.20591089548193209 0.32608567993832238 0 0.1918312265981009 0.34733725090864831 0 0.1834453935528689 0.33477958080273051 0 0.20591089548193209 0.32608567993832238 0 0.1918312265981009 0.34733725090864831 0 0.2120062173118393 0.34341212619813682 0 0.20591089548193209 0.32608567993832238 0 0.2241124479696345 0.32285479690430968 0 0.2120062173118393 0.34341212619813682 0 0.20591089548193209 0.32608567993832238 0 0.1918312265981009 0.34733725090864831 0 0.2199905643657564 0.30483410896799212 0 0.20591089548193209 0.32608567993832238 0 0.2199905643657564 0.30483410896799212 0 0.20591089548193209 0.32608567993832238 0 0.2241124479696345 0.32285479690430968 0 0.2199905643657564 0.30483410896799212 0 0.2241124479696345 0.32285479690430968 0 0.2412863906095909 0.31706614216088019 0 0.2241124479696345 0.32285479690430968 0 0.23218120802557979 0.3394870014876365 0 0.2412863906095909 0.31706614216088019 0 0.2120062173118393 0.34341212619813682 0 0.2241124479696345 0.32285479690430968 0 0.23218120802557979 0.3394870014876365 0 0.2120062173118393 0.34341212619813682 0 0.23218120802557979 0.3394870014876365 0 0.23218120802557979 0.3394870014876365 0 0.2412863906095909 0.31706614216088019 0 0.25235619873932041 0.33556187677713623 0 0.23218120802557979 0.3394870014876365 0 0.25235619873932041 0.33556187677713623 0 0.23218120802557979 0.3394870014876365 0 0.2438273554430464 0.34812574592335249 0 0.25235619873932041 0.33556187677713623 0 0.2412863906095909 0.31706614216088019 0 0.25496362040665271 0.32267745764425643 0 0.25235619873932041 0.33556187677713623 0 0.2444030594993066 0.36261468031945582 0 0.22630598985240971 0.37543582988375418 0 0.247713784970646 0.38075050805242922 0 0.2444030594993066 0.36261468031945582 0 0.22630598985240971 0.37543582988375418 0 0.2444030594993066 0.36261468031945582 0 0.247713784970646 0.38075050805242922 0 0.25490457918629872 0.37507349251653871 0 0.2444030594993066 0.36261468031945582 0 0.2438273554430464 0.34812574592335249 0 0.25711451900508148 0.35258648987221092 0 0.23218120802557979 0.3394870014876365 0 0.2438273554430464 0.34812574592335249 0 0.2288636426087374 0.35578594420060722 0 0.2444030594993066 0.36261468031945582 0 0.2438273554430464 0.34812574592335249 0 0.2288636426087374 0.35578594420060722 0 0.2120062173118393 0.34341212619813682 0 0.23218120802557979 0.3394870014876365 0 0.2288636426087374 0.35578594420060722 0 0.2444030594993066 0.36261468031945582 0 0.2288636426087374 0.35578594420060722 0 0.22630598985240971 0.37543582988375418 0 0.2288636426087374 0.35578594420060722 0 0.21324276167256731 0.36206450472990792 0 0.22630598985240971 0.37543582988375418 0 0.21324276167256731 0.36206450472990792 0 0.19654986060048771 0.37047802484019998 0 0.20820892020551271 0.38825697944805271 0 0.2120062173118393 0.34341212619813682 0 0.2288636426087374 0.35578594420060722 0 0.21324276167256731 0.36206450472990792 0 0.2120062173118393 0.34341212619813682 0 0.21324276167256731 0.36206450472990792 0 0.1918312265981009 0.34733725090864831 0 0.2120062173118393 0.34341212619813682 0 0.1918312265981009 0.34733725090864831 0 0.1918312265981009 0.34733725090864831 0 0.19654986060048771 0.37047802484019998 0 0.1753588575145448 0.37220031576602253 0 0.21324276167256731 0.36206450472990792 0 0.1918312265981009 0.34733725090864831 0 0.19654986060048771 0.37047802484019998 0 0.1918312265981009 0.34733725090864831 0 0.1753588575145448 0.37220031576602253 0 0.1731188016947007 0.36781558424519839 0 0.1753588575145448 0.37220031576602253 0 0.1802318714797885 0.35236122573149797 0 0.1731188016947007 0.36781558424519839 0 0.167364966647951 0.35975083588178058 0 0.1802318714797885 0.35236122573149797 0 0.1731188016947007 0.36781558424519839 0 0.1753588575145448 0.37220031576602253 0 0.1731188016947007 0.36781558424519839 0 0.1753588575145448 0.37220031576602253 0 0.16523354001105911 0.37409983959611109 0 0.1731188016947007 0.36781558424519839 0 0.16523354001105911 0.37409983959611109 0 0.1662459251842697 0.36710584608423269 0 0.167364966647951 0.35975083588178058 0 0.15926639238336801 0.36675712461384091 0 0.15018796347142391 0.35543911342959528 0 0.167364966647951 0.35975083588178058 0 0.1662459251842697 0.36710584608423269 0 0.15926639238336801 0.36675712461384091 0 0.1731188016947007 0.36781558424519839 0 0.167364966647951 0.35975083588178058 0 0.1662459251842697 0.36710584608423269 0 0.16523354001105911 0.37409983959611109 0 0.15926639238336801 0.36675712461384091 0 0.15062115634747231 0.37889780715207888 0 0.16523354001105911 0.37409983959611109 0 0.1662459251842697 0.36710584608423269 0 0.15926639238336801 0.36675712461384091 0 0.1753506460241005 0.35054361342806389 0 0.14992271410468949 0.34107506453040248 0 0.167364966647951 0.35975083588178058 0 0.1753506460241005 0.35054361342806389 0 0.15018796347142391 0.35543911342959528 0 0.1753506460241005 0.35054361342806389 0 0.14992271410468949 0.34107506453040248 0 0.15018796347142391 0.35543911342959528 0 0.1753506460241005 0.35054361342806389 0 0.15018796347142391 0.35543911342959528 0 0.1918312265981009 0.34733725090864831 0 0.1753506460241005 0.35054361342806389 0 0.1918312265981009 0.34733725090864831 0 0.1753506460241005 0.35054361342806389 0 0.1834453935528689 0.33477958080273051 0 0.1918312265981009 0.34733725090864831 0 0.1753506460241005 0.35054361342806389 0 0.1802318714797885 0.35236122573149797 0 0.1918312265981009 0.34733725090864831 0 0.1753588575145448 0.37220031576602253 0 0.1802318714797885 0.35236122573149797 0 0.1753506460241005 0.35054361342806389 0 0.1802318714797885 0.35236122573149797 0 0.167364966647951 0.35975083588178058 0 0.1753506460241005 0.35054361342806389 0 0.1802318714797885 0.35236122573149797 0 0.1753506460241005 0.35054361342806389 0 0.1834453935528689 0.33477958080273051 0 0.1666269581421321 0.33301630924197367 0 0.1834453935528689 0.33477958080273051 0 0.17750724151807151 0.31691505049664243 0 0.1666269581421321 0.33301630924197367 0 0.17750724151807151 0.31691505049664243 0 0.1666269581421321 0.33301630924197367 0 0.1494197498499607 0.31383804135354598 0 0.1753506460241005 0.35054361342806389 0 0.1666269581421321 0.33301630924197367 0 0.14992271410468949 0.34107506453040248 0 0.1666269581421321 0.33301630924197367 0 0.14992271410468949 0.34107506453040248 0 0.1494197498499607 0.31383804135354598 0 0.14992271410468949 0.34107506453040248 0 0.1494197498499607 0.31383804135354598 0 0.14992271410468949 0.34107506453040248 0 0.1494197498499607 0.31383804135354598 0 0.13362732087883861 0.31825791726589631 0 0.1167242617350734 0.31677866348064548 0 0.13362732087883861 0.31825791726589631 0 0.12728204636342119 0.33264440370185788 0 0.14992271410468949 0.34107506453040248 0 0.13362732087883861 0.31825791726589631 0 0.12728204636342119 0.33264440370185788 0 0.14992271410468949 0.34107506453040248 0 0.12728204636342119 0.33264440370185788 0 0.1327104347709552 0.34833671648866182 0 0.14992271410468949 0.34107506453040248 0 0.12728204636342119 0.33264440370185788 0 0.12728204636342119 0.33264440370185788 0 0.12565642337597641 0.34531162420386119 0 0.1327104347709552 0.34833671648866182 0 0.1207019799918789 0.36117572882690419 0 0.1327104347709552 0.34833671648866182 0 0.15018796347142391 0.35543911342959528 0 0.12020614592151201 0.35183052892485178 0 0.12565642337597641 0.34531162420386119 0 0.1327104347709552 0.34833671648866182 0 0.1207019799918789 0.36117572882690419 0 0.15018796347142391 0.35543911342959528 0 0.1207019799918789 0.36117572882690419 0 0.13593835547877689 0.36822566204290602 0 0.15018796347142391 0.35543911342959528 0 0.1207019799918789 0.36117572882690419 0 0.1269429757455281 0.3700741961410311 0 0.13593835547877689 0.36822566204290602 0 0.1269429757455281 0.3700741961410311 0 0.13593835547877689 0.36822566204290602 0 0.12936302614305781 0.3806702380723882 0 0.13593835547877689 0.36822566204290602 0 0.15018796347142391 0.35543911342959528 0 0.15062115634747231 0.37889780715207888 0 0.15018796347142391 0.35543911342959528 0 0.15062115634747231 0.37889780715207888 0 0.15926639238336801 0.36675712461384091 0 0.15018796347142391 0.35543911342959528 0 0.15062115634747231 0.37889780715207888 0 0.14992271410468949 0.34107506453040248 0 0.1327104347709552 0.34833671648866182 0 0.15018796347142391 0.35543911342959528 0 0.14992271410468949 0.34107506453040248 0 0.15018796347142391 0.35543911342959528 0 0.14138495384440489 0.39322107909200571 0 0.1317921164680903 0.40545952647836342 0 0.15222999220591241 0.40711056306127658 0 0.14138495384440489 0.39322107909200571 0 0.15222999220591241 0.40711056306127658 0 0.16379442486022849 0.38965543941364961 0 0.14138495384440489 0.39322107909200571 0 0.15062115634747231 0.37889780715207888 0 0.16379442486022849 0.38965543941364961 0 0.13593835547877689 0.36822566204290602 0 0.15062115634747231 0.37889780715207888 0 0.12936302614305781 0.3806702380723882 0 0.14138495384440489 0.39322107909200571 0 0.15062115634747231 0.37889780715207888 0 0.12936302614305781 0.3806702380723882 0 0.12302526621810631 0.39483339242702431 0 0.14138495384440489 0.39322107909200571 0 0.12936302614305781 0.3806702380723882 0 0.12302526621810631 0.39483339242702431 0 0.14138495384440489 0.39322107909200571 0 0.1317921164680903 0.40545952647836342 0 0.1238244133614653 0.41259348140785829 0 0.11966152561727041 0.40521647558469348 0 0.1317921164680903 0.40545952647836342 0 0.1238244133614653 0.41259348140785829 0 0.1317921164680903 0.40545952647836342 0 0.13391702338258271 0.41648007558095218 0 0.1317921164680903 0.40545952647836342 0 0.13391702338258271 0.41648007558095218 0 0.15222999220591241 0.40711056306127658 0 0.1206950902667107 0.42206632785564402 0 0.1238244133614653 0.41259348140785829 0 0.13391702338258271 0.41648007558095218 0 0.14066555955159241 0.42456568670890099 0 0.128144127290927 0.44346528644618949 0 0.13429496844172059 0.42708486797366702 0 0.14066555955159241 0.42456568670890099 0 0.128144127290927 0.44346528644618949 0 0.14066555955159241 0.42456568670890099 0 0.1468621194973313 0.4432032004000479 0 0.128144127290927 0.44346528644618949 0 0.1206950902667107 0.42206632785564402 0 0.13391702338258271 0.41648007558095218 0 0.13429496844172059 0.42708486797366702 0 0.13391702338258271 0.41648007558095218 0 0.13429496844172059 0.42708486797366702 0 0.14066555955159241 0.42456568670890099 0 0.13429496844172059 0.42708486797366702 0 0.14066555955159241 0.42456568670890099 0 0.14066555955159241 0.42456568670890099 0 0.16808955766080291 0.41960022257260449 0 0.15915405200730839 0.43380743940711708 0 0.14066555955159241 0.42456568670890099 0 0.16808955766080291 0.41960022257260449 0 0.14066555955159241 0.42456568670890099 0 0.15915405200730839 0.43380743940711708 0 0.1468621194973313 0.4432032004000479 0 0.14066555955159241 0.42456568670890099 0 0.15222999220591241 0.40711056306127658 0 0.14066555955159241 0.42456568670890099 0 0.15222999220591241 0.40711056306127658 0 0.16201542307939579 0.41612311438285787 0 0.14066555955159241 0.42456568670890099 0 0.16201542307939579 0.41612311438285787 0 0.13391702338258271 0.41648007558095218 0 0.14066555955159241 0.42456568670890099 0 0.15222999220591241 0.40711056306127658 0 0.16201542307939579 0.41612311438285787 0 0.16941052998224071 0.40948279892878392 0 0.18336528660720119 0.40768054205682042 0 0.16808955766080291 0.41960022257260449 0 0.16201542307939579 0.41612311438285787 0 0.18336528660720119 0.40768054205682042 0 0.14066555955159241 0.42456568670890099 0 0.16808955766080291 0.41960022257260449 0 0.16201542307939579 0.41612311438285787 0 0.15222999220591241 0.40711056306127658 0 0.16201542307939579 0.41612311438285787 0 0.1623232745498161 0.40583988766108697 0 0.16201542307939579 0.41612311438285787 0 0.16941052998224071 0.40948279892878392 0 0.1623232745498161 0.40583988766108697 0 0.16808955766080291 0.41960022257260449 0 0.15915405200730839 0.43380743940711708 0 0.1766721112776041 0.43405941705504181 0 0.18398920852212189 0.42222731617319992 0 0.1766721112776041 0.43405941705504181 0 0.19310721835761019 0.42992761007563862 0 0.16808955766080291 0.41960022257260449 0 0.18398920852212189 0.42222731617319992 0 0.1766721112776041 0.43405941705504181 0 0.1766721112776041 0.43405941705504181 0 0.19310721835761019 0.42992761007563862 0 0.189468296445607 0.44161966517716561 0 0.16808955766080291 0.41960022257260449 0 0.18398920852212189 0.42222731617319992 0 0.19637406676339619 0.41333592033168631 0 0.16201542307939579 0.41612311438285787 0 0.18336528660720119 0.40768054205682042 0 0.16808955766080291 0.41960022257260449 0 0.19637406676339619 0.41333592033168631 0 0.16808955766080291 0.41960022257260449 0 0.18336528660720119 0.40768054205682042 0 0.19637406676339619 0.41333592033168631 0 0.16941052998224071 0.40948279892878392 0 0.18336528660720119 0.40768054205682042 0 0.18177969473327391 0.40698117398671069 0 0.16941052998224071 0.40948279892878392 0 0.18177969473327391 0.40698117398671069 0 0.17544170441619431 0.40324048585703531 0 0.17550339911694879 0.39641485139935639 0 0.16379442486022849 0.38965543941364961 0 0.18273535403657959 0.38663922238918558 0 0.18177969473327391 0.40698117398671069 0 0.18171278421578699 0.39924093208501849 0 0.19011185055861429 0.40107812901234902 0 0.18336528660720119 0.40768054205682042 0 0.18177969473327391 0.40698117398671069 0 0.19011185055861429 0.40107812901234902 0 0.18177969473327391 0.40698117398671069 0 0.19011185055861429 0.40107812901234902 0 0.18171278421578699 0.39924093208501849 0 0.17550339911694879 0.39641485139935639 0 0.18273535403657959 0.38663922238918558 0 0.18171278421578699 0.39924093208501849 0 0.18273535403657959 0.38663922238918558 0 0.19011185055861429 0.40107812901234902 0 0.18273535403657959 0.38663922238918558 0 0.19011185055861429 0.40107812901234902 0 0.18177969473327391 0.40698117398671069 0 0.18171278421578699 0.39924093208501849 0 0.17544170441619431 0.40324048585703531 0 0.18171278421578699 0.39924093208501849 0 0.17550339911694879 0.39641485139935639 0 0.17544170441619431 0.40324048585703531 0 0.17550339911694879 0.39641485139935639 0 0.17544170441619431 0.40324048585703531 0 0.1689722959232661 0.40169126431279728 0 0.16941052998224071 0.40948279892878392 0 0.17544170441619431 0.40324048585703531 0 0.1689722959232661 0.40169126431279728 0 0.1689722959232661 0.40169126431279728 0 0.1623232745498161 0.40583988766108697 0 0.16379442486022849 0.38965543941364961 0 0.15222999220591241 0.40711056306127658 0 0.1623232745498161 0.40583988766108697 0 0.16379442486022849 0.38965543941364961 0 0.15222999220591241 0.40711056306127658 0 0.16379442486022849 0.38965543941364961 0 0.16941052998224071 0.40948279892878392 0 0.1689722959232661 0.40169126431279728 0 0.1623232745498161 0.40583988766108697 0 0.17550339911694879 0.39641485139935639 0 0.1689722959232661 0.40169126431279728 0 0.16379442486022849 0.38965543941364961 0 0.1753588575145448 0.37220031576602253 0 0.16523354001105911 0.37409983959611109 0 0.16379442486022849 0.38965543941364961 0 0.1753588575145448 0.37220031576602253 0 0.16379442486022849 0.38965543941364961 0 0.16523354001105911 0.37409983959611109 0 0.15062115634747231 0.37889780715207888 0 0.16379442486022849 0.38965543941364961 0 0.1753588575145448 0.37220031576602253 0 0.18273535403657959 0.38663922238918558 0 0.1753588575145448 0.37220031576602253 0 0.16379442486022849 0.38965543941364961 0 0.18273535403657959 0.38663922238918558 0 0.19654986060048771 0.37047802484019998 0 0.1753588575145448 0.37220031576602253 0 0.18273535403657959 0.38663922238918558 0 0.19654986060048771 0.37047802484019998 0 0.18273535403657959 0.38663922238918558 0 0.20820892020551271 0.38825697944805271 0 0.19011185055861429 0.40107812901234902 0 0.20820892020551271 0.38825697944805271 0 0.19011185055861429 0.40107812901234902 0 0.20429538739721931 0.40183734425620671 0 0.20820892020551271 0.38825697944805271 0 0.18273535403657959 0.38663922238918558 0 0.19011185055861429 0.40107812901234902 0 0.20820892020551271 0.38825697944805271 0 0.19011185055861429 0.40107812901234902 0 0.20429538739721931 0.40183734425620671 0 0.19637406676339619 0.41333592033168631 0 0.20429538739721931 0.40183734425620671 0 0.20820892020551271 0.38825697944805271 0 0.2202735525657262 0.39552406566479109 0 0.20429538739721931 0.40183734425620671 0 0.2202735525657262 0.39552406566479109 0 0.2145024493426794 0.40932094283274068 0 0.21324276167256731 0.36206450472990792 0 0.20820892020551271 0.38825697944805271 0 0.22630598985240971 0.37543582988375418 0 0.20820892020551271 0.38825697944805271 0 0.22630598985240971 0.37543582988375418 0 0.20820892020551271 0.38825697944805271 0 0.22630598985240971 0.37543582988375418 0 0.2202735525657262 0.39552406566479109 0 0.22630598985240971 0.37543582988375418 0 0.2319341774640927 0.38940141535347877 0 0.2202735525657262 0.39552406566479109 0 0.2202735525657262 0.39552406566479109 0 0.23263083192196299 0.40530596533379709 0 0.2145024493426794 0.40932094283274068 0 0.2319341774640927 0.38940141535347877 0 0.2202735525657262 0.39552406566479109 0 0.23263083192196299 0.40530596533379709 0 0.2386671862694576 0.40396906576347452 0 0.24985329529781791 0.39990667252734718 0 0.247713784970646 0.38075050805242922 0 0.2319341774640927 0.38940141535347877 0 0.23263083192196299 0.40530596533379709 0 0.247713784970646 0.38075050805242922 0 0.23263083192196299 0.40530596533379709 0 0.247713784970646 0.38075050805242922 0 0.23263083192196299 0.40530596533379709 0 0.2386671862694576 0.40396906576347452 0 0.247713784970646 0.38075050805242922 0 0.23263083192196299 0.40530596533379709 0 0.2386671862694576 0.40396906576347452 0 0.23263083192196299 0.40530596533379709 0 0.2386671862694576 0.40396906576347452 0 0.23835521004243199 0.40923349084829558 0 0.2386671862694576 0.40396906576347452 0 0.24985329529781791 0.39990667252734718 0 0.23835521004243199 0.40923349084829558 0 0.22630598985240971 0.37543582988375418 0 0.2319341774640927 0.38940141535347877 0 0.247713784970646 0.38075050805242922 0 0.2385665307870003 0.42747740564887549 0 0.25702987725108101 0.42925349536772212 0 0.2385665307870003 0.42747740564887549 0 0.2488221034234695 0.4223051763495565 0 0.25702987725108101 0.42925349536772212 0 0.2385665307870003 0.42747740564887549 0 0.2448364132796593 0.44231000148378752 0 0.25702987725108101 0.42925349536772212 0 0.2385665307870003 0.42747740564887549 0 0.2406669044851476 0.42214558790778223 0 0.2368791315523423 0.42061341875551328 0 0.2385665307870003 0.42747740564887549 0 0.2406669044851476 0.42214558790778223 0 0.2488221034234695 0.4223051763495565 0 0.24985329529781791 0.39990667252734718 0 0.2383998521777784 0.41818635087718381 0 0.24985329529781791 0.39990667252734718 0 0.23835521004243199 0.40923349084829558 0 0.2383998521777784 0.41818635087718381 0 0.24985329529781791 0.39990667252734718 0 0.2383998521777784 0.41818635087718381 0 0.25380059083303341 0.40846212201461762 0 0.2406669044851476 0.42214558790778223 0 0.2488221034234695 0.4223051763495565 0 0.2383998521777784 0.41818635087718381 0 0.23835521004243199 0.40923349084829558 0 0.2350244704201927 0.41211241555610317 0 0.2383998521777784 0.41818635087718381 0 0.23263083192196299 0.40530596533379709 0 0.23835521004243199 0.40923349084829558 0 0.2350244704201927 0.41211241555610317 0 0.2406669044851476 0.42214558790778223 0 0.2383998521777784 0.41818635087718381 0 0.2368791315523423 0.42061341875551328 0 0.2350244704201927 0.41211241555610317 0 0.2383998521777784 0.41818635087718381 0 0.23071198753859651 0.41572385516513549 0 0.2383998521777784 0.41818635087718381 0 0.2368791315523423 0.42061341875551328 0 0.2383998521777784 0.41818635087718381 0 0.2368791315523423 0.42061341875551328 0 0.22312475613875049 0.42078211493492951 0 0.23263083192196299 0.40530596533379709 0 0.2145024493426794 0.40932094283274068 0 0.23263083192196299 0.40530596533379709 0 0.22312475613875049 0.42078211493492951 0 0.2145024493426794 0.40932094283274068 0 0.2383998521777784 0.41818635087718381 0 0.22312475613875049 0.42078211493492951 0 0.2383998521777784 0.41818635087718381 0 0.23071198753859651 0.41572385516513549 0 0.22312475613875049 0.42078211493492951 0 0.23263083192196299 0.40530596533379709 0 0.2350244704201927 0.41211241555610317 0 0.23071198753859651 0.41572385516513549 0 0.23263083192196299 0.40530596533379709 0 0.23071198753859651 0.41572385516513549 0 0.22312475613875049 0.42078211493492951 0 0.23263083192196299 0.40530596533379709 0 0.22312475613875049 0.42078211493492951 0 0.2385665307870003 0.42747740564887549 0 0.2201031843229195 0.42570131593002969 0 0.2201031843229195 0.42570131593002969 0 0.21059740683120351 0.44117697990449289 0 0.23005064234993169 0.44460645584696262 0 0.2385665307870003 0.42747740564887549 0 0.22312475613875049 0.42078211493492951 0 0.2201031843229195 0.42570131593002969 0 0.22312475613875049 0.42078211493492951 0 0.2201031843229195 0.42570131593002969 0 0.2385665307870003 0.42747740564887549 0 0.2201031843229195 0.42570131593002969 0 0.23005064234993169 0.44460645584696262 0 0.2385665307870003 0.42747740564887549 0 0.2368791315523423 0.42061341875551328 0 0.22312475613875049 0.42078211493492951 0 0.22312475613875049 0.42078211493492951 0 0.2201031843229195 0.42570131593002969 0 0.20354836167302259 0.42410881749736329 0 0.20096476004407141 0.4356284052502909 0 0.202011140198494 0.4243700442839049 0 0.21059740683120351 0.44117697990449289 0 0.20354836167302259 0.42410881749736329 0 0.202011140198494 0.4243700442839049 0 0.21059740683120351 0.44117697990449289 0 0.2201031843229195 0.42570131593002969 0 0.21059740683120351 0.44117697990449289 0 0.2201031843229195 0.42570131593002969 0 0.20354836167302259 0.42410881749736329 0 0.21059740683120351 0.44117697990449289 0 0.2201031843229195 0.42570131593002969 0 0.20354836167302259 0.42410881749736329 0 0.202011140198494 0.4243700442839049 0 0.21059740683120351 0.44117697990449289 0 0.22312475613875049 0.42078211493492951 0 0.20354836167302259 0.42410881749736329 0 0.2145024493426794 0.40932094283274068 0 0.19637406676339619 0.41333592033168631 0 0.22312475613875049 0.42078211493492951 0 0.20354836167302259 0.42410881749736329 0 0.2145024493426794 0.40932094283274068 0 0.20429538739721931 0.40183734425620671 0 0.2145024493426794 0.40932094283274068 0 0.19637406676339619 0.41333592033168631 0 0.20354836167302259 0.42410881749736329 0 0.2145024493426794 0.40932094283274068 0 0.19637406676339619 0.41333592033168631 0 0.18398920852212189 0.42222731617319992 0 0.19637406676339619 0.41333592033168631 0 0.202011140198494 0.4243700442839049 0 0.20354836167302259 0.42410881749736329 0 0.19637406676339619 0.41333592033168631 0 0.202011140198494 0.4243700442839049 0 0.19637406676339619 0.41333592033168631 0 0.202011140198494 0.4243700442839049 0 0.19011185055861429 0.40107812901234902 0 0.19637406676339619 0.41333592033168631 0 0.18336528660720119 0.40768054205682042 0 0.19011185055861429 0.40107812901234902 0 0.19637406676339619 0.41333592033168631 0 0.18398920852212189 0.42222731617319992 0 0.202011140198494 0.4243700442839049 0 0.19310721835761019 0.42992761007563862 0 0.18398920852212189 0.42222731617319992 0 0.202011140198494 0.4243700442839049 0 0.20096476004407141 0.4356284052502909 0 0.19931207414017729 0.42860996549168562 0 0.19310721835761019 0.42992761007563862 0 0.19931207414017729 0.42860996549168562 0 0.202011140198494 0.4243700442839049 0 0.19310721835761019 0.42992761007563862 0 0.20096476004407141 0.4356284052502909 0 0.19931207414017729 0.42860996549168562 0 0.202011140198494 0.4243700442839049 0 0.20354836167302259 0.42410881749736329 0 0.202011140198494 0.4243700442839049 0 0.20096476004407141 0.4356284052502909 0 0.19310721835761019 0.42992761007563862 0 0.189468296445607 0.44161966517716561 0 0.189468296445607 0.44161966517716561 0 0.19808345402660399 0.44429013419941671 0 0.18816718916202771 0.45764189265325561 0 0.19808345402660399 0.44429013419941671 0 0.18816718916202771 0.45764189265325561 0 0.20509446468425149 0.45013591920339668 0 0.20096476004407141 0.4356284052502909 0 0.189468296445607 0.44161966517716561 0 0.19808345402660399 0.44429013419941671 0 0.18816718916202771 0.45764189265325561 0 0.2005182123172754 0.46504183791057307 0 0.20509446468425149 0.45013591920339668 0 0.18816718916202771 0.45764189265325561 0 0.2005182123172754 0.46504183791057307 0 0.18719455148605621 0.47613314112345201 0 0.2103116034304838 0.4602104470792151 0 0.21059740683120351 0.44117697990449289 0 0.22229140550900001 0.46406705440744211 0 0.2103116034304838 0.4602104470792151 0 0.22229140550900001 0.46406705440744211 0 0.21058997783642669 0.48154513501692131 0 0.2005182123172754 0.46504183791057307 0 0.2103116034304838 0.4602104470792151 0 0.20509446468425149 0.45013591920339668 0 0.21059740683120351 0.44117697990449289 0 0.22229140550900001 0.46406705440744211 0 0.2103116034304838 0.4602104470792151 0 0.21059740683120351 0.44117697990449289 0 0.20509446468425149 0.45013591920339668 0 0.20096476004407141 0.4356284052502909 0 0.19808345402660399 0.44429013419941671 0 0.21059740683120351 0.44117697990449289 0 0.19808345402660399 0.44429013419941671 0 0.21059740683120351 0.44117697990449289 0 0.20509446468425149 0.45013591920339668 0 0.21059740683120351 0.44117697990449289 0 0.20509446468425149 0.45013591920339668 0 0.21059740683120351 0.44117697990449289 0 0.23005064234993169 0.44460645584696262 0 0.22229140550900001 0.46406705440744211 0 0.23005064234993169 0.44460645584696262 0 0.22229140550900001 0.46406705440744211 0 0.24184120684035099 0.4581976946154846 0 0.22229140550900001 0.46406705440744211 0 0.24184120684035099 0.4581976946154846 0 0.24193409961780649 0.47367643658526698 0 0.24184120684035099 0.4581976946154846 0 0.2448364132796593 0.44231000148378752 0 0.25709847220363119 0.45283566357848187 0 0.23005064234993169 0.44460645584696262 0 0.24184120684035099 0.4581976946154846 0 0.2448364132796593 0.44231000148378752 0 0.2385665307870003 0.42747740564887549 0 0.23005064234993169 0.44460645584696262 0 0.2448364132796593 0.44231000148378752 0 0.24064869911215761 0.50000000000000244 0 0.24324303354975521 0.48909866857844392 0 0.2572356621087325 0.50000000000000155 0 0.24324303354975521 0.48909866857844392 0 0.2339854041867972 0.48695712891039089 0 0.24064869911215761 0.50000000000000244 0 0.24324303354975521 0.48909866857844392 0 0.2339854041867972 0.48695712891039089 0 0.24064869911215761 0.50000000000000244 0 0.2339854041867972 0.48695712891039089 0 0.24184120684035099 0.4581976946154846 0 0.24193409961780649 0.47367643658526698 0 0.25716706715618193 0.47641783178924169 0 0.24324303354975521 0.48909866857844392 0 0.24193409961780649 0.47367643658526698 0 0.25716706715618193 0.47641783178924169 0 0.24324303354975521 0.48909866857844392 0 0.24193409961780649 0.47367643658526698 0 0.2339854041867972 0.48695712891039089 0 0.22229140550900001 0.46406705440744211 0 0.24193409961780649 0.47367643658526698 0 0.2339854041867972 0.48695712891039089 0 0.22229140550900001 0.46406705440744211 0 0.2339854041867972 0.48695712891039089 0 0.22229140550900001 0.46406705440744211 0 0.2339854041867972 0.48695712891039089 0 0.21058997783642669 0.48154513501692131 0 0.2339854041867972 0.48695712891039089 0 0.21058997783642669 0.48154513501692131 0 0.2339854041867972 0.48695712891039089 0 0.21314400247467591 0.5 0 0.21058997783642669 0.48154513501692131 0 0.24064869911215761 0.50000000000000244 0 0.2339854041867972 0.48695712891039089 0 0.21314400247467591 0.5 0 0.21314400247467591 0.5 0 0.21058997783642669 0.48154513501692131 0 0.19841687033665559 0.48922266484742172 0 0.2005182123172754 0.46504183791057307 0 0.2103116034304838 0.4602104470792151 0 0.21058997783642669 0.48154513501692131 0 0.21058997783642669 0.48154513501692131 0 0.18719455148605621 0.47613314112345201 0 0.21058997783642669 0.48154513501692131 0 0.19841687033665559 0.48922266484742172 0 0.18719455148605621 0.47613314112345201 0 0.2005182123172754 0.46504183791057307 0 0.21058997783642669 0.48154513501692131 0 0.18719455148605621 0.47613314112345201 0 0.21314400247467591 0.5 0 0.19841687033665559 0.48922266484742172 0 0.18563930583719421 0.5 0 0.19841687033665559 0.48922266484742172 0 0.18563930583719421 0.5 0 0.18719455148605621 0.47613314112345201 0 0.18563930583719421 0.5 0 0.17133697046385701 0.48683307990629038 0 0.18719455148605621 0.47613314112345201 0 0.17133697046385701 0.48683307990629038 0 0.15813460919971251 0.5 0 0.1479106042039405 0.48283460682922269 0 0.18563930583719421 0.5 0 0.17133697046385701 0.48683307990629038 0 0.15813460919971251 0.5 0 0.17133697046385701 0.48683307990629038 0 0.16379912513568581 0.47072114722998237 0 0.1479106042039405 0.48283460682922269 0 0.17133697046385701 0.48683307990629038 0 0.16379912513568581 0.47072114722998237 0 0.18719455148605621 0.47613314112345201 0 0.16379912513568581 0.47072114722998237 0 0.18719455148605621 0.47613314112345201 0 0.18816718916202771 0.45764189265325561 0 0.16379912513568581 0.47072114722998237 0 0.18719455148605621 0.47613314112345201 0 0.18816718916202771 0.45764189265325561 0 0.16379912513568581 0.47072114722998237 0 0.1764896290127039 0.45007039086196288 0 0.1766721112776041 0.43405941705504181 0 0.1764896290127039 0.45007039086196288 0 0.16434142304259489 0.44630983219436898 0 0.189468296445607 0.44161966517716561 0 0.18816718916202771 0.45764189265325561 0 0.1764896290127039 0.45007039086196288 0 0.1766721112776041 0.43405941705504181 0 0.189468296445607 0.44161966517716561 0 0.1764896290127039 0.45007039086196288 0 0.15915405200730839 0.43380743940711708 0 0.1766721112776041 0.43405941705504181 0 0.16434142304259489 0.44630983219436898 0 0.15915405200730839 0.43380743940711708 0 0.16434142304259489 0.44630983219436898 0 0.1468621194973313 0.4432032004000479 0 0.16379912513568581 0.47072114722998237 0 0.1764896290127039 0.45007039086196288 0 0.16434142304259489 0.44630983219436898 0 0.16379912513568581 0.47072114722998237 0 0.16434142304259489 0.44630983219436898 0 0.15386760244336481 0.45613183796281243 0 0.16379912513568581 0.47072114722998237 0 0.15386760244336481 0.45613183796281243 0 0.14046774209784721 0.46429317202685039 0 0.15386760244336481 0.45613183796281243 0 0.1468621194973313 0.4432032004000479 0 0.14046774209784721 0.46429317202685039 0 0.16434142304259489 0.44630983219436898 0 0.15386760244336481 0.45613183796281243 0 0.1468621194973313 0.4432032004000479 0 0.1468621194973313 0.4432032004000479 0 0.128144127290927 0.44346528644618949 0 0.14046774209784721 0.46429317202685039 0 0.11648320602364499 0.46106604807885698 0 0.128144127290927 0.44346528644618949 0 0.14046774209784721 0.46429317202685039 0 0.11648320602364499 0.46106604807885698 0 0.14046774209784721 0.46429317202685039 0 0.12567845600013469 0.47929569400969452 0 0.14046774209784721 0.46429317202685039 0 0.12567845600013469 0.47929569400969452 0 0.1479106042039405 0.48283460682922269 0 0.12567845600013469 0.47929569400969452 0 0.1306299125622308 0.5 0 0.1479106042039405 0.48283460682922269 0 0.15813460919971251 0.5 0 0.1306299125622308 0.5 0 0.1479106042039405 0.48283460682922269 0 0.16379912513568581 0.47072114722998237 0 0.14046774209784721 0.46429317202685039 0 0.1479106042039405 0.48283460682922269 0 0.34528538451660062 0.47773379418631268 0 0.36004097027348331 0.48461391470660581 0 0.33995603526071178 0.48633656933393699 0 0.3490806650621458 0.46922782941321262 0 0.36004097027348331 0.48461391470660581 0 0.36717500093372668 0.46757054210475929 0 0.3490806650621458 0.46922782941321262 0 0.36004097027348331 0.48461391470660581 0 0.3490806650621458 0.46922782941321262 0 0.34528538451660062 0.47773379418631268 0 0.36004097027348331 0.48461391470660581 0 0.34701069105550569 0.5 0 0.36004097027348331 0.48461391470660581 0 0.33995603526071178 0.48633656933393699 0 0.34701069105550569 0.5 0 0.36004097027348331 0.48461391470660581 0 0.37100127548482031 0.49999999999999922 0 0.36004097027348331 0.48461391470660581 0 0.37100127548482031 0.49999999999999922 0 0.37501723488010369 0.48021086780116401 0 0.36004097027348331 0.48461391470660581 0 0.37100127548482031 0.49999999999999922 0 0.36004097027348331 0.48461391470660581 0 0.36717500093372668 0.46757054210475929 0 0.37501723488010369 0.48021086780116401 0 0.37143629651032872 0.45720686114999193 0 0.36367632925015653 0.45252291112370391 0 0.35567836915472589 0.45678778088016703 0 0.36415499449082389 0.46121224231392488 0 0.37143629651032872 0.45720686114999193 0 0.38198070339643708 0.45705904394289942 0 0.36415499449082389 0.46121224231392488 0 0.37143629651032872 0.45720686114999193 0 0.35567836915472589 0.45678778088016703 0 0.36415499449082389 0.46121224231392488 0 0.36717500093372668 0.46757054210475929 0 0.38198070339643708 0.45705904394289942 0 0.36415499449082389 0.46121224231392488 0 0.38198070339643708 0.45705904394289942 0 0.3490806650621458 0.46922782941321262 0 0.36415499449082389 0.46121224231392488 0 0.36717500093372668 0.46757054210475929 0 0.37143629651032872 0.45720686114999193 0 0.35567836915472589 0.45678778088016703 0 0.37143629651032872 0.45720686114999193 0 0.36657482697318761 0.446748226791508 0 0.38198070339643708 0.45705904394289942 0 0.36657482697318761 0.446748226791508 0 0.37193014631584848 0.42999924720615068 0 0.38198070339643708 0.45705904394289942 0 0.37143629651032872 0.45720686114999193 0 0.36367632925015653 0.45252291112370391 0 0.36657482697318761 0.446748226791508 0 0.36367632925015653 0.45252291112370391 0 0.36657482697318761 0.446748226791508 0 0.3562845012834378 0.4482926986491193 0 0.34808057550305938 0.44600590612250468 0 0.35567836915472589 0.45678778088016703 0 0.33992044179912329 0.45636870061034079 0 0.36657482697318761 0.446748226791508 0 0.3562845012834378 0.4482926986491193 0 0.35414098508291708 0.43540859867718368 0 0.3562845012834378 0.4482926986491193 0 0.34808057550305938 0.44600590612250468 0 0.35414098508291708 0.43540859867718368 0 0.36367632925015653 0.45252291112370391 0 0.3562845012834378 0.4482926986491193 0 0.35567836915472589 0.45678778088016703 0 0.3562845012834378 0.4482926986491193 0 0.34808057550305938 0.44600590612250468 0 0.35567836915472589 0.45678778088016703 0 0.34808057550305938 0.44600590612250468 0 0.33961570140635172 0.4362099185178574 0 0.35414098508291708 0.43540859867718368 0 0.35567836915472589 0.45678778088016703 0 0.34632928558521042 0.46536544068494828 0 0.33992044179912329 0.45636870061034079 0 0.35567836915472589 0.45678778088016703 0 0.33992044179912329 0.45636870061034079 0 0.3490806650621458 0.46922782941321262 0 0.36415499449082389 0.46121224231392488 0 0.34632928558521042 0.46536544068494828 0 0.3490806650621458 0.46922782941321262 0 0.36717500093372668 0.46757054210475929 0 0.36415499449082389 0.46121224231392488 0 0.35567836915472589 0.45678778088016703 0 0.34632928558521042 0.46536544068494828 0 0.36415499449082389 0.46121224231392488 0 0.34632928558521042 0.46536544068494828 0 0.3490806650621458 0.46922782941321262 0 0.34632928558521042 0.46536544068494828 0 0.3490806650621458 0.46922782941321262 0 0.34632928558521042 0.46536544068494828 0 0.32696081697792789 0.47125381941113659 0 0.34632928558521042 0.46536544068494828 0 0.32521862645877231 0.47028399711148339 0 0.34632928558521042 0.46536544068494828 0 0.33992044179912329 0.45636870061034079 0 0.32521862645877231 0.47028399711148339 0 0.34632928558521042 0.46536544068494828 0 0.33992044179912329 0.45636870061034079 0 0.34808057550305938 0.44600590612250468 0 0.3323541236552271 0.44574709709892307 0 0.33961570140635172 0.4362099185178574 0 0.33992044179912329 0.45636870061034079 0 0.3323541236552271 0.44574709709892307 0 0.32253421818534123 0.44684829148095362 0 0.34808057550305938 0.44600590612250468 0 0.33992044179912329 0.45636870061034079 0 0.3323541236552271 0.44574709709892307 0 0.33992044179912329 0.45636870061034079 0 0.3323541236552271 0.44574709709892307 0 0.3323541236552271 0.44574709709892307 0 0.32610359684421192 0.43678193879044119 0 0.33961570140635172 0.4362099185178574 0 0.33992044179912329 0.45636870061034079 0 0.32253421818534123 0.44684829148095362 0 0.3152464127007425 0.45571249763777588 0 0.32253421818534123 0.44684829148095362 0 0.3152464127007425 0.45571249763777588 0 0.31209623941360759 0.43776564917250638 0 0.3152464127007425 0.45571249763777588 0 0.31209623941360759 0.43776564917250638 0 0.3323541236552271 0.44574709709892307 0 0.32253421818534123 0.44684829148095362 0 0.32610359684421192 0.43678193879044119 0 0.32253421818534123 0.44684829148095362 0 0.31209623941360759 0.43776564917250638 0 0.32610359684421192 0.43678193879044119 0 0.33992044179912329 0.45636870061034079 0 0.3152464127007425 0.45571249763777588 0 0.32521862645877231 0.47028399711148339 0 0.3152464127007425 0.45571249763777588 0 0.31913325966346701 0.47785624881888772 0 0.32521862645877231 0.47028399711148339 0 0.33992044179912329 0.45636870061034079 0 0.3152464127007425 0.45571249763777588 0 0.3152464127007425 0.45571249763777588 0 0.31913325966346701 0.47785624881888772 0 0.30420975952634299 0.46947331586472302 0 0.3152464127007425 0.45571249763777588 0 0.31913325966346701 0.47785624881888772 0 0.31913325966346701 0.47785624881888772 0 0.32591742888426312 0.47548348654552591 0 0.329001796240801 0.48161473987402198 0 0.32591742888426312 0.47548348654552591 0 0.32927264508034731 0.47640862751209928 0 0.329001796240801 0.48161473987402198 0 0.31913325966346701 0.47785624881888772 0 0.32591742888426312 0.47548348654552591 0 0.32521862645877231 0.47028399711148339 0 0.32591742888426312 0.47548348654552591 0 0.32696081697792789 0.47125381941113659 0 0.32927264508034731 0.47640862751209928 0 0.32591742888426312 0.47548348654552591 0 0.32521862645877231 0.47028399711148339 0 0.32696081697792789 0.47125381941113659 0 0.3490806650621458 0.46922782941321262 0 0.32696081697792789 0.47125381941113659 0 0.33647616413196407 0.47630837646213342 0 0.34632928558521042 0.46536544068494828 0 0.32521862645877231 0.47028399711148339 0 0.32696081697792789 0.47125381941113659 0 0.32696081697792789 0.47125381941113659 0 0.32927264508034731 0.47640862751209928 0 0.33647616413196407 0.47630837646213342 0 0.3490806650621458 0.46922782941321262 0 0.32696081697792789 0.47125381941113659 0 0.32927264508034731 0.47640862751209928 0 0.329001796240801 0.48161473987402198 0 0.33647616413196407 0.47630837646213342 0 0.329001796240801 0.48161473987402198 0 0.33647616413196407 0.47630837646213342 0 0.33995603526071178 0.48633656933393699 0 0.34528538451660062 0.47773379418631268 0 0.33647616413196407 0.47630837646213342 0 0.33995603526071178 0.48633656933393699 0 0.3490806650621458 0.46922782941321262 0 0.34528538451660062 0.47773379418631268 0 0.33647616413196407 0.47630837646213342 0 0.329001796240801 0.48161473987402198 0 0.33995603526071178 0.48633656933393699 0 0.32302010662619118 0.49999999999999961 0 0.34701069105550569 0.5 0 0.33995603526071178 0.48633656933393699 0 0.32302010662619118 0.49999999999999961 0 0.31913325966346701 0.47785624881888772 0 0.32302010662619118 0.49999999999999961 0 0.30499869470741492 0.48476163660817662 0 0.31913325966346701 0.47785624881888772 0 0.329001796240801 0.48161473987402198 0 0.32302010662619118 0.49999999999999961 0 0.31913325966346701 0.47785624881888772 0 0.32302010662619118 0.49999999999999961 0 0.30109195845370501 0.5 0 0.30499869470741492 0.48476163660817662 0 0.28958375731165181 0.48005255167767952 0 0.32302010662619118 0.49999999999999961 0 0.30109195845370501 0.5 0 0.30499869470741492 0.48476163660817662 0 0.31913325966346701 0.47785624881888772 0 0.30499869470741492 0.48476163660817662 0 0.30420975952634299 0.46947331586472302 0 0.30499869470741492 0.48476163660817662 0 0.30420975952634299 0.46947331586472302 0 0.28958375731165181 0.48005255167767952 0 0.30109195845370501 0.5 0 0.28958375731165181 0.48005255167767952 0 0.27916381028121873 0.5 0 0.27916381028121873 0.5 0 0.27240166341444522 0.48425749185169831 0 0.2572356621087325 0.50000000000000155 0 0.28958375731165181 0.48005255167767952 0 0.27916381028121873 0.5 0 0.27240166341444522 0.48425749185169831 0 0.27240166341444522 0.48425749185169831 0 0.25716706715618193 0.47641783178924169 0 0.27345808637904001 0.4661952126215072 0 0.28958375731165181 0.48005255167767952 0 0.27240166341444522 0.48425749185169831 0 0.27345808637904001 0.4661952126215072 0 0.25716706715618193 0.47641783178924169 0 0.2572356621087325 0.50000000000000155 0 0.24324303354975521 0.48909866857844392 0 0.25716706715618193 0.47641783178924169 0 0.2572356621087325 0.50000000000000155 0 0.27240166341444522 0.48425749185169831 0 0.25716706715618193 0.47641783178924169 0 0.2572356621087325 0.50000000000000155 0 0.25709847220363119 0.45283566357848187 0 0.25702987725108101 0.42925349536772212 0 0.25709847220363119 0.45283566357848187 0 0.25702987725108101 0.42925349536772212 0 0.25836746492245471 0.43174768403659147 0 0.25709847220363119 0.45283566357848187 0 0.2660695066302855 0.43871015010979147 0 0.25836746492245471 0.43174768403659147 0 0.2448364132796593 0.44231000148378752 0 0.25709847220363119 0.45283566357848187 0 0.25702987725108101 0.42925349536772212 0 0.25716706715618193 0.47641783178924169 0 0.25709847220363119 0.45283566357848187 0 0.25716706715618193 0.47641783178924169 0 0.25709847220363119 0.45283566357848187 0 0.27345808637904001 0.4661952126215072 0 0.24184120684035099 0.4581976946154846 0 0.25716706715618193 0.47641783178924169 0 0.25709847220363119 0.45283566357848187 0 0.27345808637904001 0.4661952126215072 0 0.27379346358837398 0.44854793932786308 0 0.29070409459995628 0.45505979750407899 0 0.25709847220363119 0.45283566357848187 0 0.27345808637904001 0.4661952126215072 0 0.27379346358837398 0.44854793932786308 0 0.25709847220363119 0.45283566357848187 0 0.27379346358837398 0.44854793932786308 0 0.2660695066302855 0.43871015010979147 0 0.27379346358837398 0.44854793932786308 0 0.2660695066302855 0.43871015010979147 0 0.27312045032292342 0.43870088492299869 0 0.27379346358837398 0.44854793932786308 0 0.27312045032292342 0.43870088492299869 0 0.28291697042830632 0.43588410089467061 0 0.27379346358837398 0.44854793932786308 0 0.29070409459995628 0.45505979750407899 0 0.28291697042830632 0.43588410089467061 0 0.29070409459995628 0.45505979750407899 0 0.29777872383227422 0.43475991775429229 0 0.28291697042830632 0.43588410089467061 0 0.28958375731165181 0.48005255167767952 0 0.27345808637904001 0.4661952126215072 0 0.29070409459995628 0.45505979750407899 0 0.30420975952634299 0.46947331586472302 0 0.28958375731165181 0.48005255167767952 0 0.29070409459995628 0.45505979750407899 0 0.3152464127007425 0.45571249763777588 0 0.30420975952634299 0.46947331586472302 0 0.29070409459995628 0.45505979750407899 0 0.3152464127007425 0.45571249763777588 0 0.29070409459995628 0.45505979750407899 0 0.3152464127007425 0.45571249763777588 0 0.29070409459995628 0.45505979750407899 0 0.31209623941360759 0.43776564917250638 0 0.29070409459995628 0.45505979750407899 0 0.31209623941360759 0.43776564917250638 0 0.29777872383227422 0.43475991775429229 0 0.29777872383227422 0.43475991775429229 0 0.28982240375417168 0.42299913491174501 0 0.31495791781995791 0.41600820478279921 0 0.31209623941360759 0.43776564917250638 0 0.29777872383227422 0.43475991775429229 0 0.31495791781995791 0.41600820478279921 0 0.28982240375417168 0.42299913491174501 0 0.31495791781995791 0.41600820478279921 0 0.28950248352475311 0.4095022566254774 0 0.28982240375417168 0.42299913491174501 0 0.31495791781995791 0.41600820478279921 0 0.28950248352475311 0.4095022566254774 0 0.29925209770985872 0.40107025153885512 0 0.31495791781995791 0.41600820478279921 0 0.28950248352475311 0.4095022566254774 0 0.28982240375417168 0.42299913491174501 0 0.27496603255160451 0.42014298348928741 0 0.29777872383227422 0.43475991775429229 0 0.28982240375417168 0.42299913491174501 0 0.28291697042830632 0.43588410089467061 0 0.28982240375417168 0.42299913491174501 0 0.26935029905594432 0.43043866375212297 0 0.26468688968838561 0.42999006504069143 0 0.27312045032292342 0.43870088492299869 0 0.28291697042830632 0.43588410089467061 0 0.26935029905594432 0.43043866375212297 0 0.28982240375417168 0.42299913491174501 0 0.26468688968838561 0.42999006504069143 0 0.28982240375417168 0.42299913491174501 0 0.28291697042830632 0.43588410089467061 0 0.26935029905594432 0.43043866375212297 0 0.28982240375417168 0.42299913491174501 0 0.27496603255160451 0.42014298348928741 0 0.26468688968838561 0.42999006504069143 0 0.2660695066302855 0.43871015010979147 0 0.26935029905594432 0.43043866375212297 0 0.26468688968838561 0.42999006504069143 0 0.2660695066302855 0.43871015010979147 0 0.27312045032292342 0.43870088492299869 0 0.26935029905594432 0.43043866375212297 0 0.26935029905594432 0.43043866375212297 0 0.26468688968838561 0.42999006504069143 0 0.27496603255160451 0.42014298348928741 0 0.26468688968838561 0.42999006504069143 0 0.2651281327625446 0.42188031555685962 0 0.28950248352475311 0.4095022566254774 0 0.26395116785126571 0.41384430375133069 0 0.28950248352475311 0.4095022566254774 0 0.27496603255160451 0.42014298348928741 0 0.26395116785126571 0.41384430375133069 0 0.28950248352475311 0.4095022566254774 0 0.26395116785126571 0.41384430375133069 0 0.27343145984221179 0.40601604463393609 0 0.26395116785126571 0.41384430375133069 0 0.26299804800527138 0.40191116090260848 0 0.27343145984221179 0.40601604463393609 0 0.27496603255160451 0.42014298348928741 0 0.26395116785126571 0.41384430375133069 0 0.2651281327625446 0.42188031555685962 0 0.26395116785126571 0.41384430375133069 0 0.25700903327720531 0.4220875730974884 0 0.2651281327625446 0.42188031555685962 0 0.2383998521777784 0.41818635087718381 0 0.26395116785126571 0.41384430375133069 0 0.25380059083303341 0.40846212201461762 0 0.2488221034234695 0.4223051763495565 0 0.2383998521777784 0.41818635087718381 0 0.26395116785126571 0.41384430375133069 0 0.2383998521777784 0.41818635087718381 0 0.26395116785126571 0.41384430375133069 0 0.26395116785126571 0.41384430375133069 0 0.25380059083303341 0.40846212201461762 0 0.26299804800527138 0.40191116090260848 0 0.2488221034234695 0.4223051763495565 0 0.26395116785126571 0.41384430375133069 0 0.25700903327720531 0.4220875730974884 0 0.2488221034234695 0.4223051763495565 0 0.25700903327720531 0.4220875730974884 0 0.25702987725108101 0.42925349536772212 0 0.25700903327720531 0.4220875730974884 0 0.25702987725108101 0.42925349536772212 0 0.25836746492245471 0.43174768403659147 0 0.26468688968838561 0.42999006504069143 0 0.25702987725108101 0.42925349536772212 0 0.25836746492245471 0.43174768403659147 0 0.26468688968838561 0.42999006504069143 0 0.2660695066302855 0.43871015010979147 0 0.25836746492245471 0.43174768403659147 0 0.26468688968838561 0.42999006504069143 0 0.25702987725108101 0.42925349536772212 0 0.26468688968838561 0.42999006504069143 0 0.2651281327625446 0.42188031555685962 0 0.25700903327720531 0.4220875730974884 0 0.25702987725108101 0.42925349536772212 0 0.2651281327625446 0.42188031555685962 0 0.25702987725108101 0.42925349536772212 0 0.26468688968838561 0.42999006504069143 0 0.24985329529781791 0.39990667252734718 0 0.247713784970646 0.38075050805242922 0 0.26130673841785779 0.38162699417751078 0 0.26130673841785779 0.38162699417751078 0 0.25751014003425049 0.39127202551525408 0 0.26130673841785779 0.38162699417751078 0 0.25751014003425049 0.39127202551525408 0 0.26555566989124457 0.39385691981445009 0 0.247713784970646 0.38075050805242922 0 0.26130673841785779 0.38162699417751078 0 0.25490457918629872 0.37507349251653871 0 0.24985329529781791 0.39990667252734718 0 0.26130673841785779 0.38162699417751078 0 0.24985329529781791 0.39990667252734718 0 0.26130673841785779 0.38162699417751078 0 0.25751014003425049 0.39127202551525408 0 0.24985329529781791 0.39990667252734718 0 0.25751014003425049 0.39127202551525408 0 0.26299804800527138 0.40191116090260848 0 0.24985329529781791 0.39990667252734718 0 0.25380059083303341 0.40846212201461762 0 0.26299804800527138 0.40191116090260848 0 0.25751014003425049 0.39127202551525408 0 0.26299804800527138 0.40191116090260848 0 0.26555566989124457 0.39385691981445009 0 0.26555566989124457 0.39385691981445009 0 0.27430006382294309 0.39784586166294189 0 0.27120134665021761 0.38756895009831732 0 0.26299804800527138 0.40191116090260848 0 0.26555566989124457 0.39385691981445009 0 0.27430006382294309 0.39784586166294189 0 0.26299804800527138 0.40191116090260848 0 0.27343145984221179 0.40601604463393609 0 0.27430006382294309 0.39784586166294189 0 0.27343145984221179 0.40601604463393609 0 0.28106797903805247 0.40257602375425933 0 0.27430006382294309 0.39784586166294189 0 0.28106797903805247 0.40257602375425933 0 0.27430006382294309 0.39784586166294189 0 0.28703790896230208 0.39693993209468148 0 0.27430006382294309 0.39784586166294189 0 0.27993136792368678 0.39059144184020128 0 0.27120134665021761 0.38756895009831732 0 0.27430006382294309 0.39784586166294189 0 0.27993136792368678 0.39059144184020128 0 0.28703790896230208 0.39693993209468148 0 0.27993136792368678 0.39059144184020128 0 0.27120134665021761 0.38756895009831732 0 0.27779903165459169 0.3822920493098666 0 0.26130673841785779 0.38162699417751078 0 0.26555566989124457 0.39385691981445009 0 0.27120134665021761 0.38756895009831732 0 0.27120134665021761 0.38756895009831732 0 0.27107463499663109 0.37851234507980008 0 0.27779903165459169 0.3822920493098666 0 0.26130673841785779 0.38162699417751078 0 0.27120134665021761 0.38756895009831732 0 0.27107463499663109 0.37851234507980008 0 0.27107463499663109 0.37851234507980008 0 0.27779903165459169 0.3822920493098666 0 0.2766490591355068 0.37433388147839908 0 0.27779903165459169 0.3822920493098666 0 0.28390095120816711 0.37562544504190132 0 0.2766490591355068 0.37433388147839908 0 0.28390095120816711 0.37562544504190132 0 0.28652318226166418 0.38492160690775928 0 0.29373006398809498 0.37700175091789651 0 0.27779903165459169 0.3822920493098666 0 0.28390095120816711 0.37562544504190132 0 0.28652318226166418 0.38492160690775928 0 0.27993136792368678 0.39059144184020128 0 0.27779903165459169 0.3822920493098666 0 0.28652318226166418 0.38492160690775928 0 0.28652318226166418 0.38492160690775928 0 0.29667622102462171 0.38885955313607279 0 0.28703790896230208 0.39693993209468148 0 0.28652318226166418 0.38492160690775928 0 0.29667622102462171 0.38885955313607279 0 0.29373006398809498 0.37700175091789651 0 0.28950248352475311 0.4095022566254774 0 0.27343145984221179 0.40601604463393609 0 0.28106797903805247 0.40257602375425933 0 0.28950248352475311 0.4095022566254774 0 0.28106797903805247 0.40257602375425933 0 0.28703790896230208 0.39693993209468148 0 0.27993136792368678 0.39059144184020128 0 0.28652318226166418 0.38492160690775928 0 0.28703790896230208 0.39693993209468148 0 0.29667622102462171 0.38885955313607279 0 0.28703790896230208 0.39693993209468148 0 0.29925209770985872 0.40107025153885512 0 0.28950248352475311 0.4095022566254774 0 0.28703790896230208 0.39693993209468148 0 0.29925209770985872 0.40107025153885512 0 0.29925209770985872 0.40107025153885512 0 0.30808595721765852 0.39404131105524431 0 0.31495791781995791 0.41600820478279921 0 0.29667622102462171 0.38885955313607279 0 0.29925209770985872 0.40107025153885512 0 0.30808595721765852 0.39404131105524431 0 0.29667622102462171 0.38885955313607279 0 0.29373006398809498 0.37700175091789651 0 0.30704607127102962 0.37874789135054893 0 0.29667622102462171 0.38885955313607279 0 0.30808595721765852 0.39404131105524431 0 0.30704607127102962 0.37874789135054893 0 0.30808595721765852 0.39404131105524431 0 0.30704607127102962 0.37874789135054893 0 0.32845424032326143 0.38484820442882378 0 0.32845424032326143 0.38484820442882378 0 0.35182903215467742 0.3758796537326512 0 0.34790646022865218 0.39538457505576469 0 0.32845424032326143 0.38484820442882378 0 0.35182903215467742 0.3758796537326512 0 0.33494999436834533 0.36683291921078343 0 0.32845424032326143 0.38484820442882378 0 0.34009343188574281 0.40901727465384918 0 0.34790646022865218 0.39538457505576469 0 0.32845424032326143 0.38484820442882378 0 0.34009343188574281 0.40901727465384918 0 0.32845424032326143 0.38484820442882378 0 0.31495791781995791 0.41600820478279921 0 0.34009343188574281 0.40901727465384918 0 0.30808595721765852 0.39404131105524431 0 0.32845424032326143 0.38484820442882378 0 0.31495791781995791 0.41600820478279921 0 0.31495791781995791 0.41600820478279921 0 0.32365546110746413 0.42694996431045568 0 0.33527312640506091 0.41934143736272778 0 0.31495791781995791 0.41600820478279921 0 0.34009343188574281 0.40901727465384918 0 0.31209623941360759 0.43776564917250638 0 0.31495791781995791 0.41600820478279921 0 0.32365546110746413 0.42694996431045568 0 0.32365546110746413 0.42694996431045568 0 0.32610359684421192 0.43678193879044119 0 0.33309445048640007 0.42842800460629599 0 0.31209623941360759 0.43776564917250638 0 0.32365546110746413 0.42694996431045568 0 0.32610359684421192 0.43678193879044119 0 0.32610359684421192 0.43678193879044119 0 0.33309445048640007 0.42842800460629599 0 0.33961570140635172 0.4362099185178574 0 0.32365546110746413 0.42694996431045568 0 0.33309445048640007 0.42842800460629599 0 0.33527312640506091 0.41934143736272778 0 0.33309445048640007 0.42842800460629599 0 0.33527312640506091 0.41934143736272778 0 0.34392047686629479 0.42488796581179539 0 0.33309445048640007 0.42842800460629599 0 0.33961570140635172 0.4362099185178574 0 0.34392047686629479 0.42488796581179539 0 0.31495791781995791 0.41600820478279921 0 0.33527312640506091 0.41934143736272778 0 0.34009343188574281 0.40901727465384918 0 0.33527312640506091 0.41934143736272778 0 0.34212939465805281 0.41814630590263291 0 0.34392047686629479 0.42488796581179539 0 0.33527312640506091 0.41934143736272778 0 0.34212939465805281 0.41814630590263291 0 0.34186442441667098 0.41269478460960501 0 0.34212939465805281 0.41814630590263291 0 0.34186442441667098 0.41269478460960501 0 0.34552380666320143 0.41323543455967687 0 0.34186442441667098 0.41269478460960501 0 0.34009343188574281 0.40901727465384918 0 0.34552380666320143 0.41323543455967687 0 0.33527312640506091 0.41934143736272778 0 0.34186442441667098 0.41269478460960501 0 0.34009343188574281 0.40901727465384918 0 0.34186442441667098 0.41269478460960501 0 0.34009343188574281 0.40901727465384918 0 0.34009343188574281 0.40901727465384918 0 0.35091829865975332 0.41092335925812529 0 0.35727600754431599 0.40423829199409889 0 0.34009343188574281 0.40901727465384918 0 0.35727600754431599 0.40423829199409889 0 0.34009343188574281 0.40901727465384918 0 0.35091829865975332 0.41092335925812529 0 0.34552380666320143 0.41323543455967687 0 0.35091829865975332 0.41092335925812529 0 0.34552380666320143 0.41323543455967687 0 0.34772672207850669 0.4169791994607831 0 0.34212939465805281 0.41814630590263291 0 0.34772672207850669 0.4169791994607831 0 0.34392047686629479 0.42488796581179539 0 0.34212939465805281 0.41814630590263291 0 0.34552380666320143 0.41323543455967687 0 0.34772672207850669 0.4169791994607831 0 0.34772672207850669 0.4169791994607831 0 0.35532758082363769 0.41783269502340331 0 0.34392047686629479 0.42488796581179539 0 0.35091829865975332 0.41092335925812529 0 0.34772672207850669 0.4169791994607831 0 0.35532758082363769 0.41783269502340331 0 0.35091829865975332 0.41092335925812529 0 0.35532758082363769 0.41783269502340331 0 0.35727600754431599 0.40423829199409889 0 0.35532758082363769 0.41783269502340331 0 0.36187958923526292 0.40293945046940088 0 0.35727600754431599 0.40423829199409889 0 0.35532758082363769 0.41783269502340331 0 0.34392047686629479 0.42488796581179539 0 0.35414098508291708 0.43540859867718368 0 0.33961570140635172 0.4362099185178574 0 0.34392047686629479 0.42488796581179539 0 0.35414098508291708 0.43540859867718368 0 0.35532758082363769 0.41783269502340331 0 0.35414098508291708 0.43540859867718368 0 0.37193014631584848 0.42999924720615068 0 0.36657482697318761 0.446748226791508 0 0.35414098508291708 0.43540859867718368 0 0.37193014631584848 0.42999924720615068 0 0.35532758082363769 0.41783269502340331 0 0.37193014631584848 0.42999924720615068 0 0.36187958923526292 0.40293945046940088 0 0.37193014631584848 0.42999924720615068 0 0.36187958923526292 0.40293945046940088 0 0.37193014631584848 0.42999924720615068 0 0.36187958923526292 0.40293945046940088 0 0.39091832328282361 0.41087193027100549 0 0.36187958923526292 0.40293945046940088 0 0.35182903215467742 0.3758796537326512 0 0.37807898130569972 0.38198010331448301 0 0.36187958923526292 0.40293945046940088 0 0.35182903215467742 0.3758796537326512 0 0.36187958923526292 0.40293945046940088 0 0.35182903215467742 0.3758796537326512 0 0.34790646022865218 0.39538457505576469 0 0.34009343188574281 0.40901727465384918 0 0.34790646022865218 0.39538457505576469 0 0.35727600754431599 0.40423829199409889 0 0.36187958923526292 0.40293945046940088 0 0.34790646022865218 0.39538457505576469 0 0.35727600754431599 0.40423829199409889 0 0.35182903215467742 0.3758796537326512 0 0.3722477765496085 0.35016695762591221 0 0.37807898130569972 0.38198010331448301 0 0.35182903215467742 0.3758796537326512 0 0.3722477765496085 0.35016695762591221 0 0.34177847507409181 0.34881985699590151 0 0.35182903215467742 0.3758796537326512 0 0.34177847507409181 0.34881985699590151 0 0.3722477765496085 0.35016695762591221 0 0.37069175466933912 0.32875176142968793 0 0.35660426620688718 0.33158813156598749 0 0.3722477765496085 0.35016695762591221 0 0.37069175466933912 0.32875176142968793 0 0.38018026091455548 0.33583017463534492 0 0.36908544359869788 0.31711993858565868 0 0.37552929986171052 0.31147094895867028 0 0.37512131353827649 0.31993777409944391 0 0.37069175466933912 0.32875176142968793 0 0.36908544359869788 0.31711993858565868 0 0.37512131353827649 0.31993777409944391 0 0.37069175466933912 0.32875176142968793 0 0.36908544359869788 0.31711993858565868 0 0.36227265828944472 0.32102596309161863 0 0.37069175466933912 0.32875176142968793 0 0.36227265828944472 0.32102596309161863 0 0.35660426620688718 0.33158813156598749 0 0.36908544359869788 0.31711993858565868 0 0.36216199407232552 0.31421251507807352 0 0.36873564116109159 0.30732066885645792 0 0.36908544359869788 0.31711993858565868 0 0.36227265828944472 0.32102596309161863 0 0.36216199407232552 0.31421251507807352 0 0.36227265828944472 0.32102596309161863 0 0.36216199407232552 0.31421251507807352 0 0.35548040964913802 0.3182867922552447 0 0.33172791799350532 0.32176006025915199 0 0.34669185149407039 0.31235854363774268 0 0.35483192959872478 0.30892549123100937 0 0.34679263072992478 0.32222161781041447 0 0.33172791799350532 0.32176006025915199 0 0.35483192959872478 0.30892549123100937 0 0.35548040964913802 0.3182867922552447 0 0.34679263072992478 0.32222161781041447 0 0.35483192959872478 0.30892549123100937 0 0.36216199407232552 0.31421251507807352 0 0.35548040964913802 0.3182867922552447 0 0.35483192959872478 0.30892549123100937 0 0.35548040964913802 0.3182867922552447 0 0.34679263072992478 0.32222161781041447 0 0.35660426620688718 0.33158813156598749 0 0.36227265828944472 0.32102596309161863 0 0.35548040964913802 0.3182867922552447 0 0.35660426620688718 0.33158813156598749 0 0.34679263072992478 0.32222161781041447 0 0.35660426620688718 0.33158813156598749 0 0.34177847507409181 0.34881985699590151 0 0.3722477765496085 0.35016695762591221 0 0.35660426620688718 0.33158813156598749 0 0.34177847507409181 0.34881985699590151 0 0.33172791799350532 0.32176006025915199 0 0.32481653016515311 0.34395618279456119 0 0.34177847507409181 0.34881985699590151 0 0.34679263072992478 0.32222161781041447 0 0.33172791799350532 0.32176006025915199 0 0.34177847507409181 0.34881985699590151 0 0.33172791799350532 0.32176006025915199 0 0.34177847507409181 0.34881985699590151 0 0.33172791799350532 0.32176006025915199 0 0.35483192959872478 0.30892549123100937 0 0.33172791799350532 0.32176006025915199 0 0.33433715661558527 0.30915126849091529 0 0.34669185149407039 0.31235854363774268 0 0.33172791799350532 0.32176006025915199 0 0.32649517228490349 0.30767158395733452 0 0.33433715661558527 0.30915126849091529 0 0.33172791799350532 0.32176006025915199 0 0.32649517228490349 0.30767158395733452 0 0.33172791799350532 0.32176006025915199 0 0.31845188759589887 0.32913506211895882 0 0.3124215414252603 0.31463851826348332 0 0.33172791799350532 0.32176006025915199 0 0.3124215414252603 0.31463851826348332 0 0.32649517228490349 0.30767158395733452 0 0.33172791799350532 0.32176006025915199 0 0.31845188759589887 0.32913506211895882 0 0.33172791799350532 0.32176006025915199 0 0.31845188759589887 0.32913506211895882 0 0.32481653016515311 0.34395618279456119 0 0.31845188759589887 0.32913506211895882 0 0.32481653016515311 0.34395618279456119 0 0.3051758571982971 0.3365100639787737 0 0.32481653016515311 0.34395618279456119 0 0.31681504876077932 0.36067913420379871 0 0.3051758571982971 0.3365100639787737 0 0.32481653016515311 0.34395618279456119 0 0.33494999436834533 0.36683291921078343 0 0.31681504876077932 0.36067913420379871 0 0.32481653016515311 0.34395618279456119 0 0.34177847507409181 0.34881985699590151 0 0.33494999436834533 0.36683291921078343 0 0.35182903215467742 0.3758796537326512 0 0.34177847507409181 0.34881985699590151 0 0.33494999436834533 0.36683291921078343 0 0.30704607127102962 0.37874789135054893 0 0.32845424032326143 0.38484820442882378 0 0.31681504876077932 0.36067913420379871 0 0.32845424032326143 0.38484820442882378 0 0.31681504876077932 0.36067913420379871 0 0.32845424032326143 0.38484820442882378 0 0.33494999436834533 0.36683291921078343 0 0.31681504876077932 0.36067913420379871 0 0.30704607127102962 0.37874789135054893 0 0.31681504876077932 0.36067913420379871 0 0.30062517624183088 0.36676896646786628 0 0.31681504876077932 0.36067913420379871 0 0.30062517624183088 0.36676896646786628 0 0.29985560249366611 0.35416009340586768 0 0.29373006398809498 0.37700175091789651 0 0.30704607127102962 0.37874789135054893 0 0.30062517624183088 0.36676896646786628 0 0.31681504876077932 0.36067913420379871 0 0.3051758571982971 0.3365100639787737 0 0.31681504876077932 0.36067913420379871 0 0.29985560249366611 0.35416009340586768 0 0.3051758571982971 0.3365100639787737 0 0.29985560249366611 0.35416009340586768 0 0.29642893485056382 0.34373170356788069 0 0.3051758571982971 0.3365100639787737 0 0.29156997961887149 0.34921014654590388 0 0.28547266882539629 0.3430582048410174 0 0.29642893485056382 0.34373170356788069 0 0.29985560249366611 0.35416009340586768 0 0.29156997961887149 0.34921014654590388 0 0.29642893485056382 0.34373170356788069 0 0.29985560249366611 0.35416009340586768 0 0.2845227123058599 0.35589058436884952 0 0.28847801066549428 0.36644572303251932 0 0.29985560249366611 0.35416009340586768 0 0.29156997961887149 0.34921014654590388 0 0.2845227123058599 0.35589058436884952 0 0.29156997961887149 0.34921014654590388 0 0.2845227123058599 0.35589058436884952 0 0.28547266882539629 0.3430582048410174 0 0.29373006398809498 0.37700175091789651 0 0.30062517624183088 0.36676896646786628 0 0.28847801066549428 0.36644572303251932 0 0.30062517624183088 0.36676896646786628 0 0.29985560249366611 0.35416009340586768 0 0.28847801066549428 0.36644572303251932 0 0.2845227123058599 0.35589058436884952 0 0.28170395393251652 0.36324765217496502 0 0.28847801066549428 0.36644572303251932 0 0.28170395393251652 0.36324765217496502 0 0.28847801066549428 0.36644572303251932 0 0.28042538913708492 0.36831170178922717 0 0.28390095120816711 0.37562544504190132 0 0.29373006398809498 0.37700175091789651 0 0.28847801066549428 0.36644572303251932 0 0.28390095120816711 0.37562544504190132 0 0.28847801066549428 0.36644572303251932 0 0.28042538913708492 0.36831170178922717 0 0.28042538913708492 0.36831170178922717 0 0.2766490591355068 0.37433388147839908 0 0.27338970362162712 0.36234259950926417 0 0.26130673841785779 0.38162699417751078 0 0.27338970362162712 0.36234259950926417 0 0.26130673841785779 0.38162699417751078 0 0.27338970362162712 0.36234259950926417 0 0.27075156819252399 0.35763296848608189 0 0.26130673841785779 0.38162699417751078 0 0.27107463499663109 0.37851234507980008 0 0.27338970362162712 0.36234259950926417 0 0.26130673841785779 0.38162699417751078 0 0.27075156819252399 0.35763296848608189 0 0.27107463499663109 0.37851234507980008 0 0.2766490591355068 0.37433388147839908 0 0.27338970362162712 0.36234259950926417 0 0.28390095120816711 0.37562544504190132 0 0.28042538913708492 0.36831170178922717 0 0.2766490591355068 0.37433388147839908 0 0.28170395393251652 0.36324765217496502 0 0.28042538913708492 0.36831170178922717 0 0.27338970362162712 0.36234259950926417 0 0.2845227123058599 0.35589058436884952 0 0.28170395393251652 0.36324765217496502 0 0.27338970362162712 0.36234259950926417 0 0.27075156819252399 0.35763296848608189 0 0.26558463596339632 0.34150625501184179 0 0.28019639796719031 0.33363894279465311 0 0.27075156819252399 0.35763296848608189 0 0.28019639796719031 0.33363894279465311 0 0.28547266882539629 0.3430582048410174 0 0.2845227123058599 0.35589058436884952 0 0.27338970362162712 0.36234259950926417 0 0.28547266882539629 0.3430582048410174 0 0.27075156819252399 0.35763296848608189 0 0.28019639796719031 0.33363894279465311 0 0.27338970362162712 0.36234259950926417 0 0.28547266882539629 0.3430582048410174 0 0.27338970362162712 0.36234259950926417 0 0.27075156819252399 0.35763296848608189 0 0.28547266882539629 0.3430582048410174 0 0.27075156819252399 0.35763296848608189 0 0.25711451900508148 0.35258648987221092 0 0.26558463596339632 0.34150625501184179 0 0.2438273554430464 0.34812574592335249 0 0.25711451900508148 0.35258648987221092 0 0.25235619873932041 0.33556187677713623 0 0.27075156819252399 0.35763296848608189 0 0.25711451900508148 0.35258648987221092 0 0.25830082874688443 0.36636652218621663 0 0.26130673841785779 0.38162699417751078 0 0.27075156819252399 0.35763296848608189 0 0.25830082874688443 0.36636652218621663 0 0.2444030594993066 0.36261468031945582 0 0.25711451900508148 0.35258648987221092 0 0.25830082874688443 0.36636652218621663 0 0.2444030594993066 0.36261468031945582 0 0.25490457918629872 0.37507349251653871 0 0.25830082874688443 0.36636652218621663 0 0.26130673841785779 0.38162699417751078 0 0.25490457918629872 0.37507349251653871 0 0.25830082874688443 0.36636652218621663 0 0.2412863906095909 0.31706614216088019 0 0.25496362040665271 0.32267745764425643 0 0.26071219069447599 0.31197788889560879 0 0.25496362040665271 0.32267745764425643 0 0.26589958482641279 0.32752631364072038 0 0.26071219069447599 0.31197788889560879 0 0.25496362040665271 0.32267745764425643 0 0.25235619873932041 0.33556187677713623 0 0.26589958482641279 0.32752631364072038 0 0.25711451900508148 0.35258648987221092 0 0.25235619873932041 0.33556187677713623 0 0.26558463596339632 0.34150625501184179 0 0.25235619873932041 0.33556187677713623 0 0.26558463596339632 0.34150625501184179 0 0.26589958482641279 0.32752631364072038 0 0.26558463596339632 0.34150625501184179 0 0.28019639796719031 0.33363894279465311 0 0.26589958482641279 0.32752631364072038 0 0.28019639796719031 0.33363894279465311 0 0.26589958482641279 0.32752631364072038 0 0.27489680020354851 0.31780650302536112 0 0.26589958482641279 0.32752631364072038 0 0.27489680020354851 0.31780650302536112 0 0.26071219069447599 0.31197788889560879 0 0.28019639796719031 0.33363894279465311 0 0.28964122774185652 0.30964491710322428 0 0.28019639796719031 0.33363894279465311 0 0.27489680020354851 0.31780650302536112 0 0.28964122774185652 0.30964491710322428 0 0.28019639796719031 0.33363894279465311 0 0.29537221966939131 0.31615256727250862 0 0.28964122774185652 0.30964491710322428 0 0.28019639796719031 0.33363894279465311 0 0.29537221966939131 0.31615256727250862 0 0.29755563402916552 0.32377381017277068 0 0.28019639796719031 0.33363894279465311 0 0.28547266882539629 0.3430582048410174 0 0.29755563402916552 0.32377381017277068 0 0.28547266882539629 0.3430582048410174 0 0.29755563402916552 0.32377381017277068 0 0.28547266882539629 0.3430582048410174 0 0.29642893485056382 0.34373170356788069 0 0.29755563402916552 0.32377381017277068 0 0.29642893485056382 0.34373170356788069 0 0.3051758571982971 0.3365100639787737 0 0.29755563402916552 0.32377381017277068 0 0.31845188759589887 0.32913506211895882 0 0.3051758571982971 0.3365100639787737 0 0.29537221966939131 0.31615256727250862 0 0.3051758571982971 0.3365100639787737 0 0.29755563402916552 0.32377381017277068 0 0.31845188759589887 0.32913506211895882 0 0.3051758571982971 0.3365100639787737 0 0.3124215414252603 0.31463851826348332 0 0.29537221966939131 0.31615256727250862 0 0.3051758571982971 0.3365100639787737 0 0.29537221966939131 0.31615256727250862 0 0.3051758571982971 0.3365100639787737 0 0.3124215414252603 0.31463851826348332 0 0.29537221966939131 0.31615256727250862 0 0.3064038210334884 0.30067388223127611 0 0.29780590900410991 0.29124285186599119 0 0.29537221966939131 0.31615256727250862 0 0.3124215414252603 0.31463851826348332 0 0.3064038210334884 0.30067388223127611 0 0.3124215414252603 0.31463851826348332 0 0.3064038210334884 0.30067388223127611 0 0.31797064105596812 0.29669460242380358 0 0.3064038210334884 0.30067388223127611 0 0.30706453001149392 0.28545611992336922 0 0.31797064105596812 0.29669460242380358 0 0.3064038210334884 0.30067388223127611 0 0.30706453001149392 0.28545611992336922 0 0.29780590900410991 0.29124285186599119 0 0.30706453001149392 0.28545611992336922 0 0.29780590900410991 0.29124285186599119 0 0.29516751126046797 0.28001135836836077 0 0.28556858214048553 0.29579507056624349 0 0.28351082165216779 0.2739244349354083 0 0.29516751126046797 0.28001135836836077 0 0.29780590900410991 0.29124285186599119 0 0.28556858214048553 0.29579507056624349 0 0.29516751126046797 0.28001135836836077 0 0.28556858214048553 0.29579507056624349 0 0.27576494461157991 0.27543757385997852 0 0.28351082165216779 0.2739244349354083 0 0.29537221966939131 0.31615256727250862 0 0.29780590900410991 0.29124285186599119 0 0.28556858214048553 0.29579507056624349 0 0.29537221966939131 0.31615256727250862 0 0.28556858214048553 0.29579507056624349 0 0.28964122774185652 0.30964491710322428 0 0.29537221966939131 0.31615256727250862 0 0.28556858214048553 0.29579507056624349 0 0.28556858214048553 0.29579507056624349 0 0.28964122774185652 0.30964491710322428 0 0.27438759942090191 0.30337842557507938 0 0.27489680020354851 0.31780650302536112 0 0.28964122774185652 0.30964491710322428 0 0.27438759942090191 0.30337842557507938 0 0.27489680020354851 0.31780650302536112 0 0.27438759942090191 0.30337842557507938 0 0.26071219069447599 0.31197788889560879 0 0.27248032494705132 0.28939396479480628 0 0.25491758893057909 0.27951005592881761 0 0.27576494461157991 0.27543757385997852 0 0.28556858214048553 0.29579507056624349 0 0.27576494461157991 0.27543757385997852 0 0.28556858214048553 0.29579507056624349 0 0.27248032494705132 0.28939396479480628 0 0.27576494461157991 0.27543757385997852 0 0.28556858214048553 0.29579507056624349 0 0.27438759942090191 0.30337842557507938 0 0.27248032494705132 0.28939396479480628 0 0.27438759942090191 0.30337842557507938 0 0.27248032494705132 0.28939396479480628 0 0.26162700977852021 0.29629342014523508 0 0.27248032494705132 0.28939396479480628 0 0.26162700977852021 0.29629342014523508 0 0.25491758893057909 0.27951005592881761 0 0.24543399627141721 0.29887735901603257 0 0.26162700977852021 0.29629342014523508 0 0.25491758893057909 0.27951005592881761 0 0.27438759942090191 0.30337842557507938 0 0.26162700977852021 0.29629342014523508 0 0.26071219069447599 0.31197788889560879 0 0.24543399627141721 0.29887735901603257 0 0.26162700977852021 0.29629342014523508 0 0.26071219069447599 0.31197788889560879 0 0.25153222320099622 0.25722575917013901 0 0.27218921726664158 0.26801248725998528 0 0.26048617882559622 0.24371083740660091 0 0.25153222320099622 0.25722575917013901 0 0.25536006440587672 0.26878811273571068 0 0.27218921726664158 0.26801248725998528 0 0.25153222320099622 0.25722575917013901 0 0.27218921726664158 0.26801248725998528 0 0.25153222320099622 0.25722575917013901 0 0.26048617882559622 0.24371083740660091 0 0.25491758893057909 0.27951005592881761 0 0.27576494461157991 0.27543757385997852 0 0.25536006440587672 0.26878811273571068 0 0.25491758893057909 0.27951005592881761 0 0.27218921726664158 0.26801248725998528 0 0.2428012282252888 0.27040414858390061 0 0.25536006440587672 0.26878811273571068 0 0.25491758893057909 0.27951005592881761 0 0.25491758893057909 0.27951005592881761 0 0.27218921726664158 0.26801248725998528 0 0.27576494461157991 0.27543757385997852 0 0.27576494461157991 0.27543757385997852 0 0.28351082165216779 0.2739244349354083 0 0.27218921726664158 0.26801248725998528 0 0.28351082165216779 0.2739244349354083 0 0.28241209558822961 0.26632916093747078 0 0.27218921726664158 0.26801248725998528 0 0.27576494461157991 0.27543757385997852 0 0.28351082165216779 0.2739244349354083 0 0.27218921726664158 0.26801248725998528 0 0.28351082165216779 0.2739244349354083 0 0.27218921726664158 0.26801248725998528 0 0.27576494461157991 0.27543757385997852 0 0.27218921726664158 0.26801248725998528 0 0.27691591880596222 0.25729022711116639 0 0.28241209558822961 0.26632916093747078 0 0.27218921726664158 0.26801248725998528 0 0.26048617882559622 0.24371083740660091 0 0.27218921726664158 0.26801248725998528 0 0.27691591880596222 0.25729022711116639 0 0.26048617882559622 0.24371083740660091 0 0.27691591880596222 0.25729022711116639 0 0.28359094229813148 0.25448793817281579 0 0.27685630599777589 0.2478154210616699 0 0.27691591880596222 0.25729022711116639 0 0.28359094229813148 0.25448793817281579 0 0.2851673007449898 0.26023557940088332 0 0.3039173510814423 0.25972757105281219 0 0.28965918427723281 0.24218391352450211 0 0.28359094229813148 0.25448793817281579 0 0.27685630599777589 0.2478154210616699 0 0.28494106210013392 0.2498489505319901 0 0.29345893722613059 0.25129825022350127 0 0.3039173510814423 0.25972757105281219 0 0.28965918427723281 0.24218391352450211 0 0.28868459035541499 0.25311981898255947 0 0.28494106210013392 0.2498489505319901 0 0.28892582916583598 0.2492018439528669 0 0.28868459035541499 0.25311981898255947 0 0.28359094229813148 0.25448793817281579 0 0.28494106210013392 0.2498489505319901 0 0.28868459035541499 0.25311981898255947 0 0.28687158554486092 0.25569243113247692 0 0.28359094229813148 0.25448793817281579 0 0.28687158554486092 0.25569243113247692 0 0.28359094229813148 0.25448793817281579 0 0.2851673007449898 0.26023557940088332 0 0.28687158554486092 0.25569243113247692 0 0.28807077596690611 0.2581880435182905 0 0.28931157611965458 0.25623197766376038 0 0.28868459035541499 0.25311981898255947 0 0.28687158554486092 0.25569243113247692 0 0.28931157611965458 0.25623197766376038 0 0.27691591880596222 0.25729022711116639 0 0.2851673007449898 0.26023557940088332 0 0.28241209558822961 0.26632916093747078 0 0.28612348479105743 0.26557280400170857 0 0.2851673007449898 0.26023557940088332 0 0.28241209558822961 0.26632916093747078 0 0.28612348479105743 0.26557280400170857 0 0.28820153575970392 0.26340271637493412 0 0.2851673007449898 0.26023557940088332 0 0.28612348479105743 0.26557280400170857 0 0.28820153575970392 0.26340271637493412 0 0.28928435291432292 0.26627202701476832 0 0.28820153575970392 0.26340271637493412 0 0.2851673007449898 0.26023557940088332 0 0.28910030818167282 0.2606462295185657 0 0.28687158554486092 0.25569243113247692 0 0.2851673007449898 0.26023557940088332 0 0.28807077596690611 0.2581880435182905 0 0.2851673007449898 0.26023557940088332 0 0.28807077596690611 0.2581880435182905 0 0.28910030818167282 0.2606462295185657 0 0.28807077596690611 0.2581880435182905 0 0.29012458656076978 0.25822105451885852 0 0.28910030818167282 0.2606462295185657 0 0.29012458656076978 0.25822105451885852 0 0.28910030818167282 0.2606462295185657 0 0.29181146649833112 0.25980397671080041 0 0.28910030818167282 0.2606462295185657 0 0.29181146649833112 0.25980397671080041 0 0.29208830856188789 0.26336840763512592 0 0.29012458656076978 0.25822105451885852 0 0.29181146649833112 0.25980397671080041 0 0.29232880603728451 0.25623504518287532 0 0.28820153575970392 0.26340271637493412 0 0.29208830856188789 0.26336840763512592 0 0.28928435291432292 0.26627202701476832 0 0.28820153575970392 0.26340271637493412 0 0.28910030818167282 0.2606462295185657 0 0.29208830856188789 0.26336840763512592 0 0.29208830856188789 0.26336840763512592 0 0.295861748010873 0.25998823260247511 0 0.29765944308527592 0.26593032899830249 0 0.29208830856188789 0.26336840763512592 0 0.29297695870925222 0.26738919668419731 0 0.29765944308527592 0.26593032899830249 0 0.29181146649833112 0.25980397671080041 0 0.29208830856188789 0.26336840763512592 0 0.295861748010873 0.25998823260247511 0 0.29181146649833112 0.25980397671080041 0 0.295861748010873 0.25998823260247511 0 0.29232880603728451 0.25623504518287532 0 0.295861748010873 0.25998823260247511 0 0.29345893722613059 0.25129825022350127 0 0.29232880603728451 0.25623504518287532 0 0.28868459035541499 0.25311981898255947 0 0.29345893722613059 0.25129825022350127 0 0.29232880603728451 0.25623504518287532 0 0.28868459035541499 0.25311981898255947 0 0.29345893722613059 0.25129825022350127 0 0.28892582916583598 0.2492018439528669 0 0.28868459035541499 0.25311981898255947 0 0.28931157611965458 0.25623197766376038 0 0.29232880603728451 0.25623504518287532 0 0.29012458656076978 0.25822105451885852 0 0.28931157611965458 0.25623197766376038 0 0.29232880603728451 0.25623504518287532 0 0.28807077596690611 0.2581880435182905 0 0.29012458656076978 0.25822105451885852 0 0.28931157611965458 0.25623197766376038 0 0.28351082165216779 0.2739244349354083 0 0.28733438825076368 0.27108796110478978 0 0.2907816862342732 0.27306575569366948 0 0.28733438825076368 0.27108796110478978 0 0.28661589797855402 0.26840505384568097 0 0.29024227766669058 0.26954619460490381 0 0.28733438825076368 0.27108796110478978 0 0.2848684593192698 0.27078404615639318 0 0.28661589797855402 0.26840505384568097 0 0.28351082165216779 0.2739244349354083 0 0.28733438825076368 0.27108796110478978 0 0.2848684593192698 0.27078404615639318 0 0.28351082165216779 0.2739244349354083 0 0.2848684593192698 0.27078404615639318 0 0.28241209558822961 0.26632916093747078 0 0.28612348479105743 0.26557280400170857 0 0.28241209558822961 0.26632916093747078 0 0.28661589797855402 0.26840505384568097 0 0.2848684593192698 0.27078404615639318 0 0.28241209558822961 0.26632916093747078 0 0.28661589797855402 0.26840505384568097 0 0.28661589797855402 0.26840505384568097 0 0.28928435291432292 0.26627202701476832 0 0.29024227766669058 0.26954619460490381 0 0.28612348479105743 0.26557280400170857 0 0.28661589797855402 0.26840505384568097 0 0.28928435291432292 0.26627202701476832 0 0.29208830856188789 0.26336840763512592 0 0.28928435291432292 0.26627202701476832 0 0.29297695870925222 0.26738919668419731 0 0.28928435291432292 0.26627202701476832 0 0.29297695870925222 0.26738919668419731 0 0.29024227766669058 0.26954619460490381 0 0.29297695870925222 0.26738919668419731 0 0.29576201226787813 0.27118247982537402 0 0.29024227766669058 0.26954619460490381 0 0.29297695870925222 0.26738919668419731 0 0.29576201226787813 0.27118247982537402 0 0.29765944308527592 0.26593032899830249 0 0.29576201226787813 0.27118247982537402 0 0.29024227766669058 0.26954619460490381 0 0.2907816862342732 0.27306575569366948 0 0.28733438825076368 0.27108796110478978 0 0.29024227766669058 0.26954619460490381 0 0.2907816862342732 0.27306575569366948 0 0.28351082165216779 0.2739244349354083 0 0.2907816862342732 0.27306575569366948 0 0.29516751126046797 0.28001135836836077 0 0.29576201226787813 0.27118247982537402 0 0.2907816862342732 0.27306575569366948 0 0.29516751126046797 0.28001135836836077 0 0.28351082165216779 0.2739244349354083 0 0.29516751126046797 0.28001135836836077 0 0.30323688172566321 0.27316773846810899 0 0.3039173510814423 0.25972757105281219 0 0.31817551788565168 0.27727122858112241 0 0.3039173510814423 0.25972757105281219 0 0.31817551788565168 0.27727122858112241 0 0.29576201226787813 0.27118247982537402 0 0.29516751126046797 0.28001135836836077 0 0.30323688172566321 0.27316773846810899 0 0.30706453001149392 0.28545611992336922 0 0.29516751126046797 0.28001135836836077 0 0.30323688172566321 0.27316773846810899 0 0.30323688172566321 0.27316773846810899 0 0.29765944308527592 0.26593032899830249 0 0.3039173510814423 0.25972757105281219 0 0.29576201226787813 0.27118247982537402 0 0.30323688172566321 0.27316773846810899 0 0.29765944308527592 0.26593032899830249 0 0.30706453001149392 0.28545611992336922 0 0.30323688172566321 0.27316773846810899 0 0.31817551788565168 0.27727122858112241 0 0.3039173510814423 0.25972757105281219 0 0.31246354634074469 0.25301562706991498 0 0.31817551788565168 0.27727122858112241 0 0.3039173510814423 0.25972757105281219 0 0.31246354634074469 0.25301562706991498 0 0.28965918427723281 0.24218391352450211 0 0.295861748010873 0.25998823260247511 0 0.29345893722613059 0.25129825022350127 0 0.3039173510814423 0.25972757105281219 0 0.295861748010873 0.25998823260247511 0 0.29765944308527592 0.26593032899830249 0 0.3039173510814423 0.25972757105281219 0 0.31246354634074469 0.25301562706991498 0 0.33526790840425669 0.26384734061532772 0 0.31246354634074469 0.25301562706991498 0 0.33526790840425669 0.26384734061532772 0 0.32643540241908581 0.2493154440826276 0 0.31246354634074469 0.25301562706991498 0 0.33526790840425669 0.26384734061532772 0 0.31817551788565168 0.27727122858112241 0 0.33526790840425669 0.26384734061532772 0 0.3379127634661398 0.24049180221066491 0 0.32643540241908581 0.2493154440826276 0 0.33526790840425669 0.26384734061532772 0 0.35634129443021012 0.25447852924978431 0 0.3379127634661398 0.24049180221066491 0 0.33526790840425669 0.26384734061532772 0 0.31817551788565168 0.27727122858112241 0 0.34172042880505471 0.28277804546335827 0 0.31817551788565168 0.27727122858112241 0 0.31797064105596812 0.29669460242380358 0 0.33243368468986112 0.29481488610943257 0 0.31817551788565168 0.27727122858112241 0 0.33243368468986112 0.29481488610943257 0 0.30706453001149392 0.28545611992336922 0 0.31817551788565168 0.27727122858112241 0 0.31797064105596812 0.29669460242380358 0 0.3124215414252603 0.31463851826348332 0 0.31797064105596812 0.29669460242380358 0 0.32649517228490349 0.30767158395733452 0 0.31797064105596812 0.29669460242380358 0 0.32649517228490349 0.30767158395733452 0 0.33243368468986112 0.29481488610943257 0 0.33433715661558527 0.30915126849091529 0 0.33243368468986112 0.29481488610943257 0 0.34669185149407039 0.31235854363774268 0 0.33243368468986112 0.29481488610943257 0 0.34669185149407039 0.31235854363774268 0 0.34568712778571031 0.29860929543060832 0 0.33243368468986112 0.29481488610943257 0 0.34669185149407039 0.31235854363774268 0 0.32649517228490349 0.30767158395733452 0 0.33433715661558527 0.30915126849091529 0 0.33243368468986112 0.29481488610943257 0 0.31817551788565168 0.27727122858112241 0 0.34172042880505471 0.28277804546335827 0 0.33243368468986112 0.29481488610943257 0 0.34172042880505471 0.28277804546335827 0 0.33243368468986112 0.29481488610943257 0 0.34568712778571031 0.29860929543060832 0 0.35199353865369548 0.28986078273705529 0 0.36153231744840347 0.2937746187606235 0 0.35807227046776868 0.27467905416074029 0 0.34172042880505471 0.28277804546335827 0 0.35199353865369548 0.28986078273705529 0 0.35807227046776868 0.27467905416074029 0 0.34172042880505471 0.28277804546335827 0 0.35199353865369548 0.28986078273705529 0 0.34568712778571031 0.29860929543060832 0 0.35199353865369548 0.28986078273705529 0 0.34568712778571031 0.29860929543060832 0 0.35295554876154028 0.29946289986994618 0 0.35199353865369548 0.28986078273705529 0 0.35295554876154028 0.29946289986994618 0 0.36153231744840347 0.2937746187606235 0 0.34669185149407039 0.31235854363774268 0 0.350707664864299 0.30502754758011252 0 0.35483192959872478 0.30892549123100937 0 0.34669185149407039 0.31235854363774268 0 0.350707664864299 0.30502754758011252 0 0.34568712778571031 0.29860929543060832 0 0.350707664864299 0.30502754758011252 0 0.34568712778571031 0.29860929543060832 0 0.35295554876154028 0.29946289986994618 0 0.35295554876154028 0.29946289986994618 0 0.35483192959872478 0.30892549123100937 0 0.36153231744840347 0.2937746187606235 0 0.350707664864299 0.30502754758011252 0 0.35295554876154028 0.29946289986994618 0 0.35483192959872478 0.30892549123100937 0 0.35483192959872478 0.30892549123100937 0 0.36873564116109159 0.30732066885645792 0 0.37793594120394791 0.29609092220287331 0 0.35483192959872478 0.30892549123100937 0 0.36153231744840347 0.2937746187606235 0 0.37793594120394791 0.29609092220287331 0 0.35483192959872478 0.30892549123100937 0 0.37793594120394791 0.29609092220287331 0 0.36216199407232552 0.31421251507807352 0 0.35483192959872478 0.30892549123100937 0 0.36873564116109159 0.30732066885645792 0 0.36873564116109159 0.30732066885645792 0 0.37793594120394791 0.29609092220287331 0 0.37618493526913999 0.30531787431980001 0 0.36908544359869788 0.31711993858565868 0 0.36873564116109159 0.30732066885645792 0 0.37552929986171052 0.31147094895867028 0 0.36873564116109159 0.30732066885645792 0 0.37552929986171052 0.31147094895867028 0 0.37618493526913999 0.30531787431980001 0 0.36153231744840347 0.2937746187606235 0 0.3696042904128502 0.28751384070759761 0 0.37793594120394791 0.29609092220287331 0 0.3696042904128502 0.28751384070759761 0 0.35807227046776868 0.27467905416074029 0 0.38087663253128068 0.28551076770615302 0 0.36153231744840347 0.2937746187606235 0 0.3696042904128502 0.28751384070759761 0 0.35807227046776868 0.27467905416074029 0 0.35807227046776868 0.27467905416074029 0 0.38087663253128068 0.28551076770615302 0 0.35807227046776868 0.27467905416074029 0 0.37543677279847171 0.26770278157766031 0 0.38087663253128068 0.28551076770615302 0 0.35634129443021012 0.25447852924978431 0 0.35807227046776868 0.27467905416074029 0 0.37543677279847171 0.26770278157766031 0 0.35634129443021012 0.25447852924978431 0 0.37543677279847171 0.26770278157766031 0 0.37588607332036628 0.2490878796733729 0 0.33526790840425669 0.26384734061532772 0 0.35634129443021012 0.25447852924978431 0 0.35807227046776868 0.27467905416074029 0 0.33526790840425669 0.26384734061532772 0 0.34172042880505471 0.28277804546335827 0 0.35807227046776868 0.27467905416074029 0 0.33526790840425669 0.26384734061532772 0 0.35807227046776868 0.27467905416074029 0 0.39392409312874033 0.26548119861246328 0 0.41196211293711438 0.28187451755155379 0 0.39392409312874033 0.26548119861246328 0 0.38745056937483863 0.27594374287878148 0 0.39653744276239639 0.28470199660397738 0 0.39392409312874033 0.26548119861246328 0 0.39653744276239639 0.28470199660397738 0 0.41196211293711438 0.28187451755155379 0 0.39392409312874033 0.26548119861246328 0 0.41530077718395331 0.26533492563787903 0 0.40933178642478668 0.24530746794650141 0 0.39392409312874033 0.26548119861246328 0 0.37543677279847171 0.26770278157766031 0 0.37588607332036628 0.2490878796733729 0 0.39392409312874033 0.26548119861246328 0 0.37588607332036628 0.2490878796733729 0 0.39392409312874033 0.26548119861246328 0 0.39103074677198191 0.2378645478919707 0 0.37588607332036628 0.2490878796733729 0 0.39392409312874033 0.26548119861246328 0 0.38745056937483863 0.27594374287878148 0 0.37543677279847171 0.26770278157766031 0 0.38745056937483863 0.27594374287878148 0 0.37543677279847171 0.26770278157766031 0 0.38087663253128068 0.28551076770615302 0 0.38087663253128068 0.28551076770615302 0 0.39129466819619951 0.29801807429951538 0 0.39653744276239639 0.28470199660397738 0 0.38745056937483863 0.27594374287878148 0 0.38087663253128068 0.28551076770615302 0 0.39653744276239639 0.28470199660397738 0 0.3696042904128502 0.28751384070759761 0 0.38087663253128068 0.28551076770615302 0 0.37793594120394791 0.29609092220287331 0 0.38087663253128068 0.28551076770615302 0 0.37793594120394791 0.29609092220287331 0 0.39129466819619951 0.29801807429951538 0 0.37552929986171052 0.31147094895867028 0 0.38253885884981009 0.30638895726119819 0 0.38253365066345929 0.31657150904984471 0 0.37552929986171052 0.31147094895867028 0 0.37618493526913999 0.30531787431980001 0 0.38253885884981009 0.30638895726119819 0 0.37793594120394791 0.29609092220287331 0 0.37618493526913999 0.30531787431980001 0 0.38253885884981009 0.30638895726119819 0 0.37793594120394791 0.29609092220287331 0 0.38253885884981009 0.30638895726119819 0 0.39129466819619951 0.29801807429951538 0 0.38253885884981009 0.30638895726119819 0 0.39212940840629362 0.31318847352025442 0 0.38253365066345929 0.31657150904984471 0 0.38253885884981009 0.30638895726119819 0 0.39129466819619951 0.29801807429951538 0 0.39212940840629362 0.31318847352025442 0 0.39129466819619951 0.29801807429951538 0 0.40057903262284272 0.30682002081122939 0 0.39212940840629362 0.31318847352025442 0 0.39129466819619951 0.29801807429951538 0 0.40479167519220871 0.29803551582379922 0 0.40057903262284272 0.30682002081122939 0 0.40057903262284272 0.30682002081122939 0 0.40276015360382211 0.3144041531339446 0 0.39212940840629362 0.31318847352025442 0 0.40479167519220871 0.29803551582379922 0 0.40057903262284272 0.30682002081122939 0 0.40860853726765339 0.309318938863758 0 0.40057903262284272 0.30682002081122939 0 0.40860853726765339 0.309318938863758 0 0.40276015360382211 0.3144041531339446 0 0.40479167519220871 0.29803551582379922 0 0.39653744276239639 0.28470199660397738 0 0.41196211293711438 0.28187451755155379 0 0.39129466819619951 0.29801807429951538 0 0.40479167519220871 0.29803551582379922 0 0.39653744276239639 0.28470199660397738 0 0.40479167519220871 0.29803551582379922 0 0.41196211293711438 0.28187451755155379 0 0.42604734048813458 0.28838989128274578 0 0.40479167519220871 0.29803551582379922 0 0.42604734048813458 0.28838989128274578 0 0.41196211293711438 0.28187451755155379 0 0.42604734048813458 0.28838989128274578 0 0.42096165520647338 0.27640965763746961 0 0.41751736358108449 0.30523346237375532 0 0.43213625579819431 0.30543734923285137 0 0.41316086399048302 0.31918962555795088 0 0.40479167519220871 0.29803551582379922 0 0.41751736358108449 0.30523346237375532 0 0.42604734048813458 0.28838989128274578 0 0.40860853726765339 0.309318938863758 0 0.41751736358108449 0.30523346237375532 0 0.41316086399048302 0.31918962555795088 0 0.40479167519220871 0.29803551582379922 0 0.40860853726765339 0.309318938863758 0 0.41751736358108449 0.30523346237375532 0 0.41751736358108449 0.30523346237375532 0 0.43213625579819431 0.30543734923285137 0 0.42604734048813458 0.28838989128274578 0 0.43213625579819431 0.30543734923285137 0 0.41316086399048302 0.31918962555795088 0 0.43213625579819431 0.30543734923285137 0 0.44422558879226298 0.30694386780845051 0 0.43154308657343537 0.31483265104709918 0 0.42604734048813458 0.28838989128274578 0 0.44730300578406051 0.27874426674169239 0 0.43914956241907371 0.29106414504126032 0 0.43213625579819431 0.30543734923285137 0 0.42604734048813458 0.28838989128274578 0 0.43914956241907371 0.29106414504126032 0 0.42604734048813458 0.28838989128274578 0 0.44730300578406051 0.27874426674169239 0 0.42604734048813458 0.28838989128274578 0 0.43053639021669149 0.27003929607769961 0 0.44730300578406051 0.27874426674169239 0 0.42604734048813458 0.28838989128274578 0 0.43053639021669149 0.27003929607769961 0 0.42096165520647338 0.27640965763746961 0 0.43053639021669149 0.27003929607769961 0 0.42096165520647338 0.27640965763746961 0 0.41530077718395331 0.26533492563787903 0 0.39392409312874033 0.26548119861246328 0 0.41196211293711438 0.28187451755155379 0 0.41530077718395331 0.26533492563787903 0 0.41196211293711438 0.28187451755155379 0 0.42096165520647338 0.27640965763746961 0 0.41530077718395331 0.26533492563787903 0 0.41530077718395331 0.26533492563787903 0 0.42507863072368701 0.2531856777568211 0 0.40933178642478668 0.24530746794650141 0 0.43053639021669149 0.27003929607769961 0 0.42507863072368701 0.2531856777568211 0 0.43671171400039921 0.25931077911745237 0 0.43053639021669149 0.27003929607769961 0 0.41530077718395331 0.26533492563787903 0 0.42507863072368701 0.2531856777568211 0 0.43053639021669149 0.27003929607769961 0 0.43671171400039921 0.25931077911745237 0 0.4433298154441227 0.26629613073356512 0 0.42507863072368701 0.2531856777568211 0 0.43671171400039921 0.25931077911745237 0 0.43876594592942619 0.2491002947533556 0 0.48930401013157893 0.26400543771054868 0 0.5 0.30014541135995981 0 0.50000000000000078 0.23475110787519651 0 0.43671171400039921 0.25931077911745237 0 0.44893917376128722 0.25670587451621701 0 0.43876594592942619 0.2491002947533556 0 0.43671171400039921 0.25931077911745237 0 0.44893917376128722 0.25670587451621701 0 0.4433298154441227 0.26629613073356512 0 0.44893917376128722 0.25670587451621701 0 0.4433298154441227 0.26629613073356512 0 0.45470448649478412 0.26606712633996182 0 0.43053639021669149 0.27003929607769961 0 0.4433298154441227 0.26629613073356512 0 0.44730300578406051 0.27874426674169239 0 0.4433298154441227 0.26629613073356512 0 0.44730300578406051 0.27874426674169239 0 0.45470448649478412 0.26606712633996182 0 0.44730300578406051 0.27874426674169239 0 0.45470448649478412 0.26606712633996182 0 0.46855867107998628 0.26909864220063873 0 0.44730300578406051 0.27874426674169239 0 0.46855867107998628 0.26909864220063873 0 0.47008703941361663 0.27793279658265219 0 0.44730300578406051 0.27874426674169239 0 0.46855867107998628 0.26909864220063873 0 0.44893917376128722 0.25670587451621701 0 0.4657425708042397 0.25282124097232528 0 0.45444189403291402 0.2411770147019261 0 0.46855867107998628 0.26909864220063873 0 0.4657425708042397 0.25282124097232528 0 0.45470448649478412 0.26606712633996182 0 0.46855867107998628 0.26909864220063873 0 0.4657425708042397 0.25282124097232528 0 0.44893917376128722 0.25670587451621701 0 0.45470448649478412 0.26606712633996182 0 0.4657425708042397 0.25282124097232528 0 0.4657425708042397 0.25282124097232528 0 0.48060284673389919 0.263633106558882 0 0.48319944748130261 0.24680576274814439 0 0.48060284673389919 0.263633106558882 0 0.48930401013157893 0.26400543771054868 0 0.48319944748130261 0.24680576274814439 0 0.46855867107998628 0.26909864220063873 0 0.4657425708042397 0.25282124097232528 0 0.48060284673389919 0.263633106558882 0 0.47008703941361663 0.27793279658265219 0 0.48930401013157893 0.26400543771054868 0 0.46855867107998628 0.26909864220063873 0 0.48060284673389919 0.263633106558882 0 0.48060284673389919 0.263633106558882 0 0.47008703941361663 0.27793279658265219 0 0.48930401013157893 0.26400543771054868 0 0.47008703941361663 0.27793279658265219 0 0.48006412771999057 0.27905949761247589 0 0.48930401013157893 0.26400543771054868 0 0.46855867107998628 0.26909864220063873 0 0.48060284673389919 0.263633106558882 0 0.47008703941361663 0.27793279658265219 0 0.46855867107998628 0.26909864220063873 0 0.47008703941361663 0.27793279658265219 0 0.48006412771999057 0.27905949761247589 0 0.48930401013157893 0.26400543771054868 0 0.48625483393177482 0.28246926535835643 0 0.48930401013157893 0.26400543771054868 0 0.5 0.30014541135995981 0 0.48625483393177482 0.28246926535835643 0 0.5 0.30014541135995981 0 0.48970041229178968 0.29406901354624332 0 0.4885492687023667 0.31475660787172299 0 0.5 0.30014541135995981 0 0.48625483393177482 0.28246926535835643 0 0.48970041229178968 0.29406901354624332 0 0.48625483393177482 0.28246926535835643 0 0.48970041229178968 0.29406901354624332 0 0.47848665946962488 0.28859017348115529 0 0.48970041229178968 0.29406901354624332 0 0.47848665946962488 0.28859017348115529 0 0.47416262890117539 0.30149019824985379 0 0.47008703941361663 0.27793279658265219 0 0.47416262890117539 0.30149019824985379 0 0.47008703941361663 0.27793279658265219 0 0.47848665946962488 0.28859017348115529 0 0.47416262890117539 0.30149019824985379 0 0.47008703941361663 0.27793279658265219 0 0.47416262890117539 0.30149019824985379 0 0.46463260069651119 0.29140132306620031 0 0.48006412771999057 0.27905949761247589 0 0.48625483393177482 0.28246926535835643 0 0.47848665946962488 0.28859017348115529 0 0.47008703941361663 0.27793279658265219 0 0.48006412771999057 0.27905949761247589 0 0.47848665946962488 0.28859017348115529 0 0.48970041229178968 0.29406901354624332 0 0.47416262890117539 0.30149019824985379 0 0.4885492687023667 0.31475660787172299 0 0.48970041229178968 0.29406901354624332 0 0.47416262890117539 0.30149019824985379 0 0.47416262890117539 0.30149019824985379 0 0.45853060084376801 0.29977374142415342 0 0.45560674310843452 0.3103528945782269 0 0.47416262890117539 0.30149019824985379 0 0.45560674310843452 0.3103528945782269 0 0.47416262890117539 0.30149019824985379 0 0.45853060084376801 0.29977374142415342 0 0.46463260069651119 0.29140132306620031 0 0.47008703941361663 0.27793279658265219 0 0.46463260069651119 0.29140132306620031 0 0.45111164760590539 0.29168507290775181 0 0.47008703941361663 0.27793279658265219 0 0.45111164760590539 0.29168507290775181 0 0.44730300578406051 0.27874426674169239 0 0.47008703941361663 0.27793279658265219 0 0.45111164760590539 0.29168507290775181 0 0.45853060084376801 0.29977374142415342 0 0.46463260069651119 0.29140132306620031 0 0.45111164760590539 0.29168507290775181 0 0.43213625579819431 0.30543734923285137 0 0.45111164760590539 0.29168507290775181 0 0.43914956241907371 0.29106414504126032 0 0.44730300578406051 0.27874426674169239 0 0.45111164760590539 0.29168507290775181 0 0.43914956241907371 0.29106414504126032 0 0.43213625579819431 0.30543734923285137 0 0.45111164760590539 0.29168507290775181 0 0.43213625579819431 0.30543734923285137 0 0.45111164760590539 0.29168507290775181 0 0.44422558879226298 0.30694386780845051 0 0.45560674310843452 0.3103528945782269 0 0.44422558879226298 0.30694386780845051 0 0.43842966418539248 0.31774810934188358 0 0.45853060084376801 0.29977374142415342 0 0.45560674310843452 0.3103528945782269 0 0.44422558879226298 0.30694386780845051 0 0.45853060084376801 0.29977374142415342 0 0.45111164760590539 0.29168507290775181 0 0.44422558879226298 0.30694386780845051 0 0.45560674310843452 0.3103528945782269 0 0.43705085731569332 0.31921559090659912 0 0.45560674310843452 0.3103528945782269 0 0.445574462909617 0.32293984437028 0 0.43705085731569332 0.31921559090659912 0 0.45560674310843452 0.3103528945782269 0 0.445574462909617 0.32293984437028 0 0.45356547482711718 0.33018117931006491 0 0.45560674310843452 0.3103528945782269 0 0.43842966418539248 0.31774810934188358 0 0.43705085731569332 0.31921559090659912 0 0.44422558879226298 0.30694386780845051 0 0.43842966418539248 0.31774810934188358 0 0.43154308657343537 0.31483265104709918 0 0.43842966418539248 0.31774810934188358 0 0.43705085731569332 0.31921559090659912 0 0.43892997145578388 0.32563168502311662 0 0.445574462909617 0.32293984437028 0 0.44083529419097978 0.33094373067874189 0 0.43892997145578388 0.32563168502311662 0 0.445574462909617 0.32293984437028 0 0.43705085731569332 0.31921559090659912 0 0.445574462909617 0.32293984437028 0 0.44083529419097978 0.33094373067874189 0 0.45356547482711718 0.33018117931006491 0 0.44165801472227312 0.34323984209273423 0 0.45356547482711718 0.33018117931006491 0 0.45850926574073331 0.34651392194864622 0 0.44165801472227312 0.34323984209273423 0 0.44083529419097978 0.33094373067874189 0 0.43166902790598161 0.33929201054700048 0 0.43892997145578388 0.32563168502311662 0 0.44083529419097978 0.33094373067874189 0 0.43317574323615998 0.33104402243960368 0 0.44165801472227312 0.34323984209273423 0 0.44083529419097978 0.33094373067874189 0 0.45356547482711718 0.33018117931006491 0 0.45356547482711718 0.33018117931006491 0 0.47888330231886822 0.32877626329145132 0 0.45850926574073331 0.34651392194864622 0 0.45560674310843452 0.3103528945782269 0 0.45356547482711718 0.33018117931006491 0 0.47888330231886822 0.32877626329145132 0 0.5 0.30014541135995981 0 0.4885492687023667 0.31475660787172299 0 0.5 0.34930215291110689 0 0.47888330231886822 0.32877626329145132 0 0.4885492687023667 0.31475660787172299 0 0.5 0.34930215291110689 0 0.47416262890117539 0.30149019824985379 0 0.45560674310843452 0.3103528945782269 0 0.47888330231886822 0.32877626329145132 0 0.47416262890117539 0.30149019824985379 0 0.47888330231886822 0.32877626329145132 0 0.4885492687023667 0.31475660787172299 0 0.47416262890117539 0.30149019824985379 0 0.47888330231886822 0.32877626329145132 0 0.47888330231886822 0.32877626329145132 0 0.47565767627723321 0.35367653303588131 0 0.45850926574073331 0.34651392194864622 0 0.5 0.34930215291110689 0 0.47565767627723321 0.35367653303588131 0 0.47781149018510388 0.37869427749857482 0 0.47888330231886822 0.32877626329145132 0 0.5 0.34930215291110689 0 0.47565767627723321 0.35367653303588131 0 0.47565767627723321 0.35367653303588131 0 0.45733288770108432 0.36201985544527537 0 0.47781149018510388 0.37869427749857482 0 0.47565767627723321 0.35367653303588131 0 0.45733288770108432 0.36201985544527537 0 0.45850926574073331 0.34651392194864622 0 0.44165801472227312 0.34323984209273423 0 0.45850926574073331 0.34651392194864622 0 0.4413887647347946 0.35929889092681982 0 0.45733288770108432 0.36201985544527537 0 0.45850926574073331 0.34651392194864622 0 0.4413887647347946 0.35929889092681982 0 0.45733288770108432 0.36201985544527537 0 0.4413887647347946 0.35929889092681982 0 0.44153901264778062 0.37343480580038879 0 0.45733288770108432 0.36201985544527537 0 0.44153901264778062 0.37343480580038879 0 0.45482676763662039 0.38809293299633429 0 0.42640845802995259 0.36892404556868708 0 0.41557269665981 0.35954071959013117 0 0.42852438312620561 0.35190461944610102 0 0.4413887647347946 0.35929889092681982 0 0.42640845802995259 0.36892404556868708 0 0.42852438312620561 0.35190461944610102 0 0.4413887647347946 0.35929889092681982 0 0.44153901264778062 0.37343480580038879 0 0.42640845802995259 0.36892404556868708 0 0.41557269665981 0.35954071959013117 0 0.39773627330903077 0.36105859917852151 0 0.40780080352149928 0.37567923871478631 0 0.42640845802995259 0.36892404556868708 0 0.41557269665981 0.35954071959013117 0 0.40780080352149928 0.37567923871478631 0 0.41557269665981 0.35954071959013117 0 0.42852438312620561 0.35190461944610102 0 0.41739356531236188 0.34013709504256018 0 0.41557269665981 0.35954071959013117 0 0.41739356531236188 0.34013709504256018 0 0.39773627330903077 0.36105859917852151 0 0.41739356531236188 0.34013709504256018 0 0.39773627330903077 0.36105859917852151 0 0.42852438312620561 0.35190461944610102 0 0.43166902790598161 0.33929201054700048 0 0.41739356531236188 0.34013709504256018 0 0.44165801472227312 0.34323984209273423 0 0.4413887647347946 0.35929889092681982 0 0.42852438312620561 0.35190461944610102 0 0.44165801472227312 0.34323984209273423 0 0.42852438312620561 0.35190461944610102 0 0.43166902790598161 0.33929201054700048 0 0.43705085731569332 0.31921559090659912 0 0.41739356531236188 0.34013709504256018 0 0.41544983039366512 0.32953271314637039 0 0.43705085731569332 0.31921559090659912 0 0.41739356531236188 0.34013709504256018 0 0.43317574323615998 0.33104402243960368 0 0.43705085731569332 0.31921559090659912 0 0.41739356531236188 0.34013709504256018 0 0.43166902790598161 0.33929201054700048 0 0.43317574323615998 0.33104402243960368 0 0.41739356531236188 0.34013709504256018 0 0.44083529419097978 0.33094373067874189 0 0.43166902790598161 0.33929201054700048 0 0.43317574323615998 0.33104402243960368 0 0.43213625579819431 0.30543734923285137 0 0.43154308657343537 0.31483265104709918 0 0.41316086399048302 0.31918962555795088 0 0.43705085731569332 0.31921559090659912 0 0.41544983039366512 0.32953271314637039 0 0.43705085731569332 0.31921559090659912 0 0.42444684759267981 0.32028615430654062 0 0.41544983039366512 0.32953271314637039 0 0.43154308657343537 0.31483265104709918 0 0.42444684759267981 0.32028615430654062 0 0.41316086399048302 0.31918962555795088 0 0.43154308657343537 0.31483265104709918 0 0.43705085731569332 0.31921559090659912 0 0.42444684759267981 0.32028615430654062 0 0.43842966418539248 0.31774810934188358 0 0.43154308657343537 0.31483265104709918 0 0.43705085731569332 0.31921559090659912 0 0.43892997145578388 0.32563168502311662 0 0.43317574323615998 0.33104402243960368 0 0.43705085731569332 0.31921559090659912 0 0.41316086399048302 0.31918962555795088 0 0.41544983039366512 0.32953271314637039 0 0.39418547218277172 0.33294190188305062 0 0.42444684759267981 0.32028615430654062 0 0.41316086399048302 0.31918962555795088 0 0.41544983039366512 0.32953271314637039 0 0.40860853726765339 0.309318938863758 0 0.41316086399048302 0.31918962555795088 0 0.40276015360382211 0.3144041531339446 0 0.41739356531236188 0.34013709504256018 0 0.41544983039366512 0.32953271314637039 0 0.39384880347163692 0.33984983538614127 0 0.41544983039366512 0.32953271314637039 0 0.39418547218277172 0.33294190188305062 0 0.39384880347163692 0.33984983538614127 0 0.41544983039366512 0.32953271314637039 0 0.39384880347163692 0.33984983538614127 0 0.39418547218277172 0.33294190188305062 0 0.39384880347163692 0.33984983538614127 0 0.38763626903965592 0.33142256612758492 0 0.39418547218277172 0.33294190188305062 0 0.39181849880786379 0.32717555703993689 0 0.38763626903965592 0.33142256612758492 0 0.41316086399048302 0.31918962555795088 0 0.39418547218277172 0.33294190188305062 0 0.39708961803314868 0.32200780813679419 0 0.41316086399048302 0.31918962555795088 0 0.40276015360382211 0.3144041531339446 0 0.39708961803314868 0.32200780813679419 0 0.41316086399048302 0.31918962555795088 0 0.39418547218277172 0.33294190188305062 0 0.39418547218277172 0.33294190188305062 0 0.39708961803314868 0.32200780813679419 0 0.39181849880786379 0.32717555703993689 0 0.39708961803314868 0.32200780813679419 0 0.39181849880786379 0.32717555703993689 0 0.38758066886242332 0.32336225559927501 0 0.39708961803314868 0.32200780813679419 0 0.39212940840629362 0.31318847352025442 0 0.38758066886242332 0.32336225559927501 0 0.40276015360382211 0.3144041531339446 0 0.39708961803314868 0.32200780813679419 0 0.39212940840629362 0.31318847352025442 0 0.39212940840629362 0.31318847352025442 0 0.38758066886242332 0.32336225559927501 0 0.38253365066345929 0.31657150904984471 0 0.38758066886242332 0.32336225559927501 0 0.37951212113643251 0.32682582922079478 0 0.38253365066345929 0.31657150904984471 0 0.39181849880786379 0.32717555703993689 0 0.38758066886242332 0.32336225559927501 0 0.38763626903965592 0.33142256612758492 0 0.38758066886242332 0.32336225559927501 0 0.37951212113643251 0.32682582922079478 0 0.38763626903965592 0.33142256612758492 0 0.37069175466933912 0.32875176142968793 0 0.37951212113643251 0.32682582922079478 0 0.37512131353827649 0.31993777409944391 0 0.37951212113643251 0.32682582922079478 0 0.38253365066345929 0.31657150904984471 0 0.37512131353827649 0.31993777409944391 0 0.37552929986171052 0.31147094895867028 0 0.38253365066345929 0.31657150904984471 0 0.37512131353827649 0.31993777409944391 0 0.3722477765496085 0.35016695762591221 0 0.39384880347163692 0.33984983538614127 0 0.38018026091455548 0.33583017463534492 0 0.39384880347163692 0.33984983538614127 0 0.38763626903965592 0.33142256612758492 0 0.38018026091455548 0.33583017463534492 0 0.37069175466933912 0.32875176142968793 0 0.37951212113643251 0.32682582922079478 0 0.38018026091455548 0.33583017463534492 0 0.37951212113643251 0.32682582922079478 0 0.38763626903965592 0.33142256612758492 0 0.38018026091455548 0.33583017463534492 0 0.3722477765496085 0.35016695762591221 0 0.39384880347163692 0.33984983538614127 0 0.3722477765496085 0.35016695762591221 0 0.39384880347163692 0.33984983538614127 0 0.38596182216836522 0.35527606173029752 0 0.3722477765496085 0.35016695762591221 0 0.38596182216836522 0.35527606173029752 0 0.37807898130569972 0.38198010331448301 0 0.38596182216836522 0.35527606173029752 0 0.39773627330903077 0.36105859917852151 0 0.37807898130569972 0.38198010331448301 0 0.39773627330903077 0.36105859917852151 0 0.37807898130569972 0.38198010331448301 0 0.39773627330903077 0.36105859917852151 0 0.37807898130569972 0.38198010331448301 0 0.40780080352149928 0.37567923871478631 0 0.41739356531236188 0.34013709504256018 0 0.39384880347163692 0.33984983538614127 0 0.39773627330903077 0.36105859917852151 0 0.39384880347163692 0.33984983538614127 0 0.38596182216836522 0.35527606173029752 0 0.39773627330903077 0.36105859917852151 0 0.40390821143883249 0.39309141821086863 0 0.37807898130569972 0.38198010331448301 0 0.39091832328282361 0.41087193027100549 0 0.40390821143883249 0.39309141821086863 0 0.39091832328282361 0.41087193027100549 0 0.41386422373874859 0.406371997932643 0 0.40390821143883249 0.39309141821086863 0 0.37807898130569972 0.38198010331448301 0 0.40780080352149928 0.37567923871478631 0 0.36187958923526292 0.40293945046940088 0 0.37807898130569972 0.38198010331448301 0 0.39091832328282361 0.41087193027100549 0 0.37193014631584848 0.42999924720615068 0 0.39355396721594382 0.43664913910555569 0 0.39091832328282361 0.41087193027100549 0 0.39355396721594382 0.43664913910555569 0 0.4086430402520686 0.43726383809014391 0 0.41286414250946218 0.42378426033622751 0 0.39355396721594382 0.43664913910555569 0 0.39091832328282361 0.41087193027100549 0 0.41286414250946218 0.42378426033622751 0 0.39091832328282361 0.41087193027100549 0 0.41386422373874859 0.406371997932643 0 0.41286414250946218 0.42378426033622751 0 0.41386422373874859 0.406371997932643 0 0.41286414250946218 0.42378426033622751 0 0.43221705047033082 0.4090921792360791 0 0.41286414250946218 0.42378426033622751 0 0.43133933500857929 0.43201167421733949 0 0.41892553910608071 0.43791135523627978 0 0.4086430402520686 0.43726383809014391 0 0.41286414250946218 0.42378426033622751 0 0.41892553910608071 0.43791135523627978 0 0.41286414250946218 0.42378426033622751 0 0.43133933500857929 0.43201167421733949 0 0.41286414250946218 0.42378426033622751 0 0.43133933500857929 0.43201167421733949 0 0.43221705047033082 0.4090921792360791 0 0.41386422373874859 0.406371997932643 0 0.43221705047033082 0.4090921792360791 0 0.42773818513645112 0.38883830406482728 0 0.40390821143883249 0.39309141821086863 0 0.41386422373874859 0.406371997932643 0 0.42773818513645112 0.38883830406482728 0 0.40390821143883249 0.39309141821086863 0 0.40780080352149928 0.37567923871478631 0 0.42773818513645112 0.38883830406482728 0 0.42640845802995259 0.36892404556868708 0 0.40780080352149928 0.37567923871478631 0 0.42773818513645112 0.38883830406482728 0 0.44153901264778062 0.37343480580038879 0 0.42640845802995259 0.36892404556868708 0 0.42773818513645112 0.38883830406482728 0 0.44153901264778062 0.37343480580038879 0 0.42773818513645112 0.38883830406482728 0 0.45482676763662039 0.38809293299633429 0 0.5 0.34930215291110689 0 0.47781149018510388 0.37869427749857482 0 0.5 0.41423412078117261 0 0.43221705047033082 0.4090921792360791 0 0.42773818513645112 0.38883830406482728 0 0.45482676763662039 0.38809293299633429 0 0.43221705047033082 0.4090921792360791 0 0.45482676763662039 0.38809293299633429 0 0.45232064757215651 0.41416601054739322 0 0.45482676763662039 0.38809293299633429 0 0.47121798163558132 0.40484318606820219 0 0.45232064757215651 0.41416601054739322 0 0.45482676763662039 0.38809293299633429 0 0.45232064757215651 0.41416601054739322 0 0.45733288770108432 0.36201985544527537 0 0.45482676763662039 0.38809293299633429 0 0.47781149018510388 0.37869427749857482 0 0.45482676763662039 0.38809293299633429 0 0.47781149018510388 0.37869427749857482 0 0.47121798163558132 0.40484318606820219 0 0.45733288770108432 0.36201985544527537 0 0.45482676763662039 0.38809293299633429 0 0.47781149018510388 0.37869427749857482 0 0.47121798163558132 0.40484318606820219 0 0.5 0.41423412078117261 0 0.5 0.41423412078117261 0 0.47113100278402542 0.42902858851753611 0 0.48237845739663598 0.45474052989964669 0 0.47121798163558132 0.40484318606820219 0 0.5 0.41423412078117261 0 0.47113100278402542 0.42902858851753611 0 0.47113100278402542 0.42902858851753611 0 0.45232064757215651 0.41416601054739322 0 0.44981452750769602 0.44023908809845258 0 0.47121798163558132 0.40484318606820219 0 0.47113100278402542 0.42902858851753611 0 0.45232064757215651 0.41416601054739322 0 0.43133933500857929 0.43201167421733949 0 0.43221705047033082 0.4090921792360791 0 0.45232064757215651 0.41416601054739322 0 0.43133933500857929 0.43201167421733949 0 0.44981452750769602 0.44023908809845258 0 0.45232064757215651 0.41416601054739322 0 0.44981452750769602 0.44023908809845258 0 0.43133933500857929 0.43201167421733949 0 0.45232064757215651 0.41416601054739322 0 0.44981452750769602 0.44023908809845258 0 0.43133933500857929 0.43201167421733949 0 0.44981452750769602 0.44023908809845258 0 0.43647632095713862 0.44436215142212632 0 0.44981452750769602 0.44023908809845258 0 0.44828887142136431 0.4561116514361514 0 0.43647632095713862 0.44436215142212632 0 0.5 0.41423412078117261 0 0.48237845739663598 0.45474052989964669 0 0.5 0.5 0 0.44981452750769602 0.44023908809845258 0 0.44828887142136431 0.4561116514361514 0 0.44828887142136431 0.4561116514361514 0 0.46262912319994498 0.4617517767316669 0 0.44676321533503599 0.47198421477385039 0 0.44828887142136431 0.4561116514361514 0 0.44676321533503599 0.47198421477385039 0 0.44828887142136431 0.4561116514361514 0 0.44676321533503599 0.47198421477385039 0 0.43105685511778941 0.46008286853249242 0 0.44828887142136431 0.4561116514361514 0 0.43105685511778941 0.46008286853249242 0 0.43647632095713862 0.44436215142212632 0 0.44828887142136431 0.4561116514361514 0 0.46262912319994498 0.4617517767316669 0 0.46609649245216622 0.44748980899904922 0 0.44981452750769602 0.44023908809845258 0 0.46609649245216622 0.44748980899904922 0 0.47113100278402542 0.42902858851753611 0 0.44981452750769602 0.44023908809845258 0 0.46609649245216622 0.44748980899904922 0 0.44981452750769602 0.44023908809845258 0 0.44828887142136431 0.4561116514361514 0 0.46609649245216622 0.44748980899904922 0 0.46609649245216622 0.44748980899904922 0 0.48237845739663598 0.45474052989964669 0 0.47113100278402542 0.42902858851753611 0 0.46609649245216622 0.44748980899904922 0 0.48237845739663598 0.45474052989964669 0 0.46262912319994498 0.4617517767316669 0 0.46609649245216622 0.44748980899904922 0 0.48237845739663598 0.45474052989964669 0 0.46262912319994498 0.4617517767316669 0 0.48237845739663598 0.45474052989964669 0 0.46961857939452217 0.47843267854963678 0 0.5 0.5 0 0.46961857939452217 0.47843267854963678 0 0.45695651283274419 0.5 0 0.48237845739663598 0.45474052989964669 0 0.5 0.5 0 0.46961857939452217 0.47843267854963678 0 0.46262912319994498 0.4617517767316669 0 0.46961857939452217 0.47843267854963678 0 0.44676321533503599 0.47198421477385039 0 0.46961857939452217 0.47843267854963678 0 0.45695651283274419 0.5 0 0.44676321533503599 0.47198421477385039 0 0.45695651283274419 0.5 0 0.44676321533503599 0.47198421477385039 0 0.42715067833807191 0.48563837301334373 0 0.45695651283274419 0.5 0 0.42715067833807191 0.48563837301334373 0 0.39792984500105372 0.49999999999999267 0 0.42715067833807191 0.48563837301334373 0 0.40953154044098622 0.4794767255128099 0 0.39792984500105372 0.49999999999999267 0 0.40953154044098622 0.4794767255128099 0 0.41525465208730261 0.46316685488367448 0 0.40032430733366781 0.47438196319643627 0 0.42715067833807191 0.48563837301334373 0 0.40953154044098622 0.4794767255128099 0 0.42565961132635199 0.47168315798381388 0 0.40953154044098622 0.4794767255128099 0 0.42565961132635199 0.47168315798381388 0 0.41525465208730261 0.46316685488367448 0 0.44676321533503599 0.47198421477385039 0 0.42715067833807191 0.48563837301334373 0 0.42565961132635199 0.47168315798381388 0 0.42565961132635199 0.47168315798381388 0 0.43105685511778941 0.46008286853249242 0 0.41525465208730261 0.46316685488367448 0 0.44676321533503599 0.47198421477385039 0 0.42565961132635199 0.47168315798381388 0 0.43105685511778941 0.46008286853249242 0 0.43647632095713862 0.44436215142212632 0 0.4092285121767878 0.4507105976825127 0 0.43133933500857929 0.43201167421733949 0 0.43647632095713862 0.44436215142212632 0 0.41892553910608071 0.43791135523627978 0 0.43105685511778941 0.46008286853249242 0 0.43647632095713862 0.44436215142212632 0 0.4092285121767878 0.4507105976825127 0 0.43647632095713862 0.44436215142212632 0 0.41892553910608071 0.43791135523627978 0 0.4092285121767878 0.4507105976825127 0 0.4086430402520686 0.43726383809014391 0 0.41892553910608071 0.43791135523627978 0 0.4092285121767878 0.4507105976825127 0 0.43105685511778941 0.46008286853249242 0 0.4092285121767878 0.4507105976825127 0 0.41525465208730261 0.46316685488367448 0 0.41525465208730261 0.46316685488367448 0 0.38526933680530762 0.46591325479630669 0 0.40032430733366781 0.47438196319643627 0 0.4092285121767878 0.4507105976825127 0 0.41525465208730261 0.46316685488367448 0 0.38526933680530762 0.46591325479630669 0 0.4092285121767878 0.4507105976825127 0 0.38526933680530762 0.46591325479630669 0 0.38198070339643708 0.45705904394289942 0 0.4092285121767878 0.4507105976825127 0 0.38198070339643708 0.45705904394289942 0 0.41525465208730261 0.46316685488367448 0 0.38526933680530762 0.46591325479630669 0 0.39355396721594382 0.43664913910555569 0 0.4086430402520686 0.43726383809014391 0 0.4092285121767878 0.4507105976825127 0 0.39355396721594382 0.43664913910555569 0 0.4092285121767878 0.4507105976825127 0 0.38198070339643708 0.45705904394289942 0 0.37193014631584848 0.42999924720615068 0 0.39355396721594382 0.43664913910555569 0 0.38198070339643708 0.45705904394289942 0 0.37193014631584848 0.42999924720615068 0 0.38198070339643708 0.45705904394289942 0 0.36717500093372668 0.46757054210475929 0 0.38526933680530762 0.46591325479630669 0 0.36717500093372668 0.46757054210475929 0 0.38526933680530762 0.46591325479630669 0 0.38198070339643708 0.45705904394289942 0 0.38526933680530762 0.46591325479630669 0 0.38198070339643708 0.45705904394289942 0 0.36717500093372668 0.46757054210475929 0 0.38526933680530762 0.46591325479630669 0 0.37501723488010369 0.48021086780116401 0 0.38526933680530762 0.46591325479630669 0 0.39159959090318019 0.48295662739814987 0 0.38526933680530762 0.46591325479630669 0 0.37501723488010369 0.48021086780116401 0 0.39159959090318019 0.48295662739814987 0 0.37100127548482031 0.49999999999999922 0 0.39792984500105372 0.49999999999999267 0 0.39159959090318019 0.48295662739814987 0 0.37100127548482031 0.49999999999999922 0 0.37501723488010369 0.48021086780116401 0 0.39159959090318019 0.48295662739814987 0 0.40953154044098622 0.4794767255128099 0 0.39792984500105372 0.49999999999999267 0 0.39159959090318019 0.48295662739814987 0 0.39792984500105372 0.49999999999999267 0 0.39159959090318019 0.48295662739814987 0 0.38526933680530762 0.46591325479630669 0 0.39159959090318019 0.48295662739814987 0 0.40032430733366781 0.47438196319643627 0 0.40953154044098622 0.4794767255128099 0 0.39159959090318019 0.48295662739814987 0 0.40032430733366781 0.47438196319643627 0 0.33044620589452839 0.087817198709655944 0 0.34171554996877818 0.096966806733087524 0 0.34881532063442522 0.082201530692034883 0 0.33044620589452839 0.087817198709655944 0 0.32566991147381341 0.070879840112157963 0 0.34881532063442522 0.082201530692034883 0 0.32566991147381341 0.070879840112157963 0 0.34881532063442522 0.082201530692034883 0 0.34230685448842202 0.061943355546023537 0 0.32566991147381341 0.070879840112157963 0 0.31072716300308328 0.059331554637136651 0 0.31153776068034922 0.089135316111794982 0 0.33044620589452839 0.087817198709655944 0 0.32806927392538099 0.098855845298032555 0 0.31153776068034922 0.089135316111794982 0 0.33044620589452839 0.087817198709655944 0 0.32566991147381341 0.070879840112157963 0 0.31153776068034922 0.089135316111794982 0 0.32260309590447922 0.1123122165003074 0 0.31153776068034922 0.089135316111794982 0 0.31234835835761571 0.11893907758645331 0 0.32806927392538099 0.098855845298032555 0 0.32260309590447922 0.1123122165003074 0 0.31153776068034922 0.089135316111794982 0 0.32260309590447922 0.1123122165003074 0 0.33019904407723683 0.1184739086744384 0 0.31234835835761571 0.11893907758645331 0 0.33019904407723683 0.1184739086744384 0 0.31234835835761571 0.11893907758645331 0 0.33442235067943221 0.13211305649348251 0 0.32260309590447922 0.1123122165003074 0 0.33019904407723683 0.1184739086744384 0 0.33404375717876961 0.1080476884353169 0 0.33404375717876961 0.1080476884353169 0 0.343988490580944 0.1176741160108202 0 0.33019904407723683 0.1184739086744384 0 0.33404375717876961 0.1080476884353169 0 0.343988490580944 0.1176741160108202 0 0.343988490580944 0.1176741160108202 0 0.33442235067943221 0.13211305649348251 0 0.33019904407723683 0.1184739086744384 0 0.343988490580944 0.1176741160108202 0 0.33442235067943221 0.13211305649348251 0 0.33404375717876961 0.1080476884353169 0 0.34171554996877818 0.096966806733087524 0 0.35392152912869879 0.10268138604034791 0 0.33044620589452839 0.087817198709655944 0 0.32806927392538099 0.098855845298032555 0 0.34171554996877818 0.096966806733087524 0 0.32806927392538099 0.098855845298032555 0 0.33404375717876961 0.1080476884353169 0 0.34171554996877818 0.096966806733087524 0 0.32806927392538099 0.098855845298032555 0 0.32260309590447922 0.1123122165003074 0 0.33404375717876961 0.1080476884353169 0 0.35392152912869879 0.10268138604034791 0 0.35491381869304151 0.1011836439930483 0 0.34881532063442522 0.082201530692034883 0 0.34171554996877818 0.096966806733087524 0 0.35392152912869879 0.10268138604034791 0 0.34881532063442522 0.082201530692034883 0 0.35392152912869879 0.10268138604034791 0 0.35546062987876292 0.1088543734464716 0 0.35491381869304151 0.1011836439930483 0 0.35392152912869879 0.10268138604034791 0 0.35491381869304151 0.1011836439930483 0 0.35392152912869879 0.10268138604034791 0 0.35546062987876292 0.1088543734464716 0 0.33404375717876961 0.1080476884353169 0 0.35392152912869879 0.10268138604034791 0 0.343988490580944 0.1176741160108202 0 0.35546062987876292 0.1088543734464716 0 0.35491381869304151 0.1011836439930483 0 0.36234477620530581 0.12431315491142481 0 0.35491381869304151 0.1011836439930483 0 0.36234477620530581 0.12431315491142481 0 0.343988490580944 0.1176741160108202 0 0.3557614600719885 0.1290702624504714 0 0.35392152912869879 0.10268138604034791 0 0.343988490580944 0.1176741160108202 0 0.35392152912869879 0.10268138604034791 0 0.35546062987876292 0.1088543734464716 0 0.343988490580944 0.1176741160108202 0 0.35546062987876292 0.1088543734464716 0 0.343988490580944 0.1176741160108202 0 0.35889290538618501 0.1204186727105461 0 0.343988490580944 0.1176741160108202 0 0.35889290538618501 0.1204186727105461 0 0.3557614600719885 0.1290702624504714 0 0.35546062987876292 0.1088543734464716 0 0.35889290538618501 0.1204186727105461 0 0.36234477620530581 0.12431315491142481 0 0.35889290538618501 0.1204186727105461 0 0.36234477620530581 0.12431315491142481 0 0.3557614600719885 0.1290702624504714 0 0.35491381869304151 0.1011836439930483 0 0.36234477620530581 0.12431315491142481 0 0.37533236417423199 0.11575217945856781 0 0.35889290538618501 0.1204186727105461 0 0.36234477620530581 0.12431315491142481 0 0.35491381869304151 0.1011836439930483 0 0.36864505415383159 0.080457991471440893 0 0.37989514383216261 0.1008811074142211 0 0.35491381869304151 0.1011836439930483 0 0.37989514383216261 0.1008811074142211 0 0.37533236417423199 0.11575217945856781 0 0.35491381869304151 0.1011836439930483 0 0.36864505415383159 0.080457991471440893 0 0.36864505415383159 0.080457991471440893 0 0.37194242117794668 0.076772614526931793 0 0.37989514383216261 0.1008811074142211 0 0.35491381869304151 0.1011836439930483 0 0.36864505415383159 0.080457991471440893 0 0.34881532063442522 0.082201530692034883 0 0.35491381869304151 0.1011836439930483 0 0.34881532063442522 0.082201530692034883 0 0.35392152912869879 0.10268138604034791 0 0.34881532063442522 0.082201530692034883 0 0.34881532063442522 0.082201530692034883 0 0.34230685448842202 0.061943355546023537 0 0.34881532063442522 0.082201530692034883 0 0.34385440331789768 0.06230440562327498 0 0.34881532063442522 0.082201530692034883 0 0.36113142589940772 0.067155945135465897 0 0.34385440331789768 0.06230440562327498 0 0.34881532063442522 0.082201530692034883 0 0.34385440331789768 0.06230440562327498 0 0.34230685448842202 0.061943355546023537 0 0.36864505415383159 0.080457991471440893 0 0.36113142589940772 0.067155945135465897 0 0.38237628961462611 0.059732338949836518 0 0.36864505415383159 0.080457991471440893 0 0.34881532063442522 0.082201530692034883 0 0.36113142589940772 0.067155945135465897 0 0.36864505415383159 0.080457991471440893 0 0.37194242117794668 0.076772614526931793 0 0.38237628961462611 0.059732338949836518 0 0.36113142589940772 0.067155945135465897 0 0.36196606177625779 0.051083458940742198 0 0.38237628961462611 0.059732338949836518 0 0.36196606177625779 0.051083458940742198 0 0.37923500638336632 0.043068186250585699 0 0.38237628961462611 0.059732338949836518 0 0.36196606177625779 0.051083458940742198 0 0.36321924137845568 0.02934286747329215 0 0.37923500638336632 0.043068186250585699 0 0.36196606177625779 0.051083458940742198 0 0.36321924137845568 0.02934286747329215 0 0.33889348600137009 0.042407280554515127 0 0.36321924137845568 0.02934286747329215 0 0.33393256868484111 0.02251015548575569 0 0.33889348600137009 0.042407280554515127 0 0.36113142589940772 0.067155945135465897 0 0.36196606177625779 0.051083458940742198 0 0.34385440331789768 0.06230440562327498 0 0.36196606177625779 0.051083458940742198 0 0.34385440331789768 0.06230440562327498 0 0.33889348600137009 0.042407280554515127 0 0.37357914744350779 0.002440479778912224 0 0.37424442014871812 0.021820824704299101 0 0.35598292622536432 0.0074660699477739154 0 0.37424442014871812 0.021820824704299101 0 0.35598292622536432 0.0074660699477739154 0 0.36321924137845568 0.02934286747329215 0 0.37424442014871812 0.021820824704299101 0 0.35598292622536432 0.0074660699477739154 0 0.36321924137845568 0.02934286747329215 0 0.34509322139385162 0.01518667904233665 0 0.33393256868484111 0.02251015548575569 0 0.36321924137845568 0.02934286747329215 0 0.33393256868484111 0.02251015548575569 0 0.36321924137845568 0.02934286747329215 0 0.35598292622536432 0.0074660699477739154 0 0.34509322139385162 0.01518667904233665 0 0.35598292622536432 0.0074660699477739154 0 0.33772143230201052 -0.0068886848087512803 0 0.35598292622536432 0.0074660699477739154 0 0.33877017139388149 0.0064718171092321003 0 0.33772143230201052 -0.0068886848087512803 0 0.35598292622536432 0.0074660699477739154 0 0.34509322139385162 0.01518667904233665 0 0.33877017139388149 0.0064718171092321003 0 0.33877017139388149 0.0064718171092321003 0 0.32325249182581611 0.0026349705202008129 0 0.33772143230201052 -0.0068886848087512803 0 0.33877017139388149 0.0064718171092321003 0 0.33180078522236511 0.01396005084460041 0 0.32325249182581611 0.0026349705202008129 0 0.34509322139385162 0.01518667904233665 0 0.33877017139388149 0.0064718171092321003 0 0.33180078522236511 0.01396005084460041 0 0.3292899221964134 0.021427005254001569 0 0.33393256868484111 0.02251015548575569 0 0.33579838834241882 0.04168518040001222 0 0.33180078522236511 0.01396005084460041 0 0.3292899221964134 0.021427005254001569 0 0.33393256868484111 0.02251015548575569 0 0.33180078522236511 0.01396005084460041 0 0.33393256868484111 0.02251015548575569 0 0.3292899221964134 0.021427005254001569 0 0.33393256868484111 0.02251015548575569 0 0.34509322139385162 0.01518667904233665 0 0.33180078522236511 0.01396005084460041 0 0.33393256868484111 0.02251015548575569 0 0.3292899221964134 0.021427005254001569 0 0.31293781791285569 0.017611986042758699 0 0.31923969929816981 0.035830495662194838 0 0.3292899221964134 0.021427005254001569 0 0.31293781791285569 0.017611986042758699 0 0.33180078522236511 0.01396005084460041 0 0.3292899221964134 0.021427005254001569 0 0.32325249182581611 0.0026349705202008129 0 0.3292899221964134 0.021427005254001569 0 0.31293781791285569 0.017611986042758699 0 0.32325249182581611 0.0026349705202008129 0 0.3292899221964134 0.021427005254001569 0 0.32325249182581611 0.0026349705202008129 0 0.31293781791285569 0.017611986042758699 0 0.32325249182581611 0.0026349705202008129 0 0.30690038754225768 -0.0011800486910433781 0 0.34230685448842202 0.061943355546023537 0 0.33579838834241882 0.04168518040001222 0 0.33889348600137009 0.042407280554515127 0 0.34385440331789768 0.06230440562327498 0 0.34230685448842202 0.061943355546023537 0 0.33889348600137009 0.042407280554515127 0 0.32566991147381341 0.070879840112157963 0 0.34230685448842202 0.061943355546023537 0 0.33579838834241882 0.04168518040001222 0 0.34230685448842202 0.061943355546023537 0 0.33579838834241882 0.04168518040001222 0 0.34385440331789768 0.06230440562327498 0 0.33889348600137009 0.042407280554515127 0 0.3292899221964134 0.021427005254001569 0 0.33579838834241882 0.04168518040001222 0 0.33393256868484111 0.02251015548575569 0 0.33889348600137009 0.042407280554515127 0 0.33393256868484111 0.02251015548575569 0 0.33579838834241882 0.04168518040001222 0 0.33889348600137009 0.042407280554515127 0 0.33579838834241882 0.04168518040001222 0 0.31923969929816981 0.035830495662194838 0 0.31072716300308328 0.059331554637136651 0 0.3292899221964134 0.021427005254001569 0 0.33579838834241882 0.04168518040001222 0 0.31923969929816981 0.035830495662194838 0 0.32566991147381341 0.070879840112157963 0 0.33579838834241882 0.04168518040001222 0 0.31072716300308328 0.059331554637136651 0 0.31072716300308328 0.059331554637136651 0 0.30691000426459791 0.042169890293137127 0 0.29424159478151202 0.042911142587019738 0 0.31923969929816981 0.035830495662194838 0 0.30691000426459791 0.042169890293137127 0 0.30060566889494089 0.02714657897289334 0 0.30691000426459791 0.042169890293137127 0 0.29424159478151202 0.042911142587019738 0 0.30060566889494089 0.02714657897289334 0 0.31923969929816981 0.035830495662194838 0 0.31072716300308328 0.059331554637136651 0 0.30691000426459791 0.042169890293137127 0 0.29424159478151202 0.042911142587019738 0 0.30060566889494089 0.02714657897289334 0 0.28762295502011598 0.027200489278051441 0 0.29424159478151202 0.042911142587019738 0 0.28762295502011598 0.027200489278051441 0 0.27805620151387522 0.042617420402232667 0 0.31072716300308328 0.059331554637136651 0 0.29424159478151202 0.042911142587019738 0 0.28127895804124392 0.05869653450612005 0 0.29424159478151202 0.042911142587019738 0 0.28127895804124392 0.05869653450612005 0 0.27805620151387522 0.042617420402232667 0 0.31293781791285569 0.017611986042758699 0 0.29658571362929892 0.01379696683151194 0 0.30690038754225768 -0.0011800486910433781 0 0.29658571362929892 0.01379696683151194 0 0.30050921735997521 -0.004605356182754896 0 0.30690038754225768 -0.0011800486910433781 0 0.29658571362929892 0.01379696683151194 0 0.30690038754225768 -0.0011800486910433781 0 0.31293781791285569 0.017611986042758699 0 0.30060566889494089 0.02714657897289334 0 0.29658571362929892 0.01379696683151194 0 0.31293781791285569 0.017611986042758699 0 0.31923969929816981 0.035830495662194838 0 0.30060566889494089 0.02714657897289334 0 0.31293781791285569 0.017611986042758699 0 0.29658571362929892 0.01379696683151194 0 0.30060566889494089 0.02714657897289334 0 0.29500274332330728 0.016095456443948788 0 0.29658571362929892 0.01379696683151194 0 0.30060566889494089 0.02714657897289334 0 0.28762295502011598 0.027200489278051441 0 0.29289454178864649 0.022456661223579269 0 0.28762295502011598 0.027200489278051441 0 0.28116395689077539 0.015207467567734259 0 0.27775173961206168 0.02941095978416057 0 0.28762295502011598 0.027200489278051441 0 0.28836526088227099 0.018465508051837269 0 0.28116395689077539 0.015207467567734259 0 0.28762295502011598 0.027200489278051441 0 0.28116395689077539 0.015207467567734259 0 0.30060566889494089 0.02714657897289334 0 0.29289454178864649 0.022456661223579269 0 0.29500274332330728 0.016095456443948788 0 0.28836526088227099 0.018465508051837269 0 0.29289454178864649 0.022456661223579269 0 0.29500274332330728 0.016095456443948788 0 0.28762295502011598 0.027200489278051441 0 0.28836526088227099 0.018465508051837269 0 0.29289454178864649 0.022456661223579269 0 0.28514691493175248 0.01112824383243886 0 0.30050921735997521 -0.004605356182754896 0 0.29658571362929892 0.01379696683151194 0 0.28514691493175248 0.01112824383243886 0 0.30050921735997521 -0.004605356182754896 0 0.28514691493175248 0.01112824383243886 0 0.27791710391185381 -0.0010379811687957271 0 0.28512431700806451 -0.0086992195202469716 0 0.29658571362929892 0.01379696683151194 0 0.28514691493175248 0.01112824383243886 0 0.28836526088227099 0.018465508051837269 0 0.29500274332330728 0.016095456443948788 0 0.28514691493175248 0.01112824383243886 0 0.29500274332330728 0.016095456443948788 0 0.29658571362929892 0.01379696683151194 0 0.28514691493175248 0.01112824383243886 0 0.29500274332330728 0.016095456443948788 0 0.29658571362929892 0.01379696683151194 0 0.28836526088227099 0.018465508051837269 0 0.28514691493175248 0.01112824383243886 0 0.28116395689077539 0.015207467567734259 0 0.28514691493175248 0.01112824383243886 0 0.27807895442698177 0.0094792569716416024 0 0.28116395689077539 0.015207467567734259 0 0.28514691493175248 0.01112824383243886 0 0.28116395689077539 0.015207467567734259 0 0.28514691493175248 0.01112824383243886 0 0.27807895442698177 0.0094792569716416024 0 0.27127393371108272 0.0054169343353159512 0 0.27807895442698177 0.0094792569716416024 0 0.2692248172919926 -0.0069610417805164738 0 0.27807895442698177 0.0094792569716416024 0 0.2692248172919926 -0.0069610417805164738 0 0.27807895442698177 0.0094792569716416024 0 0.2692248172919926 -0.0069610417805164738 0 0.27791710391185381 -0.0010379811687957271 0 0.26701986470523431 0.0028523954276382379 0 0.27127393371108272 0.0054169343353159512 0 0.2692248172919926 -0.0069610417805164738 0 0.26701986470523431 0.0028523954276382379 0 0.27127393371108272 0.0054169343353159512 0 0.26928034954363472 0.01099432455637152 0 0.28514691493175248 0.01112824383243886 0 0.27807895442698177 0.0094792569716416024 0 0.27791710391185381 -0.0010379811687957271 0 0.27807895442698177 0.0094792569716416024 0 0.27458783582826463 0.012565755321843329 0 0.27310560452179761 0.0095674853239665035 0 0.27127393371108272 0.0054169343353159512 0 0.27807895442698177 0.0094792569716416024 0 0.27310560452179761 0.0095674853239665035 0 0.27807895442698177 0.0094792569716416024 0 0.28116395689077539 0.015207467567734259 0 0.27807895442698177 0.0094792569716416024 0 0.28116395689077539 0.015207467567734259 0 0.27458783582826463 0.012565755321843329 0 0.27458783582826463 0.012565755321843329 0 0.26928034954363472 0.01099432455637152 0 0.26815911709364498 0.019514489362225031 0 0.27458783582826463 0.012565755321843329 0 0.27310560452179761 0.0095674853239665035 0 0.26928034954363472 0.01099432455637152 0 0.27127393371108272 0.0054169343353159512 0 0.27310560452179761 0.0095674853239665035 0 0.26928034954363472 0.01099432455637152 0 0.28116395689077539 0.015207467567734259 0 0.26416384502347939 0.032618461888623121 0 0.28116395689077539 0.015207467567734259 0 0.26815911709364498 0.019514489362225031 0 0.26416384502347939 0.032618461888623121 0 0.28116395689077539 0.015207467567734259 0 0.27775173961206168 0.02941095978416057 0 0.26416384502347939 0.032618461888623121 0 0.28116395689077539 0.015207467567734259 0 0.27458783582826463 0.012565755321843329 0 0.26815911709364498 0.019514489362225031 0 0.2489069739425 0.021637400389674748 0 0.25228035847618863 0.02688679106582054 0 0.25585841565974538 0.042233258010133973 0 0.26815911709364498 0.019514489362225031 0 0.25311855338379191 0.024668664965947041 0 0.26416384502347939 0.032618461888623121 0 0.25311855338379191 0.024668664965947041 0 0.26416384502347939 0.032618461888623121 0 0.25228035847618863 0.02688679106582054 0 0.25311855338379191 0.024668664965947041 0 0.26416384502347939 0.032618461888623121 0 0.2489069739425 0.021637400389674748 0 0.25228035847618863 0.02688679106582054 0 0.25311855338379191 0.024668664965947041 0 0.25228035847618863 0.02688679106582054 0 0.25311855338379191 0.024668664965947041 0 0.2489069739425 0.021637400389674748 0 0.25311855338379191 0.024668664965947041 0 0.25900523844679291 0.0090906536209348996 0 0.25311855338379191 0.024668664965947041 0 0.25900523844679291 0.0090906536209348996 0 0.2489069739425 0.021637400389674748 0 0.25311855338379191 0.024668664965947041 0 0.26815911709364498 0.019514489362225031 0 0.25311855338379191 0.024668664965947041 0 0.25900523844679291 0.0090906536209348996 0 0.26928034954363472 0.01099432455637152 0 0.26815911709364498 0.019514489362225031 0 0.25900523844679291 0.0090906536209348996 0 0.26701986470523431 0.0028523954276382379 0 0.26928034954363472 0.01099432455637152 0 0.25900523844679291 0.0090906536209348996 0 0.25900523844679291 0.0090906536209348996 0 0.26489192350979318 -0.0064873577240775106 0 0.26701986470523431 0.0028523954276382379 0 0.25900523844679291 0.0090906536209348996 0 0.26489192350979318 -0.0064873577240775106 0 0.28127895804124392 0.05869653450612005 0 0.26794279917258279 0.048584654113773551 0 0.27805620151387522 0.042617420402232667 0 0.28127895804124392 0.05869653450612005 0 0.26794279917258279 0.048584654113773551 0 0.26429652163301431 0.061701359010517647 0 0.26794279917258279 0.048584654113773551 0 0.27805620151387522 0.042617420402232667 0 0.26416384502347939 0.032618461888623121 0 0.28762295502011598 0.027200489278051441 0 0.27775173961206168 0.02941095978416057 0 0.27805620151387522 0.042617420402232667 0 0.27805620151387522 0.042617420402232667 0 0.26416384502347939 0.032618461888623121 0 0.27775173961206168 0.02941095978416057 0 0.27805620151387522 0.042617420402232667 0 0.26416384502347939 0.032618461888623121 0 0.26794279917258279 0.048584654113773551 0 0.2611959089814877 0.042898221548277563 0 0.26416384502347939 0.032618461888623121 0 0.2611959089814877 0.042898221548277563 0 0.25585841565974538 0.042233258010133973 0 0.25799090162224952 0.051667623778106117 0 0.2489069739425 0.021637400389674748 0 0.25585841565974538 0.042233258010133973 0 0.2611959089814877 0.042898221548277563 0 0.25868336492166327 0.038231401890038208 0 0.25585841565974538 0.042233258010133973 0 0.25228035847618863 0.02688679106582054 0 0.26416384502347939 0.032618461888623121 0 0.25868336492166327 0.038231401890038208 0 0.2611959089814877 0.042898221548277563 0 0.26416384502347939 0.032618461888623121 0 0.25868336492166327 0.038231401890038208 0 0.26416384502347939 0.032618461888623121 0 0.25868336492166327 0.038231401890038208 0 0.25228035847618863 0.02688679106582054 0 0.25868336492166327 0.038231401890038208 0 0.25585841565974538 0.042233258010133973 0 0.24915942417082321 0.043562136642382059 0 0.25585841565974538 0.042233258010133973 0 0.25194780840825542 0.047502886957762752 0 0.25585841565974538 0.042233258010133973 0 0.25194780840825542 0.047502886957762752 0 0.25799090162224952 0.051667623778106117 0 0.24612717135886061 0.053158967820149818 0 0.25194780840825542 0.047502886957762752 0 0.25799090162224952 0.051667623778106117 0 0.24612717135886061 0.053158967820149818 0 0.25799090162224952 0.051667623778106117 0 0.26429652163301431 0.061701359010517647 0 0.26794279917258279 0.048584654113773551 0 0.2611959089814877 0.042898221548277563 0 0.25799090162224952 0.051667623778106117 0 0.26794279917258279 0.048584654113773551 0 0.25799090162224952 0.051667623778106117 0 0.26429652163301431 0.061701359010517647 0 0.24612717135886061 0.053158967820149818 0 0.25923100858263742 0.079351551944828513 0 0.24612717135886061 0.053158967820149818 0 0.26429652163301431 0.061701359010517647 0 0.25923100858263742 0.079351551944828513 0 0.24537668551697431 0.097277083683747018 0 0.25923100858263742 0.079351551944828513 0 0.25922747002471352 0.097974378356717087 0 0.27555977218924488 0.077439952611008278 0 0.28759873658278978 0.090030408643589632 0 0.27101928807639453 0.09427347599549088 0 0.25923100858263742 0.079351551944828513 0 0.27555977218924488 0.077439952611008278 0 0.27101928807639453 0.09427347599549088 0 0.25923100858263742 0.079351551944828513 0 0.27101928807639453 0.09427347599549088 0 0.27233484580641432 0.1055441360695072 0 0.25923100858263742 0.079351551944828513 0 0.27233484580641432 0.1055441360695072 0 0.28127895804124392 0.05869653450612005 0 0.26429652163301431 0.061701359010517647 0 0.27555977218924488 0.077439952611008278 0 0.26429652163301431 0.061701359010517647 0 0.25923100858263742 0.079351551944828513 0 0.27555977218924488 0.077439952611008278 0 0.31072716300308328 0.059331554637136651 0 0.28127895804124392 0.05869653450612005 0 0.29303234378028109 0.075428628958087107 0 0.28127895804124392 0.05869653450612005 0 0.27555977218924488 0.077439952611008278 0 0.29303234378028109 0.075428628958087107 0 0.27555977218924488 0.077439952611008278 0 0.29303234378028109 0.075428628958087107 0 0.28759873658278978 0.090030408643589632 0 0.29303234378028109 0.075428628958087107 0 0.28759873658278978 0.090030408643589632 0 0.31153776068034922 0.089135316111794982 0 0.31072716300308328 0.059331554637136651 0 0.29303234378028109 0.075428628958087107 0 0.31153776068034922 0.089135316111794982 0 0.31072716300308328 0.059331554637136651 0 0.31153776068034922 0.089135316111794982 0 0.31234835835761571 0.11893907758645331 0 0.29168382321700531 0.1066062767909717 0 0.29960507646434792 0.12683409122409009 0 0.31234835835761571 0.11893907758645331 0 0.29168382321700531 0.1066062767909717 0 0.31153776068034922 0.089135316111794982 0 0.31234835835761571 0.11893907758645331 0 0.28759873658278978 0.090030408643589632 0 0.31153776068034922 0.089135316111794982 0 0.29168382321700531 0.1066062767909717 0 0.31153776068034922 0.089135316111794982 0 0.31234835835761571 0.11893907758645331 0 0.29168382321700531 0.1066062767909717 0 0.29168382321700531 0.1066062767909717 0 0.27101928807639453 0.09427347599549088 0 0.28759873658278978 0.090030408643589632 0 0.29168382321700531 0.1066062767909717 0 0.27101928807639453 0.09427347599549088 0 0.28726560712948962 0.11768030606968879 0 0.27233484580641432 0.1055441360695072 0 0.28543868303019121 0.131736720194186 0 0.29168382321700531 0.1066062767909717 0 0.28726560712948962 0.11768030606968879 0 0.29960507646434792 0.12683409122409009 0 0.29168382321700531 0.1066062767909717 0 0.28726560712948962 0.11768030606968879 0 0.27233484580641432 0.1055441360695072 0 0.2688255279836298 0.12262400996184721 0 0.27233484580641432 0.1055441360695072 0 0.28543868303019121 0.131736720194186 0 0.2688255279836298 0.12262400996184721 0 0.27233484580641432 0.1055441360695072 0 0.25996734019282808 0.1097247417287856 0 0.27233484580641432 0.1055441360695072 0 0.28543868303019121 0.131736720194186 0 0.29168382321700531 0.1066062767909717 0 0.27101928807639453 0.09427347599549088 0 0.27233484580641432 0.1055441360695072 0 0.25923100858263742 0.079351551944828513 0 0.27233484580641432 0.1055441360695072 0 0.25922747002471352 0.097974378356717087 0 0.27233484580641432 0.1055441360695072 0 0.25922747002471352 0.097974378356717087 0 0.25996734019282808 0.1097247417287856 0 0.24537668551697431 0.097277083683747018 0 0.25922747002471352 0.097974378356717087 0 0.25996734019282808 0.1097247417287856 0 0.24537668551697431 0.097277083683747018 0 0.25996734019282808 0.1097247417287856 0 0.25370366287882878 0.1241816415692342 0 0.2688255279836298 0.12262400996184721 0 0.25996734019282808 0.1097247417287856 0 0.25370366287882878 0.1241816415692342 0 0.25370366287882878 0.1241816415692342 0 0.26203064024068312 0.15108619945472171 0 0.2688255279836298 0.12262400996184721 0 0.25370366287882878 0.1241816415692342 0 0.27163016425534958 0.13738497633274069 0 0.25370366287882878 0.1241816415692342 0 0.27163016425534958 0.13738497633274069 0 0.26203064024068312 0.15108619945472171 0 0.2688255279836298 0.12262400996184721 0 0.27163016425534958 0.13738497633274069 0 0.28543868303019121 0.131736720194186 0 0.27163016425534958 0.13738497633274069 0 0.28543868303019121 0.131736720194186 0 0.2826446853024604 0.14124270427211749 0 0.27163016425534958 0.13738497633274069 0 0.27808704382392468 0.15255782491348299 0 0.26203064024068312 0.15108619945472171 0 0.27808704382392468 0.15255782491348299 0 0.26203064024068312 0.15108619945472171 0 0.26470071343822532 0.15971323610680241 0 0.27808704382392468 0.15255782491348299 0 0.26203064024068312 0.15108619945472171 0 0.27163016425534958 0.13738497633274069 0 0.27808704382392468 0.15255782491348299 0 0.2826446853024604 0.14124270427211749 0 0.27808704382392468 0.15255782491348299 0 0.26470071343822532 0.15971323610680241 0 0.24802047718606329 0.14980211908606039 0 0.25370366287882878 0.1241816415692342 0 0.26203064024068312 0.15108619945472171 0 0.26203064024068312 0.15108619945472171 0 0.26470071343822532 0.15971323610680241 0 0.26203064024068312 0.15108619945472171 0 0.25841385897244001 0.15585338151222791 0 0.26470071343822532 0.15971323610680241 0 0.24802047718606329 0.14980211908606039 0 0.25841385897244001 0.15585338151222791 0 0.25890360502478721 0.16281197140132819 0 0.24802047718606329 0.14980211908606039 0 0.26203064024068312 0.15108619945472171 0 0.24802047718606329 0.14980211908606039 0 0.26203064024068312 0.15108619945472171 0 0.25841385897244001 0.15585338151222791 0 0.26470071343822532 0.15971323610680241 0 0.25890360502478721 0.16281197140132819 0 0.26962736994955661 0.17563131892736969 0 0.24394273923527451 0.1708090208874482 0 0.25890360502478721 0.16281197140132819 0 0.25069145747160237 0.17986975870422739 0 0.24394273923527451 0.1708090208874482 0 0.24802047718606329 0.14980211908606039 0 0.25890360502478721 0.16281197140132819 0 0.24802047718606329 0.14980211908606039 0 0.25890360502478721 0.16281197140132819 0 0.24394273923527451 0.1708090208874482 0 0.25890360502478721 0.16281197140132819 0 0.25890360502478721 0.16281197140132819 0 0.26962736994955661 0.17563131892736969 0 0.26470071343822532 0.15971323610680241 0 0.25890360502478721 0.16281197140132819 0 0.25841385897244001 0.15585338151222791 0 0.26470071343822532 0.15971323610680241 0 0.25890360502478721 0.16281197140132819 0 0.25890360502478721 0.16281197140132819 0 0.25069145747160237 0.17986975870422739 0 0.2622875918713119 0.17871532590777511 0 0.25890360502478721 0.16281197140132819 0 0.2622875918713119 0.17871532590777511 0 0.26962736994955661 0.17563131892736969 0 0.24443808169503289 0.19165573435540739 0 0.25069145747160237 0.17986975870422739 0 0.25672659357731442 0.18931439154619459 0 0.25069145747160237 0.17986975870422739 0 0.2622875918713119 0.17871532590777511 0 0.25672659357731442 0.18931439154619459 0 0.2622875918713119 0.17871532590777511 0 0.2666871346110174 0.18721551203983949 0 0.25672659357731442 0.18931439154619459 0 0.2666871346110174 0.18721551203983949 0 0.2707313294469027 0.17919822452935469 0 0.28262567674856709 0.19158292471432059 0 0.2707313294469027 0.17919822452935469 0 0.26962736994955661 0.17563131892736969 0 0.28262567674856709 0.19158292471432059 0 0.26962736994955661 0.17563131892736969 0 0.28262567674856709 0.19158292471432059 0 0.26962736994955661 0.17563131892736969 0 0.28063414626850292 0.17836588696170111 0 0.28262567674856709 0.19158292471432059 0 0.2622875918713119 0.17871532590777511 0 0.2666871346110174 0.18721551203983949 0 0.2707313294469027 0.17919822452935469 0 0.2622875918713119 0.17871532590777511 0 0.2707313294469027 0.17919822452935469 0 0.26962736994955661 0.17563131892736969 0 0.2707313294469027 0.17919822452935469 0 0.26962736994955661 0.17563131892736969 0 0.26962736994955661 0.17563131892736969 0 0.28063414626850292 0.17836588696170111 0 0.27791551735799302 0.17228039079135241 0 0.26470071343822532 0.15971323610680241 0 0.26962736994955661 0.17563131892736969 0 0.26470071343822532 0.15971323610680241 0 0.26962736994955661 0.17563131892736969 0 0.27525802885731437 0.16516718346708009 0 0.27808704382392468 0.15255782491348299 0 0.26470071343822532 0.15971323610680241 0 0.27525802885731437 0.16516718346708009 0 0.26962736994955661 0.17563131892736969 0 0.27791551735799302 0.17228039079135241 0 0.27525802885731437 0.16516718346708009 0 0.27791551735799302 0.17228039079135241 0 0.27525802885731437 0.16516718346708009 0 0.28614252435659893 0.16995717380925851 0 0.27808704382392468 0.15255782491348299 0 0.27525802885731437 0.16516718346708009 0 0.28831271101088052 0.16150411312056051 0 0.27525802885731437 0.16516718346708009 0 0.28831271101088052 0.16150411312056051 0 0.28614252435659893 0.16995717380925851 0 0.28831271101088052 0.16150411312056051 0 0.28614252435659893 0.16995717380925851 0 0.2949765541501792 0.16654736560739511 0 0.28614252435659893 0.16995717380925851 0 0.2949765541501792 0.16654736560739511 0 0.2966990425067918 0.17398076245598329 0 0.28831271101088052 0.16150411312056051 0 0.2949765541501792 0.16654736560739511 0 0.29843684607612081 0.16152557188150271 0 0.28831271101088052 0.16150411312056051 0 0.29843684607612081 0.16152557188150271 0 0.2957188317017474 0.15417383984422159 0 0.28063414626850292 0.17836588696170111 0 0.28878787233227138 0.1800597202735717 0 0.28262567674856709 0.19158292471432059 0 0.28063414626850292 0.17836588696170111 0 0.28614252435659893 0.16995717380925851 0 0.28878787233227138 0.1800597202735717 0 0.28063414626850292 0.17836588696170111 0 0.27791551735799302 0.17228039079135241 0 0.28614252435659893 0.16995717380925851 0 0.28614252435659893 0.16995717380925851 0 0.28878787233227138 0.1800597202735717 0 0.2966990425067918 0.17398076245598329 0 0.28878787233227138 0.1800597202735717 0 0.2966990425067918 0.17398076245598329 0 0.29802567422580972 0.18704947290502161 0 0.28878787233227138 0.1800597202735717 0 0.29802567422580972 0.18704947290502161 0 0.28262567674856709 0.19158292471432059 0 0.29802567422580972 0.18704947290502161 0 0.32181551132831843 0.18004621980614391 0 0.2966990425067918 0.17398076245598329 0 0.29802567422580972 0.18704947290502161 0 0.31104746434799968 0.1673946430062502 0 0.29802567422580972 0.18704947290502161 0 0.31104746434799968 0.1673946430062502 0 0.29802567422580972 0.18704947290502161 0 0.31104746434799968 0.1673946430062502 0 0.32181551132831843 0.18004621980614391 0 0.30601579003330748 0.16116038764967211 0 0.2957188317017474 0.15417383984422159 0 0.31335061957957011 0.15578985477495891 0 0.29843684607612081 0.16152557188150271 0 0.30601579003330748 0.16116038764967211 0 0.2957188317017474 0.15417383984422159 0 0.29843684607612081 0.16152557188150271 0 0.3040416986791476 0.16682267597464789 0 0.30601579003330748 0.16116038764967211 0 0.2949765541501792 0.16654736560739511 0 0.2966990425067918 0.17398076245598329 0 0.3040416986791476 0.16682267597464789 0 0.2966990425067918 0.17398076245598329 0 0.3040416986791476 0.16682267597464789 0 0.31104746434799968 0.1673946430062502 0 0.2949765541501792 0.16654736560739511 0 0.29843684607612081 0.16152557188150271 0 0.3040416986791476 0.16682267597464789 0 0.3040416986791476 0.16682267597464789 0 0.31104746434799968 0.1673946430062502 0 0.30601579003330748 0.16116038764967211 0 0.3040416986791476 0.16682267597464789 0 0.31104746434799968 0.1673946430062502 0 0.31104746434799968 0.1673946430062502 0 0.30601579003330748 0.16116038764967211 0 0.31349927981525749 0.1612557404164488 0 0.30601579003330748 0.16116038764967211 0 0.31335061957957011 0.15578985477495891 0 0.31349927981525749 0.1612557404164488 0 0.30483300733717872 0.1478702823059759 0 0.29542285010037611 0.14329129564805981 0 0.31275865637682793 0.1340247663826373 0 0.30483300733717872 0.1478702823059759 0 0.31275865637682793 0.1340247663826373 0 0.31335061957957011 0.15578985477495891 0 0.30483300733717872 0.1478702823059759 0 0.2957188317017474 0.15417383984422159 0 0.31335061957957011 0.15578985477495891 0 0.2957188317017474 0.15417383984422159 0 0.31335061957957011 0.15578985477495891 0 0.30483300733717872 0.1478702823059759 0 0.2957188317017474 0.15417383984422159 0 0.29542285010037611 0.14329129564805981 0 0.29960507646434792 0.12683409122409009 0 0.29542285010037611 0.14329129564805981 0 0.31275865637682793 0.1340247663826373 0 0.29542285010037611 0.14329129564805981 0 0.31275865637682793 0.1340247663826373 0 0.31234835835761571 0.11893907758645331 0 0.29960507646434792 0.12683409122409009 0 0.31275865637682793 0.1340247663826373 0 0.29960507646434792 0.12683409122409009 0 0.28543868303019121 0.131736720194186 0 0.29542285010037611 0.14329129564805981 0 0.28726560712948962 0.11768030606968879 0 0.29960507646434792 0.12683409122409009 0 0.28543868303019121 0.131736720194186 0 0.28543868303019121 0.131736720194186 0 0.2826446853024604 0.14124270427211749 0 0.29542285010037611 0.14329129564805981 0 0.27808704382392468 0.15255782491348299 0 0.2826446853024604 0.14124270427211749 0 0.29542285010037611 0.14329129564805981 0 0.27808704382392468 0.15255782491348299 0 0.2957188317017474 0.15417383984422159 0 0.29542285010037611 0.14329129564805981 0 0.27808704382392468 0.15255782491348299 0 0.2957188317017474 0.15417383984422159 0 0.27808704382392468 0.15255782491348299 0 0.29542285010037611 0.14329129564805981 0 0.27808704382392468 0.15255782491348299 0 0.28831271101088052 0.16150411312056051 0 0.2957188317017474 0.15417383984422159 0 0.27685630599777589 0.2478154210616699 0 0.27299157826480569 0.23766007785357521 0 0.26048617882559622 0.24371083740660091 0 0.26048617882559622 0.24371083740660091 0 0.27110411734464762 0.2276843331004246 0 0.27299157826480569 0.23766007785357521 0 0.26048617882559622 0.24371083740660091 0 0.27110411734464762 0.2276843331004246 0 0.27691591880596222 0.25729022711116639 0 0.27685630599777589 0.2478154210616699 0 0.26048617882559622 0.24371083740660091 0 0.27685630599777589 0.2478154210616699 0 0.27901295757983852 0.24225897862297641 0 0.27299157826480569 0.23766007785357521 0 0.27685630599777589 0.2478154210616699 0 0.27901295757983852 0.24225897862297641 0 0.28234947844706793 0.24570967974740021 0 0.27901295757983852 0.24225897862297641 0 0.27719652076970691 0.235876877536806 0 0.2822644445936543 0.2387958425564555 0 0.27719652076970691 0.235876877536806 0 0.28215825558210461 0.2340236887935741 0 0.2822644445936543 0.2387958425564555 0 0.27901295757983852 0.24225897862297641 0 0.27719652076970691 0.235876877536806 0 0.27299157826480569 0.23766007785357521 0 0.24791323415382371 0.2458877298954085 0 0.25153222320099622 0.25722575917013901 0 0.26048617882559622 0.24371083740660091 0 0.2477315277427897 0.2356386040277525 0 0.24791323415382371 0.2458877298954085 0 0.26048617882559622 0.24371083740660091 0 0.24965972363503919 0.22122943443424911 0 0.26048617882559622 0.24371083740660091 0 0.27110411734464762 0.2276843331004246 0 0.2447696612887639 0.21650126134236319 0 0.24965972363503919 0.22122943443424911 0 0.27110411734464762 0.2276843331004246 0 0.24965972363503919 0.22122943443424911 0 0.26048617882559622 0.24371083740660091 0 0.2447696612887639 0.21650126134236319 0 0.27110411734464762 0.2276843331004246 0 0.2447696612887639 0.21650126134236319 0 0.27110411734464762 0.2276843331004246 0 0.2677963164460333 0.2150467959949465 0 0.24965972363503919 0.22122943443424911 0 0.2477315277427897 0.2356386040277525 0 0.26048617882559622 0.24371083740660091 0 0.27110411734464762 0.2276843331004246 0 0.28456489578522731 0.2073669030027222 0 0.2860351544522664 0.22291189892421159 0 0.27299157826480569 0.23766007785357521 0 0.27110411734464762 0.2276843331004246 0 0.27329338907126849 0.2286140193929726 0 0.27110411734464762 0.2276843331004246 0 0.27329338907126849 0.2286140193929726 0 0.27329338907126849 0.2286140193929726 0 0.27769713930278977 0.2310580429220736 0 0.28096010293809309 0.2280773344569369 0 0.27719652076970691 0.235876877536806 0 0.27299157826480569 0.23766007785357521 0 0.27329338907126849 0.2286140193929726 0 0.27110411734464762 0.2276843331004246 0 0.27329338907126849 0.2286140193929726 0 0.28096010293809309 0.2280773344569369 0 0.27719652076970691 0.235876877536806 0 0.27329338907126849 0.2286140193929726 0 0.27769713930278977 0.2310580429220736 0 0.27719652076970691 0.235876877536806 0 0.27769713930278977 0.2310580429220736 0 0.28215825558210461 0.2340236887935741 0 0.27769713930278977 0.2310580429220736 0 0.28096010293809309 0.2280773344569369 0 0.28215825558210461 0.2340236887935741 0 0.27110411734464762 0.2276843331004246 0 0.28096010293809309 0.2280773344569369 0 0.2860351544522664 0.22291189892421159 0 0.27110411734464762 0.2276843331004246 0 0.2677963164460333 0.2150467959949465 0 0.28456489578522731 0.2073669030027222 0 0.27110411734464762 0.2276843331004246 0 0.28456489578522731 0.2073669030027222 0 0.272670307474219 0.206747045740371 0 0.2677963164460333 0.2150467959949465 0 0.28456489578522731 0.2073669030027222 0 0.272670307474219 0.206747045740371 0 0.2677963164460333 0.2150467959949465 0 0.26045320274891359 0.2075872277184421 0 0.2447696612887639 0.21650126134236319 0 0.2677963164460333 0.2150467959949465 0 0.26045320274891359 0.2075872277184421 0 0.2445919001722652 0.2027793092260104 0 0.26045320274891359 0.2075872277184421 0 0.27130878719903789 0.19491439106551739 0 0.2445919001722652 0.2027793092260104 0 0.27130878719903789 0.19491439106551739 0 0.2445919001722652 0.2027793092260104 0 0.25672659357731442 0.18931439154619459 0 0.27130878719903789 0.19491439106551739 0 0.2666871346110174 0.18721551203983949 0 0.25672659357731442 0.18931439154619459 0 0.27130878719903789 0.19491439106551739 0 0.2666871346110174 0.18721551203983949 0 0.27130878719903789 0.19491439106551739 0 0.28262567674856709 0.19158292471432059 0 0.27130878719903789 0.19491439106551739 0 0.28262567674856709 0.19158292471432059 0 0.28456489578522731 0.2073669030027222 0 0.272670307474219 0.206747045740371 0 0.26045320274891359 0.2075872277184421 0 0.27130878719903789 0.19491439106551739 0 0.272670307474219 0.206747045740371 0 0.27130878719903789 0.19491439106551739 0 0.28456489578522731 0.2073669030027222 0 0.27130878719903789 0.19491439106551739 0 0.28262567674856709 0.19158292471432059 0 0.29802567422580972 0.18704947290502161 0 0.30459187314032082 0.20471057237354329 0 0.28456489578522731 0.2073669030027222 0 0.29802567422580972 0.18704947290502161 0 0.28456489578522731 0.2073669030027222 0 0.29802567422580972 0.18704947290502161 0 0.28262567674856709 0.19158292471432059 0 0.28456489578522731 0.2073669030027222 0 0.29802567422580972 0.18704947290502161 0 0.28262567674856709 0.19158292471432059 0 0.29802567422580972 0.18704947290502161 0 0.30459187314032082 0.20471057237354329 0 0.31598770299826118 0.19548598602398221 0 0.29802567422580972 0.18704947290502161 0 0.31598770299826118 0.19548598602398221 0 0.32181551132831843 0.18004621980614391 0 0.30459187314032082 0.20471057237354329 0 0.3112657248503683 0.22109255247881221 0 0.32160390274705047 0.2085142031879387 0 0.30459187314032082 0.20471057237354329 0 0.29694173849475131 0.21805006650638351 0 0.3112657248503683 0.22109255247881221 0 0.30459187314032082 0.20471057237354329 0 0.29694173849475131 0.21805006650638351 0 0.28456489578522731 0.2073669030027222 0 0.29694173849475131 0.21805006650638351 0 0.28456489578522731 0.2073669030027222 0 0.2860351544522664 0.22291189892421159 0 0.28096010293809309 0.2280773344569369 0 0.2860351544522664 0.22291189892421159 0 0.28751134043047888 0.23164143954930111 0 0.2860351544522664 0.22291189892421159 0 0.28751134043047888 0.23164143954930111 0 0.29310118177853489 0.2272447710257052 0 0.28096010293809309 0.2280773344569369 0 0.28215825558210461 0.2340236887935741 0 0.28751134043047888 0.23164143954930111 0 0.28215825558210461 0.2340236887935741 0 0.28751134043047888 0.23164143954930111 0 0.28579805486088677 0.2374330691078928 0 0.29310118177853489 0.2272447710257052 0 0.30108985200492661 0.22865112575325311 0 0.2939278235102516 0.23496932439537649 0 0.28751134043047888 0.23164143954930111 0 0.29310118177853489 0.2272447710257052 0 0.2939278235102516 0.23496932439537649 0 0.29694173849475131 0.21805006650638351 0 0.2860351544522664 0.22291189892421159 0 0.29310118177853489 0.2272447710257052 0 0.29694173849475131 0.21805006650638351 0 0.3112657248503683 0.22109255247881221 0 0.30108985200492661 0.22865112575325311 0 0.29694173849475131 0.21805006650638351 0 0.29310118177853489 0.2272447710257052 0 0.30108985200492661 0.22865112575325311 0 0.3112657248503683 0.22109255247881221 0 0.30108985200492661 0.22865112575325311 0 0.30814982578715833 0.23504095730125821 0 0.30108985200492661 0.22865112575325311 0 0.30079101833485439 0.23667575875814051 0 0.30814982578715833 0.23504095730125821 0 0.30108985200492661 0.22865112575325311 0 0.30079101833485439 0.23667575875814051 0 0.2939278235102516 0.23496932439537649 0 0.31246354634074469 0.25301562706991498 0 0.28965918427723281 0.24218391352450211 0 0.30079101833485439 0.23667575875814051 0 0.29637482176907359 0.2407438087058773 0 0.2939278235102516 0.23496932439537649 0 0.31246354634074469 0.25301562706991498 0 0.30301881801219099 0.2434786808704178 0 0.28965918427723281 0.24218391352450211 0 0.30079101833485439 0.23667575875814051 0 0.30814982578715833 0.23504095730125821 0 0.30301881801219099 0.2434786808704178 0 0.30079101833485439 0.23667575875814051 0 0.30301881801219099 0.2434786808704178 0 0.29637482176907359 0.2407438087058773 0 0.30814982578715833 0.23504095730125821 0 0.30301881801219099 0.2434786808704178 0 0.31261059057147461 0.2434248305083811 0 0.31246354634074469 0.25301562706991498 0 0.30301881801219099 0.2434786808704178 0 0.31261059057147461 0.2434248305083811 0 0.29345893722613059 0.25129825022350127 0 0.29035996411889098 0.24599513786664159 0 0.28965918427723281 0.24218391352450211 0 0.29345893722613059 0.25129825022350127 0 0.29035996411889098 0.24599513786664159 0 0.28892582916583598 0.2492018439528669 0 0.29035996411889098 0.24599513786664159 0 0.28965918427723281 0.24218391352450211 0 0.28783672664197268 0.24359463822150959 0 0.30301881801219099 0.2434786808704178 0 0.29637482176907359 0.2407438087058773 0 0.28965918427723281 0.24218391352450211 0 0.29637482176907359 0.2407438087058773 0 0.2939278235102516 0.23496932439537649 0 0.29248016532158921 0.23880015382188749 0 0.2939278235102516 0.23496932439537649 0 0.28995883172979869 0.23730356866179431 0 0.29248016532158921 0.23880015382188749 0 0.28751134043047888 0.23164143954930111 0 0.2939278235102516 0.23496932439537649 0 0.28995883172979869 0.23730356866179431 0 0.29637482176907359 0.2407438087058773 0 0.29248016532158921 0.23880015382188749 0 0.28965918427723281 0.24218391352450211 0 0.28995883172979869 0.23730356866179431 0 0.29248016532158921 0.23880015382188749 0 0.28965918427723281 0.24218391352450211 0 0.28995883172979869 0.23730356866179431 0 0.28965918427723281 0.24218391352450211 0 0.28579805486088677 0.2374330691078928 0 0.28965918427723281 0.24218391352450211 0 0.28777867495787518 0.24129070115530599 0 0.28579805486088677 0.2374330691078928 0 0.28965918427723281 0.24218391352450211 0 0.28777867495787518 0.24129070115530599 0 0.28965918427723281 0.24218391352450211 0 0.28579805486088677 0.2374330691078928 0 0.28777867495787518 0.24129070115530599 0 0.28579805486088677 0.2374330691078928 0 0.28505636658832489 0.24015885991938871 0 0.28777867495787518 0.24129070115530599 0 0.28505636658832489 0.24015885991938871 0 0.28397084752209928 0.24268433257024799 0 0.28751134043047888 0.23164143954930111 0 0.28995883172979869 0.23730356866179431 0 0.28579805486088677 0.2374330691078928 0 0.28215825558210461 0.2340236887935741 0 0.28579805486088677 0.2374330691078928 0 0.2822644445936543 0.2387958425564555 0 0.27901295757983852 0.24225897862297641 0 0.2822644445936543 0.2387958425564555 0 0.28397084752209928 0.24268433257024799 0 0.28505636658832489 0.24015885991938871 0 0.2822644445936543 0.2387958425564555 0 0.28397084752209928 0.24268433257024799 0 0.28579805486088677 0.2374330691078928 0 0.28505636658832489 0.24015885991938871 0 0.2822644445936543 0.2387958425564555 0 0.27901295757983852 0.24225897862297641 0 0.28234947844706793 0.24570967974740021 0 0.28397084752209928 0.24268433257024799 0 0.27685630599777589 0.2478154210616699 0 0.28234947844706793 0.24570967974740021 0 0.28494106210013392 0.2498489505319901 0 0.28234947844706793 0.24570967974740021 0 0.28397084752209928 0.24268433257024799 0 0.2869662190354918 0.2459407159501166 0 0.28234947844706793 0.24570967974740021 0 0.28494106210013392 0.2498489505319901 0 0.2869662190354918 0.2459407159501166 0 0.28494106210013392 0.2498489505319901 0 0.28892582916583598 0.2492018439528669 0 0.2869662190354918 0.2459407159501166 0 0.29035996411889098 0.24599513786664159 0 0.28892582916583598 0.2492018439528669 0 0.2869662190354918 0.2459407159501166 0 0.29035996411889098 0.24599513786664159 0 0.28783672664197268 0.24359463822150959 0 0.2869662190354918 0.2459407159501166 0 0.28965918427723281 0.24218391352450211 0 0.28777867495787518 0.24129070115530599 0 0.28783672664197268 0.24359463822150959 0 0.28397084752209928 0.24268433257024799 0 0.28783672664197268 0.24359463822150959 0 0.2869662190354918 0.2459407159501166 0 0.28777867495787518 0.24129070115530599 0 0.28397084752209928 0.24268433257024799 0 0.28783672664197268 0.24359463822150959 0 0.3379127634661398 0.24049180221066491 0 0.32643540241908581 0.2493154440826276 0 0.31942597565379999 0.2366753470562844 0 0.31246354634074469 0.25301562706991498 0 0.32643540241908581 0.2493154440826276 0 0.31261059057147461 0.2434248305083811 0 0.32643540241908581 0.2493154440826276 0 0.31261059057147461 0.2434248305083811 0 0.31942597565379999 0.2366753470562844 0 0.30814982578715833 0.23504095730125821 0 0.31261059057147461 0.2434248305083811 0 0.31942597565379999 0.2366753470562844 0 0.3379127634661398 0.24049180221066491 0 0.31942597565379999 0.2366753470562844 0 0.32600368008419539 0.22461502934577851 0 0.3112657248503683 0.22109255247881221 0 0.30814982578715833 0.23504095730125821 0 0.31942597565379999 0.2366753470562844 0 0.3112657248503683 0.22109255247881221 0 0.31942597565379999 0.2366753470562844 0 0.32600368008419539 0.22461502934577851 0 0.3379127634661398 0.24049180221066491 0 0.32600368008419539 0.22461502934577851 0 0.3398100337036184 0.2163012417951922 0 0.3398100337036184 0.2163012417951922 0 0.32160390274705047 0.2085142031879387 0 0.33063695298837592 0.19682719513420929 0 0.32600368008419539 0.22461502934577851 0 0.3398100337036184 0.2163012417951922 0 0.32160390274705047 0.2085142031879387 0 0.3112657248503683 0.22109255247881221 0 0.32600368008419539 0.22461502934577851 0 0.32160390274705047 0.2085142031879387 0 0.30459187314032082 0.20471057237354329 0 0.32160390274705047 0.2085142031879387 0 0.31598770299826118 0.19548598602398221 0 0.32160390274705047 0.2085142031879387 0 0.31598770299826118 0.19548598602398221 0 0.33063695298837592 0.19682719513420929 0 0.31598770299826118 0.19548598602398221 0 0.33063695298837592 0.19682719513420929 0 0.32181551132831843 0.18004621980614391 0 0.3398100337036184 0.2163012417951922 0 0.33063695298837592 0.19682719513420929 0 0.34652165966209031 0.1951830619424908 0 0.33063695298837592 0.19682719513420929 0 0.34652165966209031 0.1951830619424908 0 0.33808290749091702 0.1854324580495085 0 0.34652165966209031 0.1951830619424908 0 0.33808290749091702 0.1854324580495085 0 0.34805963641287802 0.18313381139210541 0 0.34652165966209031 0.1951830619424908 0 0.35834447101042982 0.1885307986193322 0 0.34805963641287802 0.18313381139210541 0 0.34652165966209031 0.1951830619424908 0 0.35697604229412883 0.20282503597125329 0 0.35834447101042982 0.1885307986193322 0 0.35834447101042982 0.1885307986193322 0 0.36867711819290189 0.19558193609178909 0 0.37211726383392318 0.18243968588977941 0 0.36867711819290189 0.19558193609178909 0 0.37211726383392318 0.18243968588977941 0 0.37959621891343998 0.18888004806970329 0 0.35697604229412883 0.20282503597125329 0 0.35834447101042982 0.1885307986193322 0 0.36867711819290189 0.19558193609178909 0 0.35697604229412883 0.20282503597125329 0 0.36867711819290189 0.19558193609178909 0 0.36464593244806109 0.2145418940701225 0 0.36867711819290189 0.19558193609178909 0 0.36464593244806109 0.2145418940701225 0 0.38262777372413942 0.20056577775977211 0 0.3398100337036184 0.2163012417951922 0 0.35697604229412883 0.20282503597125329 0 0.36464593244806109 0.2145418940701225 0 0.3398100337036184 0.2163012417951922 0 0.34652165966209031 0.1951830619424908 0 0.35697604229412883 0.20282503597125329 0 0.3379127634661398 0.24049180221066491 0 0.3398100337036184 0.2163012417951922 0 0.35784805351199239 0.2326945607342826 0 0.3398100337036184 0.2163012417951922 0 0.36464593244806109 0.2145418940701225 0 0.35784805351199239 0.2326945607342826 0 0.3398100337036184 0.2163012417951922 0 0.35784805351199239 0.2326945607342826 0 0.36464593244806109 0.2145418940701225 0 0.35784805351199239 0.2326945607342826 0 0.37504625414522869 0.2303727958758012 0 0.35784805351199239 0.2326945607342826 0 0.37588607332036628 0.2490878796733729 0 0.35784805351199239 0.2326945607342826 0 0.37588607332036628 0.2490878796733729 0 0.37504625414522869 0.2303727958758012 0 0.35634129443021012 0.25447852924978431 0 0.35784805351199239 0.2326945607342826 0 0.37588607332036628 0.2490878796733729 0 0.35634129443021012 0.25447852924978431 0 0.3379127634661398 0.24049180221066491 0 0.35784805351199239 0.2326945607342826 0 0.33844782525489081 0.14552375979656301 0 0.33442235067943221 0.13211305649348251 0 0.31842762243075678 0.15625517981560311 0 0.33844782525489081 0.14552375979656301 0 0.31842762243075678 0.15625517981560311 0 0.3463391887874393 0.1588133723418115 0 0.343988490580944 0.1176741160108202 0 0.33926610740018709 0.13500385884312699 0 0.33442235067943221 0.13211305649348251 0 0.33844782525489081 0.14552375979656301 0 0.33926610740018709 0.13500385884312699 0 0.33442235067943221 0.13211305649348251 0 0.33926610740018709 0.13500385884312699 0 0.33442235067943221 0.13211305649348251 0 0.31234835835761571 0.11893907758645331 0 0.33442235067943221 0.13211305649348251 0 0.31795714297393313 0.13124601312364301 0 0.33442235067943221 0.13211305649348251 0 0.31795714297393313 0.13124601312364301 0 0.31842762243075678 0.15625517981560311 0 0.31795714297393313 0.13124601312364301 0 0.31275865637682793 0.1340247663826373 0 0.31842762243075678 0.15625517981560311 0 0.31234835835761571 0.11893907758645331 0 0.33442235067943221 0.13211305649348251 0 0.31234835835761571 0.11893907758645331 0 0.31795714297393313 0.13124601312364301 0 0.31275865637682793 0.1340247663826373 0 0.31234835835761571 0.11893907758645331 0 0.31275865637682793 0.1340247663826373 0 0.31795714297393313 0.13124601312364301 0 0.31275865637682793 0.1340247663826373 0 0.31275865637682793 0.1340247663826373 0 0.31335061957957011 0.15578985477495891 0 0.31275865637682793 0.1340247663826373 0 0.31335061957957011 0.15578985477495891 0 0.31842762243075678 0.15625517981560311 0 0.33442235067943221 0.13211305649348251 0 0.31842762243075678 0.15625517981560311 0 0.31335061957957011 0.15578985477495891 0 0.31842762243075678 0.15625517981560311 0 0.31104746434799968 0.1673946430062502 0 0.31842762243075678 0.15625517981560311 0 0.33486110727476232 0.16933884429702981 0 0.31104746434799968 0.1673946430062502 0 0.31842762243075678 0.15625517981560311 0 0.31349927981525749 0.1612557404164488 0 0.31335061957957011 0.15578985477495891 0 0.31349927981525749 0.1612557404164488 0 0.31104746434799968 0.1673946430062502 0 0.33486110727476232 0.16933884429702981 0 0.31104746434799968 0.1673946430062502 0 0.31842762243075678 0.15625517981560311 0 0.31335061957957011 0.15578985477495891 0 0.31842762243075678 0.15625517981560311 0 0.31349927981525749 0.1612557404164488 0 0.31104746434799968 0.1673946430062502 0 0.32181551132831843 0.18004621980614391 0 0.33486110727476232 0.16933884429702981 0 0.32181551132831843 0.18004621980614391 0 0.33808290749091702 0.1854324580495085 0 0.34560534843082608 0.17304296670726349 0 0.33063695298837592 0.19682719513420929 0 0.32181551132831843 0.18004621980614391 0 0.33808290749091702 0.1854324580495085 0 0.32181551132831843 0.18004621980614391 0 0.33486110727476232 0.16933884429702981 0 0.34560534843082608 0.17304296670726349 0 0.32181551132831843 0.18004621980614391 0 0.34560534843082608 0.17304296670726349 0 0.31842762243075678 0.15625517981560311 0 0.33486110727476232 0.16933884429702981 0 0.3463391887874393 0.1588133723418115 0 0.31842762243075678 0.15625517981560311 0 0.3463391887874393 0.1588133723418115 0 0.33486110727476232 0.16933884429702981 0 0.35867475020152417 0.1712830455878149 0 0.33486110727476232 0.16933884429702981 0 0.3463391887874393 0.1588133723418115 0 0.35867475020152417 0.1712830455878149 0 0.33486110727476232 0.16933884429702981 0 0.35867475020152417 0.1712830455878149 0 0.34560534843082608 0.17304296670726349 0 0.35834447101042982 0.1885307986193322 0 0.35867475020152417 0.1712830455878149 0 0.34805963641287802 0.18313381139210541 0 0.33808290749091702 0.1854324580495085 0 0.34805963641287802 0.18313381139210541 0 0.34560534843082608 0.17304296670726349 0 0.35867475020152417 0.1712830455878149 0 0.34805963641287802 0.18313381139210541 0 0.34560534843082608 0.17304296670726349 0 0.35834447101042982 0.1885307986193322 0 0.35867475020152417 0.1712830455878149 0 0.37211726383392318 0.18243968588977941 0 0.35867475020152417 0.1712830455878149 0 0.37211726383392318 0.18243968588977941 0 0.38248839312828642 0.17322724687860011 0 0.35867475020152417 0.1712830455878149 0 0.38248839312828642 0.17322724687860011 0 0.3463391887874393 0.1588133723418115 0 0.35867475020152417 0.1712830455878149 0 0.37425075514412182 0.1613715648680196 0 0.35867475020152417 0.1712830455878149 0 0.37425075514412182 0.1613715648680196 0 0.38248839312828642 0.17322724687860011 0 0.3463391887874393 0.1588133723418115 0 0.37425075514412182 0.1613715648680196 0 0.37425075514412182 0.1613715648680196 0 0.36753442956304122 0.14046640889011411 0 0.37911076050976511 0.15167221068913639 0 0.37425075514412182 0.1613715648680196 0 0.35378385697663972 0.14543333148879159 0 0.36753442956304122 0.14046640889011411 0 0.37425075514412182 0.1613715648680196 0 0.36753442956304122 0.14046640889011411 0 0.36753442956304122 0.14046640889011411 0 0.37911076050976511 0.15167221068913639 0 0.3463391887874393 0.1588133723418115 0 0.37425075514412182 0.1613715648680196 0 0.35378385697663972 0.14543333148879159 0 0.33844782525489081 0.14552375979656301 0 0.33926610740018709 0.13500385884312699 0 0.35378385697663972 0.14543333148879159 0 0.33844782525489081 0.14552375979656301 0 0.3463391887874393 0.1588133723418115 0 0.35378385697663972 0.14543333148879159 0 0.343988490580944 0.1176741160108202 0 0.33926610740018709 0.13500385884312699 0 0.3557614600719885 0.1290702624504714 0 0.35378385697663972 0.14543333148879159 0 0.3557614600719885 0.1290702624504714 0 0.36753442956304122 0.14046640889011411 0 0.33926610740018709 0.13500385884312699 0 0.35378385697663972 0.14543333148879159 0 0.3557614600719885 0.1290702624504714 0 0.36234477620530581 0.12431315491142481 0 0.38206466283770479 0.146561596848436 0 0.36234477620530581 0.12431315491142481 0 0.36753442956304122 0.14046640889011411 0 0.38206466283770479 0.146561596848436 0 0.36234477620530581 0.12431315491142481 0 0.3557614600719885 0.1290702624504714 0 0.36753442956304122 0.14046640889011411 0 0.36234477620530581 0.12431315491142481 0 0.36753442956304122 0.14046640889011411 0 0.3557614600719885 0.1290702624504714 0 0.36753442956304122 0.14046640889011411 0 0.36234477620530581 0.12431315491142481 0 0.38206466283770479 0.146561596848436 0 0.38784786648637848 0.12498960030151041 0 0.39580058914059452 0.1490980931887998 0 0.38206466283770479 0.146561596848436 0 0.38784786648637848 0.12498960030151041 0 0.39580058914059452 0.1490980931887998 0 0.38784786648637848 0.12498960030151041 0 0.39497711538788383 0.13620291539220281 0 0.38784786648637848 0.12498960030151041 0 0.40536034682354632 0.12481683740862159 0 0.39497711538788383 0.13620291539220281 0 0.40981053908925419 0.14123984962813549 0 0.40536034682354632 0.12481683740862159 0 0.39497711538788383 0.13620291539220281 0 0.39580058914059452 0.1490980931887998 0 0.38784786648637848 0.12498960030151041 0 0.39497711538788383 0.13620291539220281 0 0.40981053908925419 0.14123984962813549 0 0.39580058914059452 0.1490980931887998 0 0.38206466283770479 0.146561596848436 0 0.39687031602956763 0.16326568453002829 0 0.39580058914059452 0.1490980931887998 0 0.40981053908925419 0.14123984962813549 0 0.41018078742555969 0.15504633733473569 0 0.39497711538788383 0.13620291539220281 0 0.39580058914059452 0.1490980931887998 0 0.40981053908925419 0.14123984962813549 0 0.38206466283770479 0.146561596848436 0 0.37911076050976511 0.15167221068913639 0 0.39068709145648911 0.16287801248815861 0 0.38206466283770479 0.146561596848436 0 0.39687031602956763 0.16326568453002829 0 0.36753442956304122 0.14046640889011411 0 0.38206466283770479 0.146561596848436 0 0.37911076050976511 0.15167221068913639 0 0.37425075514412182 0.1613715648680196 0 0.37911076050976511 0.15167221068913639 0 0.39068709145648911 0.16287801248815861 0 0.38206466283770479 0.146561596848436 0 0.39687031602956763 0.16326568453002829 0 0.39068709145648911 0.16287801248815861 0 0.37425075514412182 0.1613715648680196 0 0.39068709145648911 0.16287801248815861 0 0.37425075514412182 0.1613715648680196 0 0.38248839312828642 0.17322724687860011 0 0.39068709145648911 0.16287801248815861 0 0.38248839312828642 0.17322724687860011 0 0.39068709145648911 0.16287801248815861 0 0.39173266295372422 0.1703821586821625 0 0.37911076050976511 0.15167221068913639 0 0.39068709145648911 0.16287801248815861 0 0.37211726383392318 0.18243968588977941 0 0.38456142671463689 0.18119341109058101 0 0.37959621891343998 0.18888004806970329 0 0.37211726383392318 0.18243968588977941 0 0.38248839312828642 0.17322724687860011 0 0.38456142671463689 0.18119341109058101 0 0.38248839312828642 0.17322724687860011 0 0.39015071041641458 0.1752968202883449 0 0.38456142671463689 0.18119341109058101 0 0.39015071041641458 0.1752968202883449 0 0.38456142671463689 0.18119341109058101 0 0.3936647719149563 0.17997510126181099 0 0.38248839312828642 0.17322724687860011 0 0.39015071041641458 0.1752968202883449 0 0.39173266295372422 0.1703821586821625 0 0.38935120208080087 0.18734156415524739 0 0.38456142671463689 0.18119341109058101 0 0.37959621891343998 0.18888004806970329 0 0.38935120208080087 0.18734156415524739 0 0.38456142671463689 0.18119341109058101 0 0.3936647719149563 0.17997510126181099 0 0.40402992335265742 0.18295193175906091 0 0.40178454947010472 0.1688100387854462 0 0.4113280318459675 0.18796372784287679 0 0.38935120208080087 0.18734156415524739 0 0.39769522389517081 0.18613352877741379 0 0.3936647719149563 0.17997510126181099 0 0.39769522389517081 0.18613352877741379 0 0.3936647719149563 0.17997510126181099 0 0.39874070762402308 0.17719757549675871 0 0.3936647719149563 0.17997510126181099 0 0.39444527572727123 0.17454960687581639 0 0.39874070762402308 0.17719757549675871 0 0.39015071041641458 0.1752968202883449 0 0.3936647719149563 0.17997510126181099 0 0.39444527572727123 0.17454960687581639 0 0.39015071041641458 0.1752968202883449 0 0.39444527572727123 0.17454960687581639 0 0.39173266295372422 0.1703821586821625 0 0.39444527572727123 0.17454960687581639 0 0.39874070762402308 0.17719757549675871 0 0.39793752572723801 0.16989637865000479 0 0.39874070762402308 0.17719757549675871 0 0.40402992335265742 0.18295193175906091 0 0.40178454947010472 0.1688100387854462 0 0.39874070762402308 0.17719757549675871 0 0.39793752572723801 0.16989637865000479 0 0.40178454947010472 0.1688100387854462 0 0.39769522389517081 0.18613352877741379 0 0.39874070762402308 0.17719757549675871 0 0.40402992335265742 0.18295193175906091 0 0.39580058914059452 0.1490980931887998 0 0.39687031602956763 0.16326568453002829 0 0.40178454947010472 0.1688100387854462 0 0.39580058914059452 0.1490980931887998 0 0.40178454947010472 0.1688100387854462 0 0.41018078742555969 0.15504633733473569 0 0.39687031602956763 0.16326568453002829 0 0.39068709145648911 0.16287801248815861 0 0.39068709145648911 0.16287801248815861 0 0.39793752572723801 0.16989637865000479 0 0.39068709145648911 0.16287801248815861 0 0.39173266295372422 0.1703821586821625 0 0.39793752572723801 0.16989637865000479 0 0.39444527572727123 0.17454960687581639 0 0.39173266295372422 0.1703821586821625 0 0.39793752572723801 0.16989637865000479 0 0.39687031602956763 0.16326568453002829 0 0.39068709145648911 0.16287801248815861 0 0.39793752572723801 0.16989637865000479 0 0.39687031602956763 0.16326568453002829 0 0.40178454947010472 0.1688100387854462 0 0.39687031602956763 0.16326568453002829 0 0.39793752572723801 0.16989637865000479 0 0.40178454947010472 0.1688100387854462 0 0.42156831075211598 0.1680848541833582 0 0.42464396279062439 0.14627678386406909 0 0.41018078742555969 0.15504633733473569 0 0.40178454947010472 0.1688100387854462 0 0.42156831075211598 0.1680848541833582 0 0.41018078742555969 0.15504633733473569 0 0.40178454947010472 0.1688100387854462 0 0.4113280318459675 0.18796372784287679 0 0.42150443610250471 0.1910584807224564 0 0.40178454947010472 0.1688100387854462 0 0.42150443610250471 0.1910584807224564 0 0.40178454947010472 0.1688100387854462 0 0.42156831075211598 0.1680848541833582 0 0.42150443610250471 0.1910584807224564 0 0.42156831075211598 0.1680848541833582 0 0.43118451961009657 0.17908750652768421 0 0.42150443610250471 0.1910584807224564 0 0.43118451961009657 0.17908750652768421 0 0.42150443610250471 0.1910584807224564 0 0.44066350929549042 0.1899546779532231 0 0.42156831075211598 0.1680848541833582 0 0.43118451961009657 0.17908750652768421 0 0.44223327263954998 0.1675638295240294 0 0.42156831075211598 0.1680848541833582 0 0.42464396279062439 0.14627678386406909 0 0.44223327263954998 0.1675638295240294 0 0.42464396279062439 0.14627678386406909 0 0.44223327263954998 0.1675638295240294 0 0.42464396279062439 0.14627678386406909 0 0.44100510488797162 0.1518324801367677 0 0.42464396279062439 0.14627678386406909 0 0.43171131441089522 0.13754306829591861 0 0.44100510488797162 0.1518324801367677 0 0.43731578770263868 0.15311191614552969 0 0.42464396279062439 0.14627678386406909 0 0.44100510488797162 0.1518324801367677 0 0.43731578770263868 0.15311191614552969 0 0.42464396279062439 0.14627678386406909 0 0.44223327263954998 0.1675638295240294 0 0.43171131441089522 0.13754306829591861 0 0.41885098875887777 0.13391820237067861 0 0.42338535559027479 0.1205090768914225 0 0.43171131441089522 0.13754306829591861 0 0.44201491538503751 0.1221884416046867 0 0.42338535559027479 0.1205090768914225 0 0.42464396279062439 0.14627678386406909 0 0.43171131441089522 0.13754306829591861 0 0.41885098875887777 0.13391820237067861 0 0.41885098875887777 0.13391820237067861 0 0.40981053908925419 0.14123984962813549 0 0.40536034682354632 0.12481683740862159 0 0.41885098875887777 0.13391820237067861 0 0.42338535559027479 0.1205090768914225 0 0.40536034682354632 0.12481683740862159 0 0.42464396279062439 0.14627678386406909 0 0.41885098875887777 0.13391820237067861 0 0.40981053908925419 0.14123984962813549 0 0.42464396279062439 0.14627678386406909 0 0.40981053908925419 0.14123984962813549 0 0.42464396279062439 0.14627678386406909 0 0.40981053908925419 0.14123984962813549 0 0.41018078742555969 0.15504633733473569 0 0.39103074677198191 0.2378645478919707 0 0.40699913865084292 0.2200073724427305 0 0.40933178642478668 0.24530746794650141 0 0.39392409312874033 0.26548119861246328 0 0.39103074677198191 0.2378645478919707 0 0.40933178642478668 0.24530746794650141 0 0.39103074677198191 0.2378645478919707 0 0.37588607332036628 0.2490878796733729 0 0.37504625414522869 0.2303727958758012 0 0.39103074677198191 0.2378645478919707 0 0.37504625414522869 0.2303727958758012 0 0.38582046467374198 0.21767509700925741 0 0.36464593244806109 0.2145418940701225 0 0.37504625414522869 0.2303727958758012 0 0.38582046467374198 0.21767509700925741 0 0.39103074677198191 0.2378645478919707 0 0.38582046467374198 0.21767509700925741 0 0.40699913865084292 0.2200073724427305 0 0.39535308900850558 0.20493870697966851 0 0.38582046467374198 0.21767509700925741 0 0.40699913865084292 0.2200073724427305 0 0.39535308900850558 0.20493870697966851 0 0.40736650267529367 0.20534760411496161 0 0.40699913865084292 0.2200073724427305 0 0.36464593244806109 0.2145418940701225 0 0.38582046467374198 0.21767509700925741 0 0.38262777372413942 0.20056577775977211 0 0.39535308900850558 0.20493870697966851 0 0.38582046467374198 0.21767509700925741 0 0.38262777372413942 0.20056577775977211 0 0.36867711819290189 0.19558193609178909 0 0.38262777372413942 0.20056577775977211 0 0.37959621891343998 0.18888004806970329 0 0.38935120208080087 0.18734156415524739 0 0.38262777372413942 0.20056577775977211 0 0.37959621891343998 0.18888004806970329 0 0.38935120208080087 0.18734156415524739 0 0.38262777372413942 0.20056577775977211 0 0.39495039075152383 0.19500119794261639 0 0.38935120208080087 0.18734156415524739 0 0.39769522389517081 0.18613352877741379 0 0.39495039075152383 0.19500119794261639 0 0.39535308900850558 0.20493870697966851 0 0.38262777372413942 0.20056577775977211 0 0.39495039075152383 0.19500119794261639 0 0.39535308900850558 0.20493870697966851 0 0.40543434764706382 0.19433380204898831 0 0.40736650267529367 0.20534760411496161 0 0.39535308900850558 0.20493870697966851 0 0.39495039075152383 0.19500119794261639 0 0.40543434764706382 0.19433380204898831 0 0.39769522389517081 0.18613352877741379 0 0.39495039075152383 0.19500119794261639 0 0.40543434764706382 0.19433380204898831 0 0.39769522389517081 0.18613352877741379 0 0.40402992335265742 0.18295193175906091 0 0.40543434764706382 0.19433380204898831 0 0.41405593538476537 0.1978098369375659 0 0.42150443610250471 0.1910584807224564 0 0.41932031768340311 0.20743549227764799 0 0.40543434764706382 0.19433380204898831 0 0.4113280318459675 0.18796372784287679 0 0.41405593538476537 0.1978098369375659 0 0.40402992335265742 0.18295193175906091 0 0.40543434764706382 0.19433380204898831 0 0.4113280318459675 0.18796372784287679 0 0.40543434764706382 0.19433380204898831 0 0.41405593538476537 0.1978098369375659 0 0.40736650267529367 0.20534760411496161 0 0.4113280318459675 0.18796372784287679 0 0.41405593538476537 0.1978098369375659 0 0.41800374937960327 0.1912601641577685 0 0.4113280318459675 0.18796372784287679 0 0.41800374937960327 0.1912601641577685 0 0.42150443610250471 0.1910584807224564 0 0.41405593538476537 0.1978098369375659 0 0.41800374937960327 0.1912601641577685 0 0.42150443610250471 0.1910584807224564 0 0.41800374937960327 0.1912601641577685 0 0.42150443610250471 0.1910584807224564 0 0.42150443610250471 0.1910584807224564 0 0.43964605568812892 0.21152628449425559 0 0.44066350929549042 0.1899546779532231 0 0.42150443610250471 0.1910584807224564 0 0.44066350929549042 0.1899546779532231 0 0.42150443610250471 0.1910584807224564 0 0.43964605568812892 0.21152628449425559 0 0.42692227912344938 0.2185749218571387 0 0.41932031768340311 0.20743549227764799 0 0.43964605568812892 0.21152628449425559 0 0.42150443610250471 0.1910584807224564 0 0.41932031768340311 0.20743549227764799 0 0.43964605568812892 0.21152628449425559 0 0.42692227912344938 0.2185749218571387 0 0.41932031768340311 0.20743549227764799 0 0.40699913865084292 0.2200073724427305 0 0.41932031768340311 0.20743549227764799 0 0.40736650267529367 0.20534760411496161 0 0.40699913865084292 0.2200073724427305 0 0.41405593538476537 0.1978098369375659 0 0.41932031768340311 0.20743549227764799 0 0.40736650267529367 0.20534760411496161 0 0.40699913865084292 0.2200073724427305 0 0.42791060214005622 0.23524578657545639 0 0.40933178642478668 0.24530746794650141 0 0.42692227912344938 0.2185749218571387 0 0.40699913865084292 0.2200073724427305 0 0.42791060214005622 0.23524578657545639 0 0.42692227912344938 0.2185749218571387 0 0.42791060214005622 0.23524578657545639 0 0.44687549402799981 0.2240274878755969 0 0.42507863072368701 0.2531856777568211 0 0.42791060214005622 0.23524578657545639 0 0.43876594592942619 0.2491002947533556 0 0.42791060214005622 0.23524578657545639 0 0.43876594592942619 0.2491002947533556 0 0.44210509291822658 0.23713285843962781 0 0.42507863072368701 0.2531856777568211 0 0.42791060214005622 0.23524578657545639 0 0.40933178642478668 0.24530746794650141 0 0.4657425708042397 0.25282124097232528 0 0.45444189403291402 0.2411770147019261 0 0.46902648610557401 0.23978031661179641 0 0.45444189403291402 0.2411770147019261 0 0.46153812927118693 0.22769678494989409 0 0.46902648610557401 0.23978031661179641 0 0.44893917376128722 0.25670587451621701 0 0.45444189403291402 0.2411770147019261 0 0.43876594592942619 0.2491002947533556 0 0.45444189403291402 0.2411770147019261 0 0.43876594592942619 0.2491002947533556 0 0.44210509291822658 0.23713285843962781 0 0.42791060214005622 0.23524578657545639 0 0.44210509291822658 0.23713285843962781 0 0.44687549402799981 0.2240274878755969 0 0.45444189403291402 0.2411770147019261 0 0.44210509291822658 0.23713285843962781 0 0.44687549402799981 0.2240274878755969 0 0.45444189403291402 0.2411770147019261 0 0.44687549402799981 0.2240274878755969 0 0.46153812927118693 0.22769678494989409 0 0.44687549402799981 0.2240274878755969 0 0.46153812927118693 0.22769678494989409 0 0.45434831412809351 0.2169717754240589 0 0.46153812927118693 0.22769678494989409 0 0.46788422009904918 0.21602458295004651 0 0.45434831412809351 0.2169717754240589 0 0.46788422009904918 0.21602458295004651 0 0.45579767155410239 0.20558373685050119 0 0.47298928242684912 0.20478556194466599 0 0.46788422009904918 0.21602458295004651 0 0.45579767155410239 0.20558373685050119 0 0.45434831412809351 0.2169717754240589 0 0.45579767155410239 0.20558373685050119 0 0.45434831412809351 0.2169717754240589 0 0.43964605568812892 0.21152628449425559 0 0.45579767155410239 0.20558373685050119 0 0.43964605568812892 0.21152628449425559 0 0.44944268158891898 0.19797959918788341 0 0.42692227912344938 0.2185749218571387 0 0.44687549402799981 0.2240274878755969 0 0.43964605568812892 0.21152628449425559 0 0.44687549402799981 0.2240274878755969 0 0.45434831412809351 0.2169717754240589 0 0.43964605568812892 0.21152628449425559 0 0.43964605568812892 0.21152628449425559 0 0.44944268158891898 0.19797959918788341 0 0.44066350929549042 0.1899546779532231 0 0.44066350929549042 0.1899546779532231 0 0.45982258248847607 0.18885087518398949 0 0.44944268158891898 0.19797959918788341 0 0.44066350929549042 0.1899546779532231 0 0.45982258248847607 0.18885087518398949 0 0.45579767155410239 0.20558373685050119 0 0.44944268158891898 0.19797959918788341 0 0.45982258248847607 0.18885087518398949 0 0.45982258248847607 0.18885087518398949 0 0.47298928242684912 0.20478556194466599 0 0.45579767155410239 0.20558373685050119 0 0.45982258248847607 0.18885087518398949 0 0.47298928242684912 0.20478556194466599 0 0.45982258248847607 0.18885087518398949 0 0.46246267395613577 0.18869877282268771 0 0.47298928242684912 0.20478556194466599 0 0.45982258248847607 0.18885087518398949 0 0.46246267395613577 0.18869877282268771 0 0.48123133697806858 0.18761746257298201 0 0.49061566848903448 0.19913054633610969 0 0.48123133697806791 0.21172494034894249 0 0.46246267395613577 0.18869877282268771 0 0.48123133697806791 0.21172494034894249 0 0.47298928242684912 0.20478556194466599 0 0.46246267395613577 0.18869877282268771 0 0.48123133697806791 0.21172494034894249 0 0.46246267395613577 0.18869877282268771 0 0.48123133697806858 0.18761746257298201 0 0.48123133697806791 0.21172494034894249 0 0.46246267395613577 0.18869877282268771 0 0.48123133697806858 0.18761746257298201 0 0.49061566848903448 0.19913054633610969 0 0.5 0.21064363009923689 0 0.50000000000000144 0.18653615232327739 0 0.48123133697806858 0.18761746257298201 0 0.49061566848903448 0.19913054633610969 0 0.50000000000000144 0.18653615232327739 0 0.49061566848903448 0.19913054633610969 0 0.5 0.21064363009923689 0 0.48123133697806791 0.21172494034894249 0 0.46788422009904918 0.21602458295004651 0 0.48123133697806791 0.21172494034894249 0 0.47298928242684912 0.20478556194466599 0 0.46153812927118693 0.22769678494989409 0 0.47761079907368659 0.22975513346519441 0 0.46902648610557401 0.23978031661179641 0 0.46153812927118693 0.22769678494989409 0 0.46788422009904918 0.21602458295004651 0 0.47761079907368659 0.22975513346519441 0 0.46788422009904918 0.21602458295004651 0 0.48123133697806791 0.21172494034894249 0 0.47761079907368659 0.22975513346519441 0 0.48123133697806791 0.21172494034894249 0 0.50000000000000078 0.23475110787519651 0 0.48123133697806791 0.21172494034894249 0 0.47761079907368659 0.22975513346519441 0 0.50000000000000078 0.23475110787519651 0 0.5 0.21064363009923689 0 0.48123133697806791 0.21172494034894249 0 0.50000000000000078 0.23475110787519651 0 0.47761079907368659 0.22975513346519441 0 0.50000000000000078 0.23475110787519651 0 0.48319944748130261 0.24680576274814439 0 0.48930401013157893 0.26400543771054868 0 0.50000000000000078 0.23475110787519651 0 0.48319944748130261 0.24680576274814439 0 0.47761079907368659 0.22975513346519441 0 0.48319944748130261 0.24680576274814439 0 0.46902648610557401 0.23978031661179641 0 0.4657425708042397 0.25282124097232528 0 0.48319944748130261 0.24680576274814439 0 0.46902648610557401 0.23978031661179641 0 0.46067006992531578 0.14501277255513739 0 0.44100510488797162 0.1518324801367677 0 0.45842061247378069 0.15774620364127601 0 0.46067006992531578 0.14501277255513739 0 0.45842061247378069 0.15774620364127601 0 0.47181417780450058 0.15130991192119209 0 0.46067006992531578 0.14501277255513739 0 0.44779797982522251 0.13591138282507809 0 0.46358849451689271 0.12298015153287919 0 0.46067006992531578 0.14501277255513739 0 0.48033503496266028 0.13819306497350831 0 0.46358849451689271 0.12298015153287919 0 0.44779797982522251 0.13591138282507809 0 0.46358849451689271 0.12298015153287919 0 0.44201491538503751 0.1221884416046867 0 0.43171131441089522 0.13754306829591861 0 0.44779797982522251 0.13591138282507809 0 0.44201491538503751 0.1221884416046867 0 0.46067006992531578 0.14501277255513739 0 0.44100510488797162 0.1518324801367677 0 0.43171131441089522 0.13754306829591861 0 0.44779797982522251 0.13591138282507809 0 0.44100510488797162 0.1518324801367677 0 0.44100510488797162 0.1518324801367677 0 0.45842061247378069 0.15774620364127601 0 0.46067006992531578 0.14501277255513739 0 0.44779797982522251 0.13591138282507809 0 0.44100510488797162 0.1518324801367677 0 0.43731578770263868 0.15311191614552969 0 0.44100510488797162 0.1518324801367677 0 0.43731578770263868 0.15311191614552969 0 0.44100510488797162 0.1518324801367677 0 0.44223327263954998 0.1675638295240294 0 0.44100510488797162 0.1518324801367677 0 0.44223327263954998 0.1675638295240294 0 0.45064745071206469 0.16407050785850311 0 0.44100510488797162 0.1518324801367677 0 0.45064745071206469 0.16407050785850311 0 0.45842061247378069 0.15774620364127601 0 0.44223327263954998 0.1675638295240294 0 0.45064745071206469 0.16407050785850311 0 0.45252365300287162 0.17650517324400131 0 0.44066350929549042 0.1899546779532231 0 0.45982258248847607 0.18885087518398949 0 0.44223327263954998 0.1675638295240294 0 0.45982258248847607 0.18885087518398949 0 0.44223327263954998 0.1675638295240294 0 0.45982258248847607 0.18885087518398949 0 0.44223327263954998 0.1675638295240294 0 0.45252365300287162 0.17650517324400131 0 0.43118451961009657 0.17908750652768421 0 0.44066350929549042 0.1899546779532231 0 0.44223327263954998 0.1675638295240294 0 0.45252365300287162 0.17650517324400131 0 0.46852950543390098 0.17564223008125701 0 0.45888445054831062 0.16819836462120771 0 0.46246267395613577 0.18869877282268771 0 0.45252365300287162 0.17650517324400131 0 0.46852950543390098 0.17564223008125701 0 0.46246267395613577 0.18869877282268771 0 0.45252365300287162 0.17650517324400131 0 0.45982258248847607 0.18885087518398949 0 0.46246267395613577 0.18869877282268771 0 0.45252365300287162 0.17650517324400131 0 0.45842061247378069 0.15774620364127601 0 0.4758361200595902 0.1636599271457834 0 0.47181417780450058 0.15130991192119209 0 0.45842061247378069 0.15774620364127601 0 0.4758361200595902 0.1636599271457834 0 0.45842061247378069 0.15774620364127601 0 0.45888445054831062 0.16819836462120771 0 0.4758361200595902 0.1636599271457834 0 0.46852950543390098 0.17564223008125701 0 0.45888445054831062 0.16819836462120771 0 0.4758361200595902 0.1636599271457834 0 0.45064745071206469 0.16407050785850311 0 0.45842061247378069 0.15774620364127601 0 0.45888445054831062 0.16819836462120771 0 0.45064745071206469 0.16407050785850311 0 0.45252365300287162 0.17650517324400131 0 0.45888445054831062 0.16819836462120771 0 0.4758361200595902 0.1636599271457834 0 0.48630368258704137 0.17140311931871249 0 0.48517032610197292 0.15232670889348399 0 0.46852950543390098 0.17564223008125701 0 0.4758361200595902 0.1636599271457834 0 0.48630368258704137 0.17140311931871249 0 0.46246267395613577 0.18869877282268771 0 0.48123133697806858 0.18761746257298201 0 0.46852950543390098 0.17564223008125701 0 0.48123133697806858 0.18761746257298201 0 0.46852950543390098 0.17564223008125701 0 0.48630368258704137 0.17140311931871249 0 0.48123133697806858 0.18761746257298201 0 0.50000000000000144 0.18653615232327739 0 0.48123133697806858 0.18761746257298201 0 0.50000000000000144 0.18653615232327739 0 0.48630368258704137 0.17140311931871249 0 0.50000000000000144 0.18653615232327739 0 0.48630368258704137 0.17140311931871249 0 0.5 0.15895475485757751 0 0.48630368258704137 0.17140311931871249 0 0.5 0.15895475485757751 0 0.48517032610197292 0.15232670889348399 0 0.48517032610197292 0.15232670889348399 0 0.48033503496266028 0.13819306497350831 0 0.50000000000000444 0.13137335739187769 0 0.5 0.15895475485757751 0 0.48517032610197292 0.15232670889348399 0 0.50000000000000444 0.13137335739187769 0 0.46067006992531578 0.14501277255513739 0 0.47181417780450058 0.15130991192119209 0 0.48033503496266028 0.13819306497350831 0 0.46067006992531578 0.14501277255513739 0 0.48033503496266028 0.13819306497350831 0 0.4758361200595902 0.1636599271457834 0 0.48517032610197292 0.15232670889348399 0 0.47181417780450058 0.15130991192119209 0 0.48517032610197292 0.15232670889348399 0 0.47181417780450058 0.15130991192119209 0 0.48033503496266028 0.13819306497350831 0 0.48033503496266028 0.13819306497350831 0 0.48287207193790682 0.119833017198512 0 0.46358849451689271 0.12298015153287919 0 0.48033503496266028 0.13819306497350831 0 0.50000000000000444 0.13137335739187769 0 0.48287207193790682 0.119833017198512 0 0.48033503496266028 0.13819306497350831 0 0.50000000000000444 0.13137335739187769 0 0.50000000000000444 0.13137335739187769 0 0.5 0.112750504140729 0 0.48287207193790682 0.119833017198512 0 0.5 0.112750504140729 0 0.47708970494047592 0.096547162644013557 0 0.48287207193790682 0.119833017198512 0 0.5 0.112750504140729 0 0.49999999999999811 0.094127650889580305 0 0.47708970494047592 0.096547162644013557 0 0.49999999999999811 0.094127650889580305 0 0.47708970494047592 0.096547162644013557 0 0.47708970494047592 0.096547162644013557 0 0.48287207193790682 0.119833017198512 0 0.46358849451689271 0.12298015153287919 0 0.49999999999999811 0.094127650889580305 0 0.5 0.065085683867034727 0 0.49030416231355511 0.073256317384286063 0 0.49030416231355511 0.073256317384286063 0 0.47714578073418512 0.066537383845565096 0 0.49228297291204992 0.059454014438704107 0 0.5 0.065085683867034727 0 0.49030416231355511 0.073256317384286063 0 0.49228297291204992 0.059454014438704107 0 0.49999999999999811 0.094127650889580305 0 0.47708970494047592 0.096547162644013557 0 0.48209205792154058 0.081076853880546043 0 0.49999999999999811 0.094127650889580305 0 0.49030416231355511 0.073256317384286063 0 0.48209205792154058 0.081076853880546043 0 0.47708970494047592 0.096547162644013557 0 0.48209205792154058 0.081076853880546043 0 0.46573084566111861 0.080721753047445138 0 0.48209205792154058 0.081076853880546043 0 0.47714578073418512 0.066537383845565096 0 0.46573084566111861 0.080721753047445138 0 0.49030416231355511 0.073256317384286063 0 0.48209205792154058 0.081076853880546043 0 0.47714578073418512 0.066537383845565096 0 0.45650324214529259 0.065280330615496637 0 0.46573084566111861 0.080721753047445138 0 0.4463318017969411 0.077534016390637867 0 0.47714578073418512 0.066537383845565096 0 0.45650324214529259 0.065280330615496637 0 0.46573084566111861 0.080721753047445138 0 0.46573084566111861 0.080721753047445138 0 0.4463318017969411 0.077534016390637867 0 0.45417940988095362 0.098966674398447016 0 0.47708970494047592 0.096547162644013557 0 0.46573084566111861 0.080721753047445138 0 0.45417940988095362 0.098966674398447016 0 0.4463318017969411 0.077534016390637867 0 0.45417940988095362 0.098966674398447016 0 0.43319821241535611 0.085947639564665793 0 0.4463318017969411 0.077534016390637867 0 0.44127530461137909 0.064432497562673663 0 0.4323056194460711 0.072068218276874901 0 0.45650324214529259 0.065280330615496637 0 0.4463318017969411 0.077534016390637867 0 0.44127530461137909 0.064432497562673663 0 0.46358849451689271 0.12298015153287919 0 0.45417940988095362 0.098966674398447016 0 0.44201491538503751 0.1221884416046867 0 0.47708970494047592 0.096547162644013557 0 0.46358849451689271 0.12298015153287919 0 0.45417940988095362 0.098966674398447016 0 0.47708970494047592 0.096547162644013557 0 0.45417940988095362 0.098966674398447016 0 0.45417940988095362 0.098966674398447016 0 0.43126911482143138 0.1013861861528805 0 0.43319821241535611 0.085947639564665793 0 0.45417940988095362 0.098966674398447016 0 0.43126911482143138 0.1013861861528805 0 0.45417940988095362 0.098966674398447016 0 0.44201491538503751 0.1221884416046867 0 0.43126911482143138 0.1013861861528805 0 0.44201491538503751 0.1221884416046867 0 0.42338535559027479 0.1205090768914225 0 0.43126911482143138 0.1013861861528805 0 0.42338535559027479 0.1205090768914225 0 0.40835881976190908 0.10380569790731391 0 0.40536034682354632 0.12481683740862159 0 0.40835881976190908 0.10380569790731391 0 0.43126911482143138 0.1013861861528805 0 0.42338535559027479 0.1205090768914225 0 0.40835881976190908 0.10380569790731391 0 0.43126911482143138 0.1013861861528805 0 0.40835881976190908 0.10380569790731391 0 0.43126911482143138 0.1013861861528805 0 0.41935522763475591 0.089699073352522835 0 0.4463318017969411 0.077534016390637867 0 0.43319821241535611 0.085947639564665793 0 0.4323056194460711 0.072068218276874901 0 0.43319821241535611 0.085947639564665793 0 0.41924297708616731 0.074654461475880396 0 0.41935522763475591 0.089699073352522835 0 0.43126911482143138 0.1013861861528805 0 0.43319821241535611 0.085947639564665793 0 0.41935522763475591 0.089699073352522835 0 0.4323056194460711 0.072068218276874901 0 0.41924297708616731 0.074654461475880396 0 0.42690609811089331 0.059013607202760512 0 0.44127530461137909 0.064432497562673663 0 0.4323056194460711 0.072068218276874901 0 0.42690609811089331 0.059013607202760512 0 0.43319821241535611 0.085947639564665793 0 0.4323056194460711 0.072068218276874901 0 0.41924297708616731 0.074654461475880396 0 0.41924297708616731 0.074654461475880396 0 0.41572401702962131 0.06154942829698281 0 0.42690609811089331 0.059013607202760512 0 0.41924297708616731 0.074654461475880396 0 0.40863285456409321 0.067745049984629005 0 0.41572401702962131 0.06154942829698281 0 0.41924297708616731 0.074654461475880396 0 0.40863285456409321 0.067745049984629005 0 0.40581890464532883 0.082285452545517224 0 0.40835881976190908 0.10380569790731391 0 0.41935522763475591 0.089699073352522835 0 0.40581890464532883 0.082285452545517224 0 0.41924297708616731 0.074654461475880396 0 0.41935522763475591 0.089699073352522835 0 0.40581890464532883 0.082285452545517224 0 0.40581890464532883 0.082285452545517224 0 0.39175039171038772 0.087168104040655559 0 0.39624558431573131 0.06624045880030964 0 0.40835881976190908 0.10380569790731391 0 0.40581890464532883 0.082285452545517224 0 0.39175039171038772 0.087168104040655559 0 0.39175039171038772 0.087168104040655559 0 0.39624558431573131 0.06624045880030964 0 0.38418619936747078 0.072555057714184676 0 0.40863285456409321 0.067745049984629005 0 0.40581890464532883 0.082285452545517224 0 0.39624558431573131 0.06624045880030964 0 0.40863285456409321 0.067745049984629005 0 0.39624558431573131 0.06624045880030964 0 0.40829937009812589 0.05445646228617778 0 0.37194242117794668 0.076772614526931793 0 0.38418619936747078 0.072555057714184676 0 0.38237628961462611 0.059732338949836518 0 0.36864505415383159 0.080457991471440893 0 0.38237628961462611 0.059732338949836518 0 0.39624558431573131 0.06624045880030964 0 0.38418619936747078 0.072555057714184676 0 0.38237628961462611 0.059732338949836518 0 0.37194242117794668 0.076772614526931793 0 0.38418619936747078 0.072555057714184676 0 0.38194353902199202 0.084344220923998292 0 0.39175039171038772 0.087168104040655559 0 0.38194353902199202 0.084344220923998292 0 0.37989514383216261 0.1008811074142211 0 0.37194242117794668 0.076772614526931793 0 0.37989514383216261 0.1008811074142211 0 0.37194242117794668 0.076772614526931793 0 0.38194353902199202 0.084344220923998292 0 0.37989514383216261 0.1008811074142211 0 0.39175039171038772 0.087168104040655559 0 0.38418619936747078 0.072555057714184676 0 0.38194353902199202 0.084344220923998292 0 0.39175039171038772 0.087168104040655559 0 0.37989514383216261 0.1008811074142211 0 0.39428450139263399 0.1099935163928351 0 0.37989514383216261 0.1008811074142211 0 0.38784786648637848 0.12498960030151041 0 0.37989514383216261 0.1008811074142211 0 0.38784786648637848 0.12498960030151041 0 0.39428450139263399 0.1099935163928351 0 0.37989514383216261 0.1008811074142211 0 0.38784786648637848 0.12498960030151041 0 0.37533236417423199 0.11575217945856781 0 0.36234477620530581 0.12431315491142481 0 0.38784786648637848 0.12498960030151041 0 0.37533236417423199 0.11575217945856781 0 0.38784786648637848 0.12498960030151041 0 0.39428450139263399 0.1099935163928351 0 0.40536034682354632 0.12481683740862159 0 0.40835881976190908 0.10380569790731391 0 0.39428450139263399 0.1099935163928351 0 0.40536034682354632 0.12481683740862159 0 0.40835881976190908 0.10380569790731391 0 0.39175039171038772 0.087168104040655559 0 0.39428450139263399 0.1099935163928351 0 0.4022109480673669 0.029794301680725051 0 0.39903054770448521 0.019764345079569041 0 0.38956197386376129 0.02112761593547402 0 0.4022109480673669 0.029794301680725051 0 0.38956197386376129 0.02112761593547402 0 0.39250591407207142 0.036175579460824843 0 0.4022109480673669 0.029794301680725051 0 0.39903054770448521 0.019764345079569041 0 0.40715192280340562 0.01462234732060084 0 0.3939873043738738 0.005606014803845533 0 0.40715192280340562 0.01462234732060084 0 0.41629264407573002 -0.006850845090226044 0 0.39903054770448521 0.019764345079569041 0 0.3939873043738738 0.005606014803845533 0 0.40715192280340562 0.01462234732060084 0 0.39903054770448521 0.019764345079569041 0 0.3939873043738738 0.005606014803845533 0 0.38956197386376129 0.02112761593547402 0 0.3939873043738738 0.005606014803845533 0 0.38284321145746519 0.01274873380563272 0 0.38956197386376129 0.02112761593547402 0 0.37357914744350779 0.002440479778912224 0 0.37424442014871812 0.021820824704299101 0 0.38284321145746519 0.01274873380563272 0 0.37357914744350779 0.002440479778912224 0 0.3939873043738738 0.005606014803845533 0 0.38284321145746519 0.01274873380563272 0 0.37424442014871812 0.021820824704299101 0 0.39250591407207142 0.036175579460824843 0 0.36321924137845568 0.02934286747329215 0 0.37424442014871812 0.021820824704299101 0 0.39250591407207142 0.036175579460824843 0 0.37424442014871812 0.021820824704299101 0 0.38956197386376129 0.02112761593547402 0 0.39250591407207142 0.036175579460824843 0 0.37424442014871812 0.021820824704299101 0 0.38284321145746519 0.01274873380563272 0 0.38956197386376129 0.02112761593547402 0 0.36321924137845568 0.02934286747329215 0 0.37923500638336632 0.043068186250585699 0 0.39250591407207142 0.036175579460824843 0 0.36321924137845568 0.02934286747329215 0 0.39250591407207142 0.036175579460824843 0 0.37923500638336632 0.043068186250585699 0 0.39610752507542107 0.039006686428232497 0 0.39250591407207142 0.036175579460824843 0 0.37923500638336632 0.043068186250585699 0 0.38237628961462611 0.059732338949836518 0 0.39610752507542107 0.039006686428232497 0 0.38237628961462611 0.059732338949836518 0 0.39610752507542107 0.039006686428232497 0 0.38237628961462611 0.059732338949836518 0 0.39498436831919048 0.053995491217328308 0 0.39610752507542107 0.039006686428232497 0 0.39624558431573131 0.06624045880030964 0 0.38237628961462611 0.059732338949836518 0 0.39498436831919048 0.053995491217328308 0 0.39624558431573131 0.06624045880030964 0 0.39498436831919048 0.053995491217328308 0 0.40127216254757908 0.052142880950221668 0 0.39498436831919048 0.053995491217328308 0 0.40127216254757908 0.052142880950221668 0 0.39610752507542107 0.039006686428232497 0 0.40127216254757908 0.052142880950221668 0 0.40829937009812589 0.05445646228617778 0 0.40647643562697111 0.047157343142538291 0 0.39624558431573131 0.06624045880030964 0 0.40127216254757908 0.052142880950221668 0 0.40829937009812589 0.05445646228617778 0 0.39624558431573131 0.06624045880030964 0 0.40829937009812589 0.05445646228617778 0 0.4022109480673669 0.029794301680725051 0 0.39724992059935432 0.037282377443883637 0 0.39250591407207142 0.036175579460824843 0 0.39724992059935432 0.037282377443883637 0 0.39250591407207142 0.036175579460824843 0 0.39610752507542107 0.039006686428232497 0 0.39724992059935432 0.037282377443883637 0 0.39250591407207142 0.036175579460824843 0 0.39610752507542107 0.039006686428232497 0 0.39724992059935432 0.037282377443883637 0 0.39610752507542107 0.039006686428232497 0 0.39250591407207142 0.036175579460824843 0 0.39610752507542107 0.039006686428232497 0 0.40647643562697111 0.047157343142538291 0 0.40127216254757908 0.052142880950221668 0 0.39610752507542107 0.039006686428232497 0 0.40647643562697111 0.047157343142538291 0 0.39610752507542107 0.039006686428232497 0 0.39724992059935432 0.037282377443883637 0 0.40647643562697111 0.047157343142538291 0 0.4022109480673669 0.029794301680725051 0 0.39724992059935432 0.037282377443883637 0 0.41056521822753728 0.033900572446116307 0 0.4022109480673669 0.029794301680725051 0 0.39724992059935432 0.037282377443883637 0 0.39724992059935432 0.037282377443883637 0 0.42035315588052052 0.042672465772045823 0 0.39724992059935432 0.037282377443883637 0 0.41056521822753728 0.033900572446116307 0 0.42035315588052052 0.042672465772045823 0 0.39724992059935432 0.037282377443883637 0 0.42035315588052052 0.042672465772045823 0 0.40647643562697111 0.047157343142538291 0 0.41056521822753728 0.033900572446116307 0 0.42035315588052052 0.042672465772045823 0 0.41918056088687422 0.025106301550984179 0 0.42035315588052052 0.042672465772045823 0 0.41807260402200452 0.053616349792940499 0 0.42690609811089331 0.059013607202760512 0 0.40863285456409321 0.067745049984629005 0 0.40829937009812589 0.05445646228617778 0 0.41572401702962131 0.06154942829698281 0 0.40829937009812589 0.05445646228617778 0 0.41807260402200452 0.053616349792940499 0 0.41572401702962131 0.06154942829698281 0 0.42035315588052052 0.042672465772045823 0 0.40829937009812589 0.05445646228617778 0 0.40647643562697111 0.047157343142538291 0 0.42035315588052052 0.042672465772045823 0 0.40829937009812589 0.05445646228617778 0 0.42035315588052052 0.042672465772045823 0 0.40829937009812589 0.05445646228617778 0 0.41807260402200452 0.053616349792940499 0 0.41807260402200452 0.053616349792940499 0 0.41572401702962131 0.06154942829698281 0 0.42690609811089331 0.059013607202760512 0 0.42035315588052052 0.042672465772045823 0 0.42690609811089331 0.059013607202760512 0 0.44432976155769699 0.048266315327598383 0 0.42035315588052052 0.042672465772045823 0 0.43671568676264189 0.026676163003921921 0 0.42035315588052052 0.042672465772045823 0 0.43671568676264189 0.026676163003921921 0 0.44432976155769699 0.048266315327598383 0 0.42035315588052052 0.042672465772045823 0 0.44432976155769699 0.048266315327598383 0 0.42035315588052052 0.042672465772045823 0 0.43671568676264189 0.026676163003921921 0 0.41918056088687422 0.025106301550984179 0 0.43671568676264189 0.026676163003921921 0 0.41918056088687422 0.025106301550984179 0 0.43085411213296282 0.0071934808399317304 0 0.4022109480673669 0.029794301680725051 0 0.41918056088687422 0.025106301550984179 0 0.40715192280340562 0.01462234732060084 0 0.41918056088687422 0.025106301550984179 0 0.40715192280340562 0.01462234732060084 0 0.43085411213296282 0.0071934808399317304 0 0.4022109480673669 0.029794301680725051 0 0.41056521822753728 0.033900572446116307 0 0.41918056088687422 0.025106301550984179 0 0.40715192280340562 0.01462234732060084 0 0.43085411213296282 0.0071934808399317304 0 0.41629264407573002 -0.006850845090226044 0 0.43085411213296282 0.0071934808399317304 0 0.45307821764476319 0.010679860235798 0 0.45275060893296981 -0.0060266252809792519 0 0.43671568676264189 0.026676163003921921 0 0.43085411213296282 0.0071934808399317304 0 0.45307821764476319 0.010679860235798 0 0.43671568676264189 0.026676163003921921 0 0.45307821764476319 0.010679860235798 0 0.45536773125663488 0.033055304065500078 0 0.43671568676264189 0.026676163003921921 0 0.45307821764476319 0.010679860235798 0 0.45307821764476319 0.010679860235798 0 0.45536773125663488 0.033055304065500078 0 0.4743220131113518 0.027463297392627269 0 0.45307821764476319 0.010679860235798 0 0.47441986059974051 0.002164373494884166 0 0.4743220131113518 0.027463297392627269 0 0.45307821764476319 0.010679860235798 0 0.47441986059974051 0.002164373494884166 0 0.45275060893296981 -0.0060266252809792519 0 0.45650324214529259 0.065280330615496637 0 0.44127530461137909 0.064432497562673663 0 0.44432976155769699 0.048266315327598383 0 0.44127530461137909 0.064432497562673663 0 0.42690609811089331 0.059013607202760512 0 0.44432976155769699 0.048266315327598383 0 0.43671568676264189 0.026676163003921921 0 0.44432976155769699 0.048266315327598383 0 0.45536773125663488 0.033055304065500078 0 0.45536773125663488 0.033055304065500078 0 0.4683063672348734 0.053860164883151249 0 0.4743220131113518 0.027463297392627269 0 0.44432976155769699 0.048266315327598383 0 0.45536773125663488 0.033055304065500078 0 0.4683063672348734 0.053860164883151249 0 0.44432976155769699 0.048266315327598383 0 0.4683063672348734 0.053860164883151249 0 0.45650324214529259 0.065280330615496637 0 0.44432976155769699 0.048266315327598383 0 0.4683063672348734 0.053860164883151249 0 0.47714578073418512 0.066537383845565096 0 0.45650324214529259 0.065280330615496637 0 0.4683063672348734 0.053860164883151249 0 0.47714578073418512 0.066537383845565096 0 0.4683063672348734 0.053860164883151249 0 0.49228297291204992 0.059454014438704107 0 0.4683063672348734 0.053860164883151249 0 0.48335627184046892 0.043534316590418197 0 0.49228297291204992 0.059454014438704107 0 0.4683063672348734 0.053860164883151249 0 0.49228297291204992 0.059454014438704107 0 0.4683063672348734 0.053860164883151249 0 0.48335627184046892 0.043534316590418197 0 0.4743220131113518 0.027463297392627269 0 0.48335627184046892 0.043534316590418197 0 0.5 0.03604371684448926 0 0.4743220131113518 0.027463297392627269 0 0.48335627184046892 0.043534316590418197 0 0.5 0.03604371684448926 0 0.49228297291204992 0.059454014438704107 0 0.5 0.065085683867034727 0 0.5 0.03604371684448926 0 0.49228297291204992 0.059454014438704107 0 0.47441986059974051 0.002164373494884166 0 0.4743220131113518 0.027463297392627269 0 0.5 0.0070017498219436813 0 0.5 0.03604371684448926 0 0.4743220131113518 0.027463297392627269 0 0.5 0.0070017498219436813 0 0.47441986059974051 0.002164373494884166 0 0.5 0.0070017498219436813 0 0.48435038112254591 -0.01295811459108822 0 0.5 0.0070017498219436813 0 0.48435038112254591 -0.01295811459108822 0 0.5 -0.022040217200601949 0 0.47441986059974051 0.002164373494884166 0 0.48435038112254591 -0.01295811459108822 0 0.46567746476080879 -0.018036067265790781 0 0.48165458025218022 -0.033880411805876212 0 0.46055892944421639 -0.034826981934293802 0 0.46567746476080879 -0.018036067265790781 0 0.48435038112254591 -0.01295811459108822 0 0.48165458025218022 -0.033880411805876212 0 0.46567746476080879 -0.018036067265790781 0 0.48435038112254591 -0.01295811459108822 0 0.5 -0.022040217200601949 0 0.48165458025218022 -0.033880411805876212 0 0.5 -0.051082184223147482 0 0.48331950433178789 -0.05028970193443566 0 0.48165458025218022 -0.033880411805876212 0 0.5 -0.022040217200601949 0 0.5 -0.051082184223147482 0 0.48165458025218022 -0.033880411805876212 0 0.5 -0.051082184223147482 0 0.48331950433178789 -0.05028970193443566 0 0.48351099524096458 -0.065188187078006596 0 0.46811244183400691 -0.051008024630712363 0 0.48351099524096458 -0.065188187078006596 0 0.46325174163611299 -0.065085723760132191 0 0.48331950433178789 -0.05028970193443566 0 0.46811244183400691 -0.051008024630712363 0 0.48351099524096458 -0.065188187078006596 0 0.48331950433178789 -0.05028970193443566 0 0.48165458025218022 -0.033880411805876212 0 0.46811244183400691 -0.051008024630712363 0 0.48165458025218022 -0.033880411805876212 0 0.46055892944421639 -0.034826981934293802 0 0.46811244183400691 -0.051008024630712363 0 0.46055892944421639 -0.034826981934293802 0 0.46811244183400691 -0.051008024630712363 0 0.44580381826440463 -0.044156532015693237 0 0.46811244183400691 -0.051008024630712363 0 0.44580381826440463 -0.044156532015693237 0 0.46325174163611299 -0.065085723760132191 0 0.44580381826440463 -0.044156532015693237 0 0.46325174163611299 -0.065085723760132191 0 0.46811244183400691 -0.051008024630712363 0 0.46325174163611299 -0.065085723760132191 0 0.44420654965085082 -0.062216100931960373 0 0.44580381826440463 -0.044156532015693237 0 0.42712667170951002 -0.058909162300086547 0 0.44420654965085082 -0.062216100931960373 0 0.44580381826440463 -0.044156532015693237 0 0.46325174163611299 -0.065085723760132191 0 0.46055892944421639 -0.034826981934293802 0 0.44580381826440463 -0.044156532015693237 0 0.43960160651246799 -0.018737423931294579 0 0.43960160651246799 -0.018737423931294579 0 0.45275060893296981 -0.0060266252809792519 0 0.46567746476080879 -0.018036067265790781 0 0.43085411213296282 0.0071934808399317304 0 0.43960160651246799 -0.018737423931294579 0 0.45275060893296981 -0.0060266252809792519 0 0.47441986059974051 0.002164373494884166 0 0.45275060893296981 -0.0060266252809792519 0 0.46567746476080879 -0.018036067265790781 0 0.46055892944421639 -0.034826981934293802 0 0.43960160651246799 -0.018737423931294579 0 0.46567746476080879 -0.018036067265790781 0 0.47818452339587708 -0.1165119508780514 0 0.50000000000000278 -0.1091661182682386 0 0.5 -0.13347981615570359 0 0.50000000000000278 -0.1091661182682386 0 0.48162587081805858 -0.087125921014184843 0 0.47818452339587708 -0.1165119508780514 0 0.50000000000000278 -0.1091661182682386 0 0.47745756082527618 -0.1021495788090297 0 0.50000000000000278 -0.1091661182682386 0 0.47745756082527618 -0.1021495788090297 0 0.48162587081805858 -0.087125921014184843 0 0.47818452339587708 -0.1165119508780514 0 0.47745756082527618 -0.1021495788090297 0 0.45929027747438272 -0.10448110762161331 0 0.47745756082527618 -0.1021495788090297 0 0.48162587081805858 -0.087125921014184843 0 0.46818713243806243 -0.093462796263060144 0 0.48162587081805858 -0.087125921014184843 0 0.46325174163611299 -0.065085723760132191 0 0.46656747462136422 -0.083363997574371698 0 0.48162587081805858 -0.087125921014184843 0 0.46656747462136422 -0.083363997574371698 0 0.46818713243806243 -0.093462796263060144 0 0.50000000000000278 -0.1091661182682386 0 0.48162587081805858 -0.087125921014184843 0 0.5 -0.080124151245693054 0 0.48162587081805858 -0.087125921014184843 0 0.5 -0.080124151245693054 0 0.48351099524096458 -0.065188187078006596 0 0.5 -0.051082184223147482 0 0.5 -0.080124151245693054 0 0.48351099524096458 -0.065188187078006596 0 0.48162587081805858 -0.087125921014184843 0 0.48351099524096458 -0.065188187078006596 0 0.46325174163611299 -0.065085723760132191 0 0.48162587081805858 -0.087125921014184843 0 0.46325174163611299 -0.065085723760132191 0 0.46325174163611299 -0.065085723760132191 0 0.44779547222269012 -0.07571174360441861 0 0.4542230721705241 -0.091234814858292518 0 0.44420654965085082 -0.062216100931960373 0 0.46325174163611299 -0.065085723760132191 0 0.44779547222269012 -0.07571174360441861 0 0.44420654965085082 -0.062216100931960373 0 0.44779547222269012 -0.07571174360441861 0 0.43605259790445722 -0.074801038719200894 0 0.44779547222269012 -0.07571174360441861 0 0.441034556727114 -0.086800976364950752 0 0.4542230721705241 -0.091234814858292518 0 0.44779547222269012 -0.07571174360441861 0 0.441034556727114 -0.086800976364950752 0 0.43605259790445722 -0.074801038719200894 0 0.441034556727114 -0.086800976364950752 0 0.4542230721705241 -0.091234814858292518 0 0.44037425786955031 -0.1001430447449046 0 0.46325174163611299 -0.065085723760132191 0 0.4542230721705241 -0.091234814858292518 0 0.46325174163611299 -0.065085723760132191 0 0.4542230721705241 -0.091234814858292518 0 0.46656747462136422 -0.083363997574371698 0 0.4542230721705241 -0.091234814858292518 0 0.46656747462136422 -0.083363997574371698 0 0.46818713243806243 -0.093462796263060144 0 0.47745756082527618 -0.1021495788090297 0 0.46818713243806243 -0.093462796263060144 0 0.45929027747438272 -0.10448110762161331 0 0.4542230721705241 -0.091234814858292518 0 0.46818713243806243 -0.093462796263060144 0 0.45929027747438272 -0.10448110762161331 0 0.4542230721705241 -0.091234814858292518 0 0.45929027747438272 -0.10448110762161331 0 0.44519440270493238 -0.1173839059564518 0 0.4542230721705241 -0.091234814858292518 0 0.44519440270493238 -0.1173839059564518 0 0.4542230721705241 -0.091234814858292518 0 0.44037425786955031 -0.1001430447449046 0 0.44519440270493238 -0.1173839059564518 0 0.45929027747438272 -0.10448110762161331 0 0.44519440270493238 -0.1173839059564518 0 0.44037425786955031 -0.1001430447449046 0 0.44519440270493238 -0.1173839059564518 0 0.43733469804818831 -0.11156713863760261 0 0.44519440270493238 -0.1173839059564518 0 0.43583674875745881 -0.11887614197332121 0 0.43733469804818831 -0.11156713863760261 0 0.44519440270493238 -0.1173839059564518 0 0.44103349219651622 -0.1294348541443999 0 0.44519440270493238 -0.1173839059564518 0 0.43473286131254663 -0.1269599813022704 0 0.44519440270493238 -0.1173839059564518 0 0.43652399803370612 -0.1266503843383173 0 0.44103349219651622 -0.1294348541443999 0 0.44519440270493238 -0.1173839059564518 0 0.43473286131254663 -0.1269599813022704 0 0.43652399803370612 -0.1266503843383173 0 0.44519440270493238 -0.1173839059564518 0 0.43583674875745881 -0.11887614197332121 0 0.43473286131254663 -0.1269599813022704 0 0.44519440270493238 -0.1173839059564518 0 0.4507048422038758 -0.1254569291466279 0 0.44103349219651622 -0.1294348541443999 0 0.44519440270493238 -0.1173839059564518 0 0.45845740270007618 -0.1179768520576317 0 0.4507048422038758 -0.1254569291466279 0 0.47818452339587708 -0.1165119508780514 0 0.45929027747438272 -0.10448110762161331 0 0.45845740270007618 -0.1179768520576317 0 0.45845740270007618 -0.1179768520576317 0 0.46233294642030121 -0.13029577410444981 0 0.4507048422038758 -0.1254569291466279 0 0.47818452339587708 -0.1165119508780514 0 0.45845740270007618 -0.1179768520576317 0 0.46233294642030121 -0.13029577410444981 0 0.45929027747438272 -0.10448110762161331 0 0.44519440270493238 -0.1173839059564518 0 0.45845740270007618 -0.1179768520576317 0 0.40724277249555002 -0.1192463337858536 0 0.41884687315735308 -0.1196411488000769 0 0.41208161927757919 -0.13087523561031761 0 0.40724277249555002 -0.1192463337858536 0 0.41698364908723728 -0.1130169343472482 0 0.41068457829189181 -0.1070723437572161 0 0.41698364908723728 -0.1130169343472482 0 0.4250766521847687 -0.1135111272305598 0 0.42274743771597889 -0.1059915359454271 0 0.41698364908723728 -0.1130169343472482 0 0.41884687315735308 -0.1196411488000769 0 0.4250766521847687 -0.1135111272305598 0 0.40724277249555002 -0.1192463337858536 0 0.41698364908723728 -0.1130169343472482 0 0.41884687315735308 -0.1196411488000769 0 0.41884687315735308 -0.1196411488000769 0 0.42661387223904329 -0.12098454377727109 0 0.41208161927757919 -0.13087523561031761 0 0.41884687315735308 -0.1196411488000769 0 0.42661387223904329 -0.12098454377727109 0 0.4250766521847687 -0.1135111272305598 0 0.42661387223904329 -0.12098454377727109 0 0.43583674875745881 -0.11887614197332121 0 0.43473286131254663 -0.1269599813022704 0 0.42661387223904329 -0.12098454377727109 0 0.43583674875745881 -0.11887614197332121 0 0.43287065052056112 -0.1145040342651165 0 0.43733469804818831 -0.11156713863760261 0 0.43287065052056112 -0.1145040342651165 0 0.43239743038843881 -0.106928566248219 0 0.43583674875745881 -0.11887614197332121 0 0.43733469804818831 -0.11156713863760261 0 0.43287065052056112 -0.1145040342651165 0 0.43287065052056112 -0.1145040342651165 0 0.4250766521847687 -0.1135111272305598 0 0.43239743038843881 -0.106928566248219 0 0.42661387223904329 -0.12098454377727109 0 0.43287065052056112 -0.1145040342651165 0 0.4250766521847687 -0.1135111272305598 0 0.4250766521847687 -0.1135111272305598 0 0.42274743771597889 -0.1059915359454271 0 0.43239743038843881 -0.106928566248219 0 0.42274743771597889 -0.1059915359454271 0 0.43239743038843881 -0.106928566248219 0 0.42854124961890733 -0.099856724000988273 0 0.44037425786955031 -0.1001430447449046 0 0.43239743038843881 -0.106928566248219 0 0.42854124961890733 -0.099856724000988273 0 0.44037425786955031 -0.1001430447449046 0 0.43733469804818831 -0.11156713863760261 0 0.43239743038843881 -0.106928566248219 0 0.44037425786955031 -0.1001430447449046 0 0.42854124961890733 -0.099856724000988273 0 0.42870758522811919 -0.089164076341860632 0 0.42274743771597889 -0.1059915359454271 0 0.42854124961890733 -0.099856724000988273 0 0.41847953689244971 -0.097056396724529995 0 0.42854124961890733 -0.099856724000988273 0 0.41847953689244971 -0.097056396724529995 0 0.42870758522811919 -0.089164076341860632 0 0.42274743771597889 -0.1059915359454271 0 0.41847953689244971 -0.097056396724529995 0 0.41068457829189181 -0.1070723437572161 0 0.41698364908723728 -0.1130169343472482 0 0.42274743771597889 -0.1059915359454271 0 0.41068457829189181 -0.1070723437572161 0 0.41847953689244971 -0.097056396724529995 0 0.41068457829189181 -0.1070723437572161 0 0.40440998182912408 -0.094196755676502056 0 0.40751187940595462 -0.08478461483936342 0 0.41476450049512009 -0.087087396641621656 0 0.40440998182912408 -0.094196755676502056 0 0.41847953689244971 -0.097056396724529995 0 0.41476450049512009 -0.087087396641621656 0 0.40440998182912408 -0.094196755676502056 0 0.40751187940595462 -0.08478461483936342 0 0.41476450049512009 -0.087087396641621656 0 0.40927176781453312 -0.077086569868640542 0 0.40751187940595462 -0.08478461483936342 0 0.40927176781453312 -0.077086569868640542 0 0.40237588567979138 -0.081472047511817525 0 0.41476450049512009 -0.087087396641621656 0 0.42870758522811919 -0.089164076341860632 0 0.42122478008006597 -0.0757594802833121 0 0.41476450049512009 -0.087087396641621656 0 0.42122478008006597 -0.0757594802833121 0 0.40927176781453312 -0.077086569868640542 0 0.41847953689244971 -0.097056396724529995 0 0.41476450049512009 -0.087087396641621656 0 0.42870758522811919 -0.089164076341860632 0 0.441034556727114 -0.086800976364950752 0 0.44037425786955031 -0.1001430447449046 0 0.42870758522811919 -0.089164076341860632 0 0.441034556727114 -0.086800976364950752 0 0.42870758522811919 -0.089164076341860632 0 0.43605259790445722 -0.074801038719200894 0 0.42870758522811919 -0.089164076341860632 0 0.43605259790445722 -0.074801038719200894 0 0.42122478008006597 -0.0757594802833121 0 0.43605259790445722 -0.074801038719200894 0 0.42122478008006597 -0.0757594802833121 0 0.42712667170951002 -0.058909162300086547 0 0.44420654965085082 -0.062216100931960373 0 0.43605259790445722 -0.074801038719200894 0 0.42712667170951002 -0.058909162300086547 0 0.42122478008006597 -0.0757594802833121 0 0.4114316245373863 -0.068167670275121897 0 0.42712667170951002 -0.058909162300086547 0 0.40927176781453312 -0.077086569868640542 0 0.4114316245373863 -0.068167670275121897 0 0.39842538017083612 -0.076484449263173909 0 0.42122478008006597 -0.0757594802833121 0 0.40927176781453312 -0.077086569868640542 0 0.4114316245373863 -0.068167670275121897 0 0.4114316245373863 -0.068167670275121897 0 0.39842538017083612 -0.076484449263173909 0 0.40640664480004829 -0.052123305293471443 0 0.39842538017083612 -0.076484449263173909 0 0.38906844471504909 -0.048791226331097663 0 0.4114316245373863 -0.068167670275121897 0 0.39842538017083612 -0.076484449263173909 0 0.39842538017083612 -0.076484449263173909 0 0.38333741963197843 -0.065496938221855289 0 0.38906844471504909 -0.048791226331097663 0 0.39842538017083612 -0.076484449263173909 0 0.38333741963197843 -0.065496938221855289 0 0.37036238702559748 -0.076146834841134659 0 0.39842538017083612 -0.076484449263173909 0 0.373127492796404 -0.092661058915291472 0 0.39842538017083612 -0.076484449263173909 0 0.37036238702559748 -0.076146834841134659 0 0.373127492796404 -0.092661058915291472 0 0.39842538017083612 -0.076484449263173909 0 0.3905434538793735 -0.094168622203984975 0 0.373127492796404 -0.092661058915291472 0 0.39842538017083612 -0.076484449263173909 0 0.40142869859064212 -0.08537321064543299 0 0.3905434538793735 -0.094168622203984975 0 0.39842538017083612 -0.076484449263173909 0 0.40142869859064212 -0.08537321064543299 0 0.40237588567979138 -0.081472047511817525 0 0.40927176781453312 -0.077086569868640542 0 0.39842538017083612 -0.076484449263173909 0 0.40237588567979138 -0.081472047511817525 0 0.39842538017083612 -0.076484449263173909 0 0.40142869859064212 -0.08537321064543299 0 0.40142869859064212 -0.08537321064543299 0 0.40237588567979138 -0.081472047511817525 0 0.40751187940595462 -0.08478461483936342 0 0.40142869859064212 -0.08537321064543299 0 0.40237588567979138 -0.081472047511817525 0 0.40751187940595462 -0.08478461483936342 0 0.40142869859064212 -0.08537321064543299 0 0.40440998182912408 -0.094196755676502056 0 0.40142869859064212 -0.08537321064543299 0 0.40440998182912408 -0.094196755676502056 0 0.40142869859064212 -0.08537321064543299 0 0.39542953791662688 -0.1100818502818986 0 0.40142869859064212 -0.08537321064543299 0 0.3905434538793735 -0.094168622203984975 0 0.39542953791662688 -0.1100818502818986 0 0.40142869859064212 -0.08537321064543299 0 0.40440998182912408 -0.094196755676502056 0 0.39542953791662688 -0.1100818502818986 0 0.41068457829189181 -0.1070723437572161 0 0.40440998182912408 -0.094196755676502056 0 0.39542953791662688 -0.1100818502818986 0 0.3905434538793735 -0.094168622203984975 0 0.38430615992235861 -0.10624254191412789 0 0.373127492796404 -0.092661058915291472 0 0.3905434538793735 -0.094168622203984975 0 0.38430615992235861 -0.10624254191412789 0 0.39542953791662688 -0.1100818502818986 0 0.38430615992235861 -0.10624254191412789 0 0.373127492796404 -0.092661058915291472 0 0.37262698081820339 -0.10985920037046069 0 0.38430615992235861 -0.10624254191412789 0 0.37980885755413418 -0.11928611433555709 0 0.39542953791662688 -0.1100818502818986 0 0.37980885755413418 -0.11928611433555709 0 0.39542953791662688 -0.1100818502818986 0 0.38943037724261159 -0.1347904899183642 0 0.38430615992235861 -0.10624254191412789 0 0.37980885755413418 -0.11928611433555709 0 0.37262698081820339 -0.10985920037046069 0 0.40724277249555002 -0.1192463337858536 0 0.39542953791662688 -0.1100818502818986 0 0.38943037724261159 -0.1347904899183642 0 0.39542953791662688 -0.1100818502818986 0 0.38943037724261159 -0.1347904899183642 0 0.40724277249555002 -0.1192463337858536 0 0.41068457829189181 -0.1070723437572161 0 0.39542953791662688 -0.1100818502818986 0 0.41629264407573002 -0.006850845090226044 0 0.42276864855888052 -0.033584784942844392 0 0.40125875037878711 -0.026146768788422061 0 0.43085411213296282 0.0071934808399317304 0 0.43960160651246799 -0.018737423931294579 0 0.41629264407573002 -0.006850845090226044 0 0.43960160651246799 -0.018737423931294579 0 0.41629264407573002 -0.006850845090226044 0 0.42276864855888052 -0.033584784942844392 0 0.44580381826440463 -0.044156532015693237 0 0.42276864855888052 -0.033584784942844392 0 0.42712667170951002 -0.058909162300086547 0 0.44580381826440463 -0.044156532015693237 0 0.43960160651246799 -0.018737423931294579 0 0.42276864855888052 -0.033584784942844392 0 0.4114316245373863 -0.068167670275121897 0 0.42712667170951002 -0.058909162300086547 0 0.40640664480004829 -0.052123305293471443 0 0.42276864855888052 -0.033584784942844392 0 0.42712667170951002 -0.058909162300086547 0 0.40640664480004829 -0.052123305293471443 0 0.42276864855888052 -0.033584784942844392 0 0.40640664480004829 -0.052123305293471443 0 0.40125875037878711 -0.026146768788422061 0 0.40640664480004829 -0.052123305293471443 0 0.38906844471504909 -0.048791226331097663 0 0.40125875037878711 -0.026146768788422061 0 0.39842538017083612 -0.076484449263173909 0 0.40640664480004829 -0.052123305293471443 0 0.38906844471504909 -0.048791226331097663 0 0.38906844471504909 -0.048791226331097663 0 0.36552082236990341 -0.042261935088275922 0 0.37096486530484057 -0.058236420929508259 0 0.38333741963197843 -0.065496938221855289 0 0.38906844471504909 -0.048791226331097663 0 0.37096486530484057 -0.058236420929508259 0 0.38906844471504909 -0.048791226331097663 0 0.37971150925926189 -0.0210980033990215 0 0.40125875037878711 -0.026146768788422061 0 0.38906844471504909 -0.048791226331097663 0 0.37971150925926189 -0.0210980033990215 0 0.36552082236990341 -0.042261935088275922 0 0.38906844471504909 -0.048791226331097663 0 0.37971150925926189 -0.0210980033990215 0 0.3939873043738738 0.005606014803845533 0 0.37971150925926189 -0.0210980033990215 0 0.40125875037878711 -0.026146768788422061 0 0.3939873043738738 0.005606014803845533 0 0.41629264407573002 -0.006850845090226044 0 0.40125875037878711 -0.026146768788422061 0 0.37357914744350779 0.002440479778912224 0 0.3939873043738738 0.005606014803845533 0 0.37971150925926189 -0.0210980033990215 0 0.37357914744350779 0.002440479778912224 0 0.35598292622536432 0.0074660699477739154 0 0.35747226134953669 -0.011539359516293059 0 0.37357914744350779 0.002440479778912224 0 0.37971150925926189 -0.0210980033990215 0 0.35747226134953669 -0.011539359516293059 0 0.37971150925926189 -0.0210980033990215 0 0.3567572465296398 -0.028300240308235611 0 0.35747226134953669 -0.011539359516293059 0 0.37971150925926189 -0.0210980033990215 0 0.3567572465296398 -0.028300240308235611 0 0.36552082236990341 -0.042261935088275922 0 0.3567572465296398 -0.028300240308235611 0 0.34108130633743572 -0.022855778308436141 0 0.34876980709143918 -0.036804132634757111 0 0.3567572465296398 -0.028300240308235611 0 0.35747226134953669 -0.011539359516293059 0 0.34108130633743572 -0.022855778308436141 0 0.35598292622536432 0.0074660699477739154 0 0.35747226134953669 -0.011539359516293059 0 0.33772143230201052 -0.0068886848087512803 0 0.35747226134953669 -0.011539359516293059 0 0.33772143230201052 -0.0068886848087512803 0 0.34108130633743572 -0.022855778308436141 0 0.33772143230201052 -0.0068886848087512803 0 0.34108130633743572 -0.022855778308436141 0 0.317215061455216 -0.016157064213598971 0 0.34108130633743572 -0.022855778308436141 0 0.317215061455216 -0.016157064213598971 0 0.33020564447161199 -0.035019528032180489 0 0.317215061455216 -0.016157064213598971 0 0.33020564447161199 -0.035019528032180489 0 0.317215061455216 -0.016157064213598971 0 0.31587151978819911 -0.020338956197947448 0 0.33020564447161199 -0.035019528032180489 0 0.31587151978819911 -0.020338956197947448 0 0.33020564447161199 -0.035019528032180489 0 0.317215061455216 -0.016157064213598971 0 0.31587151978819911 -0.020338956197947448 0 0.32325249182581611 0.0026349705202008129 0 0.317215061455216 -0.016157064213598971 0 0.32325249182581611 0.0026349705202008129 0 0.33772143230201052 -0.0068886848087512803 0 0.317215061455216 -0.016157064213598971 0 0.32325249182581611 0.0026349705202008129 0 0.317215061455216 -0.016157064213598971 0 0.30690038754225768 -0.0011800486910433781 0 0.32587161445787949 -0.051186402763021513 0 0.31829608624605688 -0.065472752473192938 0 0.30886460616181383 -0.042148593106558697 0 0.32587161445787949 -0.051186402763021513 0 0.33198766712898281 -0.064044197254424853 0 0.31829608624605688 -0.065472752473192938 0 0.31587151978819911 -0.020338956197947448 0 0.33020564447161199 -0.035019528032180489 0 0.30886460616181383 -0.042148593106558697 0 0.32587161445787949 -0.051186402763021513 0 0.33020564447161199 -0.035019528032180489 0 0.30886460616181383 -0.042148593106558697 0 0.34108130633743572 -0.022855778308436141 0 0.33020564447161199 -0.035019528032180489 0 0.34876980709143918 -0.036804132634757111 0 0.32587161445787949 -0.051186402763021513 0 0.33020564447161199 -0.035019528032180489 0 0.34000406828093183 -0.049246942948750677 0 0.33020564447161199 -0.035019528032180489 0 0.3502840157486049 -0.055583181436657553 0 0.33020564447161199 -0.035019528032180489 0 0.34000406828093183 -0.049246942948750677 0 0.33020564447161199 -0.035019528032180489 0 0.34000406828093183 -0.049246942948750677 0 0.3502840157486049 -0.055583181436657553 0 0.33020564447161199 -0.035019528032180489 0 0.3502840157486049 -0.055583181436657553 0 0.34876980709143918 -0.036804132634757111 0 0.34000406828093183 -0.049246942948750677 0 0.33198766712898281 -0.064044197254424853 0 0.34180884154053498 -0.065879049105621951 0 0.32587161445787949 -0.051186402763021513 0 0.34000406828093183 -0.049246942948750677 0 0.33198766712898281 -0.064044197254424853 0 0.34000406828093183 -0.049246942948750677 0 0.34980249209025183 -0.063474357865320699 0 0.34000406828093183 -0.049246942948750677 0 0.34980249209025183 -0.063474357865320699 0 0.34180884154053498 -0.065879049105621951 0 0.34000406828093183 -0.049246942948750677 0 0.3502840157486049 -0.055583181436657553 0 0.34980249209025183 -0.063474357865320699 0 0.3502840157486049 -0.055583181436657553 0 0.34980249209025183 -0.063474357865320699 0 0.35472253155892502 -0.068395270968063401 0 0.3502840157486049 -0.055583181436657553 0 0.34876980709143918 -0.036804132634757111 0 0.36552082236990341 -0.042261935088275922 0 0.3567572465296398 -0.028300240308235611 0 0.34876980709143918 -0.036804132634757111 0 0.36552082236990341 -0.042261935088275922 0 0.3502840157486049 -0.055583181436657553 0 0.36552082236990341 -0.042261935088275922 0 0.37096486530484057 -0.058236420929508259 0 0.3502840157486049 -0.055583181436657553 0 0.37096486530484057 -0.058236420929508259 0 0.37036238702559748 -0.076146834841134659 0 0.38333741963197843 -0.065496938221855289 0 0.37096486530484057 -0.058236420929508259 0 0.37036238702559748 -0.076146834841134659 0 0.3502840157486049 -0.055583181436657553 0 0.37036238702559748 -0.076146834841134659 0 0.37036238702559748 -0.076146834841134659 0 0.35472253155892502 -0.068395270968063401 0 0.35439705838588692 -0.077054866778644621 0 0.37036238702559748 -0.076146834841134659 0 0.36026598055858428 -0.086219317086442732 0 0.35439705838588692 -0.077054866778644621 0 0.37036238702559748 -0.076146834841134659 0 0.373127492796404 -0.092661058915291472 0 0.36026598055858428 -0.086219317086442732 0 0.373127492796404 -0.092661058915291472 0 0.36026598055858428 -0.086219317086442732 0 0.35442896873054819 -0.093899165736773108 0 0.36026598055858428 -0.086219317086442732 0 0.34819406691839527 -0.085912356067407769 0 0.35439705838588692 -0.077054866778644621 0 0.36026598055858428 -0.086219317086442732 0 0.34819406691839527 -0.085912356067407769 0 0.35442896873054819 -0.093899165736773108 0 0.34819406691839527 -0.085912356067407769 0 0.35442896873054819 -0.093899165736773108 0 0.34250823495700278 -0.096843945418323016 0 0.34819406691839527 -0.085912356067407769 0 0.35439705838588692 -0.077054866778644621 0 0.34213718893203959 -0.07422010281979162 0 0.3502840157486049 -0.055583181436657553 0 0.37036238702559748 -0.076146834841134659 0 0.35472253155892502 -0.068395270968063401 0 0.34876670454428399 -0.06971711391855949 0 0.35439705838588692 -0.077054866778644621 0 0.34213718893203959 -0.07422010281979162 0 0.34980249209025183 -0.063474357865320699 0 0.34876670454428399 -0.06971711391855949 0 0.34180884154053498 -0.065879049105621951 0 0.34876670454428399 -0.06971711391855949 0 0.34180884154053498 -0.065879049105621951 0 0.34213718893203959 -0.07422010281979162 0 0.34980249209025183 -0.063474357865320699 0 0.34876670454428399 -0.06971711391855949 0 0.35472253155892502 -0.068395270968063401 0 0.34876670454428399 -0.06971711391855949 0 0.35472253155892502 -0.068395270968063401 0 0.35439705838588692 -0.077054866778644621 0 0.36703358201424818 -0.1205643964158449 0 0.35968204517414459 -0.1107584800748472 0 0.35606369033391522 -0.1259709067163762 0 0.37980885755413418 -0.11928611433555709 0 0.36703358201424818 -0.1205643964158449 0 0.37262698081820339 -0.10985920037046069 0 0.36703358201424818 -0.1205643964158449 0 0.37262698081820339 -0.10985920037046069 0 0.35968204517414459 -0.1107584800748472 0 0.373127492796404 -0.092661058915291472 0 0.3478296054219725 -0.1088376685674099 0 0.373127492796404 -0.092661058915291472 0 0.37262698081820339 -0.10985920037046069 0 0.35968204517414459 -0.1107584800748472 0 0.373127492796404 -0.092661058915291472 0 0.35968204517414459 -0.1107584800748472 0 0.3478296054219725 -0.1088376685674099 0 0.373127492796404 -0.092661058915291472 0 0.35442896873054819 -0.093899165736773108 0 0.3478296054219725 -0.1088376685674099 0 0.35442896873054819 -0.093899165736773108 0 0.3478296054219725 -0.1088376685674099 0 0.34250823495700278 -0.096843945418323016 0 0.3478296054219725 -0.1088376685674099 0 0.34004518790650529 -0.12527848050574 0 0.35606369033391522 -0.1259709067163762 0 0.35968204517414459 -0.1107584800748472 0 0.3478296054219725 -0.1088376685674099 0 0.35606369033391522 -0.1259709067163762 0 0.35968204517414459 -0.1107584800748472 0 0.35606369033391522 -0.1259709067163762 0 0.3478296054219725 -0.1088376685674099 0 0.3336003219875231 -0.1076211020920432 0 0.32253171804754088 -0.12501427821952829 0 0.3478296054219725 -0.1088376685674099 0 0.32253171804754088 -0.12501427821952829 0 0.34004518790650529 -0.12527848050574 0 0.3478296054219725 -0.1088376685674099 0 0.32253171804754088 -0.12501427821952829 0 0.3336003219875231 -0.1076211020920432 0 0.3322859580981179 -0.098725703467523684 0 0.32284609341298121 -0.10868391478743129 0 0.3478296054219725 -0.1088376685674099 0 0.3336003219875231 -0.1076211020920432 0 0.34250823495700278 -0.096843945418323016 0 0.3336003219875231 -0.1076211020920432 0 0.34250823495700278 -0.096843945418323016 0 0.3322859580981179 -0.098725703467523684 0 0.34250823495700278 -0.096843945418323016 0 0.3322859580981179 -0.098725703467523684 0 0.33540967344911948 -0.088036983583798772 0 0.32220919005921328 -0.094454801116449272 0 0.31258915767766499 -0.1029799685902579 0 0.31246538712165289 -0.087003597160487944 0 0.3322859580981179 -0.098725703467523684 0 0.32220919005921328 -0.094454801116449272 0 0.32284609341298121 -0.10868391478743129 0 0.32220919005921328 -0.094454801116449272 0 0.31258915767766499 -0.1029799685902579 0 0.32284609341298121 -0.10868391478743129 0 0.31258915767766499 -0.1029799685902579 0 0.32284609341298121 -0.10868391478743129 0 0.30701266551867318 -0.11795202584412939 0 0.3336003219875231 -0.1076211020920432 0 0.32284609341298121 -0.10868391478743129 0 0.32253171804754088 -0.12501427821952829 0 0.32284609341298121 -0.10868391478743129 0 0.30701266551867318 -0.11795202584412939 0 0.32253171804754088 -0.12501427821952829 0 0.33198766712898281 -0.064044197254424853 0 0.34213718893203959 -0.07422010281979162 0 0.32642601186692399 -0.078569743361430744 0 0.33198766712898281 -0.064044197254424853 0 0.34180884154053498 -0.065879049105621951 0 0.34213718893203959 -0.07422010281979162 0 0.34213718893203959 -0.07422010281979162 0 0.33540967344911948 -0.088036983583798772 0 0.32642601186692399 -0.078569743361430744 0 0.34819406691839527 -0.085912356067407769 0 0.34213718893203959 -0.07422010281979162 0 0.33540967344911948 -0.088036983583798772 0 0.34819406691839527 -0.085912356067407769 0 0.34250823495700278 -0.096843945418323016 0 0.33540967344911948 -0.088036983583798772 0 0.3322859580981179 -0.098725703467523684 0 0.32220919005921328 -0.094454801116449272 0 0.33540967344911948 -0.088036983583798772 0 0.32220919005921328 -0.094454801116449272 0 0.33540967344911948 -0.088036983583798772 0 0.32642601186692399 -0.078569743361430744 0 0.32220919005921328 -0.094454801116449272 0 0.32642601186692399 -0.078569743361430744 0 0.31246538712165289 -0.087003597160487944 0 0.32642601186692399 -0.078569743361430744 0 0.31246538712165289 -0.087003597160487944 0 0.32642601186692399 -0.078569743361430744 0 0.31829608624605688 -0.065472752473192938 0 0.31246538712165289 -0.087003597160487944 0 0.33198766712898281 -0.064044197254424853 0 0.32642601186692399 -0.078569743361430744 0 0.31829608624605688 -0.065472752473192938 0 0.31829608624605688 -0.065472752473192938 0 0.30185769253542699 -0.063958230015169509 0 0.31246538712165289 -0.087003597160487944 0 0.30185769253542699 -0.063958230015169509 0 0.29485077890903838 -0.08576786692377969 0 0.31246538712165289 -0.087003597160487944 0 0.29485077890903838 -0.08576786692377969 0 0.29850476237638052 -0.095437450959542897 0 0.30185769253542699 -0.063958230015169509 0 0.31246538712165289 -0.087003597160487944 0 0.29485077890903838 -0.08576786692377969 0 0.31246538712165289 -0.087003597160487944 0 0.29850476237638052 -0.095437450959542897 0 0.29485077890903838 -0.08576786692377969 0 0.29011601486440819 -0.10050523777883651 0 0.27233191485367331 -0.086662364145387083 0 0.29485077890903838 -0.08576786692377969 0 0.29850476237638052 -0.095437450959542897 0 0.29485077890903838 -0.08576786692377969 0 0.29011601486440819 -0.10050523777883651 0 0.30185769253542699 -0.063958230015169509 0 0.29485077890903838 -0.08576786692377969 0 0.28549509337792828 -0.061009794462930381 0 0.29485077890903838 -0.08576786692377969 0 0.27233191485367331 -0.086662364145387083 0 0.28549509337792828 -0.061009794462930381 0 0.29485077890903838 -0.08576786692377969 0 0.28549509337792828 -0.061009794462930381 0 0.30701266551867318 -0.11795202584412939 0 0.29478762612759141 -0.11288625738249181 0 0.29867666688697703 -0.1272849549211697 0 0.30701266551867318 -0.11795202584412939 0 0.29850476237638052 -0.095437450959542897 0 0.29478762612759141 -0.11288625738249181 0 0.31258915767766499 -0.1029799685902579 0 0.30701266551867318 -0.11795202584412939 0 0.29850476237638052 -0.095437450959542897 0 0.30701266551867318 -0.11795202584412939 0 0.29850476237638052 -0.095437450959542897 0 0.31258915767766499 -0.1029799685902579 0 0.31246538712165289 -0.087003597160487944 0 0.29850476237638052 -0.095437450959542897 0 0.29850476237638052 -0.095437450959542897 0 0.29011601486440819 -0.10050523777883651 0 0.29478762612759141 -0.11288625738249181 0 0.29850476237638052 -0.095437450959542897 0 0.29011601486440819 -0.10050523777883651 0 0.29485077890903838 -0.08576786692377969 0 0.29850476237638052 -0.095437450959542897 0 0.29011601486440819 -0.10050523777883651 0 0.29011601486440819 -0.10050523777883651 0 0.27631136395687561 -0.10884486509677729 0 0.29011601486440819 -0.10050523777883651 0 0.28377904751550082 -0.12022960778689511 0 0.29011601486440819 -0.10050523777883651 0 0.28377904751550082 -0.12022960778689511 0 0.27631136395687561 -0.10884486509677729 0 0.29011601486440819 -0.10050523777883651 0 0.29478762612759141 -0.11288625738249181 0 0.28377904751550082 -0.12022960778689511 0 0.29478762612759141 -0.11288625738249181 0 0.28377904751550082 -0.12022960778689511 0 0.29867666688697703 -0.1272849549211697 0 0.28377904751550082 -0.12022960778689511 0 0.27500980117207829 -0.12155323577333579 0 0.27631136395687561 -0.10884486509677729 0 0.27631136395687561 -0.10884486509677729 0 0.26250671304934198 -0.1171844924147165 0 0.27500980117207829 -0.12155323577333579 0 0.27631136395687561 -0.10884486509677729 0 0.26250671304934198 -0.1171844924147165 0 0.29011601486440819 -0.10050523777883651 0 0.27631136395687561 -0.10884486509677729 0 0.27233191485367331 -0.086662364145387083 0 0.27631136395687561 -0.10884486509677729 0 0.26480060580106352 -0.1019600400236301 0 0.27233191485367331 -0.086662364145387083 0 0.27631136395687561 -0.10884486509677729 0 0.26480060580106352 -0.1019600400236301 0 0.26250671304934198 -0.1171844924147165 0 0.26480060580106352 -0.1019600400236301 0 0.27233191485367331 -0.086662364145387083 0 0.248052431344363 -0.095148438437639593 0 0.26480060580106352 -0.1019600400236301 0 0.26250671304934198 -0.1171844924147165 0 0.248052431344363 -0.095148438437639593 0 0.26250671304934198 -0.1171844924147165 0 0.248052431344363 -0.095148438437639593 0 0.26250671304934198 -0.1171844924147165 0 0.248052431344363 -0.095148438437639593 0 0.24260121657943401 -0.11258968035378961 0 0.26250671304934198 -0.1171844924147165 0 0.2441250445765018 -0.1282891748563233 0 0.27233191485367331 -0.086662364145387083 0 0.25578894406637898 -0.071814983055159112 0 0.28549509337792828 -0.061009794462930381 0 0.27233191485367331 -0.086662364145387083 0 0.25578894406637898 -0.071814983055159112 0 0.248052431344363 -0.095148438437639593 0 0.25578894406637898 -0.071814983055159112 0 0.26356106344924501 -0.050736506704392427 0 0.24466000719816181 -0.052572806154117767 0 0.27613940784681967 -0.036251722002080641 0 0.28549509337792828 -0.061009794462930381 0 0.26356106344924501 -0.050736506704392427 0 0.27613940784681967 -0.036251722002080641 0 0.28549509337792828 -0.061009794462930381 0 0.25578894406637898 -0.071814983055159112 0 0.26356106344924501 -0.050736506704392427 0 0.28549509337792828 -0.061009794462930381 0 0.26356106344924501 -0.050736506704392427 0 0.25572186475693609 -0.032033227847674262 0 0.24466000719816181 -0.052572806154117767 0 0.26356106344924501 -0.050736506704392427 0 0.27613940784681967 -0.036251722002080641 0 0.25572186475693609 -0.032033227847674262 0 0.25572186475693609 -0.032033227847674262 0 0.24466000719816181 -0.052572806154117767 0 0.25572186475693609 -0.032033227847674262 0 0.25159771702699008 -0.014371615300676641 0 0.26678372231571063 -0.011493649541230871 0 0.25572186475693609 -0.032033227847674262 0 0.26678372231571063 -0.011493649541230871 0 0.26489192350979318 -0.0064873577240775106 0 0.2403210271001277 -0.0038011986657945939 0 0.25900523844679291 0.0090906536209348996 0 0.26489192350979318 -0.0064873577240775106 0 0.2403210271001277 -0.0038011986657945939 0 0.25159771702699008 -0.014371615300676641 0 0.26489192350979318 -0.0064873577240775106 0 0.2403210271001277 -0.0038011986657945939 0 0.25159771702699008 -0.014371615300676641 0 0.26489192350979318 -0.0064873577240775106 0 0.26678372231571063 -0.011493649541230871 0 0.2692248172919926 -0.0069610417805164738 0 0.27741899960964289 -0.015799745368864509 0 0.28512431700806451 -0.0086992195202469716 0 0.2692248172919926 -0.0069610417805164738 0 0.27791710391185381 -0.0010379811687957271 0 0.28512431700806451 -0.0086992195202469716 0 0.2692248172919926 -0.0069610417805164738 0 0.28512431700806451 -0.0086992195202469716 0 0.26701986470523431 0.0028523954276382379 0 0.26489192350979318 -0.0064873577240775106 0 0.2692248172919926 -0.0069610417805164738 0 0.26489192350979318 -0.0064873577240775106 0 0.2692248172919926 -0.0069610417805164738 0 0.2692248172919926 -0.0069610417805164738 0 0.26678372231571063 -0.011493649541230871 0 0.27741899960964289 -0.015799745368864509 0 0.26489192350979318 -0.0064873577240775106 0 0.26678372231571063 -0.011493649541230871 0 0.26489192350979318 -0.0064873577240775106 0 0.2692248172919926 -0.0069610417805164738 0 0.26678372231571063 -0.011493649541230871 0 0.2692248172919926 -0.0069610417805164738 0 0.26678372231571063 -0.011493649541230871 0 0.27613940784681967 -0.036251722002080641 0 0.26678372231571063 -0.011493649541230871 0 0.27613940784681967 -0.036251722002080641 0 0.26678372231571063 -0.011493649541230871 0 0.27741899960964289 -0.015799745368864509 0 0.27613940784681967 -0.036251722002080641 0 0.25572186475693609 -0.032033227847674262 0 0.26678372231571063 -0.011493649541230871 0 0.27613940784681967 -0.036251722002080641 0 0.27741899960964289 -0.015799745368864509 0 0.29413594975842328 -0.02512550933568073 0 0.27741899960964289 -0.015799745368864509 0 0.29413594975842328 -0.02512550933568073 0 0.28512431700806451 -0.0086992195202469716 0 0.28514691493175248 0.01112824383243886 0 0.28512431700806451 -0.0086992195202469716 0 0.30050921735997521 -0.004605356182754896 0 0.29413594975842328 -0.02512550933568073 0 0.28512431700806451 -0.0086992195202469716 0 0.30050921735997521 -0.004605356182754896 0 0.317215061455216 -0.016157064213598971 0 0.31587151978819911 -0.020338956197947448 0 0.30050921735997521 -0.004605356182754896 0 0.31587151978819911 -0.020338956197947448 0 0.30050921735997521 -0.004605356182754896 0 0.317215061455216 -0.016157064213598971 0 0.30050921735997521 -0.004605356182754896 0 0.30690038754225768 -0.0011800486910433781 0 0.317215061455216 -0.016157064213598971 0 0.30690038754225768 -0.0011800486910433781 0 0.31587151978819911 -0.020338956197947448 0 0.29413594975842328 -0.02512550933568073 0 0.30886460616181383 -0.042148593106558697 0 0.31587151978819911 -0.020338956197947448 0 0.29413594975842328 -0.02512550933568073 0 0.30050921735997521 -0.004605356182754896 0 0.31587151978819911 -0.020338956197947448 0 0.30886460616181383 -0.042148593106558697 0 0.29413594975842328 -0.02512550933568073 0 0.30886460616181383 -0.042148593106558697 0 0.29329854993608251 -0.045698769784483992 0 0.31829608624605688 -0.065472752473192938 0 0.30185769253542699 -0.063958230015169509 0 0.30886460616181383 -0.042148593106558697 0 0.30185769253542699 -0.063958230015169509 0 0.30886460616181383 -0.042148593106558697 0 0.30185769253542699 -0.063958230015169509 0 0.30886460616181383 -0.042148593106558697 0 0.29329854993608251 -0.045698769784483992 0 0.27613940784681967 -0.036251722002080641 0 0.28549509337792828 -0.061009794462930381 0 0.29329854993608251 -0.045698769784483992 0 0.30185769253542699 -0.063958230015169509 0 0.28549509337792828 -0.061009794462930381 0 0.29329854993608251 -0.045698769784483992 0 0.27613940784681967 -0.036251722002080641 0 0.29413594975842328 -0.02512550933568073 0 0.29329854993608251 -0.045698769784483992 0 0.28257577117233168 -0.20518994938083851 0 0.30379191605182437 -0.20471284840499179 0 0.29252942038038049 -0.2260032745248223 0 0.28257577117233168 -0.20518994938083851 0 0.29252942038038049 -0.2260032745248223 0 0.27440370665207992 -0.22158759206732809 0 0.28257577117233168 -0.20518994938083851 0 0.29805932829815662 -0.18954203104115269 0 0.30379191605182437 -0.20471284840499179 0 0.28257577117233168 -0.20518994938083851 0 0.29805932829815662 -0.18954203104115269 0 0.28309810934824442 -0.18139531770741171 0 0.29805932829815662 -0.18954203104115269 0 0.30379191605182437 -0.20471284840499179 0 0.31670590871501719 -0.18767809548444081 0 0.30379191605182437 -0.20471284840499179 0 0.31109634377457301 -0.22154997806035029 0 0.29252942038038049 -0.2260032745248223 0 0.31109634377457301 -0.22154997806035029 0 0.30987088180634448 -0.24125362874219619 0 0.29252942038038049 -0.2260032745248223 0 0.30987088180634448 -0.24125362874219619 0 0.29250997527574701 -0.24677647679701359 0 0.29252942038038049 -0.2260032745248223 0 0.29250997527574701 -0.24677647679701359 0 0.29252942038038049 -0.2260032745248223 0 0.27462122614518292 -0.24127539045551061 0 0.29252942038038049 -0.2260032745248223 0 0.27440370665207992 -0.22158759206732809 0 0.27462122614518292 -0.24127539045551061 0 0.27440370665207992 -0.22158759206732809 0 0.27462122614518292 -0.24127539045551061 0 0.25406429941061343 -0.23112732810889039 0 0.29250997527574701 -0.24677647679701359 0 0.27462122614518292 -0.24127539045551061 0 0.27534065318434953 -0.25880162201512719 0 0.25406429941061343 -0.23112732810889039 0 0.25726365536858148 -0.25362034743760148 0 0.24146341680214309 -0.24448521489457861 0 0.27462122614518292 -0.24127539045551061 0 0.25406429941061343 -0.23112732810889039 0 0.25726365536858148 -0.25362034743760148 0 0.27440370665207992 -0.22158759206732809 0 0.25406429941061343 -0.23112732810889039 0 0.25948399805722178 -0.21095426616987389 0 0.25406429941061343 -0.23112732810889039 0 0.25948399805722178 -0.21095426616987389 0 0.23924146656863479 -0.21600942233651971 0 0.25948399805722178 -0.21095426616987389 0 0.25294493867930001 -0.1971512634910503 0 0.23924146656863479 -0.21600942233651971 0 0.28257577117233168 -0.20518994938083851 0 0.27440370665207992 -0.22158759206732809 0 0.25948399805722178 -0.21095426616987389 0 0.28257577117233168 -0.20518994938083851 0 0.26980921912182793 -0.19283345323968809 0 0.28309810934824442 -0.18139531770741171 0 0.28257577117233168 -0.20518994938083851 0 0.25948399805722178 -0.21095426616987389 0 0.26980921912182793 -0.19283345323968809 0 0.26980921912182793 -0.19283345323968809 0 0.25294493867930001 -0.1971512634910503 0 0.26076150014885863 -0.1842019471946538 0 0.25948399805722178 -0.21095426616987389 0 0.26980921912182793 -0.19283345323968809 0 0.25294493867930001 -0.1971512634910503 0 0.25294493867930001 -0.1971512634910503 0 0.25115080808597218 -0.18349252771031549 0 0.26076150014885863 -0.1842019471946538 0 0.25115080808597218 -0.18349252771031549 0 0.26076150014885863 -0.1842019471946538 0 0.25889962869698091 -0.1746028342129915 0 0.26076150014885863 -0.1842019471946538 0 0.25889962869698091 -0.1746028342129915 0 0.27017957837672091 -0.17747692395416009 0 0.25115080808597218 -0.18349252771031549 0 0.25889962869698091 -0.1746028342129915 0 0.24727016264961249 -0.1692414738038848 0 0.25889962869698091 -0.1746028342129915 0 0.26616743516329899 -0.16248611748055669 0 0.24727016264961249 -0.1692414738038848 0 0.26140577643439422 -0.14332992145424359 0 0.24727016264961249 -0.1692414738038848 0 0.26616743516329899 -0.16248611748055669 0 0.26140577643439422 -0.14332992145424359 0 0.24727016264961249 -0.1692414738038848 0 0.25889962869698091 -0.1746028342129915 0 0.26616743516329899 -0.16248611748055669 0 0.27017957837672091 -0.17747692395416009 0 0.26616743516329899 -0.16248611748055669 0 0.27825348655266058 -0.16907893574793359 0 0.27017957837672091 -0.17747692395416009 0 0.26616743516329899 -0.16248611748055669 0 0.27746834422487981 -0.157383776805052 0 0.26883056353995632 -0.15253713768717189 0 0.26616743516329899 -0.16248611748055669 0 0.27746834422487981 -0.157383776805052 0 0.27825348655266058 -0.16907893574793359 0 0.27825348655266058 -0.16907893574793359 0 0.27017957837672091 -0.17747692395416009 0 0.28309810934824442 -0.18139531770741171 0 0.26980921912182793 -0.19283345323968809 0 0.27017957837672091 -0.17747692395416009 0 0.28309810934824442 -0.18139531770741171 0 0.26980921912182793 -0.19283345323968809 0 0.26076150014885863 -0.1842019471946538 0 0.27017957837672091 -0.17747692395416009 0 0.25959792799319448 -0.13115630782849941 0 0.26140577643439422 -0.14332992145424359 0 0.2441250445765018 -0.1282891748563233 0 0.26250671304934198 -0.1171844924147165 0 0.25959792799319448 -0.13115630782849941 0 0.2441250445765018 -0.1282891748563233 0 0.26616743516329899 -0.16248611748055669 0 0.26140577643439422 -0.14332992145424359 0 0.26883056353995632 -0.15253713768717189 0 0.26140577643439422 -0.14332992145424359 0 0.2760714190023883 -0.1442202816071636 0 0.27744208016659549 -0.13995397779495439 0 0.27746834422487981 -0.157383776805052 0 0.26883056353995632 -0.15253713768717189 0 0.27327340453904758 -0.14909472247049649 0 0.27746834422487981 -0.157383776805052 0 0.27327340453904758 -0.14909472247049649 0 0.27944720334199591 -0.1510298305388795 0 0.27746834422487981 -0.157383776805052 0 0.27944720334199591 -0.1510298305388795 0 0.28543485155381138 -0.1532631785773593 0 0.27944720334199591 -0.1510298305388795 0 0.27867318395593788 -0.14678707333018209 0 0.28267306369304718 -0.14834113794059131 0 0.27327340453904758 -0.14909472247049649 0 0.27944720334199591 -0.1510298305388795 0 0.27867318395593788 -0.14678707333018209 0 0.27327340453904758 -0.14909472247049649 0 0.27867318395593788 -0.14678707333018209 0 0.2760714190023883 -0.1442202816071636 0 0.27867318395593788 -0.14678707333018209 0 0.28203705400801471 -0.14409361128278431 0 0.28267306369304718 -0.14834113794059131 0 0.27867318395593788 -0.14678707333018209 0 0.27862243637812423 -0.14384960257769991 0 0.2760714190023883 -0.1442202816071636 0 0.27867318395593788 -0.14678707333018209 0 0.27862243637812423 -0.14384960257769991 0 0.28203705400801471 -0.14409361128278431 0 0.27862243637812423 -0.14384960257769991 0 0.27744208016659549 -0.13995397779495439 0 0.28203705400801471 -0.14409361128278431 0 0.27862243637812423 -0.14384960257769991 0 0.2760714190023883 -0.1442202816071636 0 0.27744208016659549 -0.13995397779495439 0 0.2760714190023883 -0.1442202816071636 0 0.27744208016659549 -0.13995397779495439 0 0.26140577643439422 -0.14332992145424359 0 0.27327340453904758 -0.14909472247049649 0 0.2760714190023883 -0.1442202816071636 0 0.26140577643439422 -0.14332992145424359 0 0.26883056353995632 -0.15253713768717189 0 0.27327340453904758 -0.14909472247049649 0 0.26250671304934198 -0.1171844924147165 0 0.25959792799319448 -0.13115630782849941 0 0.27744208016659549 -0.13995397779495439 0 0.27500980117207829 -0.12155323577333579 0 0.26250671304934198 -0.1171844924147165 0 0.27744208016659549 -0.13995397779495439 0 0.28377904751550082 -0.12022960778689511 0 0.27500980117207829 -0.12155323577333579 0 0.27744208016659549 -0.13995397779495439 0 0.26250671304934198 -0.1171844924147165 0 0.27744208016659549 -0.13995397779495439 0 0.28377904751550082 -0.12022960778689511 0 0.27744208016659549 -0.13995397779495439 0 0.25959792799319448 -0.13115630782849941 0 0.26140577643439422 -0.14332992145424359 0 0.27744208016659549 -0.13995397779495439 0 0.28377904751550082 -0.12022960778689511 0 0.27744208016659549 -0.13995397779495439 0 0.28932323864627207 -0.13288207724771259 0 0.28377904751550082 -0.12022960778689511 0 0.28932323864627207 -0.13288207724771259 0 0.29867666688697703 -0.1272849549211697 0 0.28932323864627207 -0.13288207724771259 0 0.29298701750044082 -0.14249666764126889 0 0.28471550868115297 -0.14112277714418339 0 0.27744208016659549 -0.13995397779495439 0 0.28932323864627207 -0.13288207724771259 0 0.28471550868115297 -0.14112277714418339 0 0.28932323864627207 -0.13288207724771259 0 0.29298701750044082 -0.14249666764126889 0 0.30163685485285813 -0.1392931605370735 0 0.28932323864627207 -0.13288207724771259 0 0.30163685485285813 -0.1392931605370735 0 0.29867666688697703 -0.1272849549211697 0 0.29298701750044082 -0.14249666764126889 0 0.28777302560547591 -0.14653199597375141 0 0.29658698791447552 -0.15065635986343121 0 0.29298701750044082 -0.14249666764126889 0 0.28471550868115297 -0.14112277714418339 0 0.28777302560547591 -0.14653199597375141 0 0.28471550868115297 -0.14112277714418339 0 0.28203705400801471 -0.14409361128278431 0 0.28777302560547591 -0.14653199597375141 0 0.27744208016659549 -0.13995397779495439 0 0.28471550868115297 -0.14112277714418339 0 0.28203705400801471 -0.14409361128278431 0 0.28203705400801471 -0.14409361128278431 0 0.28267306369304718 -0.14834113794059131 0 0.28777302560547591 -0.14653199597375141 0 0.28267306369304718 -0.14834113794059131 0 0.28777302560547591 -0.14653199597375141 0 0.28543485155381138 -0.1532631785773593 0 0.27944720334199591 -0.1510298305388795 0 0.28267306369304718 -0.14834113794059131 0 0.28543485155381138 -0.1532631785773593 0 0.28543485155381138 -0.1532631785773593 0 0.29658698791447552 -0.15065635986343121 0 0.29083384063311041 -0.16291767632429169 0 0.28777302560547591 -0.14653199597375141 0 0.28543485155381138 -0.1532631785773593 0 0.29658698791447552 -0.15065635986343121 0 0.29658698791447552 -0.15065635986343121 0 0.30903803874224028 -0.154944676915485 0 0.29083384063311041 -0.16291767632429169 0 0.30903803874224028 -0.154944676915485 0 0.30163685485285813 -0.1392931605370735 0 0.31552056866096628 -0.14046660072871581 0 0.29658698791447552 -0.15065635986343121 0 0.30903803874224028 -0.154944676915485 0 0.30163685485285813 -0.1392931605370735 0 0.29298701750044082 -0.14249666764126889 0 0.29658698791447552 -0.15065635986343121 0 0.30163685485285813 -0.1392931605370735 0 0.30163685485285813 -0.1392931605370735 0 0.29867666688697703 -0.1272849549211697 0 0.31552056866096628 -0.14046660072871581 0 0.30701266551867318 -0.11795202584412939 0 0.31552056866096628 -0.14046660072871581 0 0.30701266551867318 -0.11795202584412939 0 0.29867666688697703 -0.1272849549211697 0 0.31552056866096628 -0.14046660072871581 0 0.29805932829815662 -0.18954203104115269 0 0.28309810934824442 -0.18139531770741171 0 0.30374566956112747 -0.172867968401477 0 0.28309810934824442 -0.18139531770741171 0 0.29083384063311041 -0.16291767632429169 0 0.30374566956112747 -0.172867968401477 0 0.27825348655266058 -0.16907893574793359 0 0.28309810934824442 -0.18139531770741171 0 0.29083384063311041 -0.16291767632429169 0 0.27746834422487981 -0.157383776805052 0 0.27825348655266058 -0.16907893574793359 0 0.29083384063311041 -0.16291767632429169 0 0.27746834422487981 -0.157383776805052 0 0.28543485155381138 -0.1532631785773593 0 0.29083384063311041 -0.16291767632429169 0 0.30903803874224028 -0.154944676915485 0 0.30374566956112747 -0.172867968401477 0 0.3240284718032595 -0.16298117561330211 0 0.30903803874224028 -0.154944676915485 0 0.29083384063311041 -0.16291767632429169 0 0.30374566956112747 -0.172867968401477 0 0.29805932829815662 -0.18954203104115269 0 0.30374566956112747 -0.172867968401477 0 0.31670590871501719 -0.18767809548444081 0 0.30374566956112747 -0.172867968401477 0 0.3240284718032595 -0.16298117561330211 0 0.31670590871501719 -0.18767809548444081 0 0.3240284718032595 -0.16298117561330211 0 0.33253637494555272 -0.18549575049788841 0 0.31670590871501719 -0.18767809548444081 0 0.3240284718032595 -0.16298117561330211 0 0.33799671017450289 -0.15427059616939481 0 0.34627497421775172 -0.16712500364912669 0 0.3240284718032595 -0.16298117561330211 0 0.33253637494555272 -0.18549575049788841 0 0.34627497421775172 -0.16712500364912669 0 0.34627497421775172 -0.16712500364912669 0 0.34011486294275067 -0.1930235804920396 0 0.33253637494555272 -0.18549575049788841 0 0.34627497421775172 -0.16712500364912669 0 0.34011486294275067 -0.1930235804920396 0 0.3240284718032595 -0.16298117561330211 0 0.33253637494555272 -0.18549575049788841 0 0.31552056866096628 -0.14046660072871581 0 0.32253171804754088 -0.12501427821952829 0 0.33350864076215958 -0.14068733778211151 0 0.30701266551867318 -0.11795202584412939 0 0.31552056866096628 -0.14046660072871581 0 0.32253171804754088 -0.12501427821952829 0 0.3240284718032595 -0.16298117561330211 0 0.31552056866096628 -0.14046660072871581 0 0.33350864076215958 -0.14068733778211151 0 0.3240284718032595 -0.16298117561330211 0 0.31552056866096628 -0.14046660072871581 0 0.30903803874224028 -0.154944676915485 0 0.3240284718032595 -0.16298117561330211 0 0.31552056866096628 -0.14046660072871581 0 0.3240284718032595 -0.16298117561330211 0 0.33799671017450289 -0.15427059616939481 0 0.33350864076215958 -0.14068733778211151 0 0.33799671017450289 -0.15427059616939481 0 0.33350864076215958 -0.14068733778211151 0 0.35233452294063261 -0.141202487244703 0 0.33350864076215958 -0.14068733778211151 0 0.34402529308911528 -0.13391297654823131 0 0.35233452294063261 -0.141202487244703 0 0.32253171804754088 -0.12501427821952829 0 0.33350864076215958 -0.14068733778211151 0 0.34004518790650529 -0.12527848050574 0 0.33350864076215958 -0.14068733778211151 0 0.34004518790650529 -0.12527848050574 0 0.34402529308911528 -0.13391297654823131 0 0.34004518790650529 -0.12527848050574 0 0.35606369033391522 -0.1259709067163762 0 0.34402529308911528 -0.13391297654823131 0 0.35606369033391522 -0.1259709067163762 0 0.34402529308911528 -0.13391297654823131 0 0.35233452294063261 -0.141202487244703 0 0.35606369033391522 -0.1259709067163762 0 0.35233452294063261 -0.141202487244703 0 0.33799671017450289 -0.15427059616939481 0 0.35233452294063261 -0.141202487244703 0 0.34627497421775172 -0.16712500364912669 0 0.35233452294063261 -0.141202487244703 0 0.34627497421775172 -0.16712500364912669 0 0.35233452294063261 -0.141202487244703 0 0.34627497421775172 -0.16712500364912669 0 0.36205375531824391 -0.1583193433668508 0 0.35233452294063261 -0.141202487244703 0 0.37378191529930621 -0.14944718128022591 0 0.37093785636814908 -0.13798691163813531 0 0.35233452294063261 -0.141202487244703 0 0.37378191529930621 -0.14944718128022591 0 0.36205375531824391 -0.1583193433668508 0 0.37378191529930621 -0.14944718128022591 0 0.36205375531824391 -0.1583193433668508 0 0.37308854109455708 -0.16093157526259191 0 0.35606369033391522 -0.1259709067163762 0 0.35233452294063261 -0.141202487244703 0 0.37093785636814908 -0.13798691163813531 0 0.35233452294063261 -0.141202487244703 0 0.37093785636814908 -0.13798691163813531 0 0.37980885755413418 -0.11928611433555709 0 0.36703358201424818 -0.1205643964158449 0 0.37093785636814908 -0.13798691163813531 0 0.36703358201424818 -0.1205643964158449 0 0.35606369033391522 -0.1259709067163762 0 0.37093785636814908 -0.13798691163813531 0 0.35440938842994413 -0.18403818521213361 0 0.34627497421775172 -0.16712500364912669 0 0.34011486294275067 -0.1930235804920396 0 0.35440938842994413 -0.18403818521213361 0 0.34627497421775172 -0.16712500364912669 0 0.36427806099096738 -0.1715772602872144 0 0.34627497421775172 -0.16712500364912669 0 0.36427806099096738 -0.1715772602872144 0 0.36205375531824391 -0.1583193433668508 0 0.36427806099096738 -0.1715772602872144 0 0.37308854109455708 -0.16093157526259191 0 0.38040919016197472 -0.17194589761299089 0 0.36427806099096738 -0.1715772602872144 0 0.36205375531824391 -0.1583193433668508 0 0.37308854109455708 -0.16093157526259191 0 0.36427806099096738 -0.1715772602872144 0 0.37230187155944527 -0.18410680502223259 0 0.38040919016197472 -0.17194589761299089 0 0.35440938842994413 -0.18403818521213361 0 0.36427806099096738 -0.1715772602872144 0 0.37230187155944527 -0.18410680502223259 0 0.37230187155944527 -0.18410680502223259 0 0.36943541324010287 -0.20186706000128449 0 0.35149154164174501 -0.20315574626222041 0 0.37230187155944527 -0.18410680502223259 0 0.36943541324010287 -0.20186706000128449 0 0.38044042972011022 -0.19453179374419641 0 0.37230187155944527 -0.18410680502223259 0 0.35149154164174501 -0.20315574626222041 0 0.35440938842994413 -0.18403818521213361 0 0.37230187155944527 -0.18410680502223259 0 0.35149154164174501 -0.20315574626222041 0 0.36366819524513028 -0.21031437113148671 0 0.35862104841248232 -0.2228308520016947 0 0.37925693361890289 -0.2120285714887051 0 0.36943541324010287 -0.20186706000128449 0 0.36366819524513028 -0.21031437113148671 0 0.35149154164174501 -0.20315574626222041 0 0.36943541324010287 -0.20186706000128449 0 0.36366819524513028 -0.21031437113148671 0 0.37925693361890289 -0.2120285714887051 0 0.35149154164174501 -0.20315574626222041 0 0.33068121172404469 -0.22220468750220829 0 0.35862104841248232 -0.2228308520016947 0 0.36366819524513028 -0.21031437113148671 0 0.35149154164174501 -0.20315574626222041 0 0.35862104841248232 -0.2228308520016947 0 0.35440938842994413 -0.18403818521213361 0 0.35149154164174501 -0.20315574626222041 0 0.34011486294275067 -0.1930235804920396 0 0.35149154164174501 -0.20315574626222041 0 0.34011486294275067 -0.1930235804920396 0 0.3308500388182079 -0.19477209315265531 0 0.35149154164174501 -0.20315574626222041 0 0.3308500388182079 -0.19477209315265531 0 0.32373992820587338 -0.20544181336631709 0 0.33253637494555272 -0.18549575049788841 0 0.34011486294275067 -0.1930235804920396 0 0.3308500388182079 -0.19477209315265531 0 0.35149154164174501 -0.20315574626222041 0 0.32373992820587338 -0.20544181336631709 0 0.33068121172404469 -0.22220468750220829 0 0.35149154164174501 -0.20315574626222041 0 0.33068121172404469 -0.22220468750220829 0 0.30379191605182437 -0.20471284840499179 0 0.31109634377457301 -0.22154997806035029 0 0.32373992820587338 -0.20544181336631709 0 0.31109634377457301 -0.22154997806035029 0 0.32373992820587338 -0.20544181336631709 0 0.33068121172404469 -0.22220468750220829 0 0.3308500388182079 -0.19477209315265531 0 0.32373992820587338 -0.20544181336631709 0 0.31670590871501719 -0.18767809548444081 0 0.33253637494555272 -0.18549575049788841 0 0.3308500388182079 -0.19477209315265531 0 0.31670590871501719 -0.18767809548444081 0 0.30379191605182437 -0.20471284840499179 0 0.32373992820587338 -0.20544181336631709 0 0.31670590871501719 -0.18767809548444081 0 0.30987088180634448 -0.24125362874219619 0 0.33627474799740559 -0.24529035195854479 0 0.32740146312166057 -0.2615598439342075 0 0.30987088180634448 -0.24125362874219619 0 0.33068121172404469 -0.22220468750220829 0 0.33627474799740559 -0.24529035195854479 0 0.31109634377457301 -0.22154997806035029 0 0.30987088180634448 -0.24125362874219619 0 0.33068121172404469 -0.22220468750220829 0 0.30987088180634448 -0.24125362874219619 0 0.33068121172404469 -0.22220468750220829 0 0.33068121172404469 -0.22220468750220829 0 0.33627474799740559 -0.24529035195854479 0 0.34620802689974478 -0.2341148902952345 0 0.33627474799740559 -0.24529035195854479 0 0.3592550994650468 -0.24613366971849041 0 0.34620802689974478 -0.2341148902952345 0 0.33068121172404469 -0.22220468750220829 0 0.34620802689974478 -0.2341148902952345 0 0.35862104841248232 -0.2228308520016947 0 0.3592550994650468 -0.24613366971849041 0 0.34620802689974478 -0.2341148902952345 0 0.35862104841248232 -0.2228308520016947 0 0.35862104841248232 -0.2228308520016947 0 0.37496953662933208 -0.22868277770556319 0 0.37925693361890289 -0.2120285714887051 0 0.3592550994650468 -0.24613366971849041 0 0.35862104841248232 -0.2228308520016947 0 0.37496953662933208 -0.22868277770556319 0 0.3592550994650468 -0.24613366971849041 0 0.37496953662933208 -0.22868277770556319 0 0.37997975350283419 -0.24239130628825581 0 0.3592550994650468 -0.24613366971849041 0 0.37997975350283419 -0.24239130628825581 0 0.37962897743813367 -0.25651992395937562 0 0.37997975350283419 -0.24239130628825581 0 0.39078422201957003 -0.24969070593678949 0 0.39374115574330237 -0.23275594279604889 0 0.37496953662933208 -0.22868277770556319 0 0.37997975350283419 -0.24239130628825581 0 0.39374115574330237 -0.23275594279604889 0 0.37997975350283419 -0.24239130628825581 0 0.39078422201957003 -0.24969070593678949 0 0.37962897743813367 -0.25651992395937562 0 0.39078422201957003 -0.24969070593678949 0 0.40271577749504128 -0.24808950568319249 0 0.39374115574330237 -0.23275594279604889 0 0.40271577749504128 -0.24808950568319249 0 0.39374115574330237 -0.23275594279604889 0 0.41071323046394659 -0.2405815597806012 0 0.39374115574330237 -0.23275594279604889 0 0.40098237452119001 -0.21274615241137729 0 0.41052741769560203 -0.22783696307390669 0 0.39374115574330237 -0.23275594279604889 0 0.41071323046394659 -0.2405815597806012 0 0.41052741769560203 -0.22783696307390669 0 0.39374115574330237 -0.23275594279604889 0 0.37925693361890289 -0.2120285714887051 0 0.40098237452119001 -0.21274615241137729 0 0.37496953662933208 -0.22868277770556319 0 0.39374115574330237 -0.23275594279604889 0 0.37925693361890289 -0.2120285714887051 0 0.36943541324010287 -0.20186706000128449 0 0.37925693361890289 -0.2120285714887051 0 0.38044042972011022 -0.19453179374419641 0 0.37925693361890289 -0.2120285714887051 0 0.38044042972011022 -0.19453179374419641 0 0.39584695818252569 -0.1933624959239181 0 0.38044042972011022 -0.19453179374419641 0 0.39584695818252569 -0.1933624959239181 0 0.3883302688968957 -0.18261969374673129 0 0.39584695818252569 -0.1933624959239181 0 0.40098237452119001 -0.21274615241137729 0 0.4098684358706004 -0.20142281071300391 0 0.39584695818252569 -0.1933624959239181 0 0.4098684358706004 -0.20142281071300391 0 0.41232050953237392 -0.17982343258281169 0 0.37925693361890289 -0.2120285714887051 0 0.39584695818252569 -0.1933624959239181 0 0.40098237452119001 -0.21274615241137729 0 0.41622029565463942 -0.21609362125780859 0 0.4098684358706004 -0.20142281071300391 0 0.4264315356173396 -0.20432849808395781 0 0.40098237452119001 -0.21274615241137729 0 0.41622029565463942 -0.21609362125780859 0 0.4098684358706004 -0.20142281071300391 0 0.4098684358706004 -0.20142281071300391 0 0.4264315356173396 -0.20432849808395781 0 0.41232050953237392 -0.17982343258281169 0 0.4264315356173396 -0.20432849808395781 0 0.41232050953237392 -0.17982343258281169 0 0.4264315356173396 -0.20432849808395781 0 0.43189275347364769 -0.18601108132065861 0 0.4422427041991972 -0.19293897445371649 0 0.4264315356173396 -0.20432849808395781 0 0.41232050953237392 -0.17982343258281169 0 0.43189275347364769 -0.18601108132065861 0 0.4264315356173396 -0.20432849808395781 0 0.44054256170230521 -0.22883356358510401 0 0.4264315356173396 -0.20432849808395781 0 0.42740075470870198 -0.2217522577010006 0 0.44054256170230521 -0.22883356358510401 0 0.41622029565463942 -0.21609362125780859 0 0.4264315356173396 -0.20432849808395781 0 0.42740075470870198 -0.2217522577010006 0 0.41622029565463942 -0.21609362125780859 0 0.42740075470870198 -0.2217522577010006 0 0.42211125551440248 -0.22847504556360529 0 0.42740075470870198 -0.2217522577010006 0 0.42211125551440248 -0.22847504556360529 0 0.43135414754850671 -0.23039238084196881 0 0.42211125551440248 -0.22847504556360529 0 0.42953670257014748 -0.23642300718324211 0 0.42008770906388448 -0.23759219001855961 0 0.42211125551440248 -0.22847504556360529 0 0.43135414754850671 -0.23039238084196881 0 0.42953670257014748 -0.23642300718324211 0 0.43135414754850671 -0.23039238084196881 0 0.43570292594701721 -0.2354153486954452 0 0.44054256170230521 -0.22883356358510401 0 0.42740075470870198 -0.2217522577010006 0 0.43135414754850671 -0.23039238084196881 0 0.44054256170230521 -0.22883356358510401 0 0.43135414754850671 -0.23039238084196881 0 0.43570292594701721 -0.2354153486954452 0 0.42953670257014748 -0.23642300718324211 0 0.43570292594701721 -0.2354153486954452 0 0.43468079386219632 -0.24191883787933049 0 0.44107348969050558 -0.240693309601615 0 0.43468079386219632 -0.24191883787933049 0 0.4271596561998503 -0.244205651647634 0 0.42953670257014748 -0.23642300718324211 0 0.43570292594701721 -0.2354153486954452 0 0.43468079386219632 -0.24191883787933049 0 0.42953670257014748 -0.23642300718324211 0 0.43292967301130941 -0.2488540036824014 0 0.43917511256413022 -0.2466480151322302 0 0.43871762778532231 -0.25212208882244802 0 0.43468079386219632 -0.24191883787933049 0 0.43292967301130941 -0.2488540036824014 0 0.43917511256413022 -0.2466480151322302 0 0.43468079386219632 -0.24191883787933049 0 0.43292967301130941 -0.2488540036824014 0 0.4271596561998503 -0.244205651647634 0 0.4271596561998503 -0.244205651647634 0 0.4190014546393992 -0.24696823138092139 0 0.42541254610488072 -0.25270056741268049 0 0.43292967301130941 -0.2488540036824014 0 0.4271596561998503 -0.244205651647634 0 0.42541254610488072 -0.25270056741268049 0 0.4271596561998503 -0.244205651647634 0 0.42008770906388448 -0.23759219001855961 0 0.4190014546393992 -0.24696823138092139 0 0.4271596561998503 -0.244205651647634 0 0.42953670257014748 -0.23642300718324211 0 0.42008770906388448 -0.23759219001855961 0 0.42008770906388448 -0.23759219001855961 0 0.4190014546393992 -0.24696823138092139 0 0.41071323046394659 -0.2405815597806012 0 0.4190014546393992 -0.24696823138092139 0 0.41071323046394659 -0.2405815597806012 0 0.41170531542548788 -0.25126417515390992 0 0.40271577749504128 -0.24808950568319249 0 0.41071323046394659 -0.2405815597806012 0 0.41170531542548788 -0.25126417515390992 0 0.42008770906388448 -0.23759219001855961 0 0.41071323046394659 -0.2405815597806012 0 0.41052741769560203 -0.22783696307390669 0 0.40098237452119001 -0.21274615241137729 0 0.41622029565463942 -0.21609362125780859 0 0.41052741769560203 -0.22783696307390669 0 0.41622029565463942 -0.21609362125780859 0 0.42211125551440248 -0.22847504556360529 0 0.41052741769560203 -0.22783696307390669 0 0.42211125551440248 -0.22847504556360529 0 0.42008770906388448 -0.23759219001855961 0 0.41052741769560203 -0.22783696307390669 0 0.38943037724261159 -0.1347904899183642 0 0.39869330261889507 -0.14602014112377221 0 0.41208161927757919 -0.13087523561031761 0 0.40724277249555002 -0.1192463337858536 0 0.38943037724261159 -0.1347904899183642 0 0.41208161927757919 -0.13087523561031761 0 0.38943037724261159 -0.1347904899183642 0 0.41208161927757919 -0.13087523561031761 0 0.37980885755413418 -0.11928611433555709 0 0.37093785636814908 -0.13798691163813531 0 0.38943037724261159 -0.1347904899183642 0 0.37093785636814908 -0.13798691163813531 0 0.38943037724261159 -0.1347904899183642 0 0.37378191529930621 -0.14944718128022591 0 0.38943037724261159 -0.1347904899183642 0 0.38491978370229318 -0.15336819376567751 0 0.38943037724261159 -0.1347904899183642 0 0.38491978370229318 -0.15336819376567751 0 0.37378191529930621 -0.14944718128022591 0 0.37093785636814908 -0.13798691163813531 0 0.38943037724261159 -0.1347904899183642 0 0.37378191529930621 -0.14944718128022591 0 0.37308854109455708 -0.16093157526259191 0 0.38491978370229318 -0.15336819376567751 0 0.39869330261889507 -0.14602014112377221 0 0.39311220147714548 -0.16505786378224471 0 0.41392253139484558 -0.14600892254225711 0 0.38491978370229318 -0.15336819376567751 0 0.39869330261889507 -0.14602014112377221 0 0.39311220147714548 -0.16505786378224471 0 0.38943037724261159 -0.1347904899183642 0 0.38491978370229318 -0.15336819376567751 0 0.39869330261889507 -0.14602014112377221 0 0.39311220147714548 -0.16505786378224471 0 0.41392253139484558 -0.14600892254225711 0 0.39311220147714548 -0.16505786378224471 0 0.41068030945659773 -0.16570921719709561 0 0.41392253139484558 -0.14600892254225711 0 0.39311220147714548 -0.16505786378224471 0 0.39994988354525202 -0.1760395102610646 0 0.41068030945659773 -0.16570921719709561 0 0.38491978370229318 -0.15336819376567751 0 0.39311220147714548 -0.16505786378224471 0 0.38040919016197472 -0.17194589761299089 0 0.37308854109455708 -0.16093157526259191 0 0.38491978370229318 -0.15336819376567751 0 0.38040919016197472 -0.17194589761299089 0 0.38491978370229318 -0.15336819376567751 0 0.38040919016197472 -0.17194589761299089 0 0.37230187155944527 -0.18410680502223259 0 0.39311220147714548 -0.16505786378224471 0 0.3883302688968957 -0.18261969374673129 0 0.37230187155944527 -0.18410680502223259 0 0.39311220147714548 -0.16505786378224471 0 0.38040919016197472 -0.17194589761299089 0 0.37230187155944527 -0.18410680502223259 0 0.38044042972011022 -0.19453179374419641 0 0.3883302688968957 -0.18261969374673129 0 0.37230187155944527 -0.18410680502223259 0 0.39311220147714548 -0.16505786378224471 0 0.39584695818252569 -0.1933624959239181 0 0.39994988354525202 -0.1760395102610646 0 0.41232050953237392 -0.17982343258281169 0 0.39584695818252569 -0.1933624959239181 0 0.3883302688968957 -0.18261969374673129 0 0.39994988354525202 -0.1760395102610646 0 0.39311220147714548 -0.16505786378224471 0 0.3883302688968957 -0.18261969374673129 0 0.39994988354525202 -0.1760395102610646 0 0.39994988354525202 -0.1760395102610646 0 0.41232050953237392 -0.17982343258281169 0 0.41068030945659773 -0.16570921719709561 0 0.41232050953237392 -0.17982343258281169 0 0.42257653670861861 -0.1716129151356913 0 0.41068030945659773 -0.16570921719709561 0 0.43189275347364769 -0.18601108132065861 0 0.42257653670861861 -0.1716129151356913 0 0.43412364138782639 -0.16920851808495629 0 0.43189275347364769 -0.18601108132065861 0 0.43412364138782639 -0.16920851808495629 0 0.44001273516831668 -0.1783764172762527 0 0.41232050953237392 -0.17982343258281169 0 0.43189275347364769 -0.18601108132065861 0 0.42257653670861861 -0.1716129151356913 0 0.43412364138782639 -0.16920851808495629 0 0.42386546969264721 -0.157312326492934 0 0.43988674428557012 -0.15629540566381109 0 0.42257653670861861 -0.1716129151356913 0 0.43412364138782639 -0.16920851808495629 0 0.42386546969264721 -0.157312326492934 0 0.42386546969264721 -0.157312326492934 0 0.41068030945659773 -0.16570921719709561 0 0.41392253139484558 -0.14600892254225711 0 0.42257653670861861 -0.1716129151356913 0 0.42386546969264721 -0.157312326492934 0 0.41068030945659773 -0.16570921719709561 0 0.39869330261889507 -0.14602014112377221 0 0.41392253139484558 -0.14600892254225711 0 0.41208161927757919 -0.13087523561031761 0 0.42386546969264721 -0.157312326492934 0 0.41392253139484558 -0.14600892254225711 0 0.43230421280140441 -0.1433416226119455 0 0.42386546969264721 -0.157312326492934 0 0.43230421280140441 -0.1433416226119455 0 0.43988674428557012 -0.15629540566381109 0 0.42661387223904329 -0.12098454377727109 0 0.43473286131254663 -0.1269599813022704 0 0.41208161927757919 -0.13087523561031761 0 0.41392253139484558 -0.14600892254225711 0 0.43230421280140441 -0.1433416226119455 0 0.43473286131254663 -0.1269599813022704 0 0.43230421280140441 -0.1433416226119455 0 0.43473286131254663 -0.1269599813022704 0 0.43648454183824659 -0.13175811878196239 0 0.41392253139484558 -0.14600892254225711 0 0.43473286131254663 -0.1269599813022704 0 0.43473286131254663 -0.1269599813022704 0 0.41208161927757919 -0.13087523561031761 0 0.43473286131254663 -0.1269599813022704 0 0.43652399803370612 -0.1266503843383173 0 0.43473286131254663 -0.1269599813022704 0 0.43652399803370612 -0.1266503843383173 0 0.43686479974981568 -0.1288436488615915 0 0.43473286131254663 -0.1269599813022704 0 0.43686479974981568 -0.1288436488615915 0 0.43648454183824659 -0.13175811878196239 0 0.41392253139484558 -0.14600892254225711 0 0.43473286131254663 -0.1269599813022704 0 0.41208161927757919 -0.13087523561031761 0 0.46233294642030121 -0.13029577410444981 0 0.4507048422038758 -0.1254569291466279 0 0.44969735458306581 -0.1318629992909984 0 0.46233294642030121 -0.13029577410444981 0 0.44969735458306581 -0.1318629992909984 0 0.44471813751157008 -0.14226443976851619 0 0.4507048422038758 -0.1254569291466279 0 0.44969735458306581 -0.1318629992909984 0 0.44103349219651622 -0.1294348541443999 0 0.43686479974981568 -0.1288436488615915 0 0.43648454183824659 -0.13175811878196239 0 0.44103349219651622 -0.1294348541443999 0 0.43652399803370612 -0.1266503843383173 0 0.43686479974981568 -0.1288436488615915 0 0.44103349219651622 -0.1294348541443999 0 0.44969735458306581 -0.1318629992909984 0 0.44103349219651622 -0.1294348541443999 0 0.44471813751157008 -0.14226443976851619 0 0.43648454183824659 -0.13175811878196239 0 0.44103349219651622 -0.1294348541443999 0 0.44471813751157008 -0.14226443976851619 0 0.43230421280140441 -0.1433416226119455 0 0.43648454183824659 -0.13175811878196239 0 0.44471813751157008 -0.14226443976851619 0 0.44471813751157008 -0.14226443976851619 0 0.45766723532789633 -0.15879666333412101 0 0.43988674428557012 -0.15629540566381109 0 0.43230421280140441 -0.1433416226119455 0 0.44471813751157008 -0.14226443976851619 0 0.43988674428557012 -0.15629540566381109 0 0.46233294642030121 -0.13029577410444981 0 0.45766723532789633 -0.15879666333412101 0 0.46233294642030121 -0.13029577410444981 0 0.45766723532789633 -0.15879666333412101 0 0.47903454186700689 -0.14491860817462909 0 0.46233294642030121 -0.13029577410444981 0 0.44471813751157008 -0.14226443976851619 0 0.45766723532789633 -0.15879666333412101 0 0.45766723532789633 -0.15879666333412101 0 0.43988674428557012 -0.15629540566381109 0 0.4458378175146181 -0.17411517349359901 0 0.43412364138782639 -0.16920851808495629 0 0.43988674428557012 -0.15629540566381109 0 0.4458378175146181 -0.17411517349359901 0 0.45766723532789633 -0.15879666333412101 0 0.4458378175146181 -0.17411517349359901 0 0.45300152423549178 -0.1872975525637923 0 0.43412364138782639 -0.16920851808495629 0 0.4458378175146181 -0.17411517349359901 0 0.44001273516831668 -0.1783764172762527 0 0.4458378175146181 -0.17411517349359901 0 0.44001273516831668 -0.1783764172762527 0 0.44489139372352893 -0.18154716366216431 0 0.43189275347364769 -0.18601108132065861 0 0.44001273516831668 -0.1783764172762527 0 0.4419738252115778 -0.1858134044909181 0 0.44001273516831668 -0.1783764172762527 0 0.44489139372352893 -0.18154716366216431 0 0.4419738252115778 -0.1858134044909181 0 0.4458378175146181 -0.17411517349359901 0 0.45051520093052061 -0.18628588467377419 0 0.45300152423549178 -0.1872975525637923 0 0.4458378175146181 -0.17411517349359901 0 0.44489139372352893 -0.18154716366216431 0 0.45051520093052061 -0.18628588467377419 0 0.44489139372352893 -0.18154716366216431 0 0.4419738252115778 -0.1858134044909181 0 0.45051520093052061 -0.18628588467377419 0 0.45051520093052061 -0.18628588467377419 0 0.45300152423549178 -0.1872975525637923 0 0.45766723532789633 -0.15879666333412101 0 0.45300152423549178 -0.1872975525637923 0 0.47602254605796679 -0.17263393053228049 0 0.45300152423549178 -0.1872975525637923 0 0.47602254605796679 -0.17263393053228049 0 0.47650076211774711 -0.19685923119094451 0 0.45766723532789633 -0.15879666333412101 0 0.45300152423549178 -0.1872975525637923 0 0.47602254605796679 -0.17263393053228049 0 0.5 -0.18210721193063359 0 0.47650076211774711 -0.19685923119094451 0 0.47602254605796679 -0.17263393053228049 0 0.5 -0.18210721193063359 0 0.5 -0.15779351404316869 0 0.47602254605796679 -0.17263393053228049 0 0.5 -0.15779351404316869 0 0.47903454186700689 -0.14491860817462909 0 0.45766723532789633 -0.15879666333412101 0 0.47602254605796679 -0.17263393053228049 0 0.47903454186700689 -0.14491860817462909 0 0.5 -0.15779351404316869 0 0.47903454186700689 -0.14491860817462909 0 0.5 -0.13347981615570359 0 0.47818452339587708 -0.1165119508780514 0 0.47903454186700689 -0.14491860817462909 0 0.5 -0.13347981615570359 0 0.47818452339587708 -0.1165119508780514 0 0.46233294642030121 -0.13029577410444981 0 0.47903454186700689 -0.14491860817462909 0 0.46031275976808328 -0.23316788994673901 0 0.45494703228505612 -0.22365309056703511 0 0.45215825402727128 -0.23076677405108431 0 0.46031275976808328 -0.23316788994673901 0 0.45530172715096351 -0.23784707953664069 0 0.45215825402727128 -0.23076677405108431 0 0.46031275976808328 -0.23316788994673901 0 0.45494703228505612 -0.22365309056703511 0 0.46412837801973811 -0.21929252942849389 0 0.46031275976808328 -0.23316788994673901 0 0.46412837801973811 -0.21929252942849389 0 0.47030631581894022 -0.23354799250188951 0 0.46031275976808328 -0.23316788994673901 0 0.46848515047489081 -0.24338241864882551 0 0.46066141885548939 -0.24148158248895141 0 0.46031275976808328 -0.23316788994673901 0 0.46848515047489081 -0.24338241864882551 0 0.47030631581894022 -0.23354799250188951 0 0.46848515047489081 -0.24338241864882551 0 0.47379426967759908 -0.2551161382871 0 0.45921282319897938 -0.25088534477896152 0 0.46848515047489081 -0.24338241864882551 0 0.46066141885548939 -0.24148158248895141 0 0.45921282319897938 -0.25088534477896152 0 0.46066141885548939 -0.24148158248895141 0 0.45530172715096351 -0.23784707953664069 0 0.45921282319897938 -0.25088534477896152 0 0.46031275976808328 -0.23316788994673901 0 0.46066141885548939 -0.24148158248895141 0 0.45530172715096351 -0.23784707953664069 0 0.44552755473851618 -0.24512414212957201 0 0.44054256170230521 -0.22883356358510401 0 0.45465358778727077 -0.25333862908624999 0 0.44416337990499422 -0.23293380641746719 0 0.45921282319897938 -0.25088534477896152 0 0.45465358778727077 -0.25333862908624999 0 0.45530172715096351 -0.23784707953664069 0 0.44416337990499422 -0.23293380641746719 0 0.45921282319897938 -0.25088534477896152 0 0.44054256170230521 -0.22883356358510401 0 0.44416337990499422 -0.23293380641746719 0 0.45465358778727077 -0.25333862908624999 0 0.44054256170230521 -0.22883356358510401 0 0.45465358778727077 -0.25333862908624999 0 0.44416337990499422 -0.23293380641746719 0 0.45921282319897938 -0.25088534477896152 0 0.44552755473851618 -0.24512414212957201 0 0.44107348969050558 -0.240693309601615 0 0.44054256170230521 -0.22883356358510401 0 0.44552755473851618 -0.24512414212957201 0 0.44412948591815982 -0.25166394159908168 0 0.44816248816364901 -0.25238097519102243 0 0.44247641072782801 -0.24603235211562469 0 0.43917511256413022 -0.2466480151322302 0 0.44412948591815982 -0.25166394159908168 0 0.44552755473851618 -0.24512414212957201 0 0.44247641072782801 -0.24603235211562469 0 0.44412948591815982 -0.25166394159908168 0 0.44552755473851618 -0.24512414212957201 0 0.44247641072782801 -0.24603235211562469 0 0.44107348969050558 -0.240693309601615 0 0.43468079386219632 -0.24191883787933049 0 0.43917511256413022 -0.2466480151322302 0 0.44107348969050558 -0.240693309601615 0 0.44247641072782801 -0.24603235211562469 0 0.43917511256413022 -0.2466480151322302 0 0.44107348969050558 -0.240693309601615 0 0.43570292594701721 -0.2354153486954452 0 0.44107348969050558 -0.240693309601615 0 0.44054256170230521 -0.22883356358510401 0 0.4264315356173396 -0.20432849808395781 0 0.44054256170230521 -0.22883356358510401 0 0.44673315619821857 -0.2255884067429007 0 0.44054256170230521 -0.22883356358510401 0 0.44416337990499422 -0.23293380641746719 0 0.44673315619821857 -0.2255884067429007 0 0.44416337990499422 -0.23293380641746719 0 0.45215825402727128 -0.23076677405108431 0 0.44673315619821857 -0.2255884067429007 0 0.45530172715096351 -0.23784707953664069 0 0.44416337990499422 -0.23293380641746719 0 0.45215825402727128 -0.23076677405108431 0 0.45494703228505612 -0.22365309056703511 0 0.45215825402727128 -0.23076677405108431 0 0.44673315619821857 -0.2255884067429007 0 0.4264315356173396 -0.20432849808395781 0 0.44673315619821857 -0.2255884067429007 0 0.44986734021685498 -0.20644297965334649 0 0.44673315619821857 -0.2255884067429007 0 0.44986734021685498 -0.20644297965334649 0 0.45494703228505612 -0.22365309056703511 0 0.44673315619821857 -0.2255884067429007 0 0.44986734021685498 -0.20644297965334649 0 0.45300152423549178 -0.1872975525637923 0 0.44986734021685498 -0.20644297965334649 0 0.4422427041991972 -0.19293897445371649 0 0.45300152423549178 -0.1872975525637923 0 0.44986734021685498 -0.20644297965334649 0 0.4264315356173396 -0.20432849808395781 0 0.44986734021685498 -0.20644297965334649 0 0.4422427041991972 -0.19293897445371649 0 0.43189275347364769 -0.18601108132065861 0 0.4419738252115778 -0.1858134044909181 0 0.4422427041991972 -0.19293897445371649 0 0.4419738252115778 -0.1858134044909181 0 0.45051520093052061 -0.18628588467377419 0 0.4422427041991972 -0.19293897445371649 0 0.45051520093052061 -0.18628588467377419 0 0.45300152423549178 -0.1872975525637923 0 0.4422427041991972 -0.19293897445371649 0 0.45300152423549178 -0.1872975525637923 0 0.47650076211774711 -0.19685923119094451 0 0.45300152423549178 -0.1872975525637923 0 0.44986734021685498 -0.20644297965334649 0 0.46374770476768601 -0.204378797979305 0 0.45300152423549178 -0.1872975525637923 0 0.46374770476768601 -0.204378797979305 0 0.47650076211774711 -0.19685923119094451 0 0.45494703228505612 -0.22365309056703511 0 0.46412837801973811 -0.21929252942849389 0 0.44986734021685498 -0.20644297965334649 0 0.46412837801973811 -0.21929252942849389 0 0.44986734021685498 -0.20644297965334649 0 0.46374770476768601 -0.204378797979305 0 0.46412837801973811 -0.21929252942849389 0 0.46374770476768601 -0.204378797979305 0 0.47707366821483449 -0.2120031562722216 0 0.46374770476768601 -0.204378797979305 0 0.47707366821483449 -0.2120031562722216 0 0.47650076211774711 -0.19685923119094451 0 0.47650076211774711 -0.19685923119094451 0 0.50000000000000155 -0.2064209098180986 0 0.5 -0.18210721193063359 0 0.47650076211774711 -0.19685923119094451 0 0.50000000000000155 -0.2064209098180986 0 0.50000000000000155 -0.2064209098180986 0 0.48970053883092229 -0.21844058073303951 0 0.5 -0.23051517486053599 0 0.47707366821483449 -0.2120031562722216 0 0.47650076211774711 -0.19685923119094451 0 0.50000000000000155 -0.2064209098180986 0 0.47707366821483449 -0.2120031562722216 0 0.50000000000000155 -0.2064209098180986 0 0.48970053883092229 -0.21844058073303951 0 0.48970053883092229 -0.21844058073303951 0 0.5 -0.23051517486053599 0 0.47892356359843868 -0.22663529354614381 0 0.5 -0.23051517486053599 0 0.47892356359843868 -0.22663529354614381 0 0.48037632353124621 -0.24431513348718631 0 0.47707366821483449 -0.2120031562722216 0 0.48970053883092229 -0.21844058073303951 0 0.47892356359843868 -0.22663529354614381 0 0.46412837801973811 -0.21929252942849389 0 0.47707366821483449 -0.2120031562722216 0 0.47892356359843868 -0.22663529354614381 0 0.46412837801973811 -0.21929252942849389 0 0.47892356359843868 -0.22663529354614381 0 0.47030631581894022 -0.23354799250188951 0 0.47892356359843868 -0.22663529354614381 0 0.47030631581894022 -0.23354799250188951 0 0.48037632353124621 -0.24431513348718631 0 0.46848515047489081 -0.24338241864882551 0 0.48037632353124621 -0.24431513348718631 0 0.47379426967759908 -0.2551161382871 0 0.46848515047489081 -0.24338241864882551 0 0.47030631581894022 -0.23354799250188951 0 0.48037632353124621 -0.24431513348718631 0 0.5 -0.23051517486053599 0 0.48037632353124621 -0.24431513348718631 0 0.5 -0.25460943990297341 0 0.48037632353124621 -0.24431513348718631 0 0.5 -0.25460943990297341 0 0.48801367558502928 -0.26571606475136661 0 0.50000000000000022 -0.27870370494541058 0 0.48801367558502928 -0.26571606475136661 0 0.48931170978694949 -0.28678842150195 0 0.5 -0.25460943990297341 0 0.50000000000000022 -0.27870370494541058 0 0.48801367558502928 -0.26571606475136661 0 0.47426226649296438 -0.26883688314045567 0 0.47311276962135179 -0.28508457281551508 0 0.48931170978694949 -0.28678842150195 0 0.48801367558502928 -0.26571606475136661 0 0.47426226649296438 -0.26883688314045567 0 0.48931170978694949 -0.28678842150195 0 0.47426226649296438 -0.26883688314045567 0 0.48931170978694949 -0.28678842150195 0 0.47426226649296438 -0.26883688314045567 0 0.47379426967759908 -0.2551161382871 0 0.45921282319897938 -0.25088534477896152 0 0.48037632353124621 -0.24431513348718631 0 0.48801367558502928 -0.26571606475136661 0 0.47379426967759908 -0.2551161382871 0 0.48801367558502928 -0.26571606475136661 0 0.47426226649296438 -0.26883688314045567 0 0.47379426967759908 -0.2551161382871 0 0.47426226649296438 -0.26883688314045567 0 0.45921282319897938 -0.25088534477896152 0 0.45867357026917482 -0.26750260605831883 0 0.45921282319897938 -0.25088534477896152 0 0.45465358778727077 -0.25333862908624999 0 0.45867357026917482 -0.26750260605831883 0 0.47426226649296438 -0.26883688314045567 0 0.45921282319897938 -0.25088534477896152 0 0.45465358778727077 -0.25333862908624999 0 0.45867357026917482 -0.26750260605831883 0 0.44833932421064931 -0.25939718794918609 0 0.47426226649296438 -0.26883688314045567 0 0.45867357026917482 -0.26750260605831883 0 0.47311276962135179 -0.28508457281551508 0 0.45867357026917482 -0.26750260605831883 0 0.45341190072698129 -0.28456089864454431 0 0.47311276962135179 -0.28508457281551508 0 0.45867357026917482 -0.26750260605831883 0 0.44699314029513348 -0.27052543302498011 0 0.44833932421064931 -0.25939718794918609 0 0.45867357026917482 -0.26750260605831883 0 0.44699314029513348 -0.27052543302498011 0 0.45341190072698129 -0.28456089864454431 0 0.44699314029513348 -0.27052543302498011 0 0.43919222284155002 -0.27830080619971909 0 0.45341190072698129 -0.28456089864454431 0 0.44699314029513348 -0.27052543302498011 0 0.4385944452063526 -0.26988256164274432 0 0.44171549930134968 -0.26335377754900008 0 0.44699314029513348 -0.27052543302498011 0 0.43919222284155002 -0.27830080619971909 0 0.4385944452063526 -0.26988256164274432 0 0.4385944452063526 -0.26988256164274432 0 0.44171549930134968 -0.26335377754900008 0 0.43505770238402619 -0.26461992241763038 0 0.44171549930134968 -0.26335377754900008 0 0.43505770238402619 -0.26461992241763038 0 0.43648606404966428 -0.25753784968455939 0 0.44171549930134968 -0.26335377754900008 0 0.4419947323052219 -0.25760620957214742 0 0.44833932421064931 -0.25939718794918609 0 0.44171549930134968 -0.26335377754900008 0 0.4419947323052219 -0.25760620957214742 0 0.43648606404966428 -0.25753784968455939 0 0.43871762778532231 -0.25212208882244802 0 0.4419947323052219 -0.25760620957214742 0 0.43648606404966428 -0.25753784968455939 0 0.43917511256413022 -0.2466480151322302 0 0.43871762778532231 -0.25212208882244802 0 0.44412948591815982 -0.25166394159908168 0 0.43871762778532231 -0.25212208882244802 0 0.44412948591815982 -0.25166394159908168 0 0.4419947323052219 -0.25760620957214742 0 0.44412948591815982 -0.25166394159908168 0 0.4419947323052219 -0.25760620957214742 0 0.44833932421064931 -0.25939718794918609 0 0.44552755473851618 -0.24512414212957201 0 0.45465358778727077 -0.25333862908624999 0 0.44816248816364901 -0.25238097519102243 0 0.44412948591815982 -0.25166394159908168 0 0.44816248816364901 -0.25238097519102243 0 0.44833932421064931 -0.25939718794918609 0 0.45465358778727077 -0.25333862908624999 0 0.44816248816364901 -0.25238097519102243 0 0.44833932421064931 -0.25939718794918609 0 0.44699314029513348 -0.27052543302498011 0 0.44171549930134968 -0.26335377754900008 0 0.44833932421064931 -0.25939718794918609 0 0.44647667656812801 -0.29965112561783208 0 0.45137615954030103 -0.31548320476916308 0 0.43444005925229529 -0.31032905382020182 0 0.44647667656812801 -0.29965112561783208 0 0.43234265414258233 -0.29853995875229639 0 0.43444005925229529 -0.31032905382020182 0 0.44647667656812801 -0.29965112561783208 0 0.43824437449043008 -0.28966145028223478 0 0.43234265414258233 -0.29853995875229639 0 0.43919222284155002 -0.27830080619971909 0 0.43824437449043008 -0.28966145028223478 0 0.45341190072698129 -0.28456089864454431 0 0.44647667656812801 -0.29965112561783208 0 0.43824437449043008 -0.28966145028223478 0 0.45341190072698129 -0.28456089864454431 0 0.45341190072698129 -0.28456089864454431 0 0.47034393466362562 -0.30113581313555698 0 0.47311276962135179 -0.28508457281551508 0 0.44647667656812801 -0.29965112561783208 0 0.45341190072698129 -0.28456089864454431 0 0.47034393466362562 -0.30113581313555698 0 0.44647667656812801 -0.29965112561783208 0 0.47034393466362562 -0.30113581313555698 0 0.45137615954030103 -0.31548320476916308 0 0.47034393466362562 -0.30113581313555698 0 0.45137615954030103 -0.31548320476916308 0 0.47034393466362562 -0.30113581313555698 0 0.48609801829406513 -0.30033747069297151 0 0.48569838996659448 -0.31355153071673758 0 0.47034393466362562 -0.30113581313555698 0 0.48931170978694949 -0.28678842150195 0 0.47034393466362562 -0.30113581313555698 0 0.48931170978694949 -0.28678842150195 0 0.48609801829406513 -0.30033747069297151 0 0.47034393466362562 -0.30113581313555698 0 0.47311276962135179 -0.28508457281551508 0 0.48931170978694949 -0.28678842150195 0 0.50000000000000022 -0.27870370494541058 0 0.48931170978694949 -0.28678842150195 0 0.50000000000000078 -0.29953781349142472 0 0.48931170978694949 -0.28678842150195 0 0.48609801829406513 -0.30033747069297151 0 0.50000000000000078 -0.29953781349142472 0 0.48931170978694949 -0.28678842150195 0 0.50000000000000078 -0.29953781349142472 0 0.50000000000000022 -0.27870370494541058 0 0.48931170978694949 -0.28678842150195 0 0.48609801829406513 -0.30033747069297151 0 0.50000000000000078 -0.29953781349142472 0 0.48569838996659448 -0.31355153071673758 0 0.50000000000000078 -0.29953781349142472 0 0.48569838996659448 -0.31355153071673758 0 0.5 -0.32898483254094879 0 0.48569838996659448 -0.31355153071673758 0 0.5 -0.32898483254094879 0 0.4688689480981888 -0.32767699473222389 0 0.5 -0.32898483254094879 0 0.4688689480981888 -0.32767699473222389 0 0.47786930722932619 -0.34789692042963721 0 0.47034393466362562 -0.30113581313555698 0 0.48569838996659448 -0.31355153071673758 0 0.4688689480981888 -0.32767699473222389 0 0.5 -0.35843185159047292 0 0.47350757658922271 -0.36952329647287657 0 0.48620898030354948 -0.37918006028240092 0 0.5 -0.32898483254094879 0 0.5 -0.35843185159047292 0 0.47786930722932619 -0.34789692042963721 0 0.47786930722932619 -0.34789692042963721 0 0.47350757658922271 -0.36952329647287657 0 0.4655023448943818 -0.35719392053603988 0 0.5 -0.35843185159047292 0 0.47786930722932619 -0.34789692042963721 0 0.47350757658922271 -0.36952329647287657 0 0.45861777817450511 -0.36868509019449441 0 0.46271268513135372 -0.37747780338012438 0 0.45189505467726382 -0.37680202485208381 0 0.45861777817450511 -0.36868509019449441 0 0.44976491938063418 -0.36654981963533051 0 0.45189505467726382 -0.37680202485208381 0 0.47350757658922271 -0.36952329647287657 0 0.45861777817450511 -0.36868509019449441 0 0.46271268513135372 -0.37747780338012438 0 0.47350757658922271 -0.36952329647287657 0 0.45861777817450511 -0.36868509019449441 0 0.4655023448943818 -0.35719392053603988 0 0.45861777817450511 -0.36868509019449441 0 0.45601593140111862 -0.35990106862703092 0 0.44976491938063418 -0.36654981963533051 0 0.45861777817450511 -0.36868509019449441 0 0.45601593140111862 -0.35990106862703092 0 0.4655023448943818 -0.35719392053603988 0 0.47786930722932619 -0.34789692042963721 0 0.4655023448943818 -0.35719392053603988 0 0.45483150576365328 -0.34688844598146529 0 0.45601593140111862 -0.35990106862703092 0 0.4655023448943818 -0.35719392053603988 0 0.45483150576365328 -0.34688844598146529 0 0.45483150576365328 -0.34688844598146529 0 0.44020278747438729 -0.34510251360014332 0 0.44674619010751909 -0.35809924702175239 0 0.44020278747438729 -0.34510251360014332 0 0.43833245073232718 -0.35667994920926999 0 0.44674619010751909 -0.35809924702175239 0 0.45601593140111862 -0.35990106862703092 0 0.45483150576365328 -0.34688844598146529 0 0.44674619010751909 -0.35809924702175239 0 0.44674619010751909 -0.35809924702175239 0 0.44976491938063418 -0.36654981963533051 0 0.4432564460600979 -0.36443112509465042 0 0.45601593140111862 -0.35990106862703092 0 0.44674619010751909 -0.35809924702175239 0 0.44976491938063418 -0.36654981963533051 0 0.43833245073232718 -0.35667994920926999 0 0.44674619010751909 -0.35809924702175239 0 0.4432564460600979 -0.36443112509465042 0 0.43833245073232718 -0.35667994920926999 0 0.4432564460600979 -0.36443112509465042 0 0.43792231759094602 -0.36891862507496959 0 0.44976491938063418 -0.36654981963533051 0 0.4432564460600979 -0.36443112509465042 0 0.44173316381622191 -0.37123334486501253 0 0.4432564460600979 -0.36443112509465042 0 0.43792231759094602 -0.36891862507496959 0 0.44173316381622191 -0.37123334486501253 0 0.44976491938063418 -0.36654981963533051 0 0.44173316381622191 -0.37123334486501253 0 0.45189505467726382 -0.37680202485208381 0 0.4688689480981888 -0.32767699473222389 0 0.44744827938524201 -0.33285238680196422 0 0.45137615954030103 -0.31548320476916308 0 0.47034393466362562 -0.30113581313555698 0 0.4688689480981888 -0.32767699473222389 0 0.45137615954030103 -0.31548320476916308 0 0.4688689480981888 -0.32767699473222389 0 0.45483150576365328 -0.34688844598146529 0 0.44744827938524201 -0.33285238680196422 0 0.4688689480981888 -0.32767699473222389 0 0.47786930722932619 -0.34789692042963721 0 0.45483150576365328 -0.34688844598146529 0 0.45483150576365328 -0.34688844598146529 0 0.44020278747438729 -0.34510251360014332 0 0.44744827938524201 -0.33285238680196422 0 0.44020278747438729 -0.34510251360014332 0 0.44744827938524201 -0.33285238680196422 0 0.43240838441697632 -0.3298305964027694 0 0.45137615954030103 -0.31548320476916308 0 0.43240838441697632 -0.3298305964027694 0 0.43444005925229529 -0.31032905382020182 0 0.44744827938524201 -0.33285238680196422 0 0.45137615954030103 -0.31548320476916308 0 0.43240838441697632 -0.3298305964027694 0 0.45137615954030103 -0.31548320476916308 0 0.43240838441697632 -0.3298305964027694 0 0.42213808355103849 -0.31598854483820238 0 0.43240838441697632 -0.3298305964027694 0 0.43444005925229529 -0.31032905382020182 0 0.42213808355103849 -0.31598854483820238 0 0.43240838441697632 -0.3298305964027694 0 0.42063894984562838 -0.32794228428963068 0 0.43240838441697632 -0.3298305964027694 0 0.42063894984562838 -0.32794228428963068 0 0.42353451242868528 -0.3468482352548341 0 0.44020278747438729 -0.34510251360014332 0 0.43240838441697632 -0.3298305964027694 0 0.42353451242868528 -0.3468482352548341 0 0.4091467072664246 -0.32477784543469868 0 0.42353451242868528 -0.3468482352548341 0 0.4091467072664246 -0.32477784543469868 0 0.42063894984562838 -0.32794228428963068 0 0.42353451242868528 -0.3468482352548341 0 0.41089111725139721 -0.34269856142925859 0 0.4091467072664246 -0.32477784543469868 0 0.42353451242868528 -0.3468482352548341 0 0.41089111725139721 -0.34269856142925859 0 0.4091467072664246 -0.32477784543469868 0 0.40425152475925441 -0.33267251048098129 0 0.4091467072664246 -0.32477784543469868 0 0.41500843607520332 -0.31765864762852652 0 0.40782856937156858 -0.30992265774813338 0 0.42213808355103849 -0.31598854483820238 0 0.41500843607520332 -0.31765864762852652 0 0.41528987034135628 -0.30966190583196729 0 0.4091467072664246 -0.32477784543469868 0 0.41500843607520332 -0.31765864762852652 0 0.42063894984562838 -0.32794228428963068 0 0.42213808355103849 -0.31598854483820238 0 0.41500843607520332 -0.31765864762852652 0 0.42063894984562838 -0.32794228428963068 0 0.43792231759094602 -0.36891862507496959 0 0.42718561209050382 -0.36319872422350041 0 0.42353451242868528 -0.3468482352548341 0 0.43792231759094602 -0.36891862507496959 0 0.44173316381622191 -0.37123334486501253 0 0.43018656974337233 -0.3834847830435818 0 0.43792231759094602 -0.36891862507496959 0 0.42661372489006832 -0.37330916830292271 0 0.42718561209050382 -0.36319872422350041 0 0.42661372489006832 -0.37330916830292271 0 0.42718561209050382 -0.36319872422350041 0 0.42067189345231581 -0.36371886826127509 0 0.43792231759094602 -0.36891862507496959 0 0.42353451242868528 -0.3468482352548341 0 0.42718561209050382 -0.36319872422350041 0 0.42353451242868528 -0.3468482352548341 0 0.42067189345231581 -0.36371886826127509 0 0.43833245073232718 -0.35667994920926999 0 0.43792231759094602 -0.36891862507496959 0 0.42353451242868528 -0.3468482352548341 0 0.44020278747438729 -0.34510251360014332 0 0.43833245073232718 -0.35667994920926999 0 0.42353451242868528 -0.3468482352548341 0 0.42353451242868528 -0.3468482352548341 0 0.41118608239640281 -0.35773278074769221 0 0.42067189345231581 -0.36371886826127509 0 0.41089111725139721 -0.34269856142925859 0 0.42353451242868528 -0.3468482352548341 0 0.41118608239640281 -0.35773278074769221 0 0.41089111725139721 -0.34269856142925859 0 0.41118608239640281 -0.35773278074769221 0 0.40345194384414051 -0.35159281539693271 0 0.42661372489006832 -0.37330916830292271 0 0.42067189345231581 -0.36371886826127509 0 0.40978735765452701 -0.3715350174533486 0 0.41118608239640281 -0.35773278074769221 0 0.42067189345231581 -0.36371886826127509 0 0.40978735765452701 -0.3715350174533486 0 0.39634156242657448 -0.36307978873527152 0 0.40109715774397792 -0.38275058451944882 0 0.38240798480570892 -0.37852010314408679 0 0.40978735765452701 -0.3715350174533486 0 0.39634156242657448 -0.36307978873527152 0 0.40109715774397792 -0.38275058451944882 0 0.41118608239640281 -0.35773278074769221 0 0.40978735765452701 -0.3715350174533486 0 0.39634156242657448 -0.36307978873527152 0 0.39634156242657448 -0.36307978873527152 0 0.40345194384414051 -0.35159281539693271 0 0.39209624447111568 -0.34275609473116092 0 0.41118608239640281 -0.35773278074769221 0 0.39634156242657448 -0.36307978873527152 0 0.40345194384414051 -0.35159281539693271 0 0.40345194384414051 -0.35159281539693271 0 0.40267270758147689 -0.34242999550958342 0 0.39209624447111568 -0.34275609473116092 0 0.41089111725139721 -0.34269856142925859 0 0.40345194384414051 -0.35159281539693271 0 0.40267270758147689 -0.34242999550958342 0 0.39634156242657448 -0.36307978873527152 0 0.37618485313497191 -0.35303141813195599 0 0.39209624447111568 -0.34275609473116092 0 0.39634156242657448 -0.36307978873527152 0 0.37618485313497191 -0.35303141813195599 0 0.38240798480570892 -0.37852010314408679 0 0.37618485313497191 -0.35303141813195599 0 0.38240798480570892 -0.37852010314408679 0 0.40425152475925441 -0.33267251048098129 0 0.39300241843570249 -0.3110378002903586 0 0.4091467072664246 -0.32477784543469868 0 0.39300241843570249 -0.3110378002903586 0 0.39475890210416392 -0.30270745561456308 0 0.4091467072664246 -0.32477784543469868 0 0.39475890210416392 -0.30270745561456308 0 0.4091467072664246 -0.32477784543469868 0 0.40425152475925441 -0.33267251048098129 0 0.39300241843570249 -0.3110378002903586 0 0.40425152475925441 -0.33267251048098129 0 0.38822804294015112 -0.3261114208869455 0 0.39300241843570249 -0.3110378002903586 0 0.40425152475925441 -0.33267251048098129 0 0.39209624447111568 -0.34275609473116092 0 0.38822804294015112 -0.3261114208869455 0 0.40425152475925441 -0.33267251048098129 0 0.40267270758147689 -0.34242999550958342 0 0.39209624447111568 -0.34275609473116092 0 0.41089111725139721 -0.34269856142925859 0 0.40425152475925441 -0.33267251048098129 0 0.40267270758147689 -0.34242999550958342 0 0.37618485313497191 -0.35303141813195599 0 0.39209624447111568 -0.34275609473116092 0 0.36996172146423478 -0.32754273311982529 0 0.39209624447111568 -0.34275609473116092 0 0.38822804294015112 -0.3261114208869455 0 0.36996172146423478 -0.32754273311982529 0 0.38822804294015112 -0.3261114208869455 0 0.38164260336710232 -0.31615744579396521 0 0.36996172146423478 -0.32754273311982529 0 0.38822804294015112 -0.3261114208869455 0 0.38164260336710232 -0.31615744579396521 0 0.39300241843570249 -0.3110378002903586 0 0.38177106400017391 -0.30862132669022929 0 0.38029466251644028 -0.29986647237510811 0 0.37214457168145071 -0.30742358830148531 0 0.39300241843570249 -0.3110378002903586 0 0.38175331211215058 -0.28940309009973592 0 0.38164260336710232 -0.31615744579396521 0 0.38177106400017391 -0.30862132669022929 0 0.37214457168145071 -0.30742358830148531 0 0.39300241843570249 -0.3110378002903586 0 0.39475890210416392 -0.30270745561456308 0 0.38175331211215058 -0.28940309009973592 0 0.38029466251644028 -0.29986647237510811 0 0.39300241843570249 -0.3110378002903586 0 0.38175331211215058 -0.28940309009973592 0 0.38164260336710232 -0.31615744579396521 0 0.38177106400017391 -0.30862132669022929 0 0.39300241843570249 -0.3110378002903586 0 0.38177106400017391 -0.30862132669022929 0 0.38029466251644028 -0.29986647237510811 0 0.39300241843570249 -0.3110378002903586 0 0.4091467072664246 -0.32477784543469868 0 0.39475890210416392 -0.30270745561456308 0 0.40782856937156858 -0.30992265774813338 0 0.39475890210416392 -0.30270745561456308 0 0.40429755200803852 -0.3015310211561289 0 0.40149673409666831 -0.29605944040816118 0 0.40429755200803852 -0.3015310211561289 0 0.40149673409666831 -0.29605944040816118 0 0.40808526015628949 -0.29523915444325732 0 0.39475890210416392 -0.30270745561456308 0 0.40429755200803852 -0.3015310211561289 0 0.40782856937156858 -0.30992265774813338 0 0.39475890210416392 -0.30270745561456308 0 0.39730188346755718 -0.29161135963752222 0 0.39142402894447709 -0.286435042888317 0 0.40304007274729231 -0.28920821118933449 0 0.39763996789025002 -0.28367275964584732 0 0.40506285170047662 -0.28083922749534462 0 0.40304007274729231 -0.28920821118933449 0 0.39730188346755718 -0.29161135963752222 0 0.39763996789025002 -0.28367275964584732 0 0.40304007274729231 -0.28920821118933449 0 0.40149673409666831 -0.29605944040816118 0 0.40808526015628949 -0.29523915444325732 0 0.40304007274729231 -0.28920821118933449 0 0.40149673409666831 -0.29605944040816118 0 0.39730188346755718 -0.29161135963752222 0 0.39475890210416392 -0.30270745561456308 0 0.40149673409666831 -0.29605944040816118 0 0.39730188346755718 -0.29161135963752222 0 0.39763996789025002 -0.28367275964584732 0 0.39142402894447709 -0.286435042888317 0 0.39195529533629442 -0.27806131115557092 0 0.39730188346755718 -0.29161135963752222 0 0.39763996789025002 -0.28367275964584732 0 0.39142402894447709 -0.286435042888317 0 0.39475890210416392 -0.30270745561456308 0 0.38037109694190308 -0.28063706579442749 0 0.39475890210416392 -0.30270745561456308 0 0.38175331211215058 -0.28940309009973592 0 0.38037109694190308 -0.28063706579442749 0 0.39142402894447709 -0.286435042888317 0 0.38037109694190308 -0.28063706579442749 0 0.38713910380081668 -0.27916368249890622 0 0.39475890210416392 -0.30270745561456308 0 0.39142402894447709 -0.286435042888317 0 0.38037109694190308 -0.28063706579442749 0 0.38029466251644028 -0.29986647237510811 0 0.38175331211215058 -0.28940309009973592 0 0.37093408616543422 -0.29499190654120538 0 0.38175331211215058 -0.28940309009973592 0 0.37050420578859872 -0.26776837990911312 0 0.38175331211215058 -0.28940309009973592 0 0.38037109694190308 -0.28063706579442749 0 0.37050420578859872 -0.26776837990911312 0 0.38037109694190308 -0.28063706579442749 0 0.38480599398059251 -0.27152131015730951 0 0.37050420578859872 -0.26776837990911312 0 0.38480599398059251 -0.27152131015730951 0 0.39244458987216091 -0.26161417174629581 0 0.39261010037049587 -0.27136451795379868 0 0.38037109694190308 -0.28063706579442749 0 0.38480599398059251 -0.27152131015730951 0 0.38713910380081668 -0.27916368249890622 0 0.38480599398059251 -0.27152131015730951 0 0.38713910380081668 -0.27916368249890622 0 0.39195529533629442 -0.27806131115557092 0 0.39142402894447709 -0.286435042888317 0 0.38713910380081668 -0.27916368249890622 0 0.39195529533629442 -0.27806131115557092 0 0.38480599398059251 -0.27152131015730951 0 0.39195529533629442 -0.27806131115557092 0 0.39261010037049587 -0.27136451795379868 0 0.38480599398059251 -0.27152131015730951 0 0.37962897743813367 -0.25651992395937562 0 0.37050420578859872 -0.26776837990911312 0 0.38480599398059251 -0.27152131015730951 0 0.37962897743813367 -0.25651992395937562 0 0.39244458987216091 -0.26161417174629581 0 0.39078422201957003 -0.24969070593678949 0 0.37962897743813367 -0.25651992395937562 0 0.39244458987216091 -0.26161417174629581 0 0.39078422201957003 -0.24969070593678949 0 0.39244458987216091 -0.26161417174629581 0 0.40410575785193181 -0.25828851936103481 0 0.39244458987216091 -0.26161417174629581 0 0.40410575785193181 -0.25828851936103481 0 0.39822211595326279 -0.26692182407365989 0 0.40410575785193181 -0.25828851936103481 0 0.39822211595326279 -0.26692182407365989 0 0.40492140044583741 -0.26790783212078467 0 0.40410575785193181 -0.25828851936103481 0 0.40492140044583741 -0.26790783212078467 0 0.40945290732670331 -0.26396052327947239 0 0.39078422201957003 -0.24969070593678949 0 0.40271577749504128 -0.24808950568319249 0 0.40410575785193181 -0.25828851936103481 0 0.40271577749504128 -0.24808950568319249 0 0.40410575785193181 -0.25828851936103481 0 0.41170531542548788 -0.25126417515390992 0 0.39763996789025002 -0.28367275964584732 0 0.39195529533629442 -0.27806131115557092 0 0.39894115351181969 -0.27424944313259708 0 0.39195529533629442 -0.27806131115557092 0 0.39261010037049587 -0.27136451795379868 0 0.39894115351181969 -0.27424944313259708 0 0.39244458987216091 -0.26161417174629581 0 0.39261010037049587 -0.27136451795379868 0 0.39822211595326279 -0.26692182407365989 0 0.39261010037049587 -0.27136451795379868 0 0.39822211595326279 -0.26692182407365989 0 0.39894115351181969 -0.27424944313259708 0 0.39822211595326279 -0.26692182407365989 0 0.40492140044583741 -0.26790783212078467 0 0.39894115351181969 -0.27424944313259708 0 0.40492140044583741 -0.26790783212078467 0 0.39894115351181969 -0.27424944313259708 0 0.40712920685057652 -0.27420612675110112 0 0.39763996789025002 -0.28367275964584732 0 0.39894115351181969 -0.27424944313259708 0 0.40506285170047662 -0.28083922749534462 0 0.39894115351181969 -0.27424944313259708 0 0.40506285170047662 -0.28083922749534462 0 0.40712920685057652 -0.27420612675110112 0 0.40506285170047662 -0.28083922749534462 0 0.41284697370079432 -0.2782971556212297 0 0.40712920685057652 -0.27420612675110112 0 0.41284697370079432 -0.2782971556212297 0 0.40712920685057652 -0.27420612675110112 0 0.41387365489395472 -0.26973697538554919 0 0.40492140044583741 -0.26790783212078467 0 0.41387365489395472 -0.26973697538554919 0 0.40945290732670331 -0.26396052327947239 0 0.40492140044583741 -0.26790783212078467 0 0.40712920685057652 -0.27420612675110112 0 0.41387365489395472 -0.26973697538554919 0 0.41387365489395472 -0.26973697538554919 0 0.42135307316749521 -0.27487684751024949 0 0.42100146315739412 -0.26552033609670711 0 0.41284697370079432 -0.2782971556212297 0 0.41387365489395472 -0.26973697538554919 0 0.42135307316749521 -0.27487684751024949 0 0.41284697370079432 -0.2782971556212297 0 0.42135307316749521 -0.27487684751024949 0 0.41975251852593748 -0.28445801958006911 0 0.40410575785193181 -0.25828851936103481 0 0.41170531542548788 -0.25126417515390992 0 0.41491081611508918 -0.25990876625052101 0 0.40410575785193181 -0.25828851936103481 0 0.40945290732670331 -0.26396052327947239 0 0.41491081611508918 -0.25990876625052101 0 0.41387365489395472 -0.26973697538554919 0 0.40945290732670331 -0.26396052327947239 0 0.41491081611508918 -0.25990876625052101 0 0.41387365489395472 -0.26973697538554919 0 0.42100146315739412 -0.26552033609670711 0 0.41491081611508918 -0.25990876625052101 0 0.42100146315739412 -0.26552033609670711 0 0.42163465399116667 -0.25872199059074641 0 0.41491081611508918 -0.25990876625052101 0 0.41170531542548788 -0.25126417515390992 0 0.41491081611508918 -0.25990876625052101 0 0.41853295725520467 -0.25391274615775578 0 0.42163465399116667 -0.25872199059074641 0 0.41491081611508918 -0.25990876625052101 0 0.41853295725520467 -0.25391274615775578 0 0.42163465399116667 -0.25872199059074641 0 0.41853295725520467 -0.25391274615775578 0 0.42541254610488072 -0.25270056741268049 0 0.4190014546393992 -0.24696823138092139 0 0.41853295725520467 -0.25391274615775578 0 0.42541254610488072 -0.25270056741268049 0 0.4190014546393992 -0.24696823138092139 0 0.41170531542548788 -0.25126417515390992 0 0.41853295725520467 -0.25391274615775578 0 0.42163465399116667 -0.25872199059074641 0 0.42541254610488072 -0.25270056741268049 0 0.42845093672784768 -0.26136295507116752 0 0.42541254610488072 -0.25270056741268049 0 0.42845093672784768 -0.26136295507116752 0 0.43126889086453951 -0.25455984543500237 0 0.42100146315739412 -0.26552033609670711 0 0.42163465399116667 -0.25872199059074641 0 0.42845093672784768 -0.26136295507116752 0 0.42845093672784768 -0.26136295507116752 0 0.43505770238402619 -0.26461992241763038 0 0.43648606404966428 -0.25753784968455939 0 0.42845093672784768 -0.26136295507116752 0 0.43505770238402619 -0.26461992241763038 0 0.43027170394141367 -0.27054512142908671 0 0.42845093672784768 -0.26136295507116752 0 0.43126889086453951 -0.25455984543500237 0 0.43648606404966428 -0.25753784968455939 0 0.43871762778532231 -0.25212208882244802 0 0.43126889086453951 -0.25455984543500237 0 0.43648606404966428 -0.25753784968455939 0 0.43292967301130941 -0.2488540036824014 0 0.43871762778532231 -0.25212208882244802 0 0.43126889086453951 -0.25455984543500237 0 0.43292967301130941 -0.2488540036824014 0 0.42541254610488072 -0.25270056741268049 0 0.43126889086453951 -0.25455984543500237 0 0.42135307316749521 -0.27487684751024949 0 0.42956799811030638 -0.28148515248710693 0 0.41975251852593748 -0.28445801958006911 0 0.42135307316749521 -0.27487684751024949 0 0.43027170394141367 -0.27054512142908671 0 0.42956799811030638 -0.28148515248710693 0 0.42135307316749521 -0.27487684751024949 0 0.42100146315739412 -0.26552033609670711 0 0.43027170394141367 -0.27054512142908671 0 0.42100146315739412 -0.26552033609670711 0 0.42845093672784768 -0.26136295507116752 0 0.43027170394141367 -0.27054512142908671 0 0.43919222284155002 -0.27830080619971909 0 0.4385944452063526 -0.26988256164274432 0 0.43027170394141367 -0.27054512142908671 0 0.4385944452063526 -0.26988256164274432 0 0.43505770238402619 -0.26461992241763038 0 0.43027170394141367 -0.27054512142908671 0 0.43919222284155002 -0.27830080619971909 0 0.43027170394141367 -0.27054512142908671 0 0.42956799811030638 -0.28148515248710693 0 0.43824437449043008 -0.28966145028223478 0 0.42956799811030638 -0.28148515248710693 0 0.42651213435721103 -0.29151489344350012 0 0.43919222284155002 -0.27830080619971909 0 0.43824437449043008 -0.28966145028223478 0 0.42956799811030638 -0.28148515248710693 0 0.42956799811030638 -0.28148515248710693 0 0.42651213435721103 -0.29151489344350012 0 0.41975251852593748 -0.28445801958006911 0 0.42651213435721103 -0.29151489344350012 0 0.42265725367426682 -0.30260234616053761 0 0.41710028749217543 -0.29373719746223742 0 0.43824437449043008 -0.28966145028223478 0 0.42651213435721103 -0.29151489344350012 0 0.43234265414258233 -0.29853995875229639 0 0.43234265414258233 -0.29853995875229639 0 0.43444005925229529 -0.31032905382020182 0 0.42265725367426682 -0.30260234616053761 0 0.42213808355103849 -0.31598854483820238 0 0.43444005925229529 -0.31032905382020182 0 0.42265725367426682 -0.30260234616053761 0 0.42651213435721103 -0.29151489344350012 0 0.43234265414258233 -0.29853995875229639 0 0.42265725367426682 -0.30260234616053761 0 0.42265725367426682 -0.30260234616053761 0 0.41237795257390419 -0.3022181237121867 0 0.41710028749217543 -0.29373719746223742 0 0.42213808355103849 -0.31598854483820238 0 0.42265725367426682 -0.30260234616053761 0 0.41528987034135628 -0.30966190583196729 0 0.42265725367426682 -0.30260234616053761 0 0.41528987034135628 -0.30966190583196729 0 0.41237795257390419 -0.3022181237121867 0 0.41500843607520332 -0.31765864762852652 0 0.41528987034135628 -0.30966190583196729 0 0.40782856937156858 -0.30992265774813338 0 0.41528987034135628 -0.30966190583196729 0 0.40782856937156858 -0.30992265774813338 0 0.41237795257390419 -0.3022181237121867 0 0.40429755200803852 -0.3015310211561289 0 0.41237795257390419 -0.3022181237121867 0 0.40808526015628949 -0.29523915444325732 0 0.41237795257390419 -0.3022181237121867 0 0.40808526015628949 -0.29523915444325732 0 0.41710028749217543 -0.29373719746223742 0 0.40429755200803852 -0.3015310211561289 0 0.40782856937156858 -0.30992265774813338 0 0.41237795257390419 -0.3022181237121867 0 0.40808526015628949 -0.29523915444325732 0 0.41113464432764291 -0.28683687095609128 0 0.41710028749217543 -0.29373719746223742 0 0.40304007274729231 -0.28920821118933449 0 0.40808526015628949 -0.29523915444325732 0 0.41113464432764291 -0.28683687095609128 0 0.40304007274729231 -0.28920821118933449 0 0.40506285170047662 -0.28083922749534462 0 0.41113464432764291 -0.28683687095609128 0 0.40506285170047662 -0.28083922749534462 0 0.41284697370079432 -0.2782971556212297 0 0.41113464432764291 -0.28683687095609128 0 0.41284697370079432 -0.2782971556212297 0 0.41113464432764291 -0.28683687095609128 0 0.41975251852593748 -0.28445801958006911 0 0.41113464432764291 -0.28683687095609128 0 0.41975251852593748 -0.28445801958006911 0 0.41710028749217543 -0.29373719746223742 0 0.42651213435721103 -0.29151489344350012 0 0.41975251852593748 -0.28445801958006911 0 0.41710028749217543 -0.29373719746223742 0 0.44904225237101492 -0.50000000000000033 0 0.45004401508161579 -0.4787570704506926 0 0.43421240961939139 -0.49999999999999972 0 0.44904225237101492 -0.50000000000000033 0 0.45004401508161579 -0.4787570704506926 0 0.45004401508161579 -0.4787570704506926 0 0.43065669488015018 -0.48070599894378141 0 0.43421240961939139 -0.49999999999999972 0 0.45004401508161579 -0.4787570704506926 0 0.43566071353235342 -0.46355264343579089 0 0.43065669488015018 -0.48070599894378141 0 0.45004401508161579 -0.4787570704506926 0 0.47115653038696198 -0.47458122981084161 0 0.46628057992027361 -0.46016057875321997 0 0.44904225237101492 -0.50000000000000033 0 0.45004401508161579 -0.4787570704506926 0 0.47115653038696198 -0.47458122981084161 0 0.5 -0.5 0 0.47115653038696198 -0.47458122981084161 0 0.5 -0.45186915055015731 0 0.44904225237101492 -0.50000000000000033 0 0.5 -0.5 0 0.47115653038696198 -0.47458122981084161 0 0.47115653038696198 -0.47458122981084161 0 0.48077102025797452 -0.45549611643706822 0 0.46628057992027361 -0.46016057875321997 0 0.47115653038696198 -0.47458122981084161 0 0.48077102025797452 -0.45549611643706822 0 0.47115653038696198 -0.47458122981084161 0 0.48077102025797452 -0.45549611643706822 0 0.5 -0.45186915055015731 0 0.48077102025797452 -0.45549611643706822 0 0.47047881694724669 -0.44903457528364688 0 0.46628057992027361 -0.46016057875321997 0 0.48077102025797452 -0.45549611643706822 0 0.49038551012898701 -0.43641100306329461 0 0.48077102025797452 -0.45549611643706822 0 0.5 -0.45186915055015731 0 0.49038551012898701 -0.43641100306329461 0 0.48077102025797452 -0.45549611643706822 0 0.47754833864438551 -0.44218946840133899 0 0.49038551012898701 -0.43641100306329461 0 0.48077102025797452 -0.45549611643706822 0 0.47754833864438551 -0.44218946840133899 0 0.47047881694724669 -0.44903457528364688 0 0.47754833864438551 -0.44218946840133899 0 0.47047881694724669 -0.44903457528364688 0 0.46852552080992549 -0.44048839695443598 0 0.45926862510367472 -0.44683831587217138 0 0.45104577779221661 -0.45751414090138481 0 0.45204754050281742 -0.43627121135207708 0 0.46852552080992549 -0.44048839695443598 0 0.45926862510367472 -0.44683831587217138 0 0.46246741514551631 -0.43660855176593799 0 0.45926862510367472 -0.44683831587217138 0 0.45204754050281742 -0.43627121135207708 0 0.46246741514551631 -0.43660855176593799 0 0.47047881694724669 -0.44903457528364688 0 0.46852552080992549 -0.44048839695443598 0 0.45926862510367472 -0.44683831587217138 0 0.47047881694724669 -0.44903457528364688 0 0.45926862510367472 -0.44683831587217138 0 0.46628057992027361 -0.46016057875321997 0 0.45004401508161579 -0.4787570704506926 0 0.46628057992027361 -0.46016057875321997 0 0.45104577779221661 -0.45751414090138481 0 0.45926862510367472 -0.44683831587217138 0 0.46628057992027361 -0.46016057875321997 0 0.45104577779221661 -0.45751414090138481 0 0.45004401508161579 -0.4787570704506926 0 0.45104577779221661 -0.45751414090138481 0 0.43566071353235342 -0.46355264343579089 0 0.45004401508161579 -0.4787570704506926 0 0.45104577779221661 -0.45751414090138481 0 0.45104577779221661 -0.45751414090138481 0 0.43823690162582152 -0.442656551615 0 0.43566071353235342 -0.46355264343579089 0 0.45104577779221661 -0.45751414090138481 0 0.45204754050281742 -0.43627121135207708 0 0.45104577779221661 -0.45751414090138481 0 0.43823690162582152 -0.442656551615 0 0.45204754050281742 -0.43627121135207708 0 0.45430136434918972 -0.42968477721519488 0 0.43040870373640522 -0.42960949699457918 0 0.4445886017928069 -0.41946726592624312 0 0.45430136434918972 -0.42968477721519488 0 0.43040870373640522 -0.42960949699457918 0 0.43823690162582152 -0.442656551615 0 0.45204754050281742 -0.43627121135207708 0 0.43040870373640522 -0.42960949699457918 0 0.45204754050281742 -0.43627121135207708 0 0.45430136434918972 -0.42968477721519488 0 0.43040870373640522 -0.42960949699457918 0 0.4445886017928069 -0.41946726592624312 0 0.45626400488001012 -0.41852232274223139 0 0.45430136434918972 -0.42968477721519488 0 0.4445886017928069 -0.41946726592624312 0 0.45030067759957459 -0.40920304056939583 0 0.43607093377631329 -0.40042142092979582 0 0.4445886017928069 -0.41946726592624312 0 0.45030067759957459 -0.40920304056939583 0 0.45626400488001012 -0.41852232274223139 0 0.45030067759957459 -0.40920304056939583 0 0.45626400488001012 -0.41852232274223139 0 0.46461227738567717 -0.40399461877989912 0 0.45626400488001012 -0.41852232274223139 0 0.46727733630446061 -0.4192115361233813 0 0.46461227738567717 -0.40399461877989912 0 0.45430136434918972 -0.42968477721519488 0 0.47819402496197411 -0.42976005743581058 0 0.46727733630446061 -0.4192115361233813 0 0.45430136434918972 -0.42968477721519488 0 0.47819402496197411 -0.42976005743581058 0 0.45430136434918972 -0.42968477721519488 0 0.46246741514551631 -0.43660855176593799 0 0.47819402496197411 -0.42976005743581058 0 0.45626400488001012 -0.41852232274223139 0 0.46727733630446061 -0.4192115361233813 0 0.45430136434918972 -0.42968477721519488 0 0.45204754050281742 -0.43627121135207708 0 0.45430136434918972 -0.42968477721519488 0 0.46246741514551631 -0.43660855176593799 0 0.5 -0.45186915055015731 0 0.49038551012898701 -0.43641100306329461 0 0.49999999999999978 -0.41732588968952122 0 0.47754833864438551 -0.44218946840133899 0 0.46852552080992549 -0.44048839695443598 0 0.47819402496197411 -0.42976005743581058 0 0.46852552080992549 -0.44048839695443598 0 0.46246741514551631 -0.43660855176593799 0 0.47819402496197411 -0.42976005743581058 0 0.47754833864438551 -0.44218946840133899 0 0.47819402496197411 -0.42976005743581058 0 0.49038551012898701 -0.43641100306329461 0 0.47819402496197411 -0.42976005743581058 0 0.49038551012898701 -0.43641100306329461 0 0.49999999999999978 -0.41732588968952122 0 0.49038551012898701 -0.43641100306329461 0 0.49999999999999978 -0.41732588968952122 0 0.49999999999999978 -0.41732588968952122 0 0.47803026485536992 -0.41388491951904732 0 0.48349128744616809 -0.3981477611786608 0 0.47819402496197411 -0.42976005743581058 0 0.49999999999999978 -0.41732588968952122 0 0.47803026485536992 -0.41388491951904732 0 0.46727733630446061 -0.4192115361233813 0 0.47819402496197411 -0.42976005743581058 0 0.47803026485536992 -0.41388491951904732 0 0.46727733630446061 -0.4192115361233813 0 0.47803026485536992 -0.41388491951904732 0 0.46461227738567717 -0.40399461877989912 0 0.47803026485536992 -0.41388491951904732 0 0.48349128744616809 -0.3981477611786608 0 0.46461227738567717 -0.40399461877989912 0 0.48349128744616809 -0.3981477611786608 0 0.47209620213241288 -0.38662220816109938 0 0.46461227738567717 -0.40399461877989912 0 0.49999999999999978 -0.41732588968952122 0 0.48349128744616809 -0.3981477611786608 0 0.5 -0.38787887063999699 0 0.48349128744616809 -0.3981477611786608 0 0.48620898030354948 -0.37918006028240092 0 0.5 -0.38787887063999699 0 0.5 -0.35843185159047292 0 0.48620898030354948 -0.37918006028240092 0 0.5 -0.38787887063999699 0 0.47350757658922271 -0.36952329647287657 0 0.47209620213241288 -0.38662220816109938 0 0.46271268513135372 -0.37747780338012438 0 0.48349128744616809 -0.3981477611786608 0 0.48620898030354948 -0.37918006028240092 0 0.47209620213241288 -0.38662220816109938 0 0.47350757658922271 -0.36952329647287657 0 0.48620898030354948 -0.37918006028240092 0 0.47209620213241288 -0.38662220816109938 0 0.46271268513135372 -0.37747780338012438 0 0.45744681408336407 -0.38575639722006821 0 0.45189505467726382 -0.37680202485208381 0 0.47209620213241288 -0.38662220816109938 0 0.46271268513135372 -0.37747780338012438 0 0.45744681408336407 -0.38575639722006821 0 0.47209620213241288 -0.38662220816109938 0 0.45744681408336407 -0.38575639722006821 0 0.46461227738567717 -0.40399461877989912 0 0.45744681408336407 -0.38575639722006821 0 0.46461227738567717 -0.40399461877989912 0 0.45184219469928433 -0.39789486874989249 0 0.45030067759957459 -0.40920304056939583 0 0.46461227738567717 -0.40399461877989912 0 0.45184219469928433 -0.39789486874989249 0 0.45030067759957459 -0.40920304056939583 0 0.45184219469928433 -0.39789486874989249 0 0.43607093377631329 -0.40042142092979582 0 0.45184219469928433 -0.39789486874989249 0 0.44708058619903079 -0.38729405048447457 0 0.43607093377631329 -0.40042142092979582 0 0.44173316381622191 -0.37123334486501253 0 0.45189505467726382 -0.37680202485208381 0 0.44708058619903079 -0.38729405048447457 0 0.44173316381622191 -0.37123334486501253 0 0.44708058619903079 -0.38729405048447457 0 0.43607093377631329 -0.40042142092979582 0 0.44173316381622191 -0.37123334486501253 0 0.43607093377631329 -0.40042142092979582 0 0.45744681408336407 -0.38575639722006821 0 0.45189505467726382 -0.37680202485208381 0 0.44708058619903079 -0.38729405048447457 0 0.45744681408336407 -0.38575639722006821 0 0.45184219469928433 -0.39789486874989249 0 0.44708058619903079 -0.38729405048447457 0 0.44173316381622191 -0.37123334486501253 0 0.43018656974337233 -0.3834847830435818 0 0.43607093377631329 -0.40042142092979582 0 0.42661372489006832 -0.37330916830292271 0 0.43018656974337233 -0.3834847830435818 0 0.41571052833623512 -0.38186572013688852 0 0.43792231759094602 -0.36891862507496959 0 0.42661372489006832 -0.37330916830292271 0 0.43018656974337233 -0.3834847830435818 0 0.43607093377631329 -0.40042142092979582 0 0.41370439676437609 -0.3974940894908795 0 0.41981869584763148 -0.41440516100429259 0 0.43018656974337233 -0.3834847830435818 0 0.43607093377631329 -0.40042142092979582 0 0.41370439676437609 -0.3974940894908795 0 0.43018656974337233 -0.3834847830435818 0 0.41370439676437609 -0.3974940894908795 0 0.41571052833623512 -0.38186572013688852 0 0.41370439676437609 -0.3974940894908795 0 0.41571052833623512 -0.38186572013688852 0 0.40109715774397792 -0.38275058451944882 0 0.42661372489006832 -0.37330916830292271 0 0.40978735765452701 -0.3715350174533486 0 0.41571052833623512 -0.38186572013688852 0 0.40978735765452701 -0.3715350174533486 0 0.41571052833623512 -0.38186572013688852 0 0.40109715774397792 -0.38275058451944882 0 0.40109715774397792 -0.38275058451944882 0 0.38240798480570892 -0.37852010314408679 0 0.38863111647644599 -0.40400878815621749 0 0.38240798480570892 -0.37852010314408679 0 0.38863111647644599 -0.40400878815621749 0 0.38863111647644599 -0.40400878815621749 0 0.37176003243497441 -0.40998872043702711 0 0.36795612070160122 -0.3943037227883871 0 0.38240798480570892 -0.37852010314408679 0 0.38863111647644599 -0.40400878815621749 0 0.36795612070160122 -0.3943037227883871 0 0.41370439676437609 -0.3974940894908795 0 0.38863111647644599 -0.40400878815621749 0 0.4062779690192711 -0.41494731252474337 0 0.41370439676437609 -0.3974940894908795 0 0.40109715774397792 -0.38275058451944882 0 0.38863111647644599 -0.40400878815621749 0 0.38863111647644599 -0.40400878815621749 0 0.39485424814717818 -0.42949747316834941 0 0.4062779690192711 -0.41494731252474337 0 0.38863111647644599 -0.40400878815621749 0 0.39485424814717818 -0.42949747316834941 0 0.38863111647644599 -0.40400878815621749 0 0.38208767645140901 -0.41911042656524472 0 0.37176003243497441 -0.40998872043702711 0 0.38863111647644599 -0.40400878815621749 0 0.38208767645140901 -0.41911042656524472 0 0.39485424814717818 -0.42949747316834941 0 0.39485424814717818 -0.42949747316834941 0 0.36925590453949608 -0.42941681873704168 0 0.37665443888321409 -0.43729346785436302 0 0.3856757983069049 -0.43577025519560952 0 0.36925590453949608 -0.42941681873704168 0 0.3856757983069049 -0.43577025519560952 0 0.39485424814717818 -0.42949747316834941 0 0.36925590453949608 -0.42941681873704168 0 0.38208767645140901 -0.41911042656524472 0 0.39485424814717818 -0.42949747316834941 0 0.36925590453949608 -0.42941681873704168 0 0.39485424814717818 -0.42949747316834941 0 0.41263147594179173 -0.42955348508146501 0 0.3970599418841867 -0.43853154730823468 0 0.39485424814717818 -0.42949747316834941 0 0.41263147594179173 -0.42955348508146501 0 0.39485424814717818 -0.42949747316834941 0 0.3970599418841867 -0.43853154730823468 0 0.3856757983069049 -0.43577025519560952 0 0.39485424814717818 -0.42949747316834941 0 0.3970599418841867 -0.43853154730823468 0 0.39485424814717818 -0.42949747316834941 0 0.41263147594179173 -0.42955348508146501 0 0.4062779690192711 -0.41494731252474337 0 0.41263147594179173 -0.42955348508146501 0 0.43040870373640522 -0.42960949699457918 0 0.41263147594179173 -0.42955348508146501 0 0.43040870373640522 -0.42960949699457918 0 0.4105733347589578 -0.4439764995731092 0 0.41263147594179173 -0.42955348508146501 0 0.4105733347589578 -0.4439764995731092 0 0.3970599418841867 -0.43853154730823468 0 0.41263147594179173 -0.42955348508146501 0 0.41981869584763148 -0.41440516100429259 0 0.43040870373640522 -0.42960949699457918 0 0.41370439676437609 -0.3974940894908795 0 0.4062779690192711 -0.41494731252474337 0 0.41981869584763148 -0.41440516100429259 0 0.41263147594179173 -0.42955348508146501 0 0.4062779690192711 -0.41494731252474337 0 0.41981869584763148 -0.41440516100429259 0 0.43607093377631329 -0.40042142092979582 0 0.41981869584763148 -0.41440516100429259 0 0.43040870373640522 -0.42960949699457918 0 0.4445886017928069 -0.41946726592624312 0 0.43607093377631329 -0.40042142092979582 0 0.43040870373640522 -0.42960949699457918 0 0.43607093377631329 -0.40042142092979582 0 0.43040870373640522 -0.42960949699457918 0 0.43040870373640522 -0.42960949699457918 0 0.42609808641601882 -0.45183018130920338 0 0.43823690162582152 -0.442656551615 0 0.43040870373640522 -0.42960949699457918 0 0.42609808641601882 -0.45183018130920338 0 0.43040870373640522 -0.42960949699457918 0 0.42609808641601882 -0.45183018130920338 0 0.4105733347589578 -0.4439764995731092 0 0.43823690162582152 -0.442656551615 0 0.42609808641601882 -0.45183018130920338 0 0.43566071353235342 -0.46355264343579089 0 0.42609808641601882 -0.45183018130920338 0 0.43566071353235342 -0.46355264343579089 0 0.41788280539829797 -0.46985191739468413 0 0.42609808641601882 -0.45183018130920338 0 0.40695414576950523 -0.45771744581404522 0 0.41788280539829797 -0.46985191739468413 0 0.42609808641601882 -0.45183018130920338 0 0.40695414576950523 -0.45771744581404522 0 0.4105733347589578 -0.4439764995731092 0 0.4105733347589578 -0.4439764995731092 0 0.39721761528731692 -0.45119552741579683 0 0.3970599418841867 -0.43853154730823468 0 0.40695414576950523 -0.45771744581404522 0 0.4105733347589578 -0.4439764995731092 0 0.39721761528731692 -0.45119552741579683 0 0.39721761528731692 -0.45119552741579683 0 0.3970599418841867 -0.43853154730823468 0 0.3848034700195111 -0.44451211479328562 0 0.3856757983069049 -0.43577025519560952 0 0.3970599418841867 -0.43853154730823468 0 0.3848034700195111 -0.44451211479328562 0 0.37665443888321409 -0.43729346785436302 0 0.3856757983069049 -0.43577025519560952 0 0.3848034700195111 -0.44451211479328562 0 0.3848034700195111 -0.44451211479328562 0 0.39015981315766812 -0.47191920641734841 0 0.36813351492680652 -0.4578788096260229 0 0.39015981315766812 -0.47191920641734841 0 0.36813351492680652 -0.4578788096260229 0 0.39721761528731692 -0.45119552741579683 0 0.3848034700195111 -0.44451211479328562 0 0.39015981315766812 -0.47191920641734841 0 0.40695414576950523 -0.45771744581404522 0 0.39721761528731692 -0.45119552741579683 0 0.39015981315766812 -0.47191920641734841 0 0.40695414576950523 -0.45771744581404522 0 0.39015981315766812 -0.47191920641734841 0 0.41788280539829797 -0.46985191739468413 0 0.39015981315766812 -0.47191920641734841 0 0.39617150827203812 -0.48844435240108153 0 0.41218611138852979 -0.48595960320867387 0 0.39015981315766812 -0.47191920641734841 0 0.41218611138852979 -0.48595960320867387 0 0.39015981315766812 -0.47191920641734841 0 0.37999710445162738 -0.5 0 0.36111942344273912 -0.48004186837267743 0 0.39015981315766812 -0.47191920641734841 0 0.37999710445162738 -0.5 0 0.39617150827203812 -0.48844435240108153 0 0.37999710445162738 -0.5 0 0.39617150827203812 -0.48844435240108153 0 0.40710475703550941 -0.5 0 0.39617150827203812 -0.48844435240108153 0 0.40710475703550941 -0.5 0 0.41218611138852979 -0.48595960320867387 0 0.40710475703550941 -0.5 0 0.41218611138852979 -0.48595960320867387 0 0.43421240961939139 -0.49999999999999972 0 0.41218611138852979 -0.48595960320867387 0 0.41788280539829797 -0.46985191739468413 0 0.43065669488015018 -0.48070599894378141 0 0.39015981315766812 -0.47191920641734841 0 0.41218611138852979 -0.48595960320867387 0 0.41788280539829797 -0.46985191739468413 0 0.43566071353235342 -0.46355264343579089 0 0.41788280539829797 -0.46985191739468413 0 0.43065669488015018 -0.48070599894378141 0 0.41218611138852979 -0.48595960320867387 0 0.43421240961939139 -0.49999999999999972 0 0.41218611138852979 -0.48595960320867387 0 0.43065669488015018 -0.48070599894378141 0 0.43421240961939139 -0.49999999999999972 0 0.32562102085959999 -0.49962517918909338 0 0.3188650930646052 -0.49384015059516778 0 0.30906313459206908 -0.49999999999999822 0 0.3188650930646052 -0.49384015059516778 0 0.31537357137569311 -0.47573542319158041 0 0.30906313459206908 -0.49999999999999822 0 0.32562102085959999 -0.49962517918909338 0 0.3188650930646052 -0.49384015059516778 0 0.31537357137569311 -0.47573542319158041 0 0.32562102085959999 -0.49962517918909338 0 0.31537357137569311 -0.47573542319158041 0 0.32562102085959999 -0.49962517918909338 0 0.32705189356582531 -0.47758756671950892 0 0.31537357137569311 -0.47573542319158041 0 0.32705189356582531 -0.47758756671950892 0 0.31537357137569311 -0.47573542319158041 0 0.32731070687432662 -0.45987691031431599 0 0.32705189356582531 -0.47758756671950892 0 0.33990227515368221 -0.47511275418304622 0 0.32731070687432662 -0.45987691031431599 0 0.32562102085959999 -0.49962517918909338 0 0.32705189356582531 -0.47758756671950892 0 0.33990227515368221 -0.47511275418304622 0 0.32562102085959999 -0.49962517918909338 0 0.33990227515368221 -0.47511275418304622 0 0.32562102085959999 -0.49962517918909338 0 0.33990227515368221 -0.47511275418304622 0 0.33937333261091801 -0.49122101923177458 0 0.32562102085959999 -0.49962517918909338 0 0.33937333261091801 -0.49122101923177458 0 0.35288945186774517 -0.5 0 0.33937333261091801 -0.49122101923177458 0 0.35288945186774517 -0.5 0 0.36111942344273912 -0.48004186837267743 0 0.37999710445162738 -0.5 0 0.35288945186774517 -0.5 0 0.36111942344273912 -0.48004186837267743 0 0.39015981315766812 -0.47191920641734841 0 0.36111942344273912 -0.48004186837267743 0 0.36813351492680652 -0.4578788096260229 0 0.33990227515368221 -0.47511275418304622 0 0.33937333261091801 -0.49122101923177458 0 0.36111942344273912 -0.48004186837267743 0 0.33990227515368221 -0.47511275418304622 0 0.36111942344273912 -0.48004186837267743 0 0.35583468574274812 -0.46590844033968648 0 0.33990227515368221 -0.47511275418304622 0 0.35418352944776488 -0.45060032917699938 0 0.33990227515368221 -0.47511275418304622 0 0.35418352944776488 -0.45060032917699938 0 0.340093026771697 -0.45737760876331679 0 0.33990227515368221 -0.47511275418304622 0 0.35583468574274812 -0.46590844033968648 0 0.35418352944776488 -0.45060032917699938 0 0.36111942344273912 -0.48004186837267743 0 0.35583468574274812 -0.46590844033968648 0 0.36813351492680652 -0.4578788096260229 0 0.35583468574274812 -0.46590844033968648 0 0.36813351492680652 -0.4578788096260229 0 0.35418352944776488 -0.45060032917699938 0 0.3848034700195111 -0.44451211479328562 0 0.36813351492680652 -0.4578788096260229 0 0.36188953281526259 -0.44421627808609571 0 0.3848034700195111 -0.44451211479328562 0 0.36188953281526259 -0.44421627808609571 0 0.37665443888321409 -0.43729346785436302 0 0.3848034700195111 -0.44451211479328562 0 0.36188953281526259 -0.44421627808609571 0 0.36813351492680652 -0.4578788096260229 0 0.36188953281526259 -0.44421627808609571 0 0.35418352944776488 -0.45060032917699938 0 0.36188953281526259 -0.44421627808609571 0 0.33897559561101431 -0.44392044137890579 0 0.34365756093181399 -0.42933616430573279 0 0.36188953281526259 -0.44421627808609571 0 0.33897559561101431 -0.44392044137890579 0 0.36188953281526259 -0.44421627808609571 0 0.35418352944776488 -0.45060032917699938 0 0.33897559561101431 -0.44392044137890579 0 0.35418352944776488 -0.45060032917699938 0 0.33897559561101431 -0.44392044137890579 0 0.340093026771697 -0.45737760876331679 0 0.33990227515368221 -0.47511275418304622 0 0.340093026771697 -0.45737760876331679 0 0.32731070687432662 -0.45987691031431599 0 0.33897559561101431 -0.44392044137890579 0 0.340093026771697 -0.45737760876331679 0 0.32731070687432662 -0.45987691031431599 0 0.31537357137569311 -0.47573542319158041 0 0.32731070687432662 -0.45987691031431599 0 0.31637589709399738 -0.45542627657340667 0 0.33897559561101431 -0.44392044137890579 0 0.31606165840676581 -0.44362460467171588 0 0.31637589709399738 -0.45542627657340667 0 0.31606165840676581 -0.44362460467171588 0 0.30512612189178517 -0.45184566719406782 0 0.33897559561101431 -0.44392044137890579 0 0.32731070687432662 -0.45987691031431599 0 0.31606165840676581 -0.44362460467171588 0 0.33897559561101431 -0.44392044137890579 0 0.31606165840676581 -0.44362460467171588 0 0.32817533568345891 -0.437405088827024 0 0.32731070687432662 -0.45987691031431599 0 0.31637589709399738 -0.45542627657340667 0 0.31606165840676581 -0.44362460467171588 0 0.31606165840676581 -0.44362460467171588 0 0.31805921732413212 -0.42925550987442379 0 0.32817533568345891 -0.437405088827024 0 0.31606165840676581 -0.44362460467171588 0 0.31805921732413212 -0.42925550987442379 0 0.30493236766246812 -0.436345934488445 0 0.31985940292529941 -0.41295447671329732 0 0.31075796009052831 -0.39572085063997808 0 0.30888278388740348 -0.41521004381282178 0 0.31805921732413212 -0.42925550987442379 0 0.31985940292529941 -0.41295447671329732 0 0.33113555781690102 -0.41904522338276579 0 0.31805921732413212 -0.42925550987442379 0 0.31985940292529941 -0.41295447671329732 0 0.30888278388740348 -0.41521004381282178 0 0.31985940292529941 -0.41295447671329732 0 0.33113555781690102 -0.41904522338276579 0 0.33046149550753229 -0.40554075585649679 0 0.33113555781690102 -0.41904522338276579 0 0.34241547994114269 -0.41362446478144221 0 0.34365756093181399 -0.42933616430573279 0 0.33113555781690102 -0.41904522338276579 0 0.34241547994114269 -0.41362446478144221 0 0.33046149550753229 -0.40554075585649679 0 0.31805921732413212 -0.42925550987442379 0 0.34365756093181399 -0.42933616430573279 0 0.32817533568345891 -0.437405088827024 0 0.31805921732413212 -0.42925550987442379 0 0.33113555781690102 -0.41904522338276579 0 0.34365756093181399 -0.42933616430573279 0 0.31805921732413212 -0.42925550987442379 0 0.34365756093181399 -0.42933616430573279 0 0.33897559561101431 -0.44392044137890579 0 0.34365756093181399 -0.42933616430573279 0 0.32817533568345891 -0.437405088827024 0 0.34365756093181399 -0.42933616430573279 0 0.36925590453949608 -0.42941681873704168 0 0.35674230937501078 -0.41217086121041902 0 0.34365756093181399 -0.42933616430573279 0 0.36925590453949608 -0.42941681873704168 0 0.36188953281526259 -0.44421627808609571 0 0.34365756093181399 -0.42933616430573279 0 0.36925590453949608 -0.42941681873704168 0 0.37665443888321409 -0.43729346785436302 0 0.36188953281526259 -0.44421627808609571 0 0.36925590453949608 -0.42941681873704168 0 0.38208767645140901 -0.41911042656524472 0 0.36925590453949608 -0.42941681873704168 0 0.37176003243497441 -0.40998872043702711 0 0.36925590453949608 -0.42941681873704168 0 0.37176003243497441 -0.40998872043702711 0 0.35674230937501078 -0.41217086121041902 0 0.34241547994114269 -0.41362446478144221 0 0.35674230937501078 -0.41217086121041902 0 0.34647936393220441 -0.39402114553103817 0 0.34241547994114269 -0.41362446478144221 0 0.34365756093181399 -0.42933616430573279 0 0.35674230937501078 -0.41217086121041902 0 0.35674230937501078 -0.41217086121041902 0 0.34647936393220441 -0.39402114553103817 0 0.36795612070160122 -0.3943037227883871 0 0.37176003243497441 -0.40998872043702711 0 0.35674230937501078 -0.41217086121041902 0 0.36795612070160122 -0.3943037227883871 0 0.38240798480570892 -0.37852010314408679 0 0.36795612070160122 -0.3943037227883871 0 0.3567457423339877 -0.37092962175819427 0 0.34647936393220441 -0.39402114553103817 0 0.33846966771265258 -0.37695460337982112 0 0.3567457423339877 -0.37092962175819427 0 0.34647936393220441 -0.39402114553103817 0 0.36795612070160122 -0.3943037227883871 0 0.3567457423339877 -0.37092962175819427 0 0.34647936393220441 -0.39402114553103817 0 0.33846966771265258 -0.37695460337982112 0 0.3263508617172054 -0.38750488125084709 0 0.34241547994114269 -0.41362446478144221 0 0.34647936393220441 -0.39402114553103817 0 0.33046149550753229 -0.40554075585649679 0 0.34647936393220441 -0.39402114553103817 0 0.33046149550753229 -0.40554075585649679 0 0.3263508617172054 -0.38750488125084709 0 0.33046149550753229 -0.40554075585649679 0 0.3263508617172054 -0.38750488125084709 0 0.31075796009052831 -0.39572085063997808 0 0.31985940292529941 -0.41295447671329732 0 0.33046149550753229 -0.40554075585649679 0 0.31075796009052831 -0.39572085063997808 0 0.3263508617172054 -0.38750488125084709 0 0.3096773386499212 -0.3813243078888065 0 0.31075796009052831 -0.39572085063997808 0 0.33846966771265258 -0.37695460337982112 0 0.3263508617172054 -0.38750488125084709 0 0.31915821050206972 -0.37043664262910392 0 0.3263508617172054 -0.38750488125084709 0 0.3096773386499212 -0.3813243078888065 0 0.31915821050206972 -0.37043664262910392 0 0.3096773386499212 -0.3813243078888065 0 0.29526372343335222 -0.38214642848390951 0 0.29938815419514908 -0.36235191135060729 0 0.3096773386499212 -0.3813243078888065 0 0.31075796009052831 -0.39572085063997808 0 0.29526372343335222 -0.38214642848390951 0 0.31075796009052831 -0.39572085063997808 0 0.29178274806564442 -0.41520067436951369 0 0.31075796009052831 -0.39572085063997808 0 0.29113929267155558 -0.40194094561721161 0 0.29526372343335222 -0.38214642848390951 0 0.31075796009052831 -0.39572085063997808 0 0.29113929267155558 -0.40194094561721161 0 0.29178274806564442 -0.41520067436951369 0 0.29113929267155558 -0.40194094561721161 0 0.29526372343335222 -0.38214642848390951 0 0.29096903481361719 -0.39843243044280019 0 0.28318981538834798 -0.39262896962206201 0 0.29526372343335222 -0.38214642848390951 0 0.29096903481361719 -0.39843243044280019 0 0.29113929267155558 -0.40194094561721161 0 0.29526372343335222 -0.38214642848390951 0 0.29096903481361719 -0.39843243044280019 0 0.29113929267155558 -0.40194094561721161 0 0.28502919674291388 -0.40062006331372729 0 0.27798512017272892 -0.40082089003652099 0 0.28264635626051132 -0.40952105626625152 0 0.29113929267155558 -0.40194094561721161 0 0.28502919674291388 -0.40062006331372729 0 0.28264635626051132 -0.40952105626625152 0 0.29096903481361719 -0.39843243044280019 0 0.29113929267155558 -0.40194094561721161 0 0.28502919674291388 -0.40062006331372729 0 0.28502919674291388 -0.40062006331372729 0 0.28318981538834798 -0.39262896962206201 0 0.27798512017272892 -0.40082089003652099 0 0.29096903481361719 -0.39843243044280019 0 0.28502919674291388 -0.40062006331372729 0 0.28318981538834798 -0.39262896962206201 0 0.28318981538834798 -0.39262896962206201 0 0.29526372343335222 -0.38214642848390951 0 0.27569670368188232 -0.38326726020642471 0 0.29526372343335222 -0.38214642848390951 0 0.27569670368188232 -0.38326726020642471 0 0.2822483272805178 -0.36575990941074382 0 0.28318981538834798 -0.39262896962206201 0 0.27569670368188232 -0.38326726020642471 0 0.27140133813572248 -0.39438652514112071 0 0.27569670368188232 -0.38326726020642471 0 0.26161541147981399 -0.38825456187999341 0 0.27140133813572248 -0.39438652514112071 0 0.27569670368188232 -0.38326726020642471 0 0.26161541147981399 -0.38825456187999341 0 0.26273855981799532 -0.37402085189451678 0 0.26161541147981399 -0.38825456187999341 0 0.26273855981799532 -0.37402085189451678 0 0.2462658744323834 -0.38197959250061342 0 0.26161541147981399 -0.38825456187999341 0 0.25113336278303172 -0.39639034007073559 0 0.2462658744323834 -0.38197959250061342 0 0.25113336278303172 -0.39639034007073559 0 0.25834465052961392 -0.41196496969487773 0 0.2415255849161019 -0.40609463635975013 0 0.25113336278303172 -0.39639034007073559 0 0.26281084462470111 -0.3998352336856334 0 0.25834465052961392 -0.41196496969487773 0 0.26161541147981399 -0.38825456187999341 0 0.25113336278303172 -0.39639034007073559 0 0.26281084462470111 -0.3998352336856334 0 0.26161541147981399 -0.38825456187999341 0 0.26281084462470111 -0.3998352336856334 0 0.27140133813572248 -0.39438652514112071 0 0.26281084462470111 -0.3998352336856334 0 0.27081663500811198 -0.40520008615658132 0 0.25834465052961392 -0.41196496969487773 0 0.27081663500811198 -0.40520008615658132 0 0.27140133813572248 -0.39438652514112071 0 0.27798512017272892 -0.40082089003652099 0 0.26281084462470111 -0.3998352336856334 0 0.27081663500811198 -0.40520008615658132 0 0.27140133813572248 -0.39438652514112071 0 0.28318981538834798 -0.39262896962206201 0 0.27140133813572248 -0.39438652514112071 0 0.27798512017272892 -0.40082089003652099 0 0.27081663500811198 -0.40520008615658132 0 0.27798512017272892 -0.40082089003652099 0 0.28264635626051132 -0.40952105626625152 0 0.27081663500811198 -0.40520008615658132 0 0.27206571492222681 -0.41502427433416672 0 0.28264635626051132 -0.40952105626625152 0 0.27844475086434628 -0.42008249968918893 0 0.27206571492222681 -0.41502427433416672 0 0.28264635626051132 -0.40952105626625152 0 0.26660164492473198 -0.42150218520744809 0 0.27206571492222681 -0.41502427433416672 0 0.25834465052961392 -0.41196496969487773 0 0.27844475086434628 -0.42008249968918893 0 0.26660164492473198 -0.42150218520744809 0 0.27206571492222681 -0.41502427433416672 0 0.27081663500811198 -0.40520008615658132 0 0.27206571492222681 -0.41502427433416672 0 0.25834465052961392 -0.41196496969487773 0 0.25834465052961392 -0.41196496969487773 0 0.25675938249820729 -0.42906236834179229 0 0.24471655788437549 -0.41836465708289111 0 0.26660164492473198 -0.42150218520744809 0 0.25834465052961392 -0.41196496969487773 0 0.25675938249820729 -0.42906236834179229 0 0.25675938249820729 -0.42906236834179229 0 0.26225826081895931 -0.43553163761717179 0 0.24937758952868769 -0.43582476186075059 0 0.25675938249820729 -0.42906236834179229 0 0.26225826081895931 -0.43553163761717179 0 0.26930167735914629 -0.4333880303452663 0 0.25675938249820729 -0.42906236834179229 0 0.27821428364315981 -0.42912996774889278 0 0.26930167735914629 -0.4333880303452663 0 0.27111210296809168 -0.43642101817110968 0 0.27821428364315981 -0.42912996774889278 0 0.25675938249820729 -0.42906236834179229 0 0.26930167735914629 -0.4333880303452663 0 0.27821428364315981 -0.42912996774889278 0 0.26660164492473198 -0.42150218520744809 0 0.25675938249820729 -0.42906236834179229 0 0.27821428364315981 -0.42912996774889278 0 0.26225826081895931 -0.43553163761717179 0 0.26930167735914629 -0.4333880303452663 0 0.27111210296809168 -0.43642101817110968 0 0.26930167735914629 -0.4333880303452663 0 0.27111210296809168 -0.43642101817110968 0 0.27844475086434628 -0.42008249968918893 0 0.26660164492473198 -0.42150218520744809 0 0.27821428364315981 -0.42912996774889278 0 0.27111210296809168 -0.43642101817110968 0 0.27821428364315981 -0.42912996774889278 0 0.27851784514164207 -0.43605140350369348 0 0.27111210296809168 -0.43642101817110968 0 0.27821428364315981 -0.42912996774889278 0 0.27821428364315981 -0.42912996774889278 0 0.27851784514164207 -0.43605140350369348 0 0.28546936300596981 -0.42915282681778749 0 0.28546936300596981 -0.42915282681778749 0 0.28269717206150108 -0.44245749461713091 0 0.27851784514164207 -0.43605140350369348 0 0.28546936300596981 -0.42915282681778749 0 0.28269717206150108 -0.44245749461713091 0 0.28844378249660962 -0.43602848621063972 0 0.28546936300596981 -0.42915282681778749 0 0.28269717206150108 -0.44245749461713091 0 0.28844378249660962 -0.43602848621063972 0 0.29246087371645019 -0.42917485544311462 0 0.28546936300596981 -0.42915282681778749 0 0.28844378249660962 -0.43602848621063972 0 0.29246087371645019 -0.42917485544311462 0 0.29314772120251731 -0.44332876796452603 0 0.29246087371645019 -0.42917485544311462 0 0.29314772120251731 -0.44332876796452603 0 0.29246087371645019 -0.42917485544311462 0 0.30493236766246812 -0.436345934488445 0 0.29314772120251731 -0.44332876796452603 0 0.29246087371645019 -0.42917485544311462 0 0.29178274806564442 -0.41520067436951369 0 0.29246087371645019 -0.42917485544311462 0 0.29178274806564442 -0.41520067436951369 0 0.30279640574840933 -0.42221027087496837 0 0.27821428364315981 -0.42912996774889278 0 0.28546936300596981 -0.42915282681778749 0 0.28744958810085658 -0.4196490669458563 0 0.28546936300596981 -0.42915282681778749 0 0.28744958810085658 -0.4196490669458563 0 0.29246087371645019 -0.42917485544311462 0 0.28546936300596981 -0.42915282681778749 0 0.28744958810085658 -0.4196490669458563 0 0.27821428364315981 -0.42912996774889278 0 0.28744958810085658 -0.4196490669458563 0 0.27844475086434628 -0.42008249968918893 0 0.27821428364315981 -0.42912996774889278 0 0.28744958810085658 -0.4196490669458563 0 0.29246087371645019 -0.42917485544311462 0 0.28546936300596981 -0.42915282681778749 0 0.27821428364315981 -0.42912996774889278 0 0.28546936300596981 -0.42915282681778749 0 0.29113929267155558 -0.40194094561721161 0 0.28744958810085658 -0.4196490669458563 0 0.28264635626051132 -0.40952105626625152 0 0.27844475086434628 -0.42008249968918893 0 0.28744958810085658 -0.4196490669458563 0 0.28264635626051132 -0.40952105626625152 0 0.29113929267155558 -0.40194094561721161 0 0.28744958810085658 -0.4196490669458563 0 0.29113929267155558 -0.40194094561721161 0 0.28744958810085658 -0.4196490669458563 0 0.29178274806564442 -0.41520067436951369 0 0.29113929267155558 -0.40194094561721161 0 0.29178274806564442 -0.41520067436951369 0 0.29246087371645019 -0.42917485544311462 0 0.28744958810085658 -0.4196490669458563 0 0.29178274806564442 -0.41520067436951369 0 0.28744958810085658 -0.4196490669458563 0 0.29178274806564442 -0.41520067436951369 0 0.29178274806564442 -0.41520067436951369 0 0.30888278388740348 -0.41521004381282178 0 0.30279640574840933 -0.42221027087496837 0 0.31075796009052831 -0.39572085063997808 0 0.29178274806564442 -0.41520067436951369 0 0.30888278388740348 -0.41521004381282178 0 0.31805921732413212 -0.42925550987442379 0 0.29246087371645019 -0.42917485544311462 0 0.31805921732413212 -0.42925550987442379 0 0.29246087371645019 -0.42917485544311462 0 0.30279640574840933 -0.42221027087496837 0 0.31805921732413212 -0.42925550987442379 0 0.29246087371645019 -0.42917485544311462 0 0.30493236766246812 -0.436345934488445 0 0.31805921732413212 -0.42925550987442379 0 0.30888278388740348 -0.41521004381282178 0 0.30279640574840933 -0.42221027087496837 0 0.31606165840676581 -0.44362460467171588 0 0.30512612189178517 -0.45184566719406782 0 0.29314772120251731 -0.44332876796452603 0 0.31606165840676581 -0.44362460467171588 0 0.30493236766246812 -0.436345934488445 0 0.29314772120251731 -0.44332876796452603 0 0.30512612189178517 -0.45184566719406782 0 0.29394025903575932 -0.45966064860657702 0 0.29314772120251731 -0.44332876796452603 0 0.31606165840676581 -0.44362460467171588 0 0.29314772120251731 -0.44332876796452603 0 0.31537357137569311 -0.47573542319158041 0 0.31637589709399738 -0.45542627657340667 0 0.30512612189178517 -0.45184566719406782 0 0.31537357137569311 -0.47573542319158041 0 0.30512612189178517 -0.45184566719406782 0 0.31537357137569311 -0.47573542319158041 0 0.30512612189178517 -0.45184566719406782 0 0.29394025903575932 -0.45966064860657702 0 0.29394025903575932 -0.45966064860657702 0 0.28491455044924457 -0.45954411970608688 0 0.29473279686900039 -0.47599252924862812 0 0.29394025903575932 -0.45966064860657702 0 0.29473279686900039 -0.47599252924862812 0 0.28491455044924457 -0.45954411970608688 0 0.29473279686900039 -0.47599252924862812 0 0.29394025903575932 -0.45966064860657702 0 0.28491455044924457 -0.45954411970608688 0 0.29314772120251731 -0.44332876796452603 0 0.29314772120251731 -0.44332876796452603 0 0.28269717206150108 -0.44245749461713091 0 0.27509630402948781 -0.44309571016354632 0 0.29314772120251731 -0.44332876796452603 0 0.27509630402948781 -0.44309571016354632 0 0.28491455044924457 -0.45954411970608688 0 0.29314772120251731 -0.44332876796452603 0 0.27509630402948781 -0.44309571016354632 0 0.29394025903575932 -0.45966064860657702 0 0.29314772120251731 -0.44332876796452603 0 0.28844378249660962 -0.43602848621063972 0 0.29314772120251731 -0.44332876796452603 0 0.28269717206150108 -0.44245749461713091 0 0.27851784514164207 -0.43605140350369348 0 0.28269717206150108 -0.44245749461713091 0 0.27509630402948781 -0.44309571016354632 0 0.28491455044924457 -0.45954411970608688 0 0.27509630402948781 -0.44309571016354632 0 0.27111210296809168 -0.43642101817110968 0 0.27851784514164207 -0.43605140350369348 0 0.27509630402948781 -0.44309571016354632 0 0.27509630402948781 -0.44309571016354632 0 0.2647405517406643 -0.44296200936694391 0 0.26894138168338477 -0.45835658674643581 0 0.27509630402948781 -0.44309571016354632 0 0.2647405517406643 -0.44296200936694391 0 0.27111210296809168 -0.43642101817110968 0 0.27509630402948781 -0.44309571016354632 0 0.2647405517406643 -0.44296200936694391 0 0.26225826081895931 -0.43553163761717179 0 0.27111210296809168 -0.43642101817110968 0 0.2647405517406643 -0.44296200936694391 0 0.27111210296809168 -0.43642101817110968 0 0.27509630402948781 -0.44309571016354632 0 0.27111210296809168 -0.43642101817110968 0 0.2647405517406643 -0.44296200936694391 0 0.2647405517406643 -0.44296200936694391 0 0.23528251899697711 -0.44258168330907049 0 0.26225826081895931 -0.43553163761717179 0 0.2647405517406643 -0.44296200936694391 0 0.24937758952868769 -0.43582476186075059 0 0.2647405517406643 -0.44296200936694391 0 0.24642569303344669 -0.46176391886762419 0 0.2647405517406643 -0.44296200936694391 0 0.26894138168338477 -0.45835658674643581 0 0.24642569303344669 -0.46176391886762419 0 0.26894138168338477 -0.45835658674643581 0 0.25460761733926612 -0.48077428153223201 0 0.24642569303344669 -0.46176391886762419 0 0.28491455044924457 -0.45954411970608688 0 0.26894138168338477 -0.45835658674643581 0 0.27481125637505999 -0.47672941046381351 0 0.28491455044924457 -0.45954411970608688 0 0.27509630402948781 -0.44309571016354632 0 0.26894138168338477 -0.45835658674643581 0 0.26894138168338477 -0.45835658674643581 0 0.27481125637505999 -0.47672941046381351 0 0.25460761733926612 -0.48077428153223201 0 0.25460761733926612 -0.48077428153223201 0 0.26992155257213829 -0.5 0 0.24394529676999099 -0.5 0 0.27481125637505999 -0.47672941046381351 0 0.25460761733926612 -0.48077428153223201 0 0.26992155257213829 -0.5 0 0.27481125637505999 -0.47672941046381351 0 0.26992155257213829 -0.5 0 0.28423504578222791 -0.48826781330302371 0 0.2958978083742857 -0.500000000000002 0 0.29473279686900039 -0.47599252924862812 0 0.28423504578222791 -0.48826781330302371 0 0.2958978083742857 -0.500000000000002 0 0.29473279686900039 -0.47599252924862812 0 0.26992155257213829 -0.5 0 0.28423504578222791 -0.48826781330302371 0 0.2958978083742857 -0.500000000000002 0 0.27481125637505999 -0.47672941046381351 0 0.28423504578222791 -0.48826781330302371 0 0.29473279686900039 -0.47599252924862812 0 0.28491455044924457 -0.45954411970608688 0 0.27481125637505999 -0.47672941046381351 0 0.29473279686900039 -0.47599252924862812 0 0.31537357137569311 -0.47573542319158041 0 0.29473279686900039 -0.47599252924862812 0 0.30906313459206908 -0.49999999999999822 0 0.31537357137569311 -0.47573542319158041 0 0.29394025903575932 -0.45966064860657702 0 0.29473279686900039 -0.47599252924862812 0 0.2958978083742857 -0.500000000000002 0 0.29473279686900039 -0.47599252924862812 0 0.30906313459206908 -0.49999999999999822 0 0.29473279686900039 -0.47599252924862812 0 0.30906313459206908 -0.49999999999999822 0 0.32957540708980337 -0.28233484169300721 0 0.33350720058453531 -0.3067582988720306 0 0.34777854009225467 -0.29092059718385621 0 0.33350720058453531 -0.3067582988720306 0 0.31940688812320073 -0.32114172553523779 0 0.31236919290445669 -0.30090688950199113 0 0.32957540708980337 -0.28233484169300721 0 0.33350720058453531 -0.3067582988720306 0 0.31236919290445669 -0.30090688950199113 0 0.32957540708980337 -0.28233484169300721 0 0.31236919290445669 -0.30090688950199113 0 0.31219288969015102 -0.27103532748113379 0 0.32957540708980337 -0.28233484169300721 0 0.32740146312166057 -0.2615598439342075 0 0.31219288969015102 -0.27103532748113379 0 0.30987088180634448 -0.24125362874219619 0 0.32740146312166057 -0.2615598439342075 0 0.31219288969015102 -0.27103532748113379 0 0.33627474799740559 -0.24529035195854479 0 0.32740146312166057 -0.2615598439342075 0 0.34280143854843398 -0.26651154424247869 0 0.32957540708980337 -0.28233484169300721 0 0.32740146312166057 -0.2615598439342075 0 0.34280143854843398 -0.26651154424247869 0 0.32957540708980337 -0.28233484169300721 0 0.34280143854843398 -0.26651154424247869 0 0.34777854009225467 -0.29092059718385621 0 0.34280143854843398 -0.26651154424247869 0 0.35666834061529479 -0.27123260863895199 0 0.34777854009225467 -0.29092059718385621 0 0.3592550994650468 -0.24613366971849041 0 0.34280143854843398 -0.26651154424247869 0 0.35666834061529479 -0.27123260863895199 0 0.33627474799740559 -0.24529035195854479 0 0.3592550994650468 -0.24613366971849041 0 0.34280143854843398 -0.26651154424247869 0 0.3592550994650468 -0.24613366971849041 0 0.37962897743813367 -0.25651992395937562 0 0.37050420578859872 -0.26776837990911312 0 0.3592550994650468 -0.24613366971849041 0 0.35666834061529479 -0.27123260863895199 0 0.37050420578859872 -0.26776837990911312 0 0.3592550994650468 -0.24613366971849041 0 0.37050420578859872 -0.26776837990911312 0 0.35666834061529479 -0.27123260863895199 0 0.37050420578859872 -0.26776837990911312 0 0.36300241918213971 -0.28482885214082171 0 0.37050420578859872 -0.26776837990911312 0 0.37154850581208082 -0.284248057172719 0 0.36300241918213971 -0.28482885214082171 0 0.38175331211215058 -0.28940309009973592 0 0.37050420578859872 -0.26776837990911312 0 0.37154850581208082 -0.284248057172719 0 0.37154850581208082 -0.284248057172719 0 0.37093408616543422 -0.29499190654120538 0 0.36300241918213971 -0.28482885214082171 0 0.38175331211215058 -0.28940309009973592 0 0.37154850581208082 -0.284248057172719 0 0.37093408616543422 -0.29499190654120538 0 0.37093408616543422 -0.29499190654120538 0 0.36300241918213971 -0.28482885214082171 0 0.36107539554114298 -0.29693991331551067 0 0.35666834061529479 -0.27123260863895199 0 0.36300241918213971 -0.28482885214082171 0 0.34777854009225467 -0.29092059718385621 0 0.36300241918213971 -0.28482885214082171 0 0.34777854009225467 -0.29092059718385621 0 0.36107539554114298 -0.29693991331551067 0 0.33350720058453531 -0.3067582988720306 0 0.35617419542099171 -0.30797258542327188 0 0.3434221482530771 -0.31898036386437462 0 0.33350720058453531 -0.3067582988720306 0 0.34777854009225467 -0.29092059718385621 0 0.35617419542099171 -0.30797258542327188 0 0.34777854009225467 -0.29092059718385621 0 0.35617419542099171 -0.30797258542327188 0 0.36107539554114298 -0.29693991331551067 0 0.35617419542099171 -0.30797258542327188 0 0.36107539554114298 -0.29693991331551067 0 0.37214457168145071 -0.30742358830148531 0 0.38029466251644028 -0.29986647237510811 0 0.37093408616543422 -0.29499190654120538 0 0.37214457168145071 -0.30742358830148531 0 0.37093408616543422 -0.29499190654120538 0 0.36107539554114298 -0.29693991331551067 0 0.37214457168145071 -0.30742358830148531 0 0.35617419542099171 -0.30797258542327188 0 0.37214457168145071 -0.30742358830148531 0 0.36996172146423478 -0.32754273311982529 0 0.35617419542099171 -0.30797258542327188 0 0.36996172146423478 -0.32754273311982529 0 0.35306648032504262 -0.33228776260873261 0 0.38164260336710232 -0.31615744579396521 0 0.37214457168145071 -0.30742358830148531 0 0.36996172146423478 -0.32754273311982529 0 0.36996172146423478 -0.32754273311982529 0 0.35306648032504262 -0.33228776260873261 0 0.35731430246447682 -0.34983201697113597 0 0.37618485313497191 -0.35303141813195599 0 0.36996172146423478 -0.32754273311982529 0 0.35731430246447682 -0.34983201697113597 0 0.37618485313497191 -0.35303141813195599 0 0.36996172146423478 -0.32754273311982529 0 0.35306648032504262 -0.33228776260873261 0 0.35731430246447682 -0.34983201697113597 0 0.34168414680625769 -0.34452156241349458 0 0.35617419542099171 -0.30797258542327188 0 0.35306648032504262 -0.33228776260873261 0 0.3434221482530771 -0.31898036386437462 0 0.37618485313497191 -0.35303141813195599 0 0.38240798480570892 -0.37852010314408679 0 0.3567457423339877 -0.37092962175819427 0 0.37618485313497191 -0.35303141813195599 0 0.35731430246447682 -0.34983201697113597 0 0.3567457423339877 -0.37092962175819427 0 0.35731430246447682 -0.34983201697113597 0 0.33741189226114721 -0.35981876257024509 0 0.34168414680625769 -0.34452156241349458 0 0.35731430246447682 -0.34983201697113597 0 0.3567457423339877 -0.37092962175819427 0 0.33741189226114721 -0.35981876257024509 0 0.33846966771265258 -0.37695460337982112 0 0.3567457423339877 -0.37092962175819427 0 0.33741189226114721 -0.35981876257024509 0 0.33846966771265258 -0.37695460337982112 0 0.33741189226114721 -0.35981876257024509 0 0.31915821050206972 -0.37043664262910392 0 0.33741189226114721 -0.35981876257024509 0 0.34168414680625769 -0.34452156241349458 0 0.32813074893442251 -0.34418371868588848 0 0.33741189226114721 -0.35981876257024509 0 0.32813074893442251 -0.34418371868588848 0 0.32201112636252999 -0.3528096981888329 0 0.32201112636252999 -0.3528096981888329 0 0.31915821050206972 -0.37043664262910392 0 0.30987318817222509 -0.34571298684785262 0 0.32813074893442251 -0.34418371868588848 0 0.32201112636252999 -0.3528096981888329 0 0.31771908807833588 -0.34170101098267841 0 0.32201112636252999 -0.3528096981888329 0 0.31771908807833588 -0.34170101098267841 0 0.30987318817222509 -0.34571298684785262 0 0.33741189226114721 -0.35981876257024509 0 0.32201112636252999 -0.3528096981888329 0 0.31915821050206972 -0.37043664262910392 0 0.35306648032504262 -0.33228776260873261 0 0.3434221482530771 -0.31898036386437462 0 0.33232496317177118 -0.32984298873849771 0 0.33350720058453531 -0.3067582988720306 0 0.3434221482530771 -0.31898036386437462 0 0.33232496317177118 -0.32984298873849771 0 0.33350720058453531 -0.3067582988720306 0 0.33232496317177118 -0.32984298873849771 0 0.31940688812320073 -0.32114172553523779 0 0.35306648032504262 -0.33228776260873261 0 0.34168414680625769 -0.34452156241349458 0 0.33232496317177118 -0.32984298873849771 0 0.34168414680625769 -0.34452156241349458 0 0.32813074893442251 -0.34418371868588848 0 0.33232496317177118 -0.32984298873849771 0 0.32813074893442251 -0.34418371868588848 0 0.33232496317177118 -0.32984298873849771 0 0.32267668596175481 -0.33341785867055518 0 0.33232496317177118 -0.32984298873849771 0 0.32267668596175481 -0.33341785867055518 0 0.31940688812320073 -0.32114172553523779 0 0.32813074893442251 -0.34418371868588848 0 0.32267668596175481 -0.33341785867055518 0 0.31771908807833588 -0.34170101098267841 0 0.32267668596175481 -0.33341785867055518 0 0.31771908807833588 -0.34170101098267841 0 0.31294298630122958 -0.33429540854302747 0 0.31771908807833588 -0.34170101098267841 0 0.31168118685013108 -0.34100175600761939 0 0.30987318817222509 -0.34571298684785262 0 0.31771908807833588 -0.34170101098267841 0 0.31294298630122958 -0.33429540854302747 0 0.31168118685013108 -0.34100175600761939 0 0.32267668596175481 -0.33341785867055518 0 0.31294298630122958 -0.33429540854302747 0 0.31940688812320073 -0.32114172553523779 0 0.31294298630122958 -0.33429540854302747 0 0.31940688812320073 -0.32114172553523779 0 0.30601167809918312 -0.32095610648709572 0 0.31940688812320073 -0.32114172553523779 0 0.30601167809918312 -0.32095610648709572 0 0.31236919290445669 -0.30090688950199113 0 0.30601167809918312 -0.32095610648709572 0 0.29267099061500118 -0.31767693215293968 0 0.29602111265001879 -0.30165816726207401 0 0.30601167809918312 -0.32095610648709572 0 0.30423517195087751 -0.34071154513897461 0 0.29267099061500118 -0.31767693215293968 0 0.31294298630122958 -0.33429540854302747 0 0.30601167809918312 -0.32095610648709572 0 0.30570887717953288 -0.34364700841230278 0 0.30423517195087751 -0.34071154513897461 0 0.29267099061500118 -0.31767693215293968 0 0.30601167809918312 -0.32095610648709572 0 0.30570887717953288 -0.34364700841230278 0 0.30423517195087751 -0.34071154513897461 0 0.31294298630122958 -0.33429540854302747 0 0.31168118685013108 -0.34100175600761939 0 0.30570887717953288 -0.34364700841230278 0 0.31168118685013108 -0.34100175600761939 0 0.30570887717953288 -0.34364700841230278 0 0.30987318817222509 -0.34571298684785262 0 0.30570887717953288 -0.34364700841230278 0 0.30423517195087751 -0.34071154513897461 0 0.30570887717953288 -0.34364700841230278 0 0.30351258495694688 -0.34255739421730541 0 0.30423517195087751 -0.34071154513897461 0 0.30570887717953288 -0.34364700841230278 0 0.30351258495694688 -0.34255739421730541 0 0.30351258495694688 -0.34255739421730541 0 0.30423517195087751 -0.34071154513897461 0 0.30423517195087751 -0.34071154513897461 0 0.29267099061500118 -0.31767693215293968 0 0.27697346549350221 -0.32939093076003212 0 0.30351258495694688 -0.34255739421730541 0 0.27697346549350221 -0.32939093076003212 0 0.30351258495694688 -0.34255739421730541 0 0.30423517195087751 -0.34071154513897461 0 0.27697346549350221 -0.32939093076003212 0 0.30351258495694688 -0.34255739421730541 0 0.28388279232808111 -0.34879423229863538 0 0.27697346549350221 -0.32939093076003212 0 0.3096773386499212 -0.3813243078888065 0 0.31915821050206972 -0.37043664262910392 0 0.29938815419514908 -0.36235191135060729 0 0.29526372343335222 -0.38214642848390951 0 0.29938815419514908 -0.36235191135060729 0 0.30570887717953288 -0.34364700841230278 0 0.30351258495694688 -0.34255739421730541 0 0.29938815419514908 -0.36235191135060729 0 0.31915821050206972 -0.37043664262910392 0 0.30570887717953288 -0.34364700841230278 0 0.30987318817222509 -0.34571298684785262 0 0.30351258495694688 -0.34255739421730541 0 0.29938815419514908 -0.36235191135060729 0 0.29225796469017368 -0.35486586181932289 0 0.31915821050206972 -0.37043664262910392 0 0.30570887717953288 -0.34364700841230278 0 0.29938815419514908 -0.36235191135060729 0 0.31915821050206972 -0.37043664262910392 0 0.30570887717953288 -0.34364700841230278 0 0.30351258495694688 -0.34255739421730541 0 0.29938815419514908 -0.36235191135060729 0 0.30570887717953288 -0.34364700841230278 0 0.30987318817222509 -0.34571298684785262 0 0.29225796469017368 -0.35486586181932289 0 0.28388279232808111 -0.34879423229863538 0 0.2822483272805178 -0.36575990941074382 0 0.30351258495694688 -0.34255739421730541 0 0.29225796469017368 -0.35486586181932289 0 0.28388279232808111 -0.34879423229863538 0 0.29526372343335222 -0.38214642848390951 0 0.29938815419514908 -0.36235191135060729 0 0.2822483272805178 -0.36575990941074382 0 0.29938815419514908 -0.36235191135060729 0 0.29225796469017368 -0.35486586181932289 0 0.2822483272805178 -0.36575990941074382 0 0.27569670368188232 -0.38326726020642471 0 0.2822483272805178 -0.36575990941074382 0 0.26273855981799532 -0.37402085189451678 0 0.2822483272805178 -0.36575990941074382 0 0.26391134377156378 -0.35745418407105078 0 0.26273855981799532 -0.37402085189451678 0 0.28388279232808111 -0.34879423229863538 0 0.2690396956517056 -0.34420120372419399 0 0.26391134377156378 -0.35745418407105078 0 0.28388279232808111 -0.34879423229863538 0 0.2822483272805178 -0.36575990941074382 0 0.26391134377156378 -0.35745418407105078 0 0.26391134377156378 -0.35745418407105078 0 0.25139118101367519 -0.34116546776705792 0 0.24725496166677341 -0.36469484034826838 0 0.2690396956517056 -0.34420120372419399 0 0.26391134377156378 -0.35745418407105078 0 0.25139118101367519 -0.34116546776705792 0 0.26391134377156378 -0.35745418407105078 0 0.26273855981799532 -0.37402085189451678 0 0.24725496166677341 -0.36469484034826838 0 0.26273855981799532 -0.37402085189451678 0 0.24725496166677341 -0.36469484034826838 0 0.2462658744323834 -0.38197959250061342 0 0.27697346549350221 -0.32939093076003212 0 0.2504343460300561 -0.31622446730276171 0 0.27399568940133018 -0.31084845435951231 0 0.29267099061500118 -0.31767693215293968 0 0.27697346549350221 -0.32939093076003212 0 0.27399568940133018 -0.31084845435951231 0 0.2690396956517056 -0.34420120372419399 0 0.27697346549350221 -0.32939093076003212 0 0.25139118101367519 -0.34116546776705792 0 0.28388279232808111 -0.34879423229863538 0 0.2690396956517056 -0.34420120372419399 0 0.27697346549350221 -0.32939093076003212 0 0.27697346549350221 -0.32939093076003212 0 0.25139118101367519 -0.34116546776705792 0 0.2504343460300561 -0.31622446730276171 0 0.27697346549350221 -0.32939093076003212 0 0.2504343460300561 -0.31622446730276171 0 0.2504343460300561 -0.31622446730276171 0 0.25790403393649142 -0.29221016043342007 0 0.26868825863076801 -0.29933442507853231 0 0.2504343460300561 -0.31622446730276171 0 0.27399568940133018 -0.31084845435951231 0 0.26868825863076801 -0.29933442507853231 0 0.25790403393649142 -0.29221016043342007 0 0.26247779924518422 -0.27455948017448001 0 0.23862998452346509 -0.28454510211497241 0 0.25790403393649142 -0.29221016043342007 0 0.27122533838754692 -0.28910882128364879 0 0.26247779924518422 -0.27455948017448001 0 0.27122533838754692 -0.28910882128364879 0 0.28742349607482037 -0.28773318483823551 0 0.26247779924518422 -0.27455948017448001 0 0.27122533838754692 -0.28910882128364879 0 0.27963310405047059 -0.29170685589357598 0 0.28742349607482037 -0.28773318483823551 0 0.25790403393649142 -0.29221016043342007 0 0.27122533838754692 -0.28910882128364879 0 0.26868825863076801 -0.29933442507853231 0 0.27122533838754692 -0.28910882128364879 0 0.27963310405047059 -0.29170685589357598 0 0.26868825863076801 -0.29933442507853231 0 0.27963310405047059 -0.29170685589357598 0 0.27399568940133018 -0.31084845435951231 0 0.26868825863076801 -0.29933442507853231 0 0.29267099061500118 -0.31767693215293968 0 0.27963310405047059 -0.29170685589357598 0 0.29267099061500118 -0.31767693215293968 0 0.27963310405047059 -0.29170685589357598 0 0.27399568940133018 -0.31084845435951231 0 0.29267099061500118 -0.31767693215293968 0 0.27963310405047059 -0.29170685589357598 0 0.29602111265001879 -0.30165816726207401 0 0.27963310405047059 -0.29170685589357598 0 0.29602111265001879 -0.30165816726207401 0 0.28742349607482037 -0.28773318483823551 0 0.28742349607482037 -0.28773318483823551 0 0.31236919290445669 -0.30090688950199113 0 0.29602111265001879 -0.30165816726207401 0 0.28742349607482037 -0.28773318483823551 0 0.31236919290445669 -0.30090688950199113 0 0.28742349607482037 -0.28773318483823551 0 0.31236919290445669 -0.30090688950199113 0 0.2973859747586714 -0.27579116796592118 0 0.31236919290445669 -0.30090688950199113 0 0.31219288969015102 -0.27103532748113379 0 0.2973859747586714 -0.27579116796592118 0 0.30601167809918312 -0.32095610648709572 0 0.29602111265001879 -0.30165816726207401 0 0.31236919290445669 -0.30090688950199113 0 0.30987088180634448 -0.24125362874219619 0 0.29250997527574701 -0.24677647679701359 0 0.31219288969015102 -0.27103532748113379 0 0.29250997527574701 -0.24677647679701359 0 0.31219288969015102 -0.27103532748113379 0 0.2896735531526361 -0.26412531454105981 0 0.31219288969015102 -0.27103532748113379 0 0.2973859747586714 -0.27579116796592118 0 0.2896735531526361 -0.26412531454105981 0 0.2973859747586714 -0.27579116796592118 0 0.28192096152604101 -0.27231994505035018 0 0.2896735531526361 -0.26412531454105981 0 0.28742349607482037 -0.28773318483823551 0 0.2973859747586714 -0.27579116796592118 0 0.28192096152604101 -0.27231994505035018 0 0.29250997527574701 -0.24677647679701359 0 0.2896735531526361 -0.26412531454105981 0 0.27534065318434953 -0.25880162201512719 0 0.28192096152604101 -0.27231994505035018 0 0.2896735531526361 -0.26412531454105981 0 0.27534065318434953 -0.25880162201512719 0 0.27462122614518292 -0.24127539045551061 0 0.27534065318434953 -0.25880162201512719 0 0.25726365536858148 -0.25362034743760148 0 0.28742349607482037 -0.28773318483823551 0 0.26247779924518422 -0.27455948017448001 0 0.28192096152604101 -0.27231994505035018 0 0.27534065318434953 -0.25880162201512719 0 0.26247779924518422 -0.27455948017448001 0 0.28742349607482037 -0.28773318483823551 0 0.28192096152604101 -0.27231994505035018 0 0.26247779924518422 -0.27455948017448001 0 0.26247779924518422 -0.27455948017448001 0 0.23753210241554801 -0.26138577551072451 0 0.26247779924518422 -0.27455948017448001 0 0.25726365536858148 -0.25362034743760148 0 0.23753210241554801 -0.26138577551072451 0 0.27534065318434953 -0.25880162201512719 0 0.26247779924518422 -0.27455948017448001 0 0.25726365536858148 -0.25362034743760148 0 0.23753210241554801 -0.26138577551072451 0 0.24146341680214309 -0.24448521489457861 0 0.2264227451730553 -0.24971222362376699 0 0.25726365536858148 -0.25362034743760148 0 0.23753210241554801 -0.26138577551072451 0 0.24146341680214309 -0.24448521489457861 0 0.26247779924518422 -0.27455948017448001 0 0.23753210241554801 -0.26138577551072451 0 0.23862998452346509 -0.28454510211497241 0 0.23753210241554801 -0.26138577551072451 0 0.2162589501465873 -0.27468266641732147 0 0.23862998452346509 -0.28454510211497241 0 0.23753210241554801 -0.26138577551072451 0 0.2162589501465873 -0.27468266641732147 0 0.2264227451730553 -0.24971222362376699 0 0.21040399342164171 -0.25176681621351038 0 0.2162589501465873 -0.27468266641732147 0 0.2264227451730553 -0.24971222362376699 0 0.21040399342164171 -0.25176681621351038 0 0.2162589501465873 -0.27468266641732147 0 0.1934777637386868 -0.26196852324515157 0 0.2162589501465873 -0.27468266641732147 0 0.1966688692062398 -0.27921476679881868 0 0.1934777637386868 -0.26196852324515157 0 0.1966688692062398 -0.27921476679881868 0 0.1934777637386868 -0.26196852324515157 0 0.177394147168592 -0.28445233252858981 0 0.21040399342164171 -0.25176681621351038 0 0.1934777637386868 -0.26196852324515157 0 0.19936230214102421 -0.2479946931896729 0 0.1934777637386868 -0.26196852324515157 0 0.18957958600208469 -0.24548130840959781 0 0.18140855909891221 -0.24875385404173869 0 0.1934777637386868 -0.26196852324515157 0 0.18957958600208469 -0.24548130840959781 0 0.19936230214102421 -0.2479946931896729 0 0.19954461577109309 -0.29575554500421197 0 0.1961972522999722 -0.32216937387389732 0 0.17947015261898311 -0.31043279954087621 0 0.1966688692062398 -0.27921476679881868 0 0.19954461577109309 -0.29575554500421197 0 0.177394147168592 -0.28445233252858981 0 0.2162589501465873 -0.27468266641732147 0 0.19954461577109309 -0.29575554500421197 0 0.22389522656661021 -0.30305800384549131 0 0.2162589501465873 -0.27468266641732147 0 0.1966688692062398 -0.27921476679881868 0 0.19954461577109309 -0.29575554500421197 0 0.19954461577109309 -0.29575554500421197 0 0.22389522656661021 -0.30305800384549131 0 0.1961972522999722 -0.32216937387389732 0 0.2504343460300561 -0.31622446730276171 0 0.25790403393649142 -0.29221016043342007 0 0.23862998452346509 -0.28454510211497241 0 0.2504343460300561 -0.31622446730276171 0 0.22389522656661021 -0.30305800384549131 0 0.23862998452346509 -0.28454510211497241 0 0.2162589501465873 -0.27468266641732147 0 0.22389522656661021 -0.30305800384549131 0 0.23862998452346509 -0.28454510211497241 0 0.2504343460300561 -0.31622446730276171 0 0.22389522656661021 -0.30305800384549131 0 0.22389522656661021 -0.30305800384549131 0 0.23204811719291779 -0.33532479601063409 0 0.2125404456115573 -0.3333426100015644 0 0.2504343460300561 -0.31622446730276171 0 0.22389522656661021 -0.30305800384549131 0 0.23204811719291779 -0.33532479601063409 0 0.25139118101367519 -0.34116546776705792 0 0.2504343460300561 -0.31622446730276171 0 0.23204811719291779 -0.33532479601063409 0 0.25139118101367519 -0.34116546776705792 0 0.23204811719291779 -0.33532479601063409 0 0.23339586826354061 -0.3539524211851004 0 0.23204811719291779 -0.33532479601063409 0 0.2148142246021956 -0.35440494078226209 0 0.2125404456115573 -0.3333426100015644 0 0.24725496166677341 -0.36469484034826838 0 0.23339586826354061 -0.3539524211851004 0 0.22607167799098421 -0.37270743793131111 0 0.24725496166677341 -0.36469484034826838 0 0.22607167799098421 -0.37270743793131111 0 0.2462658744323834 -0.38197959250061342 0 0.25139118101367519 -0.34116546776705792 0 0.24725496166677341 -0.36469484034826838 0 0.23339586826354061 -0.3539524211851004 0 0.23204811719291779 -0.33532479601063409 0 0.23339586826354061 -0.3539524211851004 0 0.2148142246021956 -0.35440494078226209 0 0.23339586826354061 -0.3539524211851004 0 0.22607167799098421 -0.37270743793131111 0 0.2148142246021956 -0.35440494078226209 0 0.22607167799098421 -0.37270743793131111 0 0.2148142246021956 -0.35440494078226209 0 0.20089624558916569 -0.37097766955135358 0 0.2148142246021956 -0.35440494078226209 0 0.196995760569282 -0.35087166092684791 0 0.2125404456115573 -0.3333426100015644 0 0.2148142246021956 -0.35440494078226209 0 0.196995760569282 -0.35087166092684791 0 0.20089624558916569 -0.37097766955135358 0 0.196995760569282 -0.35087166092684791 0 0.20089624558916569 -0.37097766955135358 0 0.1768321188753432 -0.36690628541415632 0 0.22389522656661021 -0.30305800384549131 0 0.2125404456115573 -0.3333426100015644 0 0.1961972522999722 -0.32216937387389732 0 0.196995760569282 -0.35087166092684791 0 0.2125404456115573 -0.3333426100015644 0 0.1961972522999722 -0.32216937387389732 0 0.196995760569282 -0.35087166092684791 0 0.1961972522999722 -0.32216937387389732 0 0.1815461580693743 -0.3364132665531625 0 0.1815461580693743 -0.3364132665531625 0 0.1643579081553766 -0.3243843153562348 0 0.17947015261898311 -0.31043279954087621 0 0.1815461580693743 -0.3364132665531625 0 0.17947015261898311 -0.31043279954087621 0 0.1961972522999722 -0.32216937387389732 0 0.1815461580693743 -0.3364132665531625 0 0.17947015261898311 -0.31043279954087621 0 0.1815461580693743 -0.3364132665531625 0 0.16209568629271459 -0.34050931120228572 0 0.17381591925058279 -0.35045305017024581 0 0.16209568629271459 -0.34050931120228572 0 0.1643579081553766 -0.3243843153562348 0 0.1490492594086629 -0.33054926329457512 0 0.1815461580693743 -0.3364132665531625 0 0.16209568629271459 -0.34050931120228572 0 0.1643579081553766 -0.3243843153562348 0 0.1643579081553766 -0.3243843153562348 0 0.14785798951182749 -0.31747381703923983 0 0.15879613053988581 -0.31078255386998788 0 0.1643579081553766 -0.3243843153562348 0 0.17947015261898311 -0.31043279954087621 0 0.15879613053988581 -0.31078255386998788 0 0.196995760569282 -0.35087166092684791 0 0.1815461580693743 -0.3364132665531625 0 0.17381591925058279 -0.35045305017024581 0 0.196995760569282 -0.35087166092684791 0 0.1768321188753432 -0.36690628541415632 0 0.196995760569282 -0.35087166092684791 0 0.1768321188753432 -0.36690628541415632 0 0.17381591925058279 -0.35045305017024581 0 0.16209568629271459 -0.34050931120228572 0 0.17381591925058279 -0.35045305017024581 0 0.15160987244619981 -0.35756472675477641 0 0.1768321188753432 -0.36690628541415632 0 0.17381591925058279 -0.35045305017024581 0 0.15160987244619981 -0.35756472675477641 0 0.1768321188753432 -0.36690628541415632 0 0.15160987244619981 -0.35756472675477641 0 0.15666847718140431 -0.38294090990146468 0 0.1768321188753432 -0.36690628541415632 0 0.15666847718140431 -0.38294090990146468 0 0.15160987244619981 -0.35756472675477641 0 0.13564640110034021 -0.35912784543918008 0 0.13554014667972011 -0.37371994475541209 0 0.15160987244619981 -0.35756472675477641 0 0.13554014667972011 -0.37371994475541209 0 0.15666847718140431 -0.38294090990146468 0 0.16209568629271459 -0.34050931120228572 0 0.15160987244619981 -0.35756472675477641 0 0.1475882597035684 -0.34306743954738478 0 0.15160987244619981 -0.35756472675477641 0 0.1343114121946197 -0.3455365503022883 0 0.1475882597035684 -0.34306743954738478 0 0.15160987244619981 -0.35756472675477641 0 0.1343114121946197 -0.3455365503022883 0 0.13564640110034021 -0.35912784543918008 0 0.1343114121946197 -0.3455365503022883 0 0.1218367566819203 -0.34066885685305681 0 0.1211241730808211 -0.35969015994424403 0 0.1343114121946197 -0.3455365503022883 0 0.13564640110034021 -0.35912784543918008 0 0.1211241730808211 -0.35969015994424403 0 0.13564640110034021 -0.35912784543918008 0 0.13554014667972011 -0.37371994475541209 0 0.1211241730808211 -0.35969015994424403 0 0.1643579081553766 -0.3243843153562348 0 0.14785798951182749 -0.31747381703923983 0 0.1490492594086629 -0.33054926329457512 0 0.14785798951182749 -0.31747381703923983 0 0.1490492594086629 -0.33054926329457512 0 0.13601489266483169 -0.3229904494785929 0 0.16209568629271459 -0.34050931120228572 0 0.1490492594086629 -0.33054926329457512 0 0.1475882597035684 -0.34306743954738478 0 0.1490492594086629 -0.33054926329457512 0 0.1475882597035684 -0.34306743954738478 0 0.1353950678134421 -0.33468762657073647 0 0.1490492594086629 -0.33054926329457512 0 0.1353950678134421 -0.33468762657073647 0 0.13601489266483169 -0.3229904494785929 0 0.1343114121946197 -0.3455365503022883 0 0.1475882597035684 -0.34306743954738478 0 0.1353950678134421 -0.33468762657073647 0 0.1343114121946197 -0.3455365503022883 0 0.1353950678134421 -0.33468762657073647 0 0.1218367566819203 -0.34066885685305681 0 0.1353950678134421 -0.33468762657073647 0 0.12646864396445259 -0.32771949481933838 0 0.13601489266483169 -0.3229904494785929 0 0.1353950678134421 -0.33468762657073647 0 0.12646864396445259 -0.32771949481933838 0 0.1218367566819203 -0.34066885685305681 0 0.12646864396445259 -0.32771949481933838 0 0.13601489266483169 -0.3229904494785929 0 0.1236403595102975 -0.31726182602291142 0 0.14785798951182749 -0.31747381703923983 0 0.13601489266483169 -0.3229904494785929 0 0.13602289492267541 -0.31130305695836602 0 0.13601489266483169 -0.3229904494785929 0 0.13602289492267541 -0.31130305695836602 0 0.1236403595102975 -0.31726182602291142 0 0.127428615210958 -0.30550107704066293 0 0.13602289492267541 -0.31130305695836602 0 0.1236403595102975 -0.31726182602291142 0 0.127428615210958 -0.30550107704066293 0 0.13551093200295419 -0.30168473438614679 0 0.1256525224322369 -0.29448257816376899 0 0.127428615210958 -0.30550107704066293 0 0.13551093200295419 -0.30168473438614679 0 0.13602289492267541 -0.31130305695836602 0 0.13551093200295419 -0.30168473438614679 0 0.13602289492267541 -0.31130305695836602 0 0.14563569558381231 -0.30495269920752849 0 0.14563569558381231 -0.30495269920752849 0 0.1436119925904093 -0.29293491915627751 0 0.1604468518829657 -0.29816604611383052 0 0.14785798951182749 -0.31747381703923983 0 0.13602289492267541 -0.31130305695836602 0 0.14563569558381231 -0.30495269920752849 0 0.13551093200295419 -0.30168473438614679 0 0.14563569558381231 -0.30495269920752849 0 0.1436119925904093 -0.29293491915627751 0 0.14563569558381231 -0.30495269920752849 0 0.15879613053988581 -0.31078255386998788 0 0.1604468518829657 -0.29816604611383052 0 0.14785798951182749 -0.31747381703923983 0 0.14563569558381231 -0.30495269920752849 0 0.15879613053988581 -0.31078255386998788 0 0.1436119925904093 -0.29293491915627751 0 0.1604468518829657 -0.29816604611383052 0 0.15777299279611159 -0.28544097237972332 0 0.1436119925904093 -0.29293491915627751 0 0.15114809845108379 -0.28013278059363872 0 0.15777299279611159 -0.28544097237972332 0 0.1436119925904093 -0.29293491915627751 0 0.1436168584679525 -0.2836209543501686 0 0.1357133019824012 -0.28986653681351437 0 0.1436119925904093 -0.29293491915627751 0 0.1436168584679525 -0.2836209543501686 0 0.15114809845108379 -0.28013278059363872 0 0.1436168584679525 -0.2836209543501686 0 0.12997183443900701 -0.2884276955838429 0 0.14612074404546729 -0.27464986070998659 0 0.1436168584679525 -0.2836209543501686 0 0.1357133019824012 -0.28986653681351437 0 0.12997183443900701 -0.2884276955838429 0 0.1436119925904093 -0.29293491915627751 0 0.1256525224322369 -0.29448257816376899 0 0.12997183443900701 -0.2884276955838429 0 0.14612074404546729 -0.27464986070998659 0 0.1436119925904093 -0.29293491915627751 0 0.1357133019824012 -0.28986653681351437 0 0.1256525224322369 -0.29448257816376899 0 0.13551093200295419 -0.30168473438614679 0 0.1436119925904093 -0.29293491915627751 0 0.1256525224322369 -0.29448257816376899 0 0.1357133019824012 -0.28986653681351437 0 0.1256525224322369 -0.29448257816376899 0 0.12997183443900701 -0.2884276955838429 0 0.1256525224322369 -0.29448257816376899 0 0.12997183443900701 -0.2884276955838429 0 0.1225628758501054 -0.2947488287446996 0 0.1256525224322369 -0.29448257816376899 0 0.12997183443900701 -0.2884276955838429 0 0.12997183443900701 -0.2884276955838429 0 0.1233634239504731 -0.2874855776093414 0 0.1225628758501054 -0.2947488287446996 0 0.12997183443900701 -0.2884276955838429 0 0.1225628758501054 -0.2947488287446996 0 0.12997183443900701 -0.2884276955838429 0 0.1275993617664036 -0.28112518425861122 0 0.1233634239504731 -0.2874855776093414 0 0.12997183443900701 -0.2884276955838429 0 0.1275993617664036 -0.28112518425861122 0 0.13485463758425459 -0.27391652201106309 0 0.1275993617664036 -0.28112518425861122 0 0.1280966355330338 -0.27434446718476552 0 0.12144198577599689 -0.28043819023602667 0 0.12997183443900701 -0.2884276955838429 0 0.14612074404546729 -0.27464986070998659 0 0.1420233446603141 -0.27153369043062148 0 0.12997183443900701 -0.2884276955838429 0 0.13485463758425459 -0.27391652201106309 0 0.1420233446603141 -0.27153369043062148 0 0.12997183443900701 -0.2884276955838429 0 0.1420233446603141 -0.27153369043062148 0 0.1275993617664036 -0.28112518425861122 0 0.1280966355330338 -0.27434446718476552 0 0.13485463758425459 -0.27391652201106309 0 0.1280966355330338 -0.27434446718476552 0 0.13485463758425459 -0.27391652201106309 0 0.13350735252106491 -0.26509119559065258 0 0.1280966355330338 -0.27434446718476552 0 0.13350735252106491 -0.26509119559065258 0 0.123327112510175 -0.26381005316279871 0 0.13811143923488059 -0.26777882680588339 0 0.13485463758425459 -0.27391652201106309 0 0.13350735252106491 -0.26509119559065258 0 0.13811143923488059 -0.26777882680588339 0 0.13485463758425459 -0.27391652201106309 0 0.1420233446603141 -0.27153369043062148 0 0.13350735252106491 -0.26509119559065258 0 0.1338120645475761 -0.25178135897747889 0 0.123327112510175 -0.26381005316279871 0 0.13350735252106491 -0.26509119559065258 0 0.1338120645475761 -0.25178135897747889 0 0.1420604221738889 -0.26057389919119672 0 0.13811143923488059 -0.26777882680588339 0 0.13350735252106491 -0.26509119559065258 0 0.1420604221738889 -0.26057389919119672 0 0.15407485488162029 -0.25463968527739939 0 0.1420233446603141 -0.27153369043062148 0 0.1338120645475761 -0.25178135897747889 0 0.15081333679343489 -0.24957271686280691 0 0.1504037114514421 -0.26476637401943331 0 0.15407485488162029 -0.25463968527739939 0 0.1420233446603141 -0.27153369043062148 0 0.1420604221738889 -0.26057389919119672 0 0.15407485488162029 -0.25463968527739939 0 0.1420233446603141 -0.27153369043062148 0 0.1338120645475761 -0.25178135897747889 0 0.14898820642875321 -0.25263106074458241 0 0.15081333679343489 -0.24957271686280691 0 0.1420604221738889 -0.26057389919119672 0 0.14898820642875321 -0.25263106074458241 0 0.15407485488162029 -0.25463968527739939 0 0.1338120645475761 -0.25178135897747889 0 0.14898820642875321 -0.25263106074458241 0 0.1338120645475761 -0.25178135897747889 0 0.1420604221738889 -0.26057389919119672 0 0.14898820642875321 -0.25263106074458241 0 0.1504037114514421 -0.26476637401943331 0 0.15407485488162029 -0.25463968527739939 0 0.15854298516514259 -0.2623064548534918 0 0.1504037114514421 -0.26476637401943331 0 0.15545765769127859 -0.26765705275147811 0 0.15854298516514259 -0.2623064548534918 0 0.14898820642875321 -0.25263106074458241 0 0.15407485488162029 -0.25463968527739939 0 0.16416434830993021 -0.25348076251168611 0 0.14898820642875321 -0.25263106074458241 0 0.16416434830993021 -0.25348076251168611 0 0.15081333679343489 -0.24957271686280691 0 0.1436168584679525 -0.2836209543501686 0 0.14612074404546729 -0.27464986070998659 0 0.15114809845108379 -0.28013278059363872 0 0.13811143923488059 -0.26777882680588339 0 0.1420604221738889 -0.26057389919119672 0 0.1420233446603141 -0.27153369043062148 0 0.1504037114514421 -0.26476637401943331 0 0.1420233446603141 -0.27153369043062148 0 0.14774651714261711 -0.27061417123897102 0 0.14612074404546729 -0.27464986070998659 0 0.1420233446603141 -0.27153369043062148 0 0.14774651714261711 -0.27061417123897102 0 0.15545765769127859 -0.26765705275147811 0 0.1524382684132447 -0.27150675979584271 0 0.16044566573528521 -0.27204862233714472 0 0.14612074404546729 -0.27464986070998659 0 0.14774651714261711 -0.27061417123897102 0 0.1524382684132447 -0.27150675979584271 0 0.1504037114514421 -0.26476637401943331 0 0.14774651714261711 -0.27061417123897102 0 0.1524382684132447 -0.27150675979584271 0 0.1504037114514421 -0.26476637401943331 0 0.15545765769127859 -0.26765705275147811 0 0.1524382684132447 -0.27150675979584271 0 0.1524382684132447 -0.27150675979584271 0 0.15114809845108379 -0.28013278059363872 0 0.16044566573528521 -0.27204862233714472 0 0.14612074404546729 -0.27464986070998659 0 0.1524382684132447 -0.27150675979584271 0 0.15114809845108379 -0.28013278059363872 0 0.16044566573528521 -0.27204862233714472 0 0.16717305761943019 -0.26615200754944318 0 0.177394147168592 -0.28445233252858981 0 0.16044566573528521 -0.27204862233714472 0 0.177394147168592 -0.28445233252858981 0 0.15777299279611159 -0.28544097237972332 0 0.15114809845108379 -0.28013278059363872 0 0.16044566573528521 -0.27204862233714472 0 0.15777299279611159 -0.28544097237972332 0 0.15545765769127859 -0.26765705275147811 0 0.16044566573528521 -0.27204862233714472 0 0.15854298516514259 -0.2623064548534918 0 0.16044566573528521 -0.27204862233714472 0 0.16717305761943019 -0.26615200754944318 0 0.15854298516514259 -0.2623064548534918 0 0.15407485488162029 -0.25463968527739939 0 0.15854298516514259 -0.2623064548534918 0 0.16416434830993021 -0.25348076251168611 0 0.14898820642875321 -0.25263106074458241 0 0.16416434830993021 -0.25348076251168611 0 0.16416434830993021 -0.25348076251168611 0 0.15746623258843939 -0.24717962177743169 0 0.15081333679343489 -0.24957271686280691 0 0.16717305761943019 -0.26615200754944318 0 0.15854298516514259 -0.2623064548534918 0 0.16416434830993021 -0.25348076251168611 0 0.16717305761943019 -0.26615200754944318 0 0.16416434830993021 -0.25348076251168611 0 0.17531814171820079 -0.25847186551630352 0 0.1934777637386868 -0.26196852324515157 0 0.17531814171820079 -0.25847186551630352 0 0.18140855909891221 -0.24875385404173869 0 0.16717305761943019 -0.26615200754944318 0 0.17531814171820079 -0.25847186551630352 0 0.177394147168592 -0.28445233252858981 0 0.1934777637386868 -0.26196852324515157 0 0.17531814171820079 -0.25847186551630352 0 0.177394147168592 -0.28445233252858981 0 0.17531814171820079 -0.25847186551630352 0 0.177394147168592 -0.28445233252858981 0 0.177394147168592 -0.28445233252858981 0 0.17947015261898311 -0.31043279954087621 0 0.1604468518829657 -0.29816604611383052 0 0.19954461577109309 -0.29575554500421197 0 0.177394147168592 -0.28445233252858981 0 0.17947015261898311 -0.31043279954087621 0 0.177394147168592 -0.28445233252858981 0 0.17947015261898311 -0.31043279954087621 0 0.17947015261898311 -0.31043279954087621 0 0.15879613053988581 -0.31078255386998788 0 0.1604468518829657 -0.29816604611383052 0 0.177394147168592 -0.28445233252858981 0 0.1604468518829657 -0.29816604611383052 0 0.15777299279611159 -0.28544097237972332 0 0.19199278516569629 -0.5 0 0.1900164382224285 -0.48271496941050879 0 0.20545646434069309 -0.4787017342280358 0 0.1900164382224285 -0.48271496941050879 0 0.20545646434069309 -0.4787017342280358 0 0.18613842771148381 -0.46787851807202258 0 0.20545646434069309 -0.4787017342280358 0 0.2281108343262262 -0.48056582836830158 0 0.21973600360042431 -0.45949417383294189 0 0.20545646434069309 -0.4787017342280358 0 0.21796904096784361 -0.5 0 0.2281108343262262 -0.48056582836830158 0 0.19199278516569629 -0.5 0 0.20545646434069309 -0.4787017342280358 0 0.21796904096784361 -0.5 0 0.21796904096784361 -0.5 0 0.24394529676999099 -0.5 0 0.2281108343262262 -0.48056582836830158 0 0.25460761733926612 -0.48077428153223201 0 0.24394529676999099 -0.5 0 0.2281108343262262 -0.48056582836830158 0 0.2281108343262262 -0.48056582836830158 0 0.24642569303344669 -0.46176391886762419 0 0.25460761733926612 -0.48077428153223201 0 0.2281108343262262 -0.48056582836830158 0 0.24642569303344669 -0.46176391886762419 0 0.2281108343262262 -0.48056582836830158 0 0.21973600360042431 -0.45949417383294189 0 0.2323887624892686 -0.4611014010944845 0 0.21973600360042431 -0.45949417383294189 0 0.2323887624892686 -0.4611014010944845 0 0.23528251899697711 -0.44258168330907049 0 0.2281108343262262 -0.48056582836830158 0 0.2323887624892686 -0.4611014010944845 0 0.24642569303344669 -0.46176391886762419 0 0.2323887624892686 -0.4611014010944845 0 0.24642569303344669 -0.46176391886762419 0 0.23528251899697711 -0.44258168330907049 0 0.2647405517406643 -0.44296200936694391 0 0.23528251899697711 -0.44258168330907049 0 0.24937758952868769 -0.43582476186075059 0 0.2647405517406643 -0.44296200936694391 0 0.24642569303344669 -0.46176391886762419 0 0.23528251899697711 -0.44258168330907049 0 0.21973600360042431 -0.45949417383294189 0 0.23528251899697711 -0.44258168330907049 0 0.20582448625328989 -0.44220135725120002 0 0.23528251899697711 -0.44258168330907049 0 0.20582448625328989 -0.44220135725120002 0 0.23528251899697711 -0.44258168330907049 0 0.20582448625328989 -0.44220135725120002 0 0.22256526670295609 -0.43567624475563838 0 0.20545646434069309 -0.4787017342280358 0 0.21973600360042431 -0.45949417383294189 0 0.202602484605724 -0.45942999972385479 0 0.21973600360042431 -0.45949417383294189 0 0.20582448625328989 -0.44220135725120002 0 0.202602484605724 -0.45942999972385479 0 0.202602484605724 -0.45942999972385479 0 0.19228485390892139 -0.44832807257495588 0 0.18613842771148381 -0.46787851807202258 0 0.20545646434069309 -0.4787017342280358 0 0.202602484605724 -0.45942999972385479 0 0.18613842771148381 -0.46787851807202258 0 0.20582448625328989 -0.44220135725120002 0 0.202602484605724 -0.45942999972385479 0 0.19228485390892139 -0.44832807257495588 0 0.20582448625328989 -0.44220135725120002 0 0.19228485390892139 -0.44832807257495588 0 0.1986877949313606 -0.42882383702638299 0 0.19228485390892139 -0.44832807257495588 0 0.1986877949313606 -0.42882383702638299 0 0.183200271073473 -0.43641073338783498 0 0.1986877949313606 -0.42882383702638299 0 0.1816281482625339 -0.41415137017959991 0 0.183200271073473 -0.43641073338783498 0 0.20582455939560251 -0.41258395769508027 0 0.1950935246886642 -0.40110820421824778 0 0.1816281482625339 -0.41415137017959991 0 0.1986877949313606 -0.42882383702638299 0 0.20582455939560251 -0.41258395769508027 0 0.1816281482625339 -0.41415137017959991 0 0.20582455939560251 -0.41258395769508027 0 0.21384958020830239 -0.42892716952759119 0 0.2218345854540221 -0.41854111548045619 0 0.20582455939560251 -0.41258395769508027 0 0.2218345854540221 -0.41854111548045619 0 0.2220903860499629 -0.40641314768071007 0 0.1986877949313606 -0.42882383702638299 0 0.20582455939560251 -0.41258395769508027 0 0.21384958020830239 -0.42892716952759119 0 0.20582448625328989 -0.44220135725120002 0 0.21384958020830239 -0.42892716952759119 0 0.22256526670295609 -0.43567624475563838 0 0.20582448625328989 -0.44220135725120002 0 0.1986877949313606 -0.42882383702638299 0 0.21384958020830239 -0.42892716952759119 0 0.21384958020830239 -0.42892716952759119 0 0.22256526670295609 -0.43567624475563838 0 0.23530448135325491 -0.42899476893469179 0 0.21384958020830239 -0.42892716952759119 0 0.23530448135325491 -0.42899476893469179 0 0.21384958020830239 -0.42892716952759119 0 0.23530448135325491 -0.42899476893469179 0 0.2218345854540221 -0.41854111548045619 0 0.23528251899697711 -0.44258168330907049 0 0.22256526670295609 -0.43567624475563838 0 0.23530448135325491 -0.42899476893469179 0 0.25675938249820729 -0.42906236834179229 0 0.23530448135325491 -0.42899476893469179 0 0.23528251899697711 -0.44258168330907049 0 0.23530448135325491 -0.42899476893469179 0 0.24937758952868769 -0.43582476186075059 0 0.25675938249820729 -0.42906236834179229 0 0.23530448135325491 -0.42899476893469179 0 0.24471655788437549 -0.41836465708289111 0 0.25675938249820729 -0.42906236834179229 0 0.23530448135325491 -0.42899476893469179 0 0.24937758952868769 -0.43582476186075059 0 0.25834465052961392 -0.41196496969487773 0 0.24471655788437549 -0.41836465708289111 0 0.2415255849161019 -0.40609463635975013 0 0.23530448135325491 -0.42899476893469179 0 0.24471655788437549 -0.41836465708289111 0 0.23210392026298771 -0.41578653356420769 0 0.24471655788437549 -0.41836465708289111 0 0.23210392026298771 -0.41578653356420769 0 0.2415255849161019 -0.40609463635975013 0 0.23210392026298771 -0.41578653356420769 0 0.2220903860499629 -0.40641314768071007 0 0.2415255849161019 -0.40609463635975013 0 0.23530448135325491 -0.42899476893469179 0 0.23210392026298771 -0.41578653356420769 0 0.2218345854540221 -0.41854111548045619 0 0.23210392026298771 -0.41578653356420769 0 0.2218345854540221 -0.41854111548045619 0 0.2220903860499629 -0.40641314768071007 0 0.2220903860499629 -0.40641314768071007 0 0.2325848323457651 -0.39226733923237422 0 0.2415255849161019 -0.40609463635975013 0 0.2220903860499629 -0.40641314768071007 0 0.2325848323457651 -0.39226733923237422 0 0.20793944219493879 -0.39039719718598698 0 0.25113336278303172 -0.39639034007073559 0 0.2325848323457651 -0.39226733923237422 0 0.2415255849161019 -0.40609463635975013 0 0.25113336278303172 -0.39639034007073559 0 0.2325848323457651 -0.39226733923237422 0 0.2462658744323834 -0.38197959250061342 0 0.22607167799098421 -0.37270743793131111 0 0.2325848323457651 -0.39226733923237422 0 0.2462658744323834 -0.38197959250061342 0 0.22607167799098421 -0.37270743793131111 0 0.2325848323457651 -0.39226733923237422 0 0.20793944219493879 -0.39039719718598698 0 0.22607167799098421 -0.37270743793131111 0 0.20089624558916569 -0.37097766955135358 0 0.20793944219493879 -0.39039719718598698 0 0.20582455939560251 -0.41258395769508027 0 0.2220903860499629 -0.40641314768071007 0 0.20793944219493879 -0.39039719718598698 0 0.20793944219493879 -0.39039719718598698 0 0.1950935246886642 -0.40110820421824778 0 0.18397260247544159 -0.38969422049886882 0 0.20582455939560251 -0.41258395769508027 0 0.20793944219493879 -0.39039719718598698 0 0.1950935246886642 -0.40110820421824778 0 0.20089624558916569 -0.37097766955135358 0 0.20793944219493879 -0.39039719718598698 0 0.18397260247544159 -0.38969422049886882 0 0.20089624558916569 -0.37097766955135358 0 0.1768321188753432 -0.36690628541415632 0 0.18397260247544159 -0.38969422049886882 0 0.1768321188753432 -0.36690628541415632 0 0.18397260247544159 -0.38969422049886882 0 0.15666847718140431 -0.38294090990146468 0 0.1950935246886642 -0.40110820421824778 0 0.18397260247544159 -0.38969422049886882 0 0.1816281482625339 -0.41415137017959991 0 0.18397260247544159 -0.38969422049886882 0 0.16282522567504601 -0.40076461101477862 0 0.1816281482625339 -0.41415137017959991 0 0.18397260247544159 -0.38969422049886882 0 0.16282522567504601 -0.40076461101477862 0 0.15666847718140431 -0.38294090990146468 0 0.13554014667972011 -0.37371994475541209 0 0.15666847718140431 -0.38294090990146468 0 0.13650483548746539 -0.39897553438877298 0 0.13554014667972011 -0.37371994475541209 0 0.13650483548746539 -0.39897553438877298 0 0.11257503074115451 -0.38498649823446041 0 0.16282522567504601 -0.40076461101477862 0 0.13650483548746539 -0.39897553438877298 0 0.15535206496838491 -0.41806102010518609 0 0.16282522567504601 -0.40076461101477862 0 0.15666847718140431 -0.38294090990146468 0 0.13650483548746539 -0.39897553438877298 0 0.15666847718140431 -0.38294090990146468 0 0.13650483548746539 -0.39897553438877298 0 0.13650483548746539 -0.39897553438877298 0 0.15535206496838491 -0.41806102010518609 0 0.13513029091253781 -0.42041342615249999 0 0.13650483548746539 -0.39897553438877298 0 0.1163411937935266 -0.41501015887608139 0 0.13650483548746539 -0.39897553438877298 0 0.13513029091253781 -0.42041342615249999 0 0.1163411937935266 -0.41501015887608139 0 0.13513029091253781 -0.42041342615249999 0 0.15032059054535499 -0.43467939270726969 0 0.13254635452133279 -0.44085243440563188 0 0.13513029091253781 -0.42041342615249999 0 0.13254635452133279 -0.44085243440563188 0 0.1143868512917591 -0.43285467588419202 0 0.15535206496838491 -0.41806102010518609 0 0.13513029091253781 -0.42041342615249999 0 0.15032059054535499 -0.43467939270726969 0 0.15535206496838491 -0.41806102010518609 0 0.15032059054535499 -0.43467939270726969 0 0.16908223299646141 -0.42841704329178959 0 0.15032059054535499 -0.43467939270726969 0 0.16908223299646141 -0.42841704329178959 0 0.16335318746445779 -0.4445252196366028 0 0.16282522567504601 -0.40076461101477862 0 0.15535206496838491 -0.41806102010518609 0 0.1816281482625339 -0.41415137017959991 0 0.15535206496838491 -0.41806102010518609 0 0.16908223299646141 -0.42841704329178959 0 0.1816281482625339 -0.41415137017959991 0 0.16908223299646141 -0.42841704329178959 0 0.183200271073473 -0.43641073338783498 0 0.16335318746445779 -0.4445252196366028 0 0.16908223299646141 -0.42841704329178959 0 0.1816281482625339 -0.41415137017959991 0 0.183200271073473 -0.43641073338783498 0 0.183200271073473 -0.43641073338783498 0 0.1772803827575771 -0.45352317498248768 0 0.16335318746445779 -0.4445252196366028 0 0.19228485390892139 -0.44832807257495588 0 0.183200271073473 -0.43641073338783498 0 0.1772803827575771 -0.45352317498248768 0 0.19228485390892139 -0.44832807257495588 0 0.1772803827575771 -0.45352317498248768 0 0.18613842771148381 -0.46787851807202258 0 0.1772803827575771 -0.45352317498248768 0 0.18613842771148381 -0.46787851807202258 0 0.16548752239589951 -0.46480458862744461 0 0.16548752239589951 -0.46480458862744461 0 0.16335318746445779 -0.4445252196366028 0 0.1464594124089553 -0.4558072126519076 0 0.1772803827575771 -0.45352317498248768 0 0.16548752239589951 -0.46480458862744461 0 0.16335318746445779 -0.4445252196366028 0 0.15032059054535499 -0.43467939270726969 0 0.16335318746445779 -0.4445252196366028 0 0.1464594124089553 -0.4558072126519076 0 0.15032059054535499 -0.43467939270726969 0 0.13254635452133279 -0.44085243440563188 0 0.1464594124089553 -0.4558072126519076 0 0.13254635452133279 -0.44085243440563188 0 0.1274715551183096 -0.46736641087901343 0 0.1464594124089553 -0.4558072126519076 0 0.16548752239589951 -0.46480458862744461 0 0.1464594124089553 -0.4558072126519076 0 0.1467440422409298 -0.48368320543950499 0 0.1274715551183096 -0.46736641087901343 0 0.1467440422409298 -0.48368320543950499 0 0.12445287299781339 -0.48580957524003149 0 0.1274715551183096 -0.46736641087901343 0 0.1464594124089553 -0.4558072126519076 0 0.1467440422409298 -0.48368320543950499 0 0.1274715551183096 -0.46736641087901343 0 0.1467440422409298 -0.48368320543950499 0 0.1467440422409298 -0.48368320543950499 0 0.13861342094189541 -0.5 0 0.12445287299781339 -0.48580957524003149 0 0.1467440422409298 -0.48368320543950499 0 0.13861342094189541 -0.5 0 0.16601652936354891 -0.49999999999999789 0 0.1467440422409298 -0.48368320543950499 0 0.16601652936354891 -0.49999999999999789 0 0.1742528725293658 -0.48296598532830509 0 0.1467440422409298 -0.48368320543950499 0 0.16601652936354891 -0.49999999999999789 0 0.16548752239589951 -0.46480458862744461 0 0.1467440422409298 -0.48368320543950499 0 0.1742528725293658 -0.48296598532830509 0 0.18613842771148381 -0.46787851807202258 0 0.16548752239589951 -0.46480458862744461 0 0.1742528725293658 -0.48296598532830509 0 0.1900164382224285 -0.48271496941050879 0 0.18613842771148381 -0.46787851807202258 0 0.1742528725293658 -0.48296598532830509 0 0.19199278516569629 -0.5 0 0.16601652936354891 -0.49999999999999789 0 0.1742528725293658 -0.48296598532830509 0 0.19199278516569629 -0.5 0 0.1900164382224285 -0.48271496941050879 0 0.1742528725293658 -0.48296598532830509 0 0.067672963152933252 -0.5 0 0.070479040632291823 -0.48264211959480191 0 0.053020152767299072 -0.48801933676575959 0 0.067672963152933252 -0.5 0 0.070479040632291823 -0.48264211959480191 0 0.080327064833409109 -0.49320164294834518 0 0.064630060102032719 -0.47456076603106118 0 0.075246676549625066 -0.47305272083988897 0 0.070479040632291823 -0.48264211959480191 0 0.064630060102032719 -0.47456076603106118 0 0.075246676549625066 -0.47305272083988897 0 0.061795930812101732 -0.46820781613902701 0 0.075246676549625066 -0.47305272083988897 0 0.092517011764567517 -0.47378197497117353 0 0.089959488850471461 -0.49094383163907668 0 0.075246676549625066 -0.47305272083988897 0 0.070479040632291823 -0.48264211959480191 0 0.089959488850471461 -0.49094383163907668 0 0.075246676549625066 -0.47305272083988897 0 0.092517011764567517 -0.47378197497117353 0 0.083633368414380696 -0.46621164320728742 0 0.075246676549625066 -0.47305272083988897 0 0.089959488850471461 -0.49094383163907668 0 0.067672963152933252 -0.5 0 0.080327064833409109 -0.49320164294834518 0 0.097406857924120502 -0.499999999999999 0 0.080327064833409109 -0.49320164294834518 0 0.089959488850471461 -0.49094383163907668 0 0.097406857924120502 -0.499999999999999 0 0.070479040632291823 -0.48264211959480191 0 0.080327064833409109 -0.49320164294834518 0 0.089959488850471461 -0.49094383163907668 0 0.070479040632291823 -0.48264211959480191 0 0.089959488850471461 -0.49094383163907668 0 0.089959488850471461 -0.49094383163907668 0 0.097406857924120502 -0.499999999999999 0 0.089959488850471461 -0.49094383163907668 0 0.097406857924120502 -0.499999999999999 0 0.1112103125202419 -0.50000000000000022 0 0.089959488850471461 -0.49094383163907668 0 0.1052052932537345 -0.48462989700511527 0 0.1112103125202419 -0.50000000000000022 0 0.089959488850471461 -0.49094383163907668 0 0.1112103125202419 -0.50000000000000022 0 0.1052052932537345 -0.48462989700511527 0 0.1112103125202419 -0.50000000000000022 0 0.12445287299781339 -0.48580957524003149 0 0.13861342094189541 -0.5 0 0.1112103125202419 -0.50000000000000022 0 0.12445287299781339 -0.48580957524003149 0 0.1052052932537345 -0.48462989700511527 0 0.12445287299781339 -0.48580957524003149 0 0.10908141417361709 -0.46883823252096812 0 0.1274715551183096 -0.46736641087901343 0 0.12445287299781339 -0.48580957524003149 0 0.10908141417361709 -0.46883823252096812 0 0.092517011764567517 -0.47378197497117353 0 0.089959488850471461 -0.49094383163907668 0 0.1052052932537345 -0.48462989700511527 0 0.092517011764567517 -0.47378197497117353 0 0.1052052932537345 -0.48462989700511527 0 0.10908141417361709 -0.46883823252096812 0 0.092517011764567517 -0.47378197497117353 0 0.10908141417361709 -0.46883823252096812 0 0.090724871429903375 -0.45809280890615561 0 0.10908141417361709 -0.46883823252096812 0 0.1081990679956894 -0.4510496163185217 0 0.090724871429903375 -0.45809280890615561 0 0.1274715551183096 -0.46736641087901343 0 0.10908141417361709 -0.46883823252096812 0 0.1081990679956894 -0.4510496163185217 0 0.1274715551183096 -0.46736641087901343 0 0.1081990679956894 -0.4510496163185217 0 0.13254635452133279 -0.44085243440563188 0 0.1274715551183096 -0.46736641087901343 0 0.1081990679956894 -0.4510496163185217 0 0.13254635452133279 -0.44085243440563188 0 0.1081990679956894 -0.4510496163185217 0 0.1143868512917591 -0.43285467588419202 0 0.1081990679956894 -0.4510496163185217 0 0.09424645164530171 -0.44210268425789312 0 0.090724871429903375 -0.45809280890615561 0 0.1081990679956894 -0.4510496163185217 0 0.09424645164530171 -0.44210268425789312 0 0.1143868512917591 -0.43285467588419202 0 0.09424645164530171 -0.44210268425789312 0 0.078924008128618786 -0.44927425917818692 0 0.090724871429903375 -0.45809280890615561 0 0.09424645164530171 -0.44210268425789312 0 0.078924008128618786 -0.44927425917818692 0 0.079815715379254276 -0.43713965414436617 0 0.092517011764567517 -0.47378197497117353 0 0.090724871429903375 -0.45809280890615561 0 0.083633368414380696 -0.46621164320728742 0 0.075246676549625066 -0.47305272083988897 0 0.083633368414380696 -0.46621164320728742 0 0.07604491391342684 -0.45991906811193117 0 0.090724871429903375 -0.45809280890615561 0 0.083633368414380696 -0.46621164320728742 0 0.07604491391342684 -0.45991906811193117 0 0.078924008128618786 -0.44927425917818692 0 0.090724871429903375 -0.45809280890615561 0 0.07604491391342684 -0.45991906811193117 0 0.075246676549625066 -0.47305272083988897 0 0.07604491391342684 -0.45991906811193117 0 0.060533864248779268 -0.45516161004070088 0 0.075246676549625066 -0.47305272083988897 0 0.060533864248779268 -0.45516161004070088 0 0.061795930812101732 -0.46820781613902701 0 0.078924008128618786 -0.44927425917818692 0 0.07604491391342684 -0.45991906811193117 0 0.066742638013750744 -0.45361708446569943 0 0.075246676549625066 -0.47305272083988897 0 0.060533864248779268 -0.45516161004070088 0 0.07604491391342684 -0.45991906811193117 0 0.066742638013750744 -0.45361708446569943 0 0.060533864248779268 -0.45516161004070088 0 0.066742638013750744 -0.45361708446569943 0 0.060533864248779268 -0.45516161004070088 0 0.066742638013750744 -0.45361708446569943 0 0.070851891070507364 -0.4429924727175758 0 0.060604784186928162 -0.44219524034701829 0 0.066742638013750744 -0.45361708446569943 0 0.060604784186928162 -0.44219524034701829 0 0.060533864248779268 -0.45516161004070088 0 0.070851891070507364 -0.4429924727175758 0 0.068700271916894928 -0.43290455926873739 0 0.060604784186928162 -0.44219524034701829 0 0.078924008128618786 -0.44927425917818692 0 0.070851891070507364 -0.4429924727175758 0 0.079815715379254276 -0.43713965414436617 0 0.070851891070507364 -0.4429924727175758 0 0.068700271916894928 -0.43290455926873739 0 0.079815715379254276 -0.43713965414436617 0 0.078924008128618786 -0.44927425917818692 0 0.066742638013750744 -0.45361708446569943 0 0.070851891070507364 -0.4429924727175758 0 0.068700271916894928 -0.43290455926873739 0 0.078113452497016317 -0.41994308157894578 0 0.079815715379254276 -0.43713965414436617 0 0.068700271916894928 -0.43290455926873739 0 0.078113452497016317 -0.41994308157894578 0 0.058719347470543831 -0.42372109043242612 0 0.068700271916894928 -0.43290455926873739 0 0.058719347470543831 -0.42372109043242612 0 0.060604784186928162 -0.44219524034701829 0 0.078113452497016317 -0.41994308157894578 0 0.070468827029821934 -0.40290810194725279 0 0.058719347470543831 -0.42372109043242612 0 0.078113452497016317 -0.41994308157894578 0 0.093810327587010828 -0.40408349715757252 0 0.070468827029821934 -0.40290810194725279 0 0.078113452497016317 -0.41994308157894578 0 0.096321857990668808 -0.42533267408736197 0 0.093810327587010828 -0.40408349715757252 0 0.078113452497016317 -0.41994308157894578 0 0.079815715379254276 -0.43713965414436617 0 0.096321857990668808 -0.42533267408736197 0 0.09424645164530171 -0.44210268425789312 0 0.079815715379254276 -0.43713965414436617 0 0.096321857990668808 -0.42533267408736197 0 0.09424645164530171 -0.44210268425789312 0 0.096321857990668808 -0.42533267408736197 0 0.1143868512917591 -0.43285467588419202 0 0.096321857990668808 -0.42533267408736197 0 0.1143868512917591 -0.43285467588419202 0 0.1163411937935266 -0.41501015887608139 0 0.13513029091253781 -0.42041342615249999 0 0.1143868512917591 -0.43285467588419202 0 0.1163411937935266 -0.41501015887608139 0 0.096321857990668808 -0.42533267408736197 0 0.1163411937935266 -0.41501015887608139 0 0.093810327587010828 -0.40408349715757252 0 0.1163411937935266 -0.41501015887608139 0 0.093810327587010828 -0.40408349715757252 0 0.11257503074115451 -0.38498649823446041 0 0.13650483548746539 -0.39897553438877298 0 0.1163411937935266 -0.41501015887608139 0 0.11257503074115451 -0.38498649823446041 0 0.11257503074115451 -0.38498649823446041 0 0.085185771917526548 -0.37977283474271561 0 0.10079201747098269 -0.36412242239479142 0 0.093810327587010828 -0.40408349715757252 0 0.11257503074115451 -0.38498649823446041 0 0.085185771917526548 -0.37977283474271561 0 0.093810327587010828 -0.40408349715757252 0 0.085185771917526548 -0.37977283474271561 0 0.070468827029821934 -0.40290810194725279 0 0.085185771917526548 -0.37977283474271561 0 0.070468827029821934 -0.40290810194725279 0 0.057841008155207027 -0.38245658693310142 0 0.070468827029821934 -0.40290810194725279 0 0.057841008155207027 -0.38245658693310142 0 0.049143054551627013 -0.40747152083875582 0 0.057841008155207027 -0.38245658693310142 0 0.043656632087297011 -0.39232656597616861 0 0.049143054551627013 -0.40747152083875582 0 0.043656632087297011 -0.39232656597616861 0 0.028999000949789959 -0.40147898970888801 0 0.049143054551627013 -0.40747152083875582 0 0.043656632087297011 -0.39232656597616861 0 0.028999000949789959 -0.40147898970888801 0 0.032111139506758431 -0.37191992684122582 0 0.057841008155207027 -0.38245658693310142 0 0.043656632087297011 -0.39232656597616861 0 0.032111139506758431 -0.37191992684122582 0 0.011472045166716269 -0.38952867199447438 0 0.032111139506758431 -0.37191992684122582 0 0.011472045166716269 -0.38952867199447438 0 0.028999000949789959 -0.40147898970888801 0 0.032111139506758431 -0.37191992684122582 0 0.011472045166716269 -0.38952867199447438 0 0.032111139506758431 -0.37191992684122582 0 0.0095024714850780283 -0.37458082262515818 0 -0.0042332821090469977 -0.36931681778231101 0 -0.0014384839491562609 -0.38294108750953337 0 0.0095024714850780283 -0.37458082262515818 0 -0.0014384839491562609 -0.38294108750953337 0 0.011472045166716269 -0.38952867199447438 0 0.0095024714850780283 -0.37458082262515818 0 -0.0091670491733258502 -0.407137417147723 0 0.011472045166716269 -0.38952867199447438 0 0.005108664055598287 -0.40528738143041459 0 0.011472045166716269 -0.38952867199447438 0 0.005108664055598287 -0.40528738143041459 0 0.01434864661312045 -0.40656634948070969 0 -0.0091670491733258502 -0.407137417147723 0 0.011472045166716269 -0.38952867199447438 0 0.011472045166716269 -0.38952867199447438 0 0.028999000949789959 -0.40147898970888801 0 0.01434864661312045 -0.40656634948070969 0 0.028999000949789959 -0.40147898970888801 0 0.01434864661312045 -0.40656634948070969 0 0.016816745003192791 -0.42357542462247538 0 0.028999000949789959 -0.40147898970888801 0 0.016816745003192791 -0.42357542462247538 0 0.038035624732997701 -0.42318917072202022 0 0.01434864661312045 -0.40656634948070969 0 0.0037810136158822729 -0.41791708709875131 0 0.016816745003192791 -0.42357542462247538 0 0.005108664055598287 -0.40528738143041459 0 0.01434864661312045 -0.40656634948070969 0 0.0037810136158822729 -0.41791708709875131 0 0.00079488181500260609 -0.42987501851034571 0 0.016816745003192791 -0.42357542462247538 0 0.0068165806591294316 -0.44348526320397952 0 0.0037810136158822729 -0.41791708709875131 0 0.00079488181500260609 -0.42987501851034571 0 0.016816745003192791 -0.42357542462247538 0 0.016816745003192791 -0.42357542462247538 0 0.038035624732997701 -0.42318917072202022 0 0.02666676983233552 -0.44312735458325581 0 0.016816745003192791 -0.42357542462247538 0 0.02666676983233552 -0.44312735458325581 0 0.0068165806591294316 -0.44348526320397952 0 0.038035624732997701 -0.42318917072202022 0 0.047868830590497097 -0.43976064414632088 0 0.02666676983233552 -0.44312735458325581 0 0.028999000949789959 -0.40147898970888801 0 0.038035624732997701 -0.42318917072202022 0 0.049143054551627013 -0.40747152083875582 0 0.070468827029821934 -0.40290810194725279 0 0.049143054551627013 -0.40747152083875582 0 0.058719347470543831 -0.42372109043242612 0 0.038035624732997701 -0.42318917072202022 0 0.049143054551627013 -0.40747152083875582 0 0.058719347470543831 -0.42372109043242612 0 0.058719347470543831 -0.42372109043242612 0 0.047868830590497097 -0.43976064414632088 0 0.060604784186928162 -0.44219524034701829 0 0.038035624732997701 -0.42318917072202022 0 0.058719347470543831 -0.42372109043242612 0 0.047868830590497097 -0.43976064414632088 0 0.047868830590497097 -0.43976064414632088 0 0.060533864248779268 -0.45516161004070088 0 0.03684497090434212 -0.46105457747661138 0 0.047868830590497097 -0.43976064414632088 0 0.060533864248779268 -0.45516161004070088 0 0.047868830590497097 -0.43976064414632088 0 0.060604784186928162 -0.44219524034701829 0 0.060533864248779268 -0.45516161004070088 0 0.060533864248779268 -0.45516161004070088 0 0.03684497090434212 -0.46105457747661138 0 0.060533864248779268 -0.45516161004070088 0 0.052543339594833843 -0.46469110280171649 0 0.03684497090434212 -0.46105457747661138 0 0.060533864248779268 -0.45516161004070088 0 0.061795930812101732 -0.46820781613902701 0 0.052543339594833843 -0.46469110280171649 0 0.052543339594833843 -0.46469110280171649 0 0.03684497090434212 -0.46105457747661138 0 0.050998592414112261 -0.47434040755052698 0 0.047868830590497097 -0.43976064414632088 0 0.03684497090434212 -0.46105457747661138 0 0.02666676983233552 -0.44312735458325581 0 0.02666676983233552 -0.44312735458325581 0 0.0068165806591294316 -0.44348526320397952 0 0.013156077559905371 -0.46694754491252372 0 -0.0057475739345891896 -0.4549207533069245 0 0.0068165806591294316 -0.44348526320397952 0 0.013156077559905371 -0.46694754491252372 0 0.03684497090434212 -0.46105457747661138 0 0.02666676983233552 -0.44312735458325581 0 0.013156077559905371 -0.46694754491252372 0 0.03684497090434212 -0.46105457747661138 0 0.013156077559905371 -0.46694754491252372 0 0.03684497090434212 -0.46105457747661138 0 0.013156077559905371 -0.46694754491252372 0 0.032323810821201983 -0.4810656019103603 0 0.013156077559905371 -0.46694754491252372 0 0.0082051736105589468 -0.5 0 0.032323810821201983 -0.4810656019103603 0 -0.01053281578453142 -0.47284051234843588 0 0.013156077559905371 -0.46694754491252372 0 0.0082051736105589468 -0.5 0 -0.01053281578453142 -0.47284051234843588 0 0.013156077559905371 -0.46694754491252372 0 0.0082051736105589468 -0.5 0 0.037939068381746099 -0.5 0 0.032323810821201983 -0.4810656019103603 0 0.037939068381746099 -0.5 0 0.032323810821201983 -0.4810656019103603 0 0.053020152767299072 -0.48801933676575959 0 0.032323810821201983 -0.4810656019103603 0 0.050998592414112261 -0.47434040755052698 0 0.053020152767299072 -0.48801933676575959 0 0.03684497090434212 -0.46105457747661138 0 0.032323810821201983 -0.4810656019103603 0 0.050998592414112261 -0.47434040755052698 0 0.070479040632291823 -0.48264211959480191 0 0.050998592414112261 -0.47434040755052698 0 0.064630060102032719 -0.47456076603106118 0 0.070479040632291823 -0.48264211959480191 0 0.050998592414112261 -0.47434040755052698 0 0.070479040632291823 -0.48264211959480191 0 0.050998592414112261 -0.47434040755052698 0 0.053020152767299072 -0.48801933676575959 0 0.064630060102032719 -0.47456076603106118 0 0.061795930812101732 -0.46820781613902701 0 0.050998592414112261 -0.47434040755052698 0 0.061795930812101732 -0.46820781613902701 0 0.052543339594833843 -0.46469110280171649 0 0.050998592414112261 -0.47434040755052698 0 0.067672963152933252 -0.5 0 0.037939068381746099 -0.5 0 0.053020152767299072 -0.48801933676575959 0 0.087473163936891085 -0.29777268792509082 0 0.081564451789839787 -0.2785545792295161 0 0.1018918429625556 -0.28221661660282987 0 0.087473163936891085 -0.29777268792509082 0 0.081564451789839787 -0.2785545792295161 0 0.087473163936891085 -0.29777268792509082 0 0.067853695646582016 -0.28620356249784679 0 0.081564451789839787 -0.2785545792295161 0 0.087473163936891085 -0.29777268792509082 0 0.071339674350402019 -0.30608447369461589 0 0.075597518235181557 -0.31257595346091949 0 0.087473163936891085 -0.29777268792509082 0 0.098187962191818287 -0.30489187491565878 0 0.094028422526884897 -0.31909369138147992 0 0.087473163936891085 -0.29777268792509082 0 0.094028422526884897 -0.31909369138147992 0 0.075597518235181557 -0.31257595346091949 0 0.087473163936891085 -0.29777268792509082 0 0.094028422526884897 -0.31909369138147992 0 0.087473163936891085 -0.29777268792509082 0 0.071339674350402019 -0.30608447369461589 0 0.060560524715249003 -0.30009188710746898 0 0.087473163936891085 -0.29777268792509082 0 0.060560524715249003 -0.30009188710746898 0 0.071339674350402019 -0.30608447369461589 0 0.075597518235181557 -0.31257595346091949 0 0.061727490514286158 -0.31389736628498438 0 0.071339674350402019 -0.30608447369461589 0 0.061727490514286158 -0.31389736628498438 0 0.060560524715249003 -0.30009188710746898 0 0.067853695646582016 -0.28620356249784679 0 0.059116804960237683 -0.29062940211096661 0 0.060560524715249003 -0.30009188710746898 0 0.087473163936891085 -0.29777268792509082 0 0.067853695646582016 -0.28620356249784679 0 0.060560524715249003 -0.30009188710746898 0 0.066214989649419603 -0.27316028682740479 0 0.075655739642787975 -0.2593364705339416 0 0.081564451789839787 -0.2785545792295161 0 0.067853695646582016 -0.28620356249784679 0 0.066214989649419603 -0.27316028682740479 0 0.081564451789839787 -0.2785545792295161 0 0.066214989649419603 -0.27316028682740479 0 0.075655739642787975 -0.2593364705339416 0 0.05341834128670471 -0.26222533989734959 0 0.075655739642787975 -0.2593364705339416 0 0.05341834128670471 -0.26222533989734959 0 0.071841433176306951 -0.24693042426755701 0 0.075655739642787975 -0.2593364705339416 0 0.05341834128670471 -0.26222533989734959 0 0.075655739642787975 -0.2593364705339416 0 0.071841433176306951 -0.24693042426755701 0 0.075655739642787975 -0.2593364705339416 0 0.097033033634931737 -0.25655933767435479 0 0.087503871482331325 -0.24918859503345439 0 0.075655739642787975 -0.2593364705339416 0 0.087704679779763817 -0.26614109232216421 0 0.097033033634931737 -0.25655933767435479 0 0.075655739642787975 -0.2593364705339416 0 0.071841433176306951 -0.24693042426755701 0 0.087503871482331325 -0.24918859503345439 0 0.075655739642787975 -0.2593364705339416 0 0.097033033634931737 -0.25655933767435479 0 0.075655739642787975 -0.2593364705339416 0 0.081564451789839787 -0.2785545792295161 0 0.081564451789839787 -0.2785545792295161 0 0.096565494051495782 -0.27011398185084429 0 0.1018918429625556 -0.28221661660282987 0 0.075655739642787975 -0.2593364705339416 0 0.081564451789839787 -0.2785545792295161 0 0.087704679779763817 -0.26614109232216421 0 0.081564451789839787 -0.2785545792295161 0 0.087704679779763817 -0.26614109232216421 0 0.096565494051495782 -0.27011398185084429 0 0.11343381581407461 -0.27807896693227868 0 0.1097056353048949 -0.26812745810770261 0 0.1018918429625556 -0.28221661660282987 0 0.096565494051495782 -0.27011398185084429 0 0.1097056353048949 -0.26812745810770261 0 0.1018918429625556 -0.28221661660282987 0 0.097033033634931737 -0.25655933767435479 0 0.11542254909125391 -0.25417034832591701 0 0.09726841460880753 -0.24973530510077291 0 0.097033033634931737 -0.25655933767435479 0 0.11542254909125391 -0.25417034832591701 0 0.1097056353048949 -0.26812745810770261 0 0.097033033634931737 -0.25655933767435479 0 0.11542254909125391 -0.25417034832591701 0 0.1155402395781918 -0.2507583320391269 0 0.09726841460880753 -0.24973530510077291 0 0.097033033634931737 -0.25655933767435479 0 0.087503871482331325 -0.24918859503345439 0 0.09726841460880753 -0.24973530510077291 0 0.097033033634931737 -0.25655933767435479 0 0.09726841460880753 -0.24973530510077291 0 0.096565494051495782 -0.27011398185084429 0 0.097033033634931737 -0.25655933767435479 0 0.087704679779763817 -0.26614109232216421 0 0.096565494051495782 -0.27011398185084429 0 0.097033033634931737 -0.25655933767435479 0 0.096565494051495782 -0.27011398185084429 0 0.097033033634931737 -0.25655933767435479 0 0.1097056353048949 -0.26812745810770261 0 0.1338120645475761 -0.25178135897747889 0 0.1155402395781918 -0.2507583320391269 0 0.11542254909125391 -0.25417034832591701 0 0.1155402395781918 -0.2507583320391269 0 0.11542254909125391 -0.25417034832591701 0 0.09726841460880753 -0.24973530510077291 0 0.1338120645475761 -0.25178135897747889 0 0.1155402395781918 -0.2507583320391269 0 0.1338120645475761 -0.25178135897747889 0 0.11542254909125391 -0.25417034832591701 0 0.123327112510175 -0.26381005316279871 0 0.1338120645475761 -0.25178135897747889 0 0.11542254909125391 -0.25417034832591701 0 0.11542254909125391 -0.25417034832591701 0 0.123327112510175 -0.26381005316279871 0 0.1097056353048949 -0.26812745810770261 0 0.11343381581407461 -0.27807896693227868 0 0.1097056353048949 -0.26812745810770261 0 0.119201036987635 -0.27295982712471439 0 0.1280966355330338 -0.27434446718476552 0 0.123327112510175 -0.26381005316279871 0 0.119201036987635 -0.27295982712471439 0 0.123327112510175 -0.26381005316279871 0 0.1097056353048949 -0.26812745810770261 0 0.119201036987635 -0.27295982712471439 0 0.11343381581407461 -0.27807896693227868 0 0.119201036987635 -0.27295982712471439 0 0.12144198577599689 -0.28043819023602667 0 0.1280966355330338 -0.27434446718476552 0 0.119201036987635 -0.27295982712471439 0 0.12144198577599689 -0.28043819023602667 0 0.1225628758501054 -0.2947488287446996 0 0.10501801989349829 -0.29626075833489562 0 0.12144198577599689 -0.28043819023602667 0 0.1233634239504731 -0.2874855776093414 0 0.1139532624844367 -0.28782333961704598 0 0.1275993617664036 -0.28112518425861122 0 0.12144198577599689 -0.28043819023602667 0 0.1233634239504731 -0.2874855776093414 0 0.1225628758501054 -0.2947488287446996 0 0.1139532624844367 -0.28782333961704598 0 0.10501801989349829 -0.29626075833489562 0 0.1233634239504731 -0.2874855776093414 0 0.1225628758501054 -0.2947488287446996 0 0.1139532624844367 -0.28782333961704598 0 0.1256525224322369 -0.29448257816376899 0 0.1225628758501054 -0.2947488287446996 0 0.11343381581407461 -0.27807896693227868 0 0.12144198577599689 -0.28043819023602667 0 0.1139532624844367 -0.28782333961704598 0 0.11343381581407461 -0.27807896693227868 0 0.1139532624844367 -0.28782333961704598 0 0.1018918429625556 -0.28221661660282987 0 0.1139532624844367 -0.28782333961704598 0 0.1018918429625556 -0.28221661660282987 0 0.10501801989349829 -0.29626075833489562 0 0.087473163936891085 -0.29777268792509082 0 0.1018918429625556 -0.28221661660282987 0 0.10501801989349829 -0.29626075833489562 0 0.087473163936891085 -0.29777268792509082 0 0.10501801989349829 -0.29626075833489562 0 0.087473163936891085 -0.29777268792509082 0 0.10501801989349829 -0.29626075833489562 0 0.098187962191818287 -0.30489187491565878 0 0.098187962191818287 -0.30489187491565878 0 0.10829564918849539 -0.30692126006309001 0 0.094028422526884897 -0.31909369138147992 0 0.10501801989349829 -0.29626075833489562 0 0.098187962191818287 -0.30489187491565878 0 0.10829564918849539 -0.30692126006309001 0 0.10829564918849539 -0.30692126006309001 0 0.11665503897845669 -0.30709539838653632 0 0.10765755552467721 -0.31970821860930398 0 0.1225628758501054 -0.2947488287446996 0 0.10501801989349829 -0.29626075833489562 0 0.10829564918849539 -0.30692126006309001 0 0.1225628758501054 -0.2947488287446996 0 0.10829564918849539 -0.30692126006309001 0 0.1225628758501054 -0.2947488287446996 0 0.10829564918849539 -0.30692126006309001 0 0.11665503897845669 -0.30709539838653632 0 0.127428615210958 -0.30550107704066293 0 0.1256525224322369 -0.29448257816376899 0 0.11665503897845669 -0.30709539838653632 0 0.1256525224322369 -0.29448257816376899 0 0.11665503897845669 -0.30709539838653632 0 0.1256525224322369 -0.29448257816376899 0 0.1225628758501054 -0.2947488287446996 0 0.11665503897845669 -0.30709539838653632 0 0.127428615210958 -0.30550107704066293 0 0.11665503897845669 -0.30709539838653632 0 0.1236403595102975 -0.31726182602291142 0 0.1236403595102975 -0.31726182602291142 0 0.1156667707943719 -0.32879233033577338 0 0.10765755552467721 -0.31970821860930398 0 0.11665503897845669 -0.30709539838653632 0 0.1236403595102975 -0.31726182602291142 0 0.10765755552467721 -0.31970821860930398 0 0.11665503897845669 -0.30709539838653632 0 0.10765755552467721 -0.31970821860930398 0 0.1156667707943719 -0.32879233033577338 0 0.1048460875680276 -0.32950050860128433 0 0.10765755552467721 -0.31970821860930398 0 0.12646864396445259 -0.32771949481933838 0 0.1236403595102975 -0.31726182602291142 0 0.1156667707943719 -0.32879233033577338 0 0.12646864396445259 -0.32771949481933838 0 0.1218367566819203 -0.34066885685305681 0 0.1156667707943719 -0.32879233033577338 0 0.1218367566819203 -0.34066885685305681 0 0.1156667707943719 -0.32879233033577338 0 0.1082494064665878 -0.33928340961487857 0 0.1156667707943719 -0.32879233033577338 0 0.1048460875680276 -0.32950050860128433 0 0.1082494064665878 -0.33928340961487857 0 0.1048460875680276 -0.32950050860128433 0 0.1082494064665878 -0.33928340961487857 0 0.097004582427965266 -0.33631516769786107 0 0.1082494064665878 -0.33928340961487857 0 0.097004582427965266 -0.33631516769786107 0 0.093814972832634291 -0.34820918954221819 0 0.1048460875680276 -0.32950050860128433 0 0.097004582427965266 -0.33631516769786107 0 0.096073069581201237 -0.32574391368982941 0 0.096073069581201237 -0.32574391368982941 0 0.094028422526884897 -0.31909369138147992 0 0.10765755552467721 -0.31970821860930398 0 0.096073069581201237 -0.32574391368982941 0 0.094028422526884897 -0.31909369138147992 0 0.10829564918849539 -0.30692126006309001 0 0.094028422526884897 -0.31909369138147992 0 0.10829564918849539 -0.30692126006309001 0 0.094028422526884897 -0.31909369138147992 0 0.10765755552467721 -0.31970821860930398 0 0.1048460875680276 -0.32950050860128433 0 0.096073069581201237 -0.32574391368982941 0 0.10765755552467721 -0.31970821860930398 0 0.13554014667972011 -0.37371994475541209 0 0.11257503074115451 -0.38498649823446041 0 0.1211241730808211 -0.35969015994424403 0 0.11257503074115451 -0.38498649823446041 0 0.1211241730808211 -0.35969015994424403 0 0.10079201747098269 -0.36412242239479142 0 0.1211241730808211 -0.35969015994424403 0 0.1091752126596531 -0.3513855426967849 0 0.10079201747098269 -0.36412242239479142 0 0.1218367566819203 -0.34066885685305681 0 0.1211241730808211 -0.35969015994424403 0 0.1091752126596531 -0.3513855426967849 0 0.1218367566819203 -0.34066885685305681 0 0.1082494064665878 -0.33928340961487857 0 0.1091752126596531 -0.3513855426967849 0 0.1091752126596531 -0.3513855426967849 0 0.093814972832634291 -0.34820918954221819 0 0.10079201747098269 -0.36412242239479142 0 0.1082494064665878 -0.33928340961487857 0 0.1091752126596531 -0.3513855426967849 0 0.093814972832634291 -0.34820918954221819 0 0.085185771917526548 -0.37977283474271561 0 0.10079201747098269 -0.36412242239479142 0 0.076425374258651049 -0.36036916924143869 0 0.093814972832634291 -0.34820918954221819 0 0.076425374258651049 -0.36036916924143869 0 0.073389328186842753 -0.33670243653472848 0 0.093814972832634291 -0.34820918954221819 0 0.10079201747098269 -0.36412242239479142 0 0.076425374258651049 -0.36036916924143869 0 0.076425374258651049 -0.36036916924143869 0 0.073389328186842753 -0.33670243653472848 0 0.052750233846800589 -0.35431118168797721 0 0.073389328186842753 -0.33670243653472848 0 0.052750233846800589 -0.35431118168797721 0 0.085185771917526548 -0.37977283474271561 0 0.057841008155207027 -0.38245658693310142 0 0.076425374258651049 -0.36036916924143869 0 0.094028422526884897 -0.31909369138147992 0 0.073389328186842753 -0.33670243653472848 0 0.096073069581201237 -0.32574391368982941 0 0.094028422526884897 -0.31909369138147992 0 0.073389328186842753 -0.33670243653472848 0 0.094028422526884897 -0.31909369138147992 0 0.073389328186842753 -0.33670243653472848 0 0.072651274237206992 -0.32234881883649769 0 0.094028422526884897 -0.31909369138147992 0 0.072651274237206992 -0.32234881883649769 0 0.075597518235181557 -0.31257595346091949 0 0.097004582427965266 -0.33631516769786107 0 0.096073069581201237 -0.32574391368982941 0 0.073389328186842753 -0.33670243653472848 0 0.097004582427965266 -0.33631516769786107 0 0.093814972832634291 -0.34820918954221819 0 0.073389328186842753 -0.33670243653472848 0 0.073389328186842753 -0.33670243653472848 0 0.072651274237206992 -0.32234881883649769 0 0.058513611722839573 -0.32947464652037622 0 0.072651274237206992 -0.32234881883649769 0 0.061727490514286158 -0.31389736628498438 0 0.058513611722839573 -0.32947464652037622 0 0.072651274237206992 -0.32234881883649769 0 0.075597518235181557 -0.31257595346091949 0 0.061727490514286158 -0.31389736628498438 0 0.061727490514286158 -0.31389736628498438 0 0.048871722081095123 -0.31851038162196682 0 0.053524671366835877 -0.30640407556079952 0 0.048871722081095123 -0.31851038162196682 0 0.058513611722839573 -0.32947464652037622 0 0.042608717461976538 -0.3312298768594002 0 0.061727490514286158 -0.31389736628498438 0 0.048871722081095123 -0.31851038162196682 0 0.058513611722839573 -0.32947464652037622 0 0.073389328186842753 -0.33670243653472848 0 0.058513611722839573 -0.32947464652037622 0 0.052750233846800589 -0.35431118168797721 0 0.058513611722839573 -0.32947464652037622 0 0.042608717461976538 -0.3312298768594002 0 0.052750233846800589 -0.35431118168797721 0 0.042608717461976538 -0.3312298768594002 0 0.032201100374313327 -0.3403185580786573 0 0.052750233846800589 -0.35431118168797721 0 0.042608717461976538 -0.3312298768594002 0 0.032201100374313327 -0.3403185580786573 0 0.02803274898307424 -0.32856413603580631 0 0.042608717461976538 -0.3312298768594002 0 0.035004108339948901 -0.31633090919971779 0 0.02803274898307424 -0.32856413603580631 0 0.048871722081095123 -0.31851038162196682 0 0.035004108339948901 -0.31633090919971779 0 0.042659306472636778 -0.3047174731171407 0 0.048871722081095123 -0.31851038162196682 0 0.042608717461976538 -0.3312298768594002 0 0.035004108339948901 -0.31633090919971779 0 0.057841008155207027 -0.38245658693310142 0 0.052750233846800589 -0.35431118168797721 0 0.032111139506758431 -0.37191992684122582 0 0.057841008155207027 -0.38245658693310142 0 0.076425374258651049 -0.36036916924143869 0 0.052750233846800589 -0.35431118168797721 0 0.032201100374313327 -0.3403185580786573 0 0.052750233846800589 -0.35431118168797721 0 0.023184557849655049 -0.35200766470484768 0 0.052750233846800589 -0.35431118168797721 0 0.032111139506758431 -0.37191992684122582 0 0.052750233846800589 -0.35431118168797721 0 0.032111139506758431 -0.37191992684122582 0 0.023184557849655049 -0.35200766470484768 0 0.032111139506758431 -0.37191992684122582 0 0.023184557849655049 -0.35200766470484768 0 0.010345294108568969 -0.36081801354288939 0 0.032111139506758431 -0.37191992684122582 0 0.010345294108568969 -0.36081801354288939 0 0.0095024714850780283 -0.37458082262515818 0 -0.0019921573348008 -0.35014241775074068 0 0.023184557849655049 -0.35200766470484768 0 0.014429243730060239 -0.33547993110525531 0 -0.0019921573348008 -0.35014241775074068 0 0.023184557849655049 -0.35200766470484768 0 0.010345294108568969 -0.36081801354288939 0 -0.0019921573348008 -0.35014241775074068 0 -0.0042332821090469977 -0.36931681778231101 0 0.010345294108568969 -0.36081801354288939 0 -0.0042332821090469977 -0.36931681778231101 0 0.010345294108568969 -0.36081801354288939 0 0.0095024714850780283 -0.37458082262515818 0 0.035004108339948901 -0.31633090919971779 0 0.02803274898307424 -0.32856413603580631 0 0.015526697491276621 -0.31392901685578528 0 0.02803274898307424 -0.32856413603580631 0 0.014429243730060239 -0.33547993110525531 0 0.015526697491276621 -0.31392901685578528 0 0.032201100374313327 -0.3403185580786573 0 0.023184557849655049 -0.35200766470484768 0 0.014429243730060239 -0.33547993110525531 0 0.032201100374313327 -0.3403185580786573 0 0.02803274898307424 -0.32856413603580631 0 0.014429243730060239 -0.33547993110525531 0 -0.008605873932596356 -0.33624452634938418 0 -0.0019921573348008 -0.35014241775074068 0 0.014429243730060239 -0.33547993110525531 0 -0.008605873932596356 -0.33624452634938418 0 0.014429243730060239 -0.33547993110525531 0 0.0035141492887302548 -0.32519051246028208 0 0.014429243730060239 -0.33547993110525531 0 0.0035141492887302548 -0.32519051246028208 0 0.015526697491276621 -0.31392901685578528 0 -0.0093546214437348063 -0.3154421594820554 0 0.0035141492887302548 -0.32519051246028208 0 0.015526697491276621 -0.31392901685578528 0 -0.0093546214437348063 -0.3154421594820554 0 0.015526697491276621 -0.31392901685578528 0 0.0025702240157044749 -0.30194718224499639 0 0.015526697491276621 -0.31392901685578528 0 0.0025702240157044749 -0.30194718224499639 0 0.018894421690538499 -0.29417828297256371 0 0.0025702240157044749 -0.30194718224499639 0 0.001953977901653102 -0.28749824366549498 0 0.018894421690538499 -0.29417828297256371 0 0.001953977901653102 -0.28749824366549498 0 0.018894421690538499 -0.29417828297256371 0 0.015670532879786751 -0.2762907948651831 0 0.018894421690538499 -0.29417828297256371 0 0.030268242974381541 -0.30296892509516138 0 0.036539995597899583 -0.28735292316580879 0 0.018894421690538499 -0.29417828297256371 0 0.036539995597899583 -0.28735292316580879 0 0.015670532879786751 -0.2762907948651831 0 0.015526697491276621 -0.31392901685578528 0 0.018894421690538499 -0.29417828297256371 0 0.030268242974381541 -0.30296892509516138 0 0.035004108339948901 -0.31633090919971779 0 0.015526697491276621 -0.31392901685578528 0 0.030268242974381541 -0.30296892509516138 0 0.030268242974381541 -0.30296892509516138 0 0.042659306472636778 -0.3047174731171407 0 0.036539995597899583 -0.28735292316580879 0 0.035004108339948901 -0.31633090919971779 0 0.030268242974381541 -0.30296892509516138 0 0.042659306472636778 -0.3047174731171407 0 0.042659306472636778 -0.3047174731171407 0 0.036539995597899583 -0.28735292316580879 0 0.051747098475659753 -0.29673762405939008 0 0.051747098475659753 -0.29673762405939008 0 0.052582719881183543 -0.27948148197836992 0 0.051747098475659753 -0.29673762405939008 0 0.059116804960237683 -0.29062940211096661 0 0.052582719881183543 -0.27948148197836992 0 0.036539995597899583 -0.28735292316580879 0 0.051747098475659753 -0.29673762405939008 0 0.052582719881183543 -0.27948148197836992 0 0.067853695646582016 -0.28620356249784679 0 0.059116804960237683 -0.29062940211096661 0 0.052582719881183543 -0.27948148197836992 0 0.051747098475659753 -0.29673762405939008 0 0.059116804960237683 -0.29062940211096661 0 0.060560524715249003 -0.30009188710746898 0 0.051747098475659753 -0.29673762405939008 0 0.060560524715249003 -0.30009188710746898 0 0.053524671366835877 -0.30640407556079952 0 0.061727490514286158 -0.31389736628498438 0 0.060560524715249003 -0.30009188710746898 0 0.053524671366835877 -0.30640407556079952 0 0.048871722081095123 -0.31851038162196682 0 0.042659306472636778 -0.3047174731171407 0 0.053524671366835877 -0.30640407556079952 0 0.042659306472636778 -0.3047174731171407 0 0.051747098475659753 -0.29673762405939008 0 0.053524671366835877 -0.30640407556079952 0 0.05341834128670471 -0.26222533989734959 0 0.054455146400998369 -0.2408146193913096 0 0.05341834128670471 -0.26222533989734959 0 0.041504830166615332 -0.24909079072316551 0 0.054455146400998369 -0.2408146193913096 0 0.05341834128670471 -0.26222533989734959 0 0.052582719881183543 -0.27948148197836992 0 0.066214989649419603 -0.27316028682740479 0 0.05341834128670471 -0.26222533989734959 0 0.052582719881183543 -0.27948148197836992 0 0.067853695646582016 -0.28620356249784679 0 0.066214989649419603 -0.27316028682740479 0 0.052582719881183543 -0.27948148197836992 0 0.05341834128670471 -0.26222533989734959 0 0.052582719881183543 -0.27948148197836992 0 0.028317708997288939 -0.2654861731325095 0 0.036539995597899583 -0.28735292316580879 0 0.052582719881183543 -0.27948148197836992 0 0.028317708997288939 -0.2654861731325095 0 0.028317708997288939 -0.2654861731325095 0 0.026822654761378281 -0.24010580347910071 0 0.041504830166615332 -0.24909079072316551 0 0.05341834128670471 -0.26222533989734959 0 0.028317708997288939 -0.2654861731325095 0 0.041504830166615332 -0.24909079072316551 0 0.05341834128670471 -0.26222533989734959 0 0.028317708997288939 -0.2654861731325095 0 0.028317708997288939 -0.2654861731325095 0 0.01150473642008854 -0.25100487296640661 0 0.026822654761378281 -0.24010580347910071 0 0.028317708997288939 -0.2654861731325095 0 0.015670532879786751 -0.2762907948651831 0 0.0049597396345670026 -0.26452376434945218 0 0.036539995597899583 -0.28735292316580879 0 0.028317708997288939 -0.2654861731325095 0 0.015670532879786751 -0.2762907948651831 0 -0.002131649244152236 -0.27375645946249172 0 0.015670532879786751 -0.2762907948651831 0 0.0049597396345670026 -0.26452376434945218 0 -0.002131649244152236 -0.27375645946249172 0 0.001953977901653102 -0.28749824366549498 0 0.015670532879786751 -0.2762907948651831 0 -0.0050603712554523096 -0.25502580822232418 0 0.01150473642008854 -0.25100487296640661 0 0.0049597396345670026 -0.26452376434945218 0 0.028317708997288939 -0.2654861731325095 0 0.01150473642008854 -0.25100487296640661 0 0.0049597396345670026 -0.26452376434945218 0 -0.0050603712554523096 -0.25502580822232418 0 -0.0012779613340340411 -0.24176494305706761 0 0.01150473642008854 -0.25100487296640661 0 -0.0012779613340340411 -0.24176494305706761 0 0.01150473642008854 -0.25100487296640661 0 0.01227448810303049 -0.23689425083746071 0 -0.0012779613340340411 -0.24176494305706761 0 -0.0016127085748020571 -0.22712480654777251 0 0.01227448810303049 -0.23689425083746071 0 -0.0016127085748020571 -0.22712480654777251 0 0.01227448810303049 -0.23689425083746071 0 0.01698840492239578 -0.2228903554452914 0 -0.0016127085748020571 -0.22712480654777251 0 0.01698840492239578 -0.2228903554452914 0 0.0064561243882930407 -0.21561537692257879 0 0.01227448810303049 -0.23689425083746071 0 0.01698840492239578 -0.2228903554452914 0 0.026822654761378281 -0.24010580347910071 0 0.01698840492239578 -0.2228903554452914 0 0.026822654761378281 -0.24010580347910071 0 0.034262553780134708 -0.21981152268886431 0 0.01150473642008854 -0.25100487296640661 0 0.01227448810303049 -0.23689425083746071 0 0.026822654761378281 -0.24010580347910071 0 -0.0048422933519348798 -0.20657909219758999 0 0.01498437965793468 -0.2009023489100171 0 0.0039750345954989988 -0.18651425943902311 0 0.01498437965793468 -0.2009023489100171 0 0.019555974831457788 -0.18489329081675979 0 0.0039750345954989988 -0.18651425943902311 0 -0.0048422933519348798 -0.20657909219758999 0 0.01498437965793468 -0.2009023489100171 0 0.0064561243882930407 -0.21561537692257879 0 0.01498437965793468 -0.2009023489100171 0 0.0064561243882930407 -0.21561537692257879 0 0.022166629418003729 -0.2118345471400416 0 0.01698840492239578 -0.2228903554452914 0 0.0064561243882930407 -0.21561537692257879 0 0.022166629418003729 -0.2118345471400416 0 -0.0016127085748020571 -0.22712480654777251 0 -0.0048422933519348798 -0.20657909219758999 0 0.0064561243882930407 -0.21561537692257879 0 0.01698840492239578 -0.2228903554452914 0 0.022166629418003729 -0.2118345471400416 0 0.034262553780134708 -0.21981152268886431 0 0.01498437965793468 -0.2009023489100171 0 0.022166629418003729 -0.2118345471400416 0 0.031897636722889637 -0.2043381853445167 0 0.022166629418003729 -0.2118345471400416 0 0.031897636722889637 -0.2043381853445167 0 0.034262553780134708 -0.21981152268886431 0 0.01498437965793468 -0.2009023489100171 0 0.027972004457906641 -0.19290593557317351 0 0.019555974831457788 -0.18489329081675979 0 0.01498437965793468 -0.2009023489100171 0 0.027972004457906641 -0.19290593557317351 0 0.031897636722889637 -0.2043381853445167 0 0.056528756629579638 -0.1979931783792292 0 0.033889281643562412 -0.17857272488157999 0 0.027972004457906641 -0.19290593557317351 0 0.03953274943368866 -0.19582312791299369 0 0.033889281643562412 -0.17857272488157999 0 0.03953274943368866 -0.19582312791299369 0 0.044202360045936313 -0.20737869318372881 0 0.056528756629579638 -0.1979931783792292 0 0.03953274943368866 -0.19582312791299369 0 0.056528756629579638 -0.1979931783792292 0 0.033889281643562412 -0.17857272488157999 0 0.027972004457906641 -0.19290593557317351 0 0.03953274943368866 -0.19582312791299369 0 0.031897636722889637 -0.2043381853445167 0 0.03953274943368866 -0.19582312791299369 0 0.044202360045936313 -0.20737869318372881 0 0.031897636722889637 -0.2043381853445167 0 0.044202360045936313 -0.20737869318372881 0 0.034262553780134708 -0.21981152268886431 0 0.055491951515289413 -0.2194038988852694 0 0.044202360045936313 -0.20737869318372881 0 0.031897636722889637 -0.2043381853445167 0 0.034262553780134708 -0.21981152268886431 0 0.058246448850680657 -0.19946663842738771 0 0.055491951515289413 -0.2194038988852694 0 0.066041136181110544 -0.21386160323267189 0 0.056528756629579638 -0.1979931783792292 0 0.055491951515289413 -0.2194038988852694 0 0.058246448850680657 -0.19946663842738771 0 0.056528756629579638 -0.1979931783792292 0 0.055491951515289413 -0.2194038988852694 0 0.044202360045936313 -0.20737869318372881 0 0.056528756629579638 -0.1979931783792292 0 0.055491951515289413 -0.2194038988852694 0 0.056528756629579638 -0.1979931783792292 0 0.057329549479635908 -0.18145626931170691 0 0.056528756629579638 -0.1979931783792292 0 0.065123946871468164 -0.19127238357693871 0 0.057329549479635908 -0.18145626931170691 0 0.058246448850680657 -0.19946663842738771 0 0.056528756629579638 -0.1979931783792292 0 0.065123946871468164 -0.19127238357693871 0 0.058246448850680657 -0.19946663842738771 0 0.056528756629579638 -0.1979931783792292 0 0.041504830166615332 -0.24909079072316551 0 0.041828765002810943 -0.233037808058844 0 0.054455146400998369 -0.2408146193913096 0 0.026822654761378281 -0.24010580347910071 0 0.041504830166615332 -0.24909079072316551 0 0.041828765002810943 -0.233037808058844 0 0.041828765002810943 -0.233037808058844 0 0.034262553780134708 -0.21981152268886431 0 0.055491951515289413 -0.2194038988852694 0 0.026822654761378281 -0.24010580347910071 0 0.041828765002810943 -0.233037808058844 0 0.034262553780134708 -0.21981152268886431 0 0.055491951515289413 -0.2194038988852694 0 0.054455146400998369 -0.2408146193913096 0 0.070056056729074334 -0.23044917593339351 0 0.055491951515289413 -0.2194038988852694 0 0.054455146400998369 -0.2408146193913096 0 0.041828765002810943 -0.233037808058844 0 0.055491951515289413 -0.2194038988852694 0 0.054455146400998369 -0.2408146193913096 0 0.05341834128670471 -0.26222533989734959 0 0.054455146400998369 -0.2408146193913096 0 0.071841433176306951 -0.24693042426755701 0 0.071841433176306951 -0.24693042426755701 0 0.078351655706027534 -0.24017870186704479 0 0.070056056729074334 -0.23044917593339351 0 0.054455146400998369 -0.2408146193913096 0 0.071841433176306951 -0.24693042426755701 0 0.070056056729074334 -0.23044917593339351 0 0.078351655706027534 -0.24017870186704479 0 0.084005261436397555 -0.23414661223377431 0 0.070056056729074334 -0.23044917593339351 0 0.071841433176306951 -0.24693042426755701 0 0.078351655706027534 -0.24017870186704479 0 0.087503871482331325 -0.24918859503345439 0 0.084005261436397555 -0.23414661223377431 0 0.09726841460880753 -0.24973530510077291 0 0.098224276789357245 -0.22202348732504129 0 0.078351655706027534 -0.24017870186704479 0 0.087503871482331325 -0.24918859503345439 0 0.084005261436397555 -0.23414661223377431 0 0.087503871482331325 -0.24918859503345439 0 0.084005261436397555 -0.23414661223377431 0 0.09726841460880753 -0.24973530510077291 0 0.087503871482331325 -0.24918859503345439 0 0.09726841460880753 -0.24973530510077291 0 0.084005261436397555 -0.23414661223377431 0 0.077944909524616218 -0.21644665818138251 0 0.098224276789357245 -0.22202348732504129 0 0.084005261436397555 -0.23414661223377431 0 0.070056056729074334 -0.23044917593339351 0 0.077944909524616218 -0.21644665818138251 0 0.070056056729074334 -0.23044917593339351 0 0.066041136181110544 -0.21386160323267189 0 0.077944909524616218 -0.21644665818138251 0 0.055491951515289413 -0.2194038988852694 0 0.070056056729074334 -0.23044917593339351 0 0.066041136181110544 -0.21386160323267189 0 0.058246448850680657 -0.19946663842738771 0 0.066041136181110544 -0.21386160323267189 0 0.071428190199665467 -0.20133585635874521 0 0.066041136181110544 -0.21386160323267189 0 0.077944909524616218 -0.21644665818138251 0 0.071428190199665467 -0.20133585635874521 0 0.058246448850680657 -0.19946663842738771 0 0.065123946871468164 -0.19127238357693871 0 0.071428190199665467 -0.20133585635874521 0 0.065123946871468164 -0.19127238357693871 0 0.071428190199665467 -0.20133585635874521 0 0.077775677467109644 -0.1894438906232867 0 0.077775677467109644 -0.1894438906232867 0 0.085264727641627694 -0.2009309552866074 0 0.087035172899110766 -0.18202416968187909 0 0.085264727641627694 -0.2009309552866074 0 0.099180138969906934 -0.19431166954930951 0 0.087035172899110766 -0.18202416968187909 0 0.071428190199665467 -0.20133585635874521 0 0.077775677467109644 -0.1894438906232867 0 0.085264727641627694 -0.2009309552866074 0 0.077944909524616218 -0.21644665818138251 0 0.085264727641627694 -0.2009309552866074 0 0.098224276789357245 -0.22202348732504129 0 0.077944909524616218 -0.21644665818138251 0 0.071428190199665467 -0.20133585635874521 0 0.085264727641627694 -0.2009309552866074 0 0.085264727641627694 -0.2009309552866074 0 0.099180138969906934 -0.19431166954930951 0 0.098224276789357245 -0.22202348732504129 0 0.099180138969906934 -0.19431166954930951 0 0.11354412200005309 -0.20878294345574169 0 0.098224276789357245 -0.22202348732504129 0 0.099180138969906934 -0.19431166954930951 0 0.098224276789357245 -0.22202348732504129 0 0.099180138969906934 -0.19431166954930951 0 0.1232396379011078 -0.1927549034493776 0 0.1116878195257827 -0.17967737761147759 0 0.099180138969906934 -0.19431166954930951 0 0.1232396379011078 -0.1927549034493776 0 0.11354412200005309 -0.20878294345574169 0 0.1232396379011078 -0.1927549034493776 0 0.11354412200005309 -0.20878294345574169 0 0.1296813367821156 -0.2112782106774091 0 0.11354412200005309 -0.20878294345574169 0 0.11925867152865099 -0.22395178641925401 0 0.1296813367821156 -0.2112782106774091 0 0.11354412200005309 -0.20878294345574169 0 0.11925867152865099 -0.22395178641925401 0 0.098224276789357245 -0.22202348732504129 0 0.11925867152865099 -0.22395178641925401 0 0.1115141746540584 -0.23685798868452451 0 0.098224276789357245 -0.22202348732504129 0 0.11925867152865099 -0.22395178641925401 0 0.1115141746540584 -0.23685798868452451 0 0.12727927076528461 -0.2378210325384271 0 0.1155402395781918 -0.2507583320391269 0 0.1115141746540584 -0.23685798868452451 0 0.12727927076528461 -0.2378210325384271 0 0.09726841460880753 -0.24973530510077291 0 0.098224276789357245 -0.22202348732504129 0 0.1115141746540584 -0.23685798868452451 0 0.09726841460880753 -0.24973530510077291 0 0.098224276789357245 -0.22202348732504129 0 0.1155402395781918 -0.2507583320391269 0 0.1115141746540584 -0.23685798868452451 0 0.09726841460880753 -0.24973530510077291 0 0.1006234008225292 -0.15246943509712671 0 0.1001360011504572 -0.16659985177357781 0 0.083956960864695562 -0.1482839632705675 0 0.093837558922739497 -0.14264619108299431 0 0.1006234008225292 -0.15246943509712671 0 0.1028307954559992 -0.13579239345953559 0 0.1006234008225292 -0.15246943509712671 0 0.1028307954559992 -0.13579239345953559 0 0.1133439292462652 -0.14669813101470161 0 0.1006234008225292 -0.15246943509712671 0 0.1133439292462652 -0.14669813101470161 0 0.1122920085546638 -0.16227381202107721 0 0.093837558922739497 -0.14264619108299431 0 0.1028307954559992 -0.13579239345953559 0 0.086025777066828416 -0.13071312073542821 0 0.1028307954559992 -0.13579239345953559 0 0.086025777066828416 -0.13071312073542821 0 0.1003755091591467 -0.120365047089626 0 0.1028307954559992 -0.13579239345953559 0 0.1110772144577262 -0.12607447494648069 0 0.1003755091591467 -0.120365047089626 0 0.1028307954559992 -0.13579239345953559 0 0.1110772144577262 -0.12607447494648069 0 0.1195920268695274 -0.13435801890873961 0 0.1028307954559992 -0.13579239345953559 0 0.1195920268695274 -0.13435801890873961 0 0.1133439292462652 -0.14669813101470161 0 0.1110772144577262 -0.12607447494648069 0 0.1195920268695274 -0.13435801890873961 0 0.125059882544757 -0.1243050716586782 0 0.1195920268695274 -0.13435801890873961 0 0.1133439292462652 -0.14669813101470161 0 0.12550759679471971 -0.14428239988351421 0 0.1133439292462652 -0.14669813101470161 0 0.1238726331408222 -0.15597973401630799 0 0.1122920085546638 -0.16227381202107721 0 0.1133439292462652 -0.14669813101470161 0 0.1238726331408222 -0.15597973401630799 0 0.12550759679471971 -0.14428239988351421 0 0.1122920085546638 -0.16227381202107721 0 0.1240882674421261 -0.17221834261327171 0 0.1116878195257827 -0.17967737761147759 0 0.1238726331408222 -0.15597973401630799 0 0.1122920085546638 -0.16227381202107721 0 0.1240882674421261 -0.17221834261327171 0 0.1232396379011078 -0.1927549034493776 0 0.1240882674421261 -0.17221834261327171 0 0.1116878195257827 -0.17967737761147759 0 0.1232396379011078 -0.1927549034493776 0 0.1116878195257827 -0.17967737761147759 0 0.099180138969906934 -0.19431166954930951 0 0.1116878195257827 -0.17967737761147759 0 0.1001360011504572 -0.16659985177357781 0 0.099180138969906934 -0.19431166954930951 0 0.1001360011504572 -0.16659985177357781 0 0.099180138969906934 -0.19431166954930951 0 0.1001360011504572 -0.16659985177357781 0 0.087035172899110766 -0.18202416968187909 0 0.1116878195257827 -0.17967737761147759 0 0.1001360011504572 -0.16659985177357781 0 0.1122920085546638 -0.16227381202107721 0 0.1116878195257827 -0.17967737761147759 0 0.1001360011504572 -0.16659985177357781 0 0.1006234008225292 -0.15246943509712671 0 0.1122920085546638 -0.16227381202107721 0 0.1001360011504572 -0.16659985177357781 0 0.1006234008225292 -0.15246943509712671 0 0.1001360011504572 -0.16659985177357781 0 0.1001360011504572 -0.16659985177357781 0 0.083956960864695562 -0.1482839632705675 0 0.1001360011504572 -0.16659985177357781 0 0.079225084705666013 -0.1675683830972868 0 0.083956960864695562 -0.1482839632705675 0 0.077775677467109644 -0.1894438906232867 0 0.087035172899110766 -0.18202416968187909 0 0.070769962292113645 -0.17944740942254711 0 0.079225084705666013 -0.1675683830972868 0 0.087035172899110766 -0.18202416968187909 0 0.070769962292113645 -0.17944740942254711 0 0.1001360011504572 -0.16659985177357781 0 0.079225084705666013 -0.1675683830972868 0 0.087035172899110766 -0.18202416968187909 0 0.065123946871468164 -0.19127238357693871 0 0.077775677467109644 -0.1894438906232867 0 0.070769962292113645 -0.17944740942254711 0 0.065123946871468164 -0.19127238357693871 0 0.070769962292113645 -0.17944740942254711 0 0.057329549479635908 -0.18145626931170691 0 0.079225084705666013 -0.1675683830972868 0 0.069844290743162202 -0.15572535069481899 0 0.058130342329691373 -0.1649193602441846 0 0.079225084705666013 -0.1675683830972868 0 0.069844290743162202 -0.15572535069481899 0 0.083956960864695562 -0.1482839632705675 0 0.079225084705666013 -0.1675683830972868 0 0.070769962292113645 -0.17944740942254711 0 0.058130342329691373 -0.1649193602441846 0 0.069844290743162202 -0.15572535069481899 0 0.065690713085214791 -0.1421362209973312 0 0.083956960864695562 -0.1482839632705675 0 0.069844290743162202 -0.15572535069481899 0 0.065690713085214791 -0.1421362209973312 0 0.055338914955394031 -0.1557955185274518 0 0.093837558922739497 -0.14264619108299431 0 0.1006234008225292 -0.15246943509712671 0 0.083956960864695562 -0.1482839632705675 0 0.083956960864695562 -0.1482839632705675 0 0.086025777066828416 -0.13071312073542821 0 0.067777920578933518 -0.1299680747675574 0 0.093837558922739497 -0.14264619108299431 0 0.083956960864695562 -0.1482839632705675 0 0.086025777066828416 -0.13071312073542821 0 0.083956960864695562 -0.1482839632705675 0 0.067777920578933518 -0.1299680747675574 0 0.065690713085214791 -0.1421362209973312 0 0.083956960864695562 -0.1482839632705675 0 0.067777920578933518 -0.1299680747675574 0 0.086025777066828416 -0.13071312073542821 0 0.067777920578933518 -0.1299680747675574 0 0.076734835755005087 -0.11970758577673089 0 0.067777920578933518 -0.1299680747675574 0 0.053441304474890289 -0.13464385441717969 0 0.05399936433302991 -0.12122894057442581 0 0.053441304474890289 -0.13464385441717969 0 0.041268264505893618 -0.12924178955595211 0 0.05399936433302991 -0.12122894057442581 0 0.065690713085214791 -0.1421362209973312 0 0.067777920578933518 -0.1299680747675574 0 0.053441304474890289 -0.13464385441717969 0 0.065690713085214791 -0.1421362209973312 0 0.055338914955394031 -0.1557955185274518 0 0.0384702598713796 -0.15064424619063199 0 0.065690713085214791 -0.1421362209973312 0 0.0384702598713796 -0.15064424619063199 0 0.065690713085214791 -0.1421362209973312 0 0.053441304474890289 -0.13464385441717969 0 0.0384702598713796 -0.15064424619063199 0 0.053441304474890289 -0.13464385441717969 0 0.0384702598713796 -0.15064424619063199 0 0.041268264505893618 -0.12924178955595211 0 0.0384702598713796 -0.15064424619063199 0 0.041268264505893618 -0.12924178955595211 0 0.015842377588640461 -0.12995768139491151 0 0.057329549479635908 -0.18145626931170691 0 0.058130342329691373 -0.1649193602441846 0 0.056528756629579638 -0.1979931783792292 0 0.057329549479635908 -0.18145626931170691 0 0.033889281643562412 -0.17857272488157999 0 0.070769962292113645 -0.17944740942254711 0 0.057329549479635908 -0.18145626931170691 0 0.058130342329691373 -0.1649193602441846 0 0.057329549479635908 -0.18145626931170691 0 0.058130342329691373 -0.1649193602441846 0 0.04455896874752216 -0.16555241451029229 0 0.069844290743162202 -0.15572535069481899 0 0.055338914955394031 -0.1557955185274518 0 0.058130342329691373 -0.1649193602441846 0 0.055338914955394031 -0.1557955185274518 0 0.058130342329691373 -0.1649193602441846 0 0.04455896874752216 -0.16555241451029229 0 0.055338914955394031 -0.1557955185274518 0 0.0384702598713796 -0.15064424619063199 0 0.04455896874752216 -0.16555241451029229 0 0.0384702598713796 -0.15064424619063199 0 0.031574010555557599 -0.1635538019881777 0 0.04455896874752216 -0.16555241451029229 0 0.031574010555557599 -0.1635538019881777 0 0.04455896874752216 -0.16555241451029229 0 0.033889281643562412 -0.17857272488157999 0 0.057329549479635908 -0.18145626931170691 0 0.04455896874752216 -0.16555241451029229 0 0.033889281643562412 -0.17857272488157999 0 0.033889281643562412 -0.17857272488157999 0 0.019555974831457788 -0.18489329081675979 0 0.017860935761059481 -0.17540941327727391 0 0.033889281643562412 -0.17857272488157999 0 0.017860935761059481 -0.17540941327727391 0 0.018922444694438611 -0.16573396598117041 0 0.027972004457906641 -0.19290593557317351 0 0.033889281643562412 -0.17857272488157999 0 0.019555974831457788 -0.18489329081675979 0 0.033889281643562412 -0.17857272488157999 0 0.018922444694438611 -0.16573396598117041 0 0.0384702598713796 -0.15064424619063199 0 0.031574010555557599 -0.1635538019881777 0 0.011249806657544249 -0.1591522713839319 0 0.031574010555557599 -0.1635538019881777 0 0.018922444694438611 -0.16573396598117041 0 0.011249806657544249 -0.1591522713839319 0 0.031574010555557599 -0.1635538019881777 0 0.033889281643562412 -0.17857272488157999 0 0.018922444694438611 -0.16573396598117041 0 0.018922444694438611 -0.16573396598117041 0 0.011249806657544249 -0.1591522713839319 0 0.0051361497124387812 -0.16106315607433669 0 0.018922444694438611 -0.16573396598117041 0 0.0051361497124387812 -0.16106315607433669 0 0.018922444694438611 -0.16573396598117041 0 0.011249806657544249 -0.1591522713839319 0 0.011249806657544249 -0.1591522713839319 0 0.0051361497124387812 -0.16106315607433669 0 0.011249806657544249 -0.1591522713839319 0 0.0051361497124387812 -0.16106315607433669 0 0.00014451492137988051 -0.1496259991592768 0 -0.001198061652550745 -0.17280609881212911 0 0.0051361497124387812 -0.16106315607433669 0 0.0083362452288298274 -0.17396118646513589 0 0.018922444694438611 -0.16573396598117041 0 0.0051361497124387812 -0.16106315607433669 0 0.0083362452288298274 -0.17396118646513589 0 0.017860935761059481 -0.17540941327727391 0 0.018922444694438611 -0.16573396598117041 0 0.0083362452288298274 -0.17396118646513589 0 0.019555974831457788 -0.18489329081675979 0 0.017860935761059481 -0.17540941327727391 0 0.0083362452288298274 -0.17396118646513589 0 -0.001198061652550745 -0.17280609881212911 0 0.0083362452288298274 -0.17396118646513589 0 0.0039750345954989988 -0.18651425943902311 0 0.019555974831457788 -0.18489329081675979 0 0.0083362452288298274 -0.17396118646513589 0 0.0039750345954989988 -0.18651425943902311 0 0.041268264505893618 -0.12924178955595211 0 0.015842377588640461 -0.12995768139491151 0 0.0384702598713796 -0.15064424619063199 0 0.015842377588640461 -0.12995768139491151 0 0.011224689942066299 -0.1440107542725246 0 0.0384702598713796 -0.15064424619063199 0 0.011249806657544249 -0.1591522713839319 0 0.011224689942066299 -0.1440107542725246 0 0.0384702598713796 -0.15064424619063199 0 0.011249806657544249 -0.1591522713839319 0 -0.0095835093286126792 -0.13067357323387099 0 0.011224689942066299 -0.1440107542725246 0 0.00014451492137988051 -0.1496259991592768 0 0.011249806657544249 -0.1591522713839319 0 0.00014451492137988051 -0.1496259991592768 0 0.011249806657544249 -0.1591522713839319 0 0.011224689942066299 -0.1440107542725246 0 0.00014451492137988051 -0.1496259991592768 0 -0.0095835093286126792 -0.13067357323387099 0 0.015842377588640461 -0.12995768139491151 0 -0.0095835093286126792 -0.13067357323387099 0 0.015842377588640461 -0.12995768139491151 0 0.011224689942066299 -0.1440107542725246 0 -0.004447001458793981 -0.1103644265276268 0 -0.0095835093286126792 -0.13067357323387099 0 0.015842377588640461 -0.12995768139491151 0 -0.004447001458793981 -0.1103644265276268 0 0.015842377588640461 -0.12995768139491151 0 0.019064047731892519 -0.1027428983621612 0 0.015842377588640461 -0.12995768139491151 0 0.019064047731892519 -0.1027428983621612 0 0.037106240101941267 -0.1127949235512794 0 0.019064047731892519 -0.1027428983621612 0 0.037234516137291472 -0.08975442686183864 0 0.037106240101941267 -0.1127949235512794 0 -0.004447001458793981 -0.1103644265276268 0 0.019064047731892519 -0.1027428983621612 0 -0.0041979068999104599 -0.092692987180200151 0 -0.004447001458793981 -0.1103644265276268 0 0.019064047731892519 -0.1027428983621612 0 -0.0041979068999104599 -0.092692987180200151 0 0.003886405537072308 -0.074985287574065307 0 0.019828086476746741 -0.084468472620665633 0 -0.0041979068999104599 -0.092692987180200151 0 0.019064047731892519 -0.1027428983621612 0 0.019828086476746741 -0.084468472620665633 0 0.003886405537072308 -0.074985287574065307 0 0.028295076817156449 -0.069568801619081161 0 0.019828086476746741 -0.084468472620665633 0 0.003886405537072308 -0.074985287574065307 0 0.028295076817156449 -0.069568801619081161 0 0.01833358543460277 -0.05641701057889667 0 0.019064047731892519 -0.1027428983621612 0 0.019828086476746741 -0.084468472620665633 0 0.037234516137291472 -0.08975442686183864 0 0.028295076817156449 -0.069568801619081161 0 0.019828086476746741 -0.084468472620665633 0 0.037234516137291472 -0.08975442686183864 0 0.028295076817156449 -0.069568801619081161 0 0.037234516137291472 -0.08975442686183864 0 0.056852127489792813 -0.07490730178705754 0 0.028295076817156449 -0.069568801619081161 0 0.056852127489792813 -0.07490730178705754 0 0.043412112850471737 -0.054930671915401803 0 0.056852127489792813 -0.07490730178705754 0 0.043412112850471737 -0.054930671915401803 0 0.062505798999464707 -0.060826586793076412 0 0.056852127489792813 -0.07490730178705754 0 0.055228870314899682 -0.103843804558387 0 0.070281085843191191 -0.093817275438188408 0 0.037234516137291472 -0.08975442686183864 0 0.056852127489792813 -0.07490730178705754 0 0.055228870314899682 -0.103843804558387 0 0.055228870314899682 -0.103843804558387 0 0.05399936433302991 -0.12122894057442581 0 0.037106240101941267 -0.1127949235512794 0 0.055228870314899682 -0.103843804558387 0 0.05399936433302991 -0.12122894057442581 0 0.065906963652981487 -0.1182248878619804 0 0.041268264505893618 -0.12924178955595211 0 0.05399936433302991 -0.12122894057442581 0 0.037106240101941267 -0.1127949235512794 0 0.041268264505893618 -0.12924178955595211 0 0.015842377588640461 -0.12995768139491151 0 0.037106240101941267 -0.1127949235512794 0 0.037234516137291472 -0.08975442686183864 0 0.055228870314899682 -0.103843804558387 0 0.037106240101941267 -0.1127949235512794 0 0.030110906951190688 -0.01173386609504996 0 0.0045774522161646097 -0.0093144947699853528 0 0.019230231732056138 -0.023667566818530359 0 0.018044735406519189 -0.0027914786915071068 0 0.030110906951190688 -0.01173386609504996 0 0.0045774522161646097 -0.0093144947699853528 0 0.035622497167505339 0.0063925700628825917 0 0.018044735406519189 -0.0027914786915071068 0 0.030110906951190688 -0.01173386609504996 0 0.030110906951190688 -0.01173386609504996 0 0.0045774522161646097 -0.0093144947699853528 0 0.018044735406519189 -0.0027914786915071068 0 0.002394805847480138 -0.0071764921779012506 0 0.0045774522161646097 -0.0093144947699853528 0 0.0006213327713558641 -0.0089396406014967747 0 0.0045774522161646097 -0.0093144947699853528 0 0.0014199230119024339 -0.021574900853890581 0 0.002394805847480138 -0.0071764921779012506 0 0.0006213327713558641 -0.0089396406014967747 0 0.0045774522161646097 -0.0093144947699853528 0 0.0006213327713558641 -0.0089396406014967747 0 0.0045774522161646097 -0.0093144947699853528 0 -0.001488115343110989 -0.0087397640735148233 0 0.002394805847480138 -0.0071764921779012506 0 0.0006213327713558641 -0.0089396406014967747 0 0.002394805847480138 -0.0071764921779012506 0 0.0006213327713558641 -0.0089396406014967747 0 0.002394805847480138 -0.0071764921779012506 0 0.0045774522161646097 -0.0093144947699853528 0 0.0045774522161646097 -0.0093144947699853528 0 0.019230231732056138 -0.023667566818530359 0 0.0045774522161646097 -0.0093144947699853528 0 0.0014199230119024339 -0.021574900853890581 0 0.019230231732056138 -0.023667566818530359 0 0.0014199230119024339 -0.021574900853890581 0 0.0083973707027768379 -0.030855929703784798 0 0.019230231732056138 -0.023667566818530359 0 -0.003476286599935095 -0.036271506326322138 0 0.0014199230119024339 -0.021574900853890581 0 0.0083973707027768379 -0.030855929703784798 0 0.030110906951190688 -0.01173386609504996 0 0.019230231732056138 -0.023667566818530359 0 0.031518170358815163 -0.024102367719011381 0 0.019230231732056138 -0.023667566818530359 0 0.033883011247947889 -0.038020638867075192 0 0.031518170358815163 -0.024102367719011381 0 0.019230231732056138 -0.023667566818530359 0 0.033883011247947889 -0.038020638867075192 0 0.01494251690265052 -0.041372340822573933 0 0.01833358543460277 -0.05641701057889667 0 0.033883011247947889 -0.038020638867075192 0 0.019230231732056138 -0.023667566818530359 0 0.01494251690265052 -0.041372340822573933 0 0.033883011247947889 -0.038020638867075192 0 -0.003476286599935095 -0.036271506326322138 0 -0.00022463716734756899 -0.054496453091326037 0 0.01494251690265052 -0.041372340822573933 0 -0.003476286599935095 -0.036271506326322138 0 0.0083973707027768379 -0.030855929703784798 0 0.01494251690265052 -0.041372340822573933 0 0.0083973707027768379 -0.030855929703784798 0 0.019230231732056138 -0.023667566818530359 0 0.01494251690265052 -0.041372340822573933 0 -0.00022463716734756899 -0.054496453091326037 0 0.003886405537072308 -0.074985287574065307 0 0.01833358543460277 -0.05641701057889667 0 -0.00022463716734756899 -0.054496453091326037 0 0.01494251690265052 -0.041372340822573933 0 0.01833358543460277 -0.05641701057889667 0 0.028295076817156449 -0.069568801619081161 0 0.01833358543460277 -0.05641701057889667 0 0.043412112850471737 -0.054930671915401803 0 0.01833358543460277 -0.05641701057889667 0 0.043412112850471737 -0.054930671915401803 0 0.033883011247947889 -0.038020638867075192 0 0.043412112850471737 -0.054930671915401803 0 0.059769218069649313 -0.045902054602901338 0 0.062505798999464707 -0.060826586793076412 0 0.043412112850471737 -0.054930671915401803 0 0.059769218069649313 -0.045902054602901338 0 0.051344651808144813 -0.03456126235542302 0 0.051344651808144813 -0.03456126235542302 0 0.056061594203691133 -0.025076371103657479 0 0.065665228365204262 -0.034364577790676212 0 0.059769218069649313 -0.045902054602901338 0 0.051344651808144813 -0.03456126235542302 0 0.065665228365204262 -0.034364577790676212 0 0.043412112850471737 -0.054930671915401803 0 0.051344651808144813 -0.03456126235542302 0 0.033883011247947889 -0.038020638867075192 0 0.051344651808144813 -0.03456126235542302 0 0.033883011247947889 -0.038020638867075192 0 0.042848531504065902 -0.022987399095390042 0 0.030110906951190688 -0.01173386609504996 0 0.042848531504065902 -0.022987399095390042 0 0.055644361686216767 -0.014153237420114781 0 0.033883011247947889 -0.038020638867075192 0 0.031518170358815163 -0.024102367719011381 0 0.042848531504065902 -0.022987399095390042 0 0.030110906951190688 -0.01173386609504996 0 0.031518170358815163 -0.024102367719011381 0 0.042848531504065902 -0.022987399095390042 0 0.051344651808144813 -0.03456126235542302 0 0.042848531504065902 -0.022987399095390042 0 0.056061594203691133 -0.025076371103657479 0 0.056061594203691133 -0.025076371103657479 0 0.064805197654823885 -0.019315378856683371 0 0.065665228365204262 -0.034364577790676212 0 0.056061594203691133 -0.025076371103657479 0 0.055644361686216767 -0.014153237420114781 0 0.064805197654823885 -0.019315378856683371 0 0.042848531504065902 -0.022987399095390042 0 0.056061594203691133 -0.025076371103657479 0 0.055644361686216767 -0.014153237420114781 0 0.055644361686216767 -0.014153237420114781 0 0.058196269712748661 -0.0010094984802769141 0 0.069352637037845374 -0.0058266927155855106 0 0.055644361686216767 -0.014153237420114781 0 0.058196269712748661 -0.0010094984802769141 0 0.045210290485040869 -0.0034719151203993228 0 0.030110906951190688 -0.01173386609504996 0 0.055644361686216767 -0.014153237420114781 0 0.045210290485040869 -0.0034719151203993228 0 0.035622497167505339 0.0063925700628825917 0 0.030110906951190688 -0.01173386609504996 0 0.045210290485040869 -0.0034719151203993228 0 0.030110906951190688 -0.01173386609504996 0 0.055644361686216767 -0.014153237420114781 0 0.096167504599054904 0.0042442054759202954 0 0.081717153665888317 -0.0025063239881197622 0 0.095472413630543998 -0.0072730453323191883 0 0.081717153665888317 -0.0025063239881197622 0 0.081177816421242804 -0.016572608745179591 0 0.095472413630543998 -0.0072730453323191883 0 0.055644361686216767 -0.014153237420114781 0 0.081177816421242804 -0.016572608745179591 0 0.055644361686216767 -0.014153237420114781 0 0.069352637037845374 -0.0058266927155855106 0 0.081177816421242804 -0.016572608745179591 0 0.070381517258247442 0.0054324954822656396 0 0.081717153665888317 -0.0025063239881197622 0 0.069352637037845374 -0.0058266927155855106 0 0.070381517258247442 0.0054324954822656396 0 0.058196269712748661 -0.0010094984802769141 0 0.069352637037845374 -0.0058266927155855106 0 0.081717153665888317 -0.0025063239881197622 0 0.069352637037845374 -0.0058266927155855106 0 0.081177816421242804 -0.016572608745179591 0 0.064805197654823885 -0.019315378856683371 0 0.085712771491518958 -0.038211511484016539 0 0.065665228365204262 -0.034364577790676212 0 0.064805197654823885 -0.019315378856683371 0 0.076287907678157074 -0.023986159701047009 0 0.081177816421242804 -0.016572608745179591 0 0.055644361686216767 -0.014153237420114781 0 0.064805197654823885 -0.019315378856683371 0 0.081177816421242804 -0.016572608745179591 0 0.064805197654823885 -0.019315378856683371 0 0.076287907678157074 -0.023986159701047009 0 0.085712771491518958 -0.038211511484016539 0 0.064805197654823885 -0.019315378856683371 0 0.085712771491518958 -0.038211511484016539 0 0.076287907678157074 -0.023986159701047009 0 0.090532384742726735 -0.027505059676875141 0 0.085712771491518958 -0.038211511484016539 0 0.076287907678157074 -0.023986159701047009 0 0.085712771491518958 -0.038211511484016539 0 0.081177816421242804 -0.016572608745179591 0 0.090532384742726735 -0.027505059676875141 0 0.1067112711562688 -0.01899198007024441 0 0.076287907678157074 -0.023986159701047009 0 0.081177816421242804 -0.016572608745179591 0 0.090532384742726735 -0.027505059676875141 0 0.090532384742726735 -0.027505059676875141 0 0.085712771491518958 -0.038211511484016539 0 0.102772156966446 -0.039763038383888151 0 0.085712771491518958 -0.038211511484016539 0 0.07267749436203183 -0.048188407729665747 0 0.085132366133298415 -0.052458296335176707 0 0.085712771491518958 -0.038211511484016539 0 0.065665228365204262 -0.034364577790676212 0 0.07267749436203183 -0.048188407729665747 0 0.059769218069649313 -0.045902054602901338 0 0.065665228365204262 -0.034364577790676212 0 0.07267749436203183 -0.048188407729665747 0 0.059769218069649313 -0.045902054602901338 0 0.07267749436203183 -0.048188407729665747 0 0.062505798999464707 -0.060826586793076412 0 0.07267749436203183 -0.048188407729665747 0 0.062505798999464707 -0.060826586793076412 0 0.07727958311305537 -0.057367419372147309 0 0.085712771491518958 -0.038211511484016539 0 0.098207536939253007 -0.057070397666300149 0 0.07727958311305537 -0.057367419372147309 0 0.085132366133298415 -0.052458296335176707 0 0.088807886296056321 -0.06442462200908719 0 0.085712771491518958 -0.038211511484016539 0 0.085132366133298415 -0.052458296335176707 0 0.098207536939253007 -0.057070397666300149 0 0.07267749436203183 -0.048188407729665747 0 0.07727958311305537 -0.057367419372147309 0 0.085132366133298415 -0.052458296335176707 0 0.085132366133298415 -0.052458296335176707 0 0.098207536939253007 -0.057070397666300149 0 0.088807886296056321 -0.06442462200908719 0 0.085712771491518958 -0.038211511484016539 0 0.1060355466537841 -0.056579106778484822 0 0.085712771491518958 -0.038211511484016539 0 0.098207536939253007 -0.057070397666300149 0 0.1060355466537841 -0.056579106778484822 0 0.098207536939253007 -0.057070397666300149 0 0.1060355466537841 -0.056579106778484822 0 0.1035330678577871 -0.060408744014543561 0 0.1060355466537841 -0.056579106778484822 0 0.1035330678577871 -0.060408744014543561 0 0.1060355466537841 -0.056579106778484822 0 0.12407046944405239 -0.056682210957894767 0 0.1194833752947594 -0.035999389823432593 0 0.1060355466537841 -0.056579106778484822 0 0.1194833752947594 -0.035999389823432593 0 0.102772156966446 -0.039763038383888151 0 0.1060355466537841 -0.056579106778484822 0 0.1194833752947594 -0.035999389823432593 0 0.1194833752947594 -0.035999389823432593 0 0.102772156966446 -0.039763038383888151 0 0.1067112711562688 -0.01899198007024441 0 0.085712771491518958 -0.038211511484016539 0 0.1060355466537841 -0.056579106778484822 0 0.102772156966446 -0.039763038383888151 0 0.090532384742726735 -0.027505059676875141 0 0.102772156966446 -0.039763038383888151 0 0.1067112711562688 -0.01899198007024441 0 0.081177816421242804 -0.016572608745179591 0 0.1067112711562688 -0.01899198007024441 0 0.1194833752947594 -0.035999389823432593 0 0.119688443476294 -0.020419382492060888 0 0.13293120393573529 -0.01541967286838083 0 0.1194833752947594 -0.035999389823432593 0 0.1067112711562688 -0.01899198007024441 0 0.119688443476294 -0.020419382492060888 0 0.119688443476294 -0.020419382492060888 0 0.1196279235184127 -0.011266487206185741 0 0.13293120393573529 -0.01541967286838083 0 0.1067112711562688 -0.01899198007024441 0 0.119688443476294 -0.020419382492060888 0 0.1196279235184127 -0.011266487206185741 0 0.1067112711562688 -0.01899198007024441 0 0.1196279235184127 -0.011266487206185741 0 0.11158832231026521 -0.002538519333972472 0 0.12681727907172599 0.0028609529651058472 0 0.1196279235184127 -0.011266487206185741 0 0.11158832231026521 -0.002538519333972472 0 0.081177816421242804 -0.016572608745179591 0 0.1067112711562688 -0.01899198007024441 0 0.095472413630543998 -0.0072730453323191883 0 0.1067112711562688 -0.01899198007024441 0 0.11158832231026521 -0.002538519333972472 0 0.095472413630543998 -0.0072730453323191883 0 0.096167504599054904 0.0042442054759202954 0 0.11158832231026521 -0.002538519333972472 0 0.095472413630543998 -0.0072730453323191883 0 0.088205186756687592 -0.098499163401079406 0 0.088306584707542421 -0.11364295246223539 0 0.1041297467101449 -0.10443009357677931 0 0.088205186756687592 -0.098499163401079406 0 0.088306584707542421 -0.11364295246223539 0 0.074368452797441906 -0.1081427041937684 0 0.086025777066828416 -0.13071312073542821 0 0.088306584707542421 -0.11364295246223539 0 0.1003755091591467 -0.120365047089626 0 0.086025777066828416 -0.13071312073542821 0 0.088306584707542421 -0.11364295246223539 0 0.076734835755005087 -0.11970758577673089 0 0.088306584707542421 -0.11364295246223539 0 0.076734835755005087 -0.11970758577673089 0 0.074368452797441906 -0.1081427041937684 0 0.076734835755005087 -0.11970758577673089 0 0.065906963652981487 -0.1182248878619804 0 0.074368452797441906 -0.1081427041937684 0 0.055228870314899682 -0.103843804558387 0 0.065906963652981487 -0.1182248878619804 0 0.074368452797441906 -0.1081427041937684 0 0.067777920578933518 -0.1299680747675574 0 0.076734835755005087 -0.11970758577673089 0 0.065906963652981487 -0.1182248878619804 0 0.067777920578933518 -0.1299680747675574 0 0.05399936433302991 -0.12122894057442581 0 0.065906963652981487 -0.1182248878619804 0 0.088205186756687592 -0.098499163401079406 0 0.070281085843191191 -0.093817275438188408 0 0.074368452797441906 -0.1081427041937684 0 0.055228870314899682 -0.103843804558387 0 0.070281085843191191 -0.093817275438188408 0 0.074368452797441906 -0.1081427041937684 0 0.056852127489792813 -0.07490730178705754 0 0.078967107604769243 -0.081534257868326937 0 0.056852127489792813 -0.07490730178705754 0 0.070281085843191191 -0.093817275438188408 0 0.078967107604769243 -0.081534257868326937 0 0.062505798999464707 -0.060826586793076412 0 0.07727958311305537 -0.057367419372147309 0 0.078967107604769243 -0.081534257868326937 0 0.056852127489792813 -0.07490730178705754 0 0.062505798999464707 -0.060826586793076412 0 0.078967107604769243 -0.081534257868326937 0 0.07727958311305537 -0.057367419372147309 0 0.088807886296056321 -0.06442462200908719 0 0.078967107604769243 -0.081534257868326937 0 0.088807886296056321 -0.06442462200908719 0 0.078967107604769243 -0.081534257868326937 0 0.094886380824945021 -0.074739832907536372 0 0.088205186756687592 -0.098499163401079406 0 0.078967107604769243 -0.081534257868326937 0 0.10108208771974569 -0.088161213949596334 0 0.078967107604769243 -0.081534257868326937 0 0.10108208771974569 -0.088161213949596334 0 0.088205186756687592 -0.098499163401079406 0 0.070281085843191191 -0.093817275438188408 0 0.078967107604769243 -0.081534257868326937 0 0.078967107604769243 -0.081534257868326937 0 0.10108208771974569 -0.088161213949596334 0 0.094886380824945021 -0.074739832907536372 0 0.10108208771974569 -0.088161213949596334 0 0.094886380824945021 -0.074739832907536372 0 0.1107023023869871 -0.07592928384858362 0 0.1060355466537841 -0.056579106778484822 0 0.1035330678577871 -0.060408744014543561 0 0.1107023023869871 -0.07592928384858362 0 0.098151026611810355 -0.068041034107876819 0 0.094886380824945021 -0.074739832907536372 0 0.1107023023869871 -0.07592928384858362 0 0.098207536939253007 -0.057070397666300149 0 0.1107023023869871 -0.07592928384858362 0 0.098207536939253007 -0.057070397666300149 0 0.098151026611810355 -0.068041034107876819 0 0.1107023023869871 -0.07592928384858362 0 0.098207536939253007 -0.057070397666300149 0 0.1035330678577871 -0.060408744014543561 0 0.1107023023869871 -0.07592928384858362 0 0.088807886296056321 -0.06442462200908719 0 0.098151026611810355 -0.068041034107876819 0 0.094886380824945021 -0.074739832907536372 0 0.098207536939253007 -0.057070397666300149 0 0.088807886296056321 -0.06442462200908719 0 0.098151026611810355 -0.068041034107876819 0 0.1060355466537841 -0.056579106778484822 0 0.1107023023869871 -0.07592928384858362 0 0.12599115970317629 -0.074614863284063901 0 0.1060355466537841 -0.056579106778484822 0 0.12599115970317629 -0.074614863284063901 0 0.1060355466537841 -0.056579106778484822 0 0.12407046944405239 -0.056682210957894767 0 0.12599115970317629 -0.074614863284063901 0 0.1107023023869871 -0.07592928384858362 0 0.1231970678347219 -0.094788170030866675 0 0.10108208771974569 -0.088161213949596334 0 0.1231970678347219 -0.094788170030866675 0 0.10108208771974569 -0.088161213949596334 0 0.1107023023869871 -0.07592928384858362 0 0.1231970678347219 -0.094788170030866675 0 0.1107023023869871 -0.07592928384858362 0 0.1231970678347219 -0.094788170030866675 0 0.12599115970317629 -0.074614863284063901 0 0.1231970678347219 -0.094788170030866675 0 0.1041297467101449 -0.10443009357677931 0 0.1165495357793246 -0.11537146045311671 0 0.10108208771974569 -0.088161213949596334 0 0.1231970678347219 -0.094788170030866675 0 0.1041297467101449 -0.10443009357677931 0 0.088205186756687592 -0.098499163401079406 0 0.10108208771974569 -0.088161213949596334 0 0.1041297467101449 -0.10443009357677931 0 0.1110772144577262 -0.12607447494648069 0 0.1003755091591467 -0.120365047089626 0 0.1165495357793246 -0.11537146045311671 0 0.088306584707542421 -0.11364295246223539 0 0.1041297467101449 -0.10443009357677931 0 0.1003755091591467 -0.120365047089626 0 0.1041297467101449 -0.10443009357677931 0 0.1003755091591467 -0.120365047089626 0 0.1165495357793246 -0.11537146045311671 0 0.1110772144577262 -0.12607447494648069 0 0.1165495357793246 -0.11537146045311671 0 0.125059882544757 -0.1243050716586782 0 0.1165495357793246 -0.11537146045311671 0 0.125059882544757 -0.1243050716586782 0 0.13570225296767791 -0.1136627830916173 0 0.125059882544757 -0.1243050716586782 0 0.13570225296767791 -0.1136627830916173 0 0.13351042007077771 -0.13535464583232679 0 0.13570225296767791 -0.1136627830916173 0 0.14916210969568239 -0.1144869233999513 0 0.14820743810063461 -0.13253739615236759 0 0.13570225296767791 -0.1136627830916173 0 0.14820743810063461 -0.13253739615236759 0 0.14916210969568239 -0.1144869233999513 0 0.1659023858019596 -0.11068637629522381 0 0.14820743810063461 -0.13253739615236759 0 0.13570225296767791 -0.1136627830916173 0 0.14916210969568239 -0.1144869233999513 0 0.1438387705826743 -0.1009736450727655 0 0.14916210969568239 -0.1144869233999513 0 0.1438387705826743 -0.1009736450727655 0 0.1659023858019596 -0.11068637629522381 0 0.1438387705826743 -0.1009736450727655 0 0.14594677275256851 -0.092650619789643215 0 0.1659023858019596 -0.11068637629522381 0 0.14594677275256851 -0.092650619789643215 0 0.1659023858019596 -0.11068637629522381 0 0.1231970678347219 -0.094788170030866675 0 0.1438387705826743 -0.1009736450727655 0 0.14594677275256851 -0.092650619789643215 0 0.1231970678347219 -0.094788170030866675 0 0.1438387705826743 -0.1009736450727655 0 0.1231970678347219 -0.094788170030866675 0 0.13570225296767791 -0.1136627830916173 0 0.1231970678347219 -0.094788170030866675 0 0.13570225296767791 -0.1136627830916173 0 0.1438387705826743 -0.1009736450727655 0 0.1231970678347219 -0.094788170030866675 0 0.1165495357793246 -0.11537146045311671 0 0.13570225296767791 -0.1136627830916173 0 0.12599115970317629 -0.074614863284063901 0 0.14324551520284479 -0.074303388514748908 0 0.14594677275256851 -0.092650619789643215 0 0.12599115970317629 -0.074614863284063901 0 0.14594677275256851 -0.092650619789643215 0 0.1231970678347219 -0.094788170030866675 0 0.12599115970317629 -0.074614863284063901 0 0.14594677275256851 -0.092650619789643215 0 0.13274812921261911 -0.06482196831319062 0 0.14324551520284479 -0.074303388514748908 0 0.14208920836164879 -0.057453001683217583 0 0.12407046944405239 -0.056682210957894767 0 0.13274812921261911 -0.06482196831319062 0 0.12599115970317629 -0.074614863284063901 0 0.13274812921261911 -0.06482196831319062 0 0.12599115970317629 -0.074614863284063901 0 0.14324551520284479 -0.074303388514748908 0 0.14324551520284479 -0.074303388514748908 0 0.1577676676713505 -0.070958881179004327 0 0.14208920836164879 -0.057453001683217583 0 0.14324551520284479 -0.074303388514748908 0 0.15552700132703259 -0.084480842179265062 0 0.1577676676713505 -0.070958881179004327 0 0.14594677275256851 -0.092650619789643215 0 0.15552700132703259 -0.084480842179265062 0 0.16270751108717671 -0.093919671838121624 0 0.14324551520284479 -0.074303388514748908 0 0.14594677275256851 -0.092650619789643215 0 0.15552700132703259 -0.084480842179265062 0 0.15552700132703259 -0.084480842179265062 0 0.1577676676713505 -0.070958881179004327 0 0.17317205283599571 -0.083245500938658068 0 0.15552700132703259 -0.084480842179265062 0 0.17317205283599571 -0.083245500938658068 0 0.16270751108717671 -0.093919671838121624 0 0.17317205283599571 -0.083245500938658068 0 0.1732436498299591 -0.098484742462365965 0 0.16270751108717671 -0.093919671838121624 0 0.1577676676713505 -0.070958881179004327 0 0.17329006297225849 -0.067144545014819187 0 0.17317205283599571 -0.083245500938658068 0 0.1577676676713505 -0.070958881179004327 0 0.17329006297225849 -0.067144545014819187 0 0.16114266970546481 -0.055348584155622209 0 0.17329006297225849 -0.067144545014819187 0 0.18660459660722059 -0.07121356670435669 0 0.17317205283599571 -0.083245500938658068 0 0.17329006297225849 -0.067144545014819187 0 0.18660459660722059 -0.07121356670435669 0 0.18383722960737159 -0.053734604093409272 0 0.18660459660722059 -0.07121356670435669 0 0.17317205283599571 -0.083245500938658068 0 0.19163234817905089 -0.084272585639399919 0 0.17317205283599571 -0.083245500938658068 0 0.18448732685510821 -0.096160788283265797 0 0.19163234817905089 -0.084272585639399919 0 0.17317205283599571 -0.083245500938658068 0 0.18448732685510821 -0.096160788283265797 0 0.1732436498299591 -0.098484742462365965 0 0.18448732685510821 -0.096160788283265797 0 0.1732436498299591 -0.098484742462365965 0 0.1799489725695555 -0.1084113749565605 0 0.1732436498299591 -0.098484742462365965 0 0.1799489725695555 -0.1084113749565605 0 0.1659023858019596 -0.11068637629522381 0 0.18448732685510821 -0.096160788283265797 0 0.1799489725695555 -0.1084113749565605 0 0.19189947738255089 -0.11079770296415201 0 0.1799489725695555 -0.1084113749565605 0 0.1659023858019596 -0.11068637629522381 0 0.18392927920566929 -0.12697896821793581 0 0.1659023858019596 -0.11068637629522381 0 0.18392927920566929 -0.12697896821793581 0 0.1799489725695555 -0.1084113749565605 0 0.19189947738255089 -0.11079770296415201 0 0.18392927920566929 -0.12697896821793581 0 0.1659023858019596 -0.11068637629522381 0 0.17135699408012309 -0.1393121638749876 0 0.1732436498299591 -0.098484742462365965 0 0.1659023858019596 -0.11068637629522381 0 0.16270751108717671 -0.093919671838121624 0 0.14594677275256851 -0.092650619789643215 0 0.1659023858019596 -0.11068637629522381 0 0.16270751108717671 -0.093919671838121624 0 0.1659023858019596 -0.11068637629522381 0 0.16270751108717671 -0.093919671838121624 0 0.1463790325767105 0.0051600440866713393 0 0.13293120393573529 -0.01541967286838083 0 0.14494909117168939 -0.01571097116995826 0 0.1463790325767105 0.0051600440866713393 0 0.15462421245165581 -0.0058893527151400796 0 0.14494909117168939 -0.01571097116995826 0 0.1463790325767105 0.0051600440866713393 0 0.14494909117168939 -0.01571097116995826 0 0.15462421245165581 -0.0058893527151400796 0 0.14494909117168939 -0.01571097116995826 0 0.1598580582920249 -0.020425916519869049 0 0.1463790325767105 0.0051600440866713393 0 0.12681727907172599 0.0028609529651058472 0 0.13293120393573529 -0.01541967286838083 0 0.1463790325767105 0.0051600440866713393 0 0.13293120393573529 -0.01541967286838083 0 0.12681727907172599 0.0028609529651058472 0 0.1196279235184127 -0.011266487206185741 0 0.13293120393573529 -0.01541967286838083 0 0.13293120393573529 -0.01541967286838083 0 0.14494909117168939 -0.01571097116995826 0 0.1435191497666691 -0.036581986426587887 0 0.1194833752947594 -0.035999389823432593 0 0.13293120393573529 -0.01541967286838083 0 0.1435191497666691 -0.036581986426587887 0 0.1194833752947594 -0.035999389823432593 0 0.13293120393573529 -0.01541967286838083 0 0.14494909117168939 -0.01571097116995826 0 0.1435191497666691 -0.036581986426587887 0 0.14494909117168939 -0.01571097116995826 0 0.1435191497666691 -0.036581986426587887 0 0.1598580582920249 -0.020425916519869049 0 0.1194833752947594 -0.035999389823432593 0 0.1435191497666691 -0.036581986426587887 0 0.13229055071678239 -0.046679147222783213 0 0.12407046944405239 -0.056682210957894767 0 0.1194833752947594 -0.035999389823432593 0 0.13229055071678239 -0.046679147222783213 0 0.1435191497666691 -0.036581986426587887 0 0.13229055071678239 -0.046679147222783213 0 0.14208920836164879 -0.057453001683217583 0 0.12407046944405239 -0.056682210957894767 0 0.13229055071678239 -0.046679147222783213 0 0.14208920836164879 -0.057453001683217583 0 0.12407046944405239 -0.056682210957894767 0 0.13274812921261911 -0.06482196831319062 0 0.14208920836164879 -0.057453001683217583 0 0.1577676676713505 -0.070958881179004327 0 0.14208920836164879 -0.057453001683217583 0 0.16114266970546481 -0.055348584155622209 0 0.1435191497666691 -0.036581986426587887 0 0.14208920836164879 -0.057453001683217583 0 0.1435191497666691 -0.036581986426587887 0 0.14208920836164879 -0.057453001683217583 0 0.16114266970546481 -0.055348584155622209 0 0.16114266970546481 -0.055348584155622209 0 0.18383722960737159 -0.053734604093409272 0 0.16867226584066319 -0.036111154955617203 0 0.17329006297225849 -0.067144545014819187 0 0.16114266970546481 -0.055348584155622209 0 0.18383722960737159 -0.053734604093409272 0 0.18383722960737159 -0.053734604093409272 0 0.16867226584066319 -0.036111154955617203 0 0.1895671539671433 -0.037285104408639982 0 0.1435191497666691 -0.036581986426587887 0 0.16114266970546481 -0.055348584155622209 0 0.16867226584066319 -0.036111154955617203 0 0.1435191497666691 -0.036581986426587887 0 0.16867226584066319 -0.036111154955617203 0 0.1598580582920249 -0.020425916519869049 0 0.16867226584066319 -0.036111154955617203 0 0.1598580582920249 -0.020425916519869049 0 0.17626464034529979 -0.01218273843611789 0 0.16867226584066319 -0.036111154955617203 0 0.17626464034529979 -0.01218273843611789 0 0.19288185645158881 -0.018686415508600542 0 0.16867226584066319 -0.036111154955617203 0 0.19288185645158881 -0.018686415508600542 0 0.16867226584066319 -0.036111154955617203 0 0.19288185645158881 -0.018686415508600542 0 0.1895671539671433 -0.037285104408639982 0 0.1913914811785945 0.0015479160267864781 0 0.177795833794237 0.0058736288592868176 0 0.17626464034529979 -0.01218273843611789 0 0.177795833794237 0.0058736288592868176 0 0.17626464034529979 -0.01218273843611789 0 0.16638725000284621 -0.0041024332455818144 0 0.1913914811785945 0.0015479160267864781 0 0.17626464034529979 -0.01218273843611789 0 0.19288185645158881 -0.018686415508600542 0 0.15462421245165581 -0.0058893527151400796 0 0.1598580582920249 -0.020425916519869049 0 0.16638725000284621 -0.0041024332455818144 0 0.1598580582920249 -0.020425916519869049 0 0.17626464034529979 -0.01218273843611789 0 0.16638725000284621 -0.0041024332455818144 0 0.15628357420278671 0.003810722324721363 0 0.15462421245165581 -0.0058893527151400796 0 0.16638725000284621 -0.0041024332455818144 0 0.21709144706251299 -0.0012616760615819459 0 0.19288185645158881 -0.018686415508600542 0 0.21709144706251299 -0.0012616760615819459 0 0.19288185645158881 -0.018686415508600542 0 0.21106230177929311 -0.016930390785221641 0 0.21709144706251299 -0.0012616760615819459 0 0.21106230177929311 -0.016930390785221641 0 0.21880732635032871 -0.001449260780306197 0 0.21106230177929311 -0.016930390785221641 0 0.22385231661827831 -0.017244899007901549 0 0.21880732635032871 -0.001449260780306197 0 0.21991949691130641 0.00077379957079282309 0 0.21709144706251299 -0.0012616760615819459 0 0.21991949691130641 0.00077379957079282309 0 0.21709144706251299 -0.0012616760615819459 0 0.21880732635032871 -0.001449260780306197 0 0.21709144706251299 -0.0012616760615819459 0 0.21880732635032871 -0.001449260780306197 0 0.21106230177929311 -0.016930390785221641 0 0.21880732635032871 -0.001449260780306197 0 0.1913914811785945 0.0015479160267864781 0 0.21709144706251299 -0.0012616760615819459 0 0.19288185645158881 -0.018686415508600542 0 0.19288185645158881 -0.018686415508600542 0 0.21106230177929311 -0.016930390785221641 0 0.2033172772082579 -0.032411520790137288 0 0.19288185645158881 -0.018686415508600542 0 0.2033172772082579 -0.032411520790137288 0 0.1895671539671433 -0.037285104408639982 0 0.21106230177929311 -0.016930390785221641 0 0.2033172772082579 -0.032411520790137288 0 0.21106230177929311 -0.016930390785221641 0 0.21701755041282189 -0.032304719396535099 0 0.2033172772082579 -0.032411520790137288 0 0.21106230177929311 -0.016930390785221641 0 0.21701755041282189 -0.032304719396535099 0 0.22385231661827831 -0.017244899007901549 0 0.21701755041282189 -0.032304719396535099 0 0.21047104707744299 -0.044055030933792823 0 0.21970932447173591 -0.041885045690610363 0 0.21047104707744299 -0.044055030933792823 0 0.2163169812201669 -0.048151654183774213 0 0.21970932447173591 -0.041885045690610363 0 0.21047104707744299 -0.044055030933792823 0 0.2033172772082579 -0.032411520790137288 0 0.19912714072783499 -0.045481826695435601 0 0.21701755041282189 -0.032304719396535099 0 0.21047104707744299 -0.044055030933792823 0 0.2033172772082579 -0.032411520790137288 0 0.2033172772082579 -0.032411520790137288 0 0.1895671539671433 -0.037285104408639982 0 0.19912714072783499 -0.045481826695435601 0 0.18383722960737159 -0.053734604093409272 0 0.1895671539671433 -0.037285104408639982 0 0.19912714072783499 -0.045481826695435601 0 0.18383722960737159 -0.053734604093409272 0 0.19912714072783499 -0.045481826695435601 0 0.20031667673944939 -0.057421141152823332 0 0.18383722960737159 -0.053734604093409272 0 0.20031667673944939 -0.057421141152823332 0 0.19584992287481651 -0.066326971565447423 0 0.19912714072783499 -0.045481826695435601 0 0.20031667673944939 -0.057421141152823332 0 0.20701231567461709 -0.051722697756719387 0 0.20031667673944939 -0.057421141152823332 0 0.21110366793748389 -0.058962871247726333 0 0.20754781500579161 -0.067167929918243774 0 0.20031667673944939 -0.057421141152823332 0 0.20701231567461709 -0.051722697756719387 0 0.21110366793748389 -0.058962871247726333 0 0.21047104707744299 -0.044055030933792823 0 0.19912714072783499 -0.045481826695435601 0 0.20701231567461709 -0.051722697756719387 0 0.21047104707744299 -0.044055030933792823 0 0.20701231567461709 -0.051722697756719387 0 0.21404304589087411 -0.052692618753818851 0 0.20701231567461709 -0.051722697756719387 0 0.21404304589087411 -0.052692618753818851 0 0.21110366793748389 -0.058962871247726333 0 0.21047104707744299 -0.044055030933792823 0 0.21404304589087411 -0.052692618753818851 0 0.2163169812201669 -0.048151654183774213 0 0.21404304589087411 -0.052692618753818851 0 0.2163169812201669 -0.048151654183774213 0 0.22104450744061471 -0.053973921356874788 0 0.21404304589087411 -0.052692618753818851 0 0.21720125996139161 -0.057407354338342383 0 0.22104450744061471 -0.053973921356874788 0 0.21720125996139161 -0.057407354338342383 0 0.21110366793748389 -0.058962871247726333 0 0.2190710203991128 -0.066761103999133015 0 0.21404304589087411 -0.052692618753818851 0 0.21720125996139161 -0.057407354338342383 0 0.21110366793748389 -0.058962871247726333 0 0.22259109842381891 -0.056331752972584533 0 0.24466000719816181 -0.052572806154117767 0 0.23359814963938669 -0.073112384460560717 0 0.22259109842381891 -0.056331752972584533 0 0.2190710203991128 -0.066761103999133015 0 0.21720125996139161 -0.057407354338342383 0 0.22259109842381891 -0.056331752972584533 0 0.2190710203991128 -0.066761103999133015 0 0.21720125996139161 -0.057407354338342383 0 0.22259109842381891 -0.056331752972584533 0 0.22104450744061471 -0.053973921356874788 0 0.22259109842381891 -0.056331752972584533 0 0.22104450744061471 -0.053973921356874788 0 0.2163169812201669 -0.048151654183774213 0 0.22104450744061471 -0.053973921356874788 0 0.21970932447173591 -0.041885045690610363 0 0.25572186475693609 -0.032033227847674262 0 0.24466000719816181 -0.052572806154117767 0 0.2314560627619717 -0.030066475819188941 0 0.22259109842381891 -0.056331752972584533 0 0.24466000719816181 -0.052572806154117767 0 0.2314560627619717 -0.030066475819188941 0 0.22259109842381891 -0.056331752972584533 0 0.2314560627619717 -0.030066475819188941 0 0.22259109842381891 -0.056331752972584533 0 0.22104450744061471 -0.053973921356874788 0 0.2314560627619717 -0.030066475819188941 0 0.22104450744061471 -0.053973921356874788 0 0.21970932447173591 -0.041885045690610363 0 0.2314560627619717 -0.030066475819188941 0 0.21701755041282189 -0.032304719396535099 0 0.21970932447173591 -0.041885045690610363 0 0.2314560627619717 -0.030066475819188941 0 0.22385231661827831 -0.017244899007901549 0 0.2314560627619717 -0.030066475819188941 0 0.2403210271001277 -0.0038011986657945939 0 0.21701755041282189 -0.032304719396535099 0 0.22385231661827831 -0.017244899007901549 0 0.2314560627619717 -0.030066475819188941 0 0.25159771702699008 -0.014371615300676641 0 0.2314560627619717 -0.030066475819188941 0 0.2403210271001277 -0.0038011986657945939 0 0.25572186475693609 -0.032033227847674262 0 0.25159771702699008 -0.014371615300676641 0 0.2314560627619717 -0.030066475819188941 0 0.2314560627619717 -0.030066475819188941 0 0.2403210271001277 -0.0038011986657945939 0 0.2403210271001277 -0.0038011986657945939 0 0.21880732635032871 -0.001449260780306197 0 0.21991949691130641 0.00077379957079282309 0 0.2403210271001277 -0.0038011986657945939 0 0.21880732635032871 -0.001449260780306197 0 0.22385231661827831 -0.017244899007901549 0 0.2403210271001277 -0.0038011986657945939 0 0.21880732635032871 -0.001449260780306197 0 0.21991949691130641 0.00077379957079282309 0 0.21880732635032871 -0.001449260780306197 0 0.20659325823048899 -0.099029874252906047 0 0.21655448612892231 -0.108466948295262 0 0.2034485844213379 -0.1104083252764293 0 0.20659325823048899 -0.099029874252906047 0 0.21858698215692479 -0.095058636804357027 0 0.21655448612892231 -0.108466948295262 0 0.20659325823048899 -0.099029874252906047 0 0.21858698215692479 -0.095058636804357027 0 0.21076223576946701 -0.091385441013354662 0 0.21237619803781799 -0.123978557377612 0 0.2034485844213379 -0.1104083252764293 0 0.19857579603009881 -0.123745354966356 0 0.21655448612892231 -0.108466948295262 0 0.21237619803781799 -0.123978557377612 0 0.2034485844213379 -0.1104083252764293 0 0.19857579603009881 -0.123745354966356 0 0.19189947738255089 -0.11079770296415201 0 0.18392927920566929 -0.12697896821793581 0 0.2034485844213379 -0.1104083252764293 0 0.19857579603009881 -0.123745354966356 0 0.19189947738255089 -0.11079770296415201 0 0.18448732685510821 -0.096160788283265797 0 0.19189947738255089 -0.11079770296415201 0 0.19704440529688971 -0.097808096169463843 0 0.2034485844213379 -0.1104083252764293 0 0.19189947738255089 -0.11079770296415201 0 0.19704440529688971 -0.097808096169463843 0 0.20659325823048899 -0.099029874252906047 0 0.2034485844213379 -0.1104083252764293 0 0.19704440529688971 -0.097808096169463843 0 0.20659325823048899 -0.099029874252906047 0 0.19704440529688971 -0.097808096169463843 0 0.20377507451519661 -0.086639367611932153 0 0.18448732685510821 -0.096160788283265797 0 0.19704440529688971 -0.097808096169463843 0 0.19163234817905089 -0.084272585639399919 0 0.19163234817905089 -0.084272585639399919 0 0.20020732292815921 -0.075382335334988601 0 0.20377507451519661 -0.086639367611932153 0 0.19704440529688971 -0.097808096169463843 0 0.19163234817905089 -0.084272585639399919 0 0.20377507451519661 -0.086639367611932153 0 0.18660459660722059 -0.07121356670435669 0 0.18383722960737159 -0.053734604093409272 0 0.19584992287481651 -0.066326971565447423 0 0.18660459660722059 -0.07121356670435669 0 0.20020732292815921 -0.075382335334988601 0 0.19584992287481651 -0.066326971565447423 0 0.18660459660722059 -0.07121356670435669 0 0.19163234817905089 -0.084272585639399919 0 0.20020732292815921 -0.075382335334988601 0 0.20031667673944939 -0.057421141152823332 0 0.19584992287481651 -0.066326971565447423 0 0.20754781500579161 -0.067167929918243774 0 0.20020732292815921 -0.075382335334988601 0 0.19584992287481651 -0.066326971565447423 0 0.20754781500579161 -0.067167929918243774 0 0.20020732292815921 -0.075382335334988601 0 0.20754781500579161 -0.067167929918243774 0 0.21182278070176411 -0.07642901816315241 0 0.21182278070176411 -0.07642901816315241 0 0.2190710203991128 -0.066761103999133015 0 0.22185546860341471 -0.076890537193463129 0 0.21110366793748389 -0.058962871247726333 0 0.20754781500579161 -0.067167929918243774 0 0.2190710203991128 -0.066761103999133015 0 0.20754781500579161 -0.067167929918243774 0 0.21182278070176411 -0.07642901816315241 0 0.2190710203991128 -0.066761103999133015 0 0.20377507451519661 -0.086639367611932153 0 0.21076223576946701 -0.091385441013354662 0 0.2156201083762905 -0.085211377739258853 0 0.20659325823048899 -0.099029874252906047 0 0.20377507451519661 -0.086639367611932153 0 0.21076223576946701 -0.091385441013354662 0 0.21182278070176411 -0.07642901816315241 0 0.20377507451519661 -0.086639367611932153 0 0.2156201083762905 -0.085211377739258853 0 0.20020732292815921 -0.075382335334988601 0 0.21182278070176411 -0.07642901816315241 0 0.20377507451519661 -0.086639367611932153 0 0.21182278070176411 -0.07642901816315241 0 0.2156201083762905 -0.085211377739258853 0 0.22185546860341471 -0.076890537193463129 0 0.21858698215692479 -0.095058636804357027 0 0.21076223576946701 -0.091385441013354662 0 0.2156201083762905 -0.085211377739258853 0 0.21858698215692479 -0.095058636804357027 0 0.22254221780738029 -0.08612048538839856 0 0.22945301150852729 -0.089618177888440453 0 0.21858698215692479 -0.095058636804357027 0 0.2156201083762905 -0.085211377739258853 0 0.22254221780738029 -0.08612048538839856 0 0.22254221780738029 -0.08612048538839856 0 0.22667762447946821 -0.081336379644961862 0 0.22945301150852729 -0.089618177888440453 0 0.2156201083762905 -0.085211377739258853 0 0.22254221780738029 -0.08612048538839856 0 0.22185546860341471 -0.076890537193463129 0 0.22254221780738029 -0.08612048538839856 0 0.22667762447946821 -0.081336379644961862 0 0.22185546860341471 -0.076890537193463129 0 0.22667762447946821 -0.081336379644961862 0 0.22945301150852729 -0.089618177888440453 0 0.232130230341555 -0.075838006554786702 0 0.22259109842381891 -0.056331752972584533 0 0.23359814963938669 -0.073112384460560717 0 0.22259109842381891 -0.056331752972584533 0 0.22559767577824291 -0.070341033318702742 0 0.23359814963938669 -0.073112384460560717 0 0.22259109842381891 -0.056331752972584533 0 0.2190710203991128 -0.066761103999133015 0 0.22559767577824291 -0.070341033318702742 0 0.2190710203991128 -0.066761103999133015 0 0.22559767577824291 -0.070341033318702742 0 0.22185546860341471 -0.076890537193463129 0 0.22559767577824291 -0.070341033318702742 0 0.22185546860341471 -0.076890537193463129 0 0.226513327956856 -0.076031742247647013 0 0.22667762447946821 -0.081336379644961862 0 0.22185546860341471 -0.076890537193463129 0 0.226513327956856 -0.076031742247647013 0 0.22559767577824291 -0.070341033318702742 0 0.232130230341555 -0.075838006554786702 0 0.23359814963938669 -0.073112384460560717 0 0.22667762447946821 -0.081336379644961862 0 0.226513327956856 -0.076031742247647013 0 0.232130230341555 -0.075838006554786702 0 0.232130230341555 -0.075838006554786702 0 0.23359814963938669 -0.073112384460560717 0 0.22559767577824291 -0.070341033318702742 0 0.226513327956856 -0.076031742247647013 0 0.232130230341555 -0.075838006554786702 0 0.25578894406637898 -0.071814983055159112 0 0.24466000719816181 -0.052572806154117767 0 0.23359814963938669 -0.073112384460560717 0 0.24466000719816181 -0.052572806154117767 0 0.23359814963938669 -0.073112384460560717 0 0.232130230341555 -0.075838006554786702 0 0.23359814963938669 -0.073112384460560717 0 0.248052431344363 -0.095148438437639593 0 0.25578894406637898 -0.071814983055159112 0 0.23359814963938669 -0.073112384460560717 0 0.248052431344363 -0.095148438437639593 0 0.23359814963938669 -0.073112384460560717 0 0.248052431344363 -0.095148438437639593 0 0.22945301150852729 -0.089618177888440453 0 0.232130230341555 -0.075838006554786702 0 0.248052431344363 -0.095148438437639593 0 0.22945301150852729 -0.089618177888440453 0 0.248052431344363 -0.095148438437639593 0 0.23028066412444251 -0.1035134914659659 0 0.248052431344363 -0.095148438437639593 0 0.23028066412444251 -0.1035134914659659 0 0.24260121657943401 -0.11258968035378961 0 0.21858698215692479 -0.095058636804357027 0 0.21655448612892231 -0.108466948295262 0 0.23028066412444251 -0.1035134914659659 0 0.21858698215692479 -0.095058636804357027 0 0.22945301150852729 -0.089618177888440453 0 0.23028066412444251 -0.1035134914659659 0 0.21655448612892231 -0.108466948295262 0 0.21237619803781799 -0.123978557377612 0 0.22804122980252159 -0.1188128045943018 0 0.21655448612892231 -0.108466948295262 0 0.23028066412444251 -0.1035134914659659 0 0.22804122980252159 -0.1188128045943018 0 0.23028066412444251 -0.1035134914659659 0 0.22804122980252159 -0.1188128045943018 0 0.24260121657943401 -0.11258968035378961 0 0.26250671304934198 -0.1171844924147165 0 0.24260121657943401 -0.11258968035378961 0 0.2441250445765018 -0.1282891748563233 0 0.22804122980252159 -0.1188128045943018 0 0.24260121657943401 -0.11258968035378961 0 0.2441250445765018 -0.1282891748563233 0 0.2441250445765018 -0.1282891748563233 0 0.23903729808979979 -0.1497956366535709 0 0.2244889389359962 -0.13749465980780429 0 0.26140577643439422 -0.14332992145424359 0 0.2441250445765018 -0.1282891748563233 0 0.23903729808979979 -0.1497956366535709 0 0.26140577643439422 -0.14332992145424359 0 0.23903729808979979 -0.1497956366535709 0 0.24727016264961249 -0.1692414738038848 0 0.23903729808979979 -0.1497956366535709 0 0.2244889389359962 -0.13749465980780429 0 0.2199830660130864 -0.1595641520633625 0 0.22804122980252159 -0.1188128045943018 0 0.2441250445765018 -0.1282891748563233 0 0.2244889389359962 -0.13749465980780429 0 0.21237619803781799 -0.123978557377612 0 0.22804122980252159 -0.1188128045943018 0 0.2244889389359962 -0.13749465980780429 0 0.21237619803781799 -0.123978557377612 0 0.2244889389359962 -0.13749465980780429 0 0.2019561726093779 -0.14327156014064921 0 0.21237619803781799 -0.123978557377612 0 0.19857579603009881 -0.123745354966356 0 0.2019561726093779 -0.14327156014064921 0 0.2244889389359962 -0.13749465980780429 0 0.2019561726093779 -0.14327156014064921 0 0.2199830660130864 -0.1595641520633625 0 0.2019561726093779 -0.14327156014064921 0 0.2199830660130864 -0.1595641520633625 0 0.2019561726093779 -0.14327156014064921 0 0.2047419039749544 -0.16383627848553101 0 0.2199830660130864 -0.1595641520633625 0 0.2019561726093779 -0.14327156014064921 0 0.1858442134446858 -0.1403981851473228 0 0.18613440788357311 -0.15203004835571851 0 0.2019561726093779 -0.14327156014064921 0 0.2047419039749544 -0.16383627848553101 0 0.18613440788357311 -0.15203004835571851 0 0.19857579603009881 -0.123745354966356 0 0.2019561726093779 -0.14327156014064921 0 0.18392927920566929 -0.12697896821793581 0 0.2019561726093779 -0.14327156014064921 0 0.18392927920566929 -0.12697896821793581 0 0.2019561726093779 -0.14327156014064921 0 0.1858442134446858 -0.1403981851473228 0 0.18392927920566929 -0.12697896821793581 0 0.20143056513873611 -0.17998665641699849 0 0.18945430304214239 -0.18113699365130109 0 0.1956775580667883 -0.19315745649050381 0 0.20143056513873611 -0.17998665641699849 0 0.18945430304214239 -0.18113699365130109 0 0.19108557901044451 -0.16803916485973749 0 0.19108557901044451 -0.16803916485973749 0 0.2047419039749544 -0.16383627848553101 0 0.18613440788357311 -0.15203004835571851 0 0.20143056513873611 -0.17998665641699849 0 0.19108557901044451 -0.16803916485973749 0 0.2047419039749544 -0.16383627848553101 0 0.2047419039749544 -0.16383627848553101 0 0.21987806867346529 -0.181539582491408 0 0.2199830660130864 -0.1595641520633625 0 0.20143056513873611 -0.17998665641699849 0 0.2047419039749544 -0.16383627848553101 0 0.21987806867346529 -0.181539582491408 0 0.20143056513873611 -0.17998665641699849 0 0.21987806867346529 -0.181539582491408 0 0.21026993533039931 -0.19452922539566581 0 0.21987806867346529 -0.181539582491408 0 0.2199830660130864 -0.1595641520633625 0 0.23800995941679501 -0.17585674398607579 0 0.21987806867346529 -0.181539582491408 0 0.23800995941679501 -0.17585674398607579 0 0.2331345488648309 -0.19515302615352589 0 0.2199830660130864 -0.1595641520633625 0 0.23800995941679501 -0.17585674398607579 0 0.23903729808979979 -0.1497956366535709 0 0.2199830660130864 -0.1595641520633625 0 0.23506515458377289 -0.16194558534122611 0 0.2199830660130864 -0.1595641520633625 0 0.23506515458377289 -0.16194558534122611 0 0.23800995941679501 -0.17585674398607579 0 0.23903729808979979 -0.1497956366535709 0 0.23506515458377289 -0.16194558534122611 0 0.24727016264961249 -0.1692414738038848 0 0.23506515458377289 -0.16194558534122611 0 0.24727016264961249 -0.1692414738038848 0 0.23800995941679501 -0.17585674398607579 0 0.24727016264961249 -0.1692414738038848 0 0.2331345488648309 -0.19515302615352589 0 0.24727016264961249 -0.1692414738038848 0 0.23800995941679501 -0.17585674398607579 0 0.2331345488648309 -0.19515302615352589 0 0.25115080808597218 -0.18349252771031549 0 0.24727016264961249 -0.1692414738038848 0 0.2331345488648309 -0.19515302615352589 0 0.25294493867930001 -0.1971512634910503 0 0.25115080808597218 -0.18349252771031549 0 0.2331345488648309 -0.19515302615352589 0 0.25294493867930001 -0.1971512634910503 0 0.23924146656863479 -0.21600942233651971 0 0.2331345488648309 -0.19515302615352589 0 0.25948399805722178 -0.21095426616987389 0 0.23924146656863479 -0.21600942233651971 0 0.23924146656863479 -0.21600942233651971 0 0.218998935080048 -0.22106457850316641 0 0.21946760776481619 -0.20450875509018021 0 0.2331345488648309 -0.19515302615352589 0 0.218998935080048 -0.22106457850316641 0 0.2331345488648309 -0.19515302615352589 0 0.218998935080048 -0.22106457850316641 0 0.23924146656863479 -0.21600942233651971 0 0.2331345488648309 -0.19515302615352589 0 0.218998935080048 -0.22106457850316641 0 0.21946760776481619 -0.20450875509018021 0 0.22068754015837791 -0.19393264728269499 0 0.2331345488648309 -0.19515302615352589 0 0.21987806867346529 -0.181539582491408 0 0.22068754015837791 -0.19393264728269499 0 0.2331345488648309 -0.19515302615352589 0 0.25406429941061343 -0.23112732810889039 0 0.24146341680214309 -0.24448521489457861 0 0.23197262628044979 -0.22995906340082059 0 0.25406429941061343 -0.23112732810889039 0 0.23924146656863479 -0.21600942233651971 0 0.23197262628044979 -0.22995906340082059 0 0.23924146656863479 -0.21600942233651971 0 0.218998935080048 -0.22106457850316641 0 0.23197262628044979 -0.22995906340082059 0 0.218998935080048 -0.22106457850316641 0 0.23197262628044979 -0.22995906340082059 0 0.2174712270181591 -0.22386497246011361 0 0.23197262628044979 -0.22995906340082059 0 0.22090538197196211 -0.23599380530564679 0 0.2174712270181591 -0.22386497246011361 0 0.23197262628044979 -0.22995906340082059 0 0.2264227451730553 -0.24971222362376699 0 0.22090538197196211 -0.23599380530564679 0 0.24146341680214309 -0.24448521489457861 0 0.23197262628044979 -0.22995906340082059 0 0.2264227451730553 -0.24971222362376699 0 0.21040399342164171 -0.25176681621351038 0 0.2264227451730553 -0.24971222362376699 0 0.22090538197196211 -0.23599380530564679 0 0.21040399342164171 -0.25176681621351038 0 0.22090538197196211 -0.23599380530564679 0 0.20830595876386901 -0.23638945826593061 0 0.21040399342164171 -0.25176681621351038 0 0.20830595876386901 -0.23638945826593061 0 0.19936230214102421 -0.2479946931896729 0 0.22090538197196211 -0.23599380530564679 0 0.20830595876386901 -0.23638945826593061 0 0.2144511399868903 -0.2312706685566866 0 0.218998935080048 -0.22106457850316641 0 0.19612053567392879 -0.2267779885035914 0 0.218998935080048 -0.22106457850316641 0 0.19612053567392879 -0.2267779885035914 0 0.2105383011147646 -0.21819048542197941 0 0.218998935080048 -0.22106457850316641 0 0.20576090592389351 -0.2270860010417686 0 0.19612053567392879 -0.2267779885035914 0 0.20830595876386901 -0.23638945826593061 0 0.20576090592389351 -0.2270860010417686 0 0.20182830522270101 -0.2319599292687276 0 0.20830595876386901 -0.23638945826593061 0 0.20576090592389351 -0.2270860010417686 0 0.2144511399868903 -0.2312706685566866 0 0.22090538197196211 -0.23599380530564679 0 0.2144511399868903 -0.2312706685566866 0 0.2174712270181591 -0.22386497246011361 0 0.20576090592389351 -0.2270860010417686 0 0.2144511399868903 -0.2312706685566866 0 0.21346905720863779 -0.2258257771414271 0 0.2144511399868903 -0.2312706685566866 0 0.21346905720863779 -0.2258257771414271 0 0.2174712270181591 -0.22386497246011361 0 0.218998935080048 -0.22106457850316641 0 0.20576090592389351 -0.2270860010417686 0 0.21346905720863779 -0.2258257771414271 0 0.218998935080048 -0.22106457850316641 0 0.21346905720863779 -0.2258257771414271 0 0.2174712270181591 -0.22386497246011361 0 0.218998935080048 -0.22106457850316641 0 0.2174712270181591 -0.22386497246011361 0 0.19612053567392879 -0.2267779885035914 0 0.2105383011147646 -0.21819048542197941 0 0.20425053182178279 -0.21841625855527369 0 0.19777000223886329 -0.21875233346220549 0 0.19612053567392879 -0.2267779885035914 0 0.20425053182178279 -0.21841625855527369 0 0.19777000223886329 -0.21875233346220549 0 0.19393270034329779 -0.22126915535208849 0 0.19612053567392879 -0.2267779885035914 0 0.19393270034329779 -0.22126915535208849 0 0.18772081891462031 -0.22518952661427791 0 0.19612053567392879 -0.2267779885035914 0 0.19393270034329779 -0.22126915535208849 0 0.18772081891462031 -0.22518952661427791 0 0.19411944454577909 -0.214356772828279 0 0.19612053567392879 -0.2267779885035914 0 0.19712582052911259 -0.23758626926361981 0 0.1871717184338115 -0.23640941086597769 0 0.19612053567392879 -0.2267779885035914 0 0.20182830522270101 -0.2319599292687276 0 0.19712582052911259 -0.23758626926361981 0 0.20576090592389351 -0.2270860010417686 0 0.19612053567392879 -0.2267779885035914 0 0.20182830522270101 -0.2319599292687276 0 0.20830595876386901 -0.23638945826593061 0 0.19712582052911259 -0.23758626926361981 0 0.19936230214102421 -0.2479946931896729 0 0.20830595876386901 -0.23638945826593061 0 0.20182830522270101 -0.2319599292687276 0 0.19712582052911259 -0.23758626926361981 0 0.19712582052911259 -0.23758626926361981 0 0.18957958600208469 -0.24548130840959781 0 0.1871717184338115 -0.23640941086597769 0 0.19712582052911259 -0.23758626926361981 0 0.18957958600208469 -0.24548130840959781 0 0.19936230214102421 -0.2479946931896729 0 0.21026993533039931 -0.19452922539566581 0 0.2106024981415649 -0.2056222994823437 0 0.20186537415214451 -0.20478020160934601 0 0.21987806867346529 -0.181539582491408 0 0.22068754015837791 -0.19393264728269499 0 0.21026993533039931 -0.19452922539566581 0 0.21946760776481619 -0.20450875509018021 0 0.22068754015837791 -0.19393264728269499 0 0.21026993533039931 -0.19452922539566581 0 0.21946760776481619 -0.20450875509018021 0 0.21026993533039931 -0.19452922539566581 0 0.2106024981415649 -0.2056222994823437 0 0.21946760776481619 -0.20450875509018021 0 0.218998935080048 -0.22106457850316641 0 0.21566385185952111 -0.2138241496878262 0 0.21946760776481619 -0.20450875509018021 0 0.21566385185952111 -0.2138241496878262 0 0.21365056347845579 -0.2115327797359787 0 0.21946760776481619 -0.20450875509018021 0 0.21365056347845579 -0.2115327797359787 0 0.2106024981415649 -0.2056222994823437 0 0.218998935080048 -0.22106457850316641 0 0.21566385185952111 -0.2138241496878262 0 0.2105383011147646 -0.21819048542197941 0 0.21566385185952111 -0.2138241496878262 0 0.21365056347845579 -0.2115327797359787 0 0.2105383011147646 -0.21819048542197941 0 0.2105383011147646 -0.21819048542197941 0 0.20775900998200869 -0.21276053558054769 0 0.20425053182178279 -0.21841625855527369 0 0.21365056347845579 -0.2115327797359787 0 0.2105383011147646 -0.21819048542197941 0 0.20775900998200869 -0.21276053558054769 0 0.20775900998200869 -0.21276053558054769 0 0.20425053182178279 -0.21841625855527369 0 0.20156851284219721 -0.21282904574896491 0 0.20775900998200869 -0.21276053558054769 0 0.20186537415214451 -0.20478020160934601 0 0.20156851284219721 -0.21282904574896491 0 0.20775900998200869 -0.21276053558054769 0 0.2106024981415649 -0.2056222994823437 0 0.20186537415214451 -0.20478020160934601 0 0.21365056347845579 -0.2115327797359787 0 0.20775900998200869 -0.21276053558054769 0 0.2106024981415649 -0.2056222994823437 0 0.20186537415214451 -0.20478020160934601 0 0.19411944454577909 -0.214356772828279 0 0.19348214685029161 -0.20221454249066079 0 0.18772081891462031 -0.22518952661427791 0 0.19411944454577909 -0.214356772828279 0 0.18226621063645451 -0.19656373903451449 0 0.20186537415214451 -0.20478020160934601 0 0.20156851284219721 -0.21282904574896491 0 0.19411944454577909 -0.214356772828279 0 0.19411944454577909 -0.214356772828279 0 0.19348214685029161 -0.20221454249066079 0 0.18226621063645451 -0.19656373903451449 0 0.19777000223886329 -0.21875233346220549 0 0.20425053182178279 -0.21841625855527369 0 0.20156851284219721 -0.21282904574896491 0 0.19777000223886329 -0.21875233346220549 0 0.20156851284219721 -0.21282904574896491 0 0.19411944454577909 -0.214356772828279 0 0.19777000223886329 -0.21875233346220549 0 0.19393270034329779 -0.22126915535208849 0 0.19411944454577909 -0.214356772828279 0 0.19348214685029161 -0.20221454249066079 0 0.1956775580667883 -0.19315745649050381 0 0.18226621063645451 -0.19656373903451449 0 0.20186537415214451 -0.20478020160934601 0 0.19348214685029161 -0.20221454249066079 0 0.1956775580667883 -0.19315745649050381 0 0.21026993533039931 -0.19452922539566581 0 0.20186537415214451 -0.20478020160934601 0 0.1956775580667883 -0.19315745649050381 0 0.20143056513873611 -0.17998665641699849 0 0.21026993533039931 -0.19452922539566581 0 0.1956775580667883 -0.19315745649050381 0 0.18945430304214239 -0.18113699365130109 0 0.1956775580667883 -0.19315745649050381 0 0.18226621063645451 -0.19656373903451449 0 0.18226621063645451 -0.19656373903451449 0 0.1715432114556068 -0.21122996104898861 0 0.16984428664340401 -0.18996852359395999 0 0.18772081891462031 -0.22518952661427791 0 0.18226621063645451 -0.19656373903451449 0 0.1715432114556068 -0.21122996104898861 0 0.18772081891462031 -0.22518952661427791 0 0.18226621063645451 -0.19656373903451449 0 0.1715432114556068 -0.21122996104898861 0 0.1573322870795833 -0.20789039819694149 0 0.1623168744573055 -0.22287573648660611 0 0.1573322870795833 -0.20789039819694149 0 0.1623168744573055 -0.22287573648660611 0 0.1522967848894444 -0.22083493224417339 0 0.1715432114556068 -0.21122996104898861 0 0.1573322870795833 -0.20789039819694149 0 0.16984428664340401 -0.18996852359395999 0 0.1573322870795833 -0.20789039819694149 0 0.16984428664340401 -0.18996852359395999 0 0.15597410852767299 -0.19239463322910441 0 0.1715432114556068 -0.21122996104898861 0 0.16984428664340401 -0.18996852359395999 0 0.16984428664340401 -0.18996852359395999 0 0.15597410852767299 -0.19239463322910441 0 0.1614518955362341 -0.18261220584938501 0 0.17531814171820079 -0.25847186551630352 0 0.18140855909891221 -0.24875385404173869 0 0.17324213626780979 -0.23249139850401729 0 0.17531814171820079 -0.25847186551630352 0 0.17324213626780979 -0.23249139850401729 0 0.18140855909891221 -0.24875385404173869 0 0.182482909248532 -0.24101033857802051 0 0.17324213626780979 -0.23249139850401729 0 0.18957958600208469 -0.24548130840959781 0 0.18140855909891221 -0.24875385404173869 0 0.182482909248532 -0.24101033857802051 0 0.18957958600208469 -0.24548130840959781 0 0.182482909248532 -0.24101033857802051 0 0.1871717184338115 -0.23640941086597769 0 0.182482909248532 -0.24101033857802051 0 0.1871717184338115 -0.23640941086597769 0 0.17324213626780979 -0.23249139850401729 0 0.18772081891462031 -0.22518952661427791 0 0.19612053567392879 -0.2267779885035914 0 0.17324213626780979 -0.23249139850401729 0 0.19612053567392879 -0.2267779885035914 0 0.1871717184338115 -0.23640941086597769 0 0.17324213626780979 -0.23249139850401729 0 0.1715432114556068 -0.21122996104898861 0 0.17324213626780979 -0.23249139850401729 0 0.19612053567392879 -0.2267779885035914 0 0.17324213626780979 -0.23249139850401729 0 0.18772081891462031 -0.22518952661427791 0 0.1715432114556068 -0.21122996104898861 0 0.17324213626780979 -0.23249139850401729 0 0.1715432114556068 -0.21122996104898861 0 0.17324213626780979 -0.23249139850401729 0 0.1623168744573055 -0.22287573648660611 0 0.1623168744573055 -0.22287573648660611 0 0.15535209141549861 -0.22942801887575409 0 0.1522967848894444 -0.22083493224417339 0 0.1623168744573055 -0.22287573648660611 0 0.16254320702155209 -0.2351632361734422 0 0.15535209141549861 -0.22942801887575409 0 0.17324213626780979 -0.23249139850401729 0 0.16254320702155209 -0.2351632361734422 0 0.17324213626780979 -0.23249139850401729 0 0.1623168744573055 -0.22287573648660611 0 0.16254320702155209 -0.2351632361734422 0 0.16416434830993021 -0.25348076251168611 0 0.17531814171820079 -0.25847186551630352 0 0.17324213626780979 -0.23249139850401729 0 0.16416434830993021 -0.25348076251168611 0 0.17324213626780979 -0.23249139850401729 0 0.16097870724125449 -0.24292032119762011 0 0.17324213626780979 -0.23249139850401729 0 0.16254320702155209 -0.2351632361734422 0 0.16097870724125449 -0.24292032119762011 0 0.16254320702155209 -0.2351632361734422 0 0.16097870724125449 -0.24292032119762011 0 0.15390853800913809 -0.24274468653761391 0 0.16416434830993021 -0.25348076251168611 0 0.16097870724125449 -0.24292032119762011 0 0.15746623258843939 -0.24717962177743169 0 0.16097870724125449 -0.24292032119762011 0 0.15746623258843939 -0.24717962177743169 0 0.15390853800913809 -0.24274468653761391 0 0.1338120645475761 -0.25178135897747889 0 0.14143480209138451 -0.24391931440815429 0 0.15081333679343489 -0.24957271686280691 0 0.14143480209138451 -0.24391931440815429 0 0.14954523601732381 -0.23656141158161401 0 0.13965007243053049 -0.2272862619181428 0 0.14143480209138451 -0.24391931440815429 0 0.15081333679343489 -0.24957271686280691 0 0.14892547822782029 -0.24319953234754729 0 0.15746623258843939 -0.24717962177743169 0 0.15081333679343489 -0.24957271686280691 0 0.15390853800913809 -0.24274468653761391 0 0.15081333679343489 -0.24957271686280691 0 0.15390853800913809 -0.24274468653761391 0 0.14892547822782029 -0.24319953234754729 0 0.16254320702155209 -0.2351632361734422 0 0.15390853800913809 -0.24274468653761391 0 0.14954523601732381 -0.23656141158161401 0 0.15390853800913809 -0.24274468653761391 0 0.14892547822782029 -0.24319953234754729 0 0.14954523601732381 -0.23656141158161401 0 0.14143480209138451 -0.24391931440815429 0 0.14892547822782029 -0.24319953234754729 0 0.14954523601732381 -0.23656141158161401 0 0.14954523601732381 -0.23656141158161401 0 0.15535209141549861 -0.22942801887575409 0 0.13965007243053049 -0.2272862619181428 0 0.15535209141549861 -0.22942801887575409 0 0.1522967848894444 -0.22083493224417339 0 0.13965007243053049 -0.2272862619181428 0 0.16254320702155209 -0.2351632361734422 0 0.14954523601732381 -0.23656141158161401 0 0.15535209141549861 -0.22942801887575409 0 0.1522967848894444 -0.22083493224417339 0 0.13965007243053049 -0.2272862619181428 0 0.14214428324753289 -0.2154529738929884 0 0.11925867152865099 -0.22395178641925401 0 0.13965007243053049 -0.2272862619181428 0 0.12727927076528461 -0.2378210325384271 0 0.11925867152865099 -0.22395178641925401 0 0.13965007243053049 -0.2272862619181428 0 0.1296813367821156 -0.2112782106774091 0 0.14143480209138451 -0.24391931440815429 0 0.13965007243053049 -0.2272862619181428 0 0.12727927076528461 -0.2378210325384271 0 0.1338120645475761 -0.25178135897747889 0 0.1155402395781918 -0.2507583320391269 0 0.12727927076528461 -0.2378210325384271 0 0.1338120645475761 -0.25178135897747889 0 0.14143480209138451 -0.24391931440815429 0 0.12727927076528461 -0.2378210325384271 0 0.1472064603361167 -0.20247602688276969 0 0.14541013119376039 -0.19094925991957609 0 0.13560729147637779 -0.19666813964102769 0 0.1472064603361167 -0.20247602688276969 0 0.14541013119376039 -0.19094925991957609 0 0.15597410852767299 -0.19239463322910441 0 0.14541013119376039 -0.19094925991957609 0 0.15597410852767299 -0.19239463322910441 0 0.15149562072024261 -0.18002206604153331 0 0.1573322870795833 -0.20789039819694149 0 0.1472064603361167 -0.20247602688276969 0 0.15597410852767299 -0.19239463322910441 0 0.1573322870795833 -0.20789039819694149 0 0.1472064603361167 -0.20247602688276969 0 0.14214428324753289 -0.2154529738929884 0 0.1573322870795833 -0.20789039819694149 0 0.1522967848894444 -0.22083493224417339 0 0.14214428324753289 -0.2154529738929884 0 0.1472064603361167 -0.20247602688276969 0 0.14214428324753289 -0.2154529738929884 0 0.1296813367821156 -0.2112782106774091 0 0.1472064603361167 -0.20247602688276969 0 0.1296813367821156 -0.2112782106774091 0 0.13560729147637779 -0.19666813964102769 0 0.13965007243053049 -0.2272862619181428 0 0.14214428324753289 -0.2154529738929884 0 0.1296813367821156 -0.2112782106774091 0 0.1232396379011078 -0.1927549034493776 0 0.1296813367821156 -0.2112782106774091 0 0.13560729147637779 -0.19666813964102769 0 0.14541013119376039 -0.19094925991957609 0 0.13560729147637779 -0.19666813964102769 0 0.1367671749083921 -0.18318543380344571 0 0.1232396379011078 -0.1927549034493776 0 0.13560729147637779 -0.19666813964102769 0 0.1367671749083921 -0.18318543380344571 0 0.1232396379011078 -0.1927549034493776 0 0.1240882674421261 -0.17221834261327171 0 0.1367671749083921 -0.18318543380344571 0 0.1240882674421261 -0.17221834261327171 0 0.1367671749083921 -0.18318543380344571 0 0.13968624526684381 -0.1663096509244866 0 0.14541013119376039 -0.19094925991957609 0 0.1367671749083921 -0.18318543380344571 0 0.15149562072024261 -0.18002206604153331 0 0.1367671749083921 -0.18318543380344571 0 0.15149562072024261 -0.18002206604153331 0 0.13968624526684381 -0.1663096509244866 0 0.15149562072024261 -0.18002206604153331 0 0.15438358984087761 -0.16681526513507461 0 0.15901421514929279 -0.17490695601163531 0 0.13968624526684381 -0.1663096509244866 0 0.137218974646206 -0.14902146964549531 0 0.15110583492258711 -0.15411329859263981 0 0.15438358984087761 -0.16681526513507461 0 0.15110583492258711 -0.15411329859263981 0 0.16298457853711951 -0.16119870976526179 0 0.15149562072024261 -0.18002206604153331 0 0.15438358984087761 -0.16681526513507461 0 0.13968624526684381 -0.1663096509244866 0 0.15438358984087761 -0.16681526513507461 0 0.13968624526684381 -0.1663096509244866 0 0.15110583492258711 -0.15411329859263981 0 0.1238726331408222 -0.15597973401630799 0 0.13968624526684381 -0.1663096509244866 0 0.137218974646206 -0.14902146964549531 0 0.1238726331408222 -0.15597973401630799 0 0.1240882674421261 -0.17221834261327171 0 0.13968624526684381 -0.1663096509244866 0 0.1238726331408222 -0.15597973401630799 0 0.12550759679471971 -0.14428239988351421 0 0.137218974646206 -0.14902146964549531 0 0.12550759679471971 -0.14428239988351421 0 0.137218974646206 -0.14902146964549531 0 0.13351042007077771 -0.13535464583232679 0 0.13570225296767791 -0.1136627830916173 0 0.13351042007077771 -0.13535464583232679 0 0.14820743810063461 -0.13253739615236759 0 0.137218974646206 -0.14902146964549531 0 0.13351042007077771 -0.13535464583232679 0 0.14820743810063461 -0.13253739615236759 0 0.1195920268695274 -0.13435801890873961 0 0.125059882544757 -0.1243050716586782 0 0.13351042007077771 -0.13535464583232679 0 0.1195920268695274 -0.13435801890873961 0 0.12550759679471971 -0.14428239988351421 0 0.13351042007077771 -0.13535464583232679 0 0.14820743810063461 -0.13253739615236759 0 0.15110583492258711 -0.15411329859263981 0 0.1632605781546366 -0.14974645590444771 0 0.137218974646206 -0.14902146964549531 0 0.14820743810063461 -0.13253739615236759 0 0.15110583492258711 -0.15411329859263981 0 0.1632605781546366 -0.14974645590444771 0 0.17135699408012309 -0.1393121638749876 0 0.1768116023582888 -0.16793795145475099 0 0.15110583492258711 -0.15411329859263981 0 0.1632605781546366 -0.14974645590444771 0 0.16298457853711951 -0.16119870976526179 0 0.14820743810063461 -0.13253739615236759 0 0.1632605781546366 -0.14974645590444771 0 0.17135699408012309 -0.1393121638749876 0 0.1659023858019596 -0.11068637629522381 0 0.14820743810063461 -0.13253739615236759 0 0.17135699408012309 -0.1393121638749876 0 0.1659023858019596 -0.11068637629522381 0 0.17135699408012309 -0.1393121638749876 0 0.18392927920566929 -0.12697896821793581 0 0.17135699408012309 -0.1393121638749876 0 0.1858442134446858 -0.1403981851473228 0 0.18392927920566929 -0.12697896821793581 0 0.17135699408012309 -0.1393121638749876 0 0.1768116023582888 -0.16793795145475099 0 0.17135699408012309 -0.1393121638749876 0 0.18613440788357311 -0.15203004835571851 0 0.1768116023582888 -0.16793795145475099 0 0.17135699408012309 -0.1393121638749876 0 0.1858442134446858 -0.1403981851473228 0 0.18613440788357311 -0.15203004835571851 0 0.19108557901044451 -0.16803916485973749 0 0.18613440788357311 -0.15203004835571851 0 0.1768116023582888 -0.16793795145475099 0 0.18226621063645451 -0.19656373903451449 0 0.16984428664340401 -0.18996852359395999 0 0.1768116023582888 -0.16793795145475099 0 0.18945430304214239 -0.18113699365130109 0 0.19108557901044451 -0.16803916485973749 0 0.1768116023582888 -0.16793795145475099 0 0.18226621063645451 -0.19656373903451449 0 0.1768116023582888 -0.16793795145475099 0 0.18945430304214239 -0.18113699365130109 0 0.18226621063645451 -0.19656373903451449 0 0.1768116023582888 -0.16793795145475099 0 0.16984428664340401 -0.18996852359395999 0 0.1681453618312011 -0.16870708613893129 0 0.16984428664340401 -0.18996852359395999 0 0.1768116023582888 -0.16793795145475099 0 0.1681453618312011 -0.16870708613893129 0 0.16984428664340401 -0.18996852359395999 0 0.1614518955362341 -0.18261220584938501 0 0.1681453618312011 -0.16870708613893129 0 0.15597410852767299 -0.19239463322910441 0 0.15149562072024261 -0.18002206604153331 0 0.1614518955362341 -0.18261220584938501 0 0.1614518955362341 -0.18261220584938501 0 0.15901421514929279 -0.17490695601163531 0 0.1681453618312011 -0.16870708613893129 0 0.15149562072024261 -0.18002206604153331 0 0.1614518955362341 -0.18261220584938501 0 0.15901421514929279 -0.17490695601163531 0 0.15438358984087761 -0.16681526513507461 0 0.16298457853711951 -0.16119870976526179 0 0.1681453618312011 -0.16870708613893129 0 0.15438358984087761 -0.16681526513507461 0 0.15901421514929279 -0.17490695601163531 0 0.1681453618312011 -0.16870708613893129 0 0.1632605781546366 -0.14974645590444771 0 0.1768116023582888 -0.16793795145475099 0 0.16298457853711951 -0.16119870976526179 0 0.1768116023582888 -0.16793795145475099 0 0.16298457853711951 -0.16119870976526179 0 0.1681453618312011 -0.16870708613893129 0 
</DataArray>
</Points>
<Cells>
<DataArray type="UInt32" Name="connectivity" format="ascii">
0 1 2 3 4 5 6 7 8 9 10 11 12 13 14 15 16 17 18 19 20 21 22 23 24 25 26 27 28 29 30 31 32 33 34 35 36 37 38 39 40 41 42 43 44 45 46 47 48 49 50 51 52 53 54 55 56 57 58 59 60 61 62 63 64 65 66 67 68 69 70 71 72 73 74 75 76 77 78 79 80 81 82 83 84 85 86 87 88 89 90 91 92 93 94 95 96 97 98 99 100 101 102 103 104 105 106 107 108 109 110 111 112 113 114 115 116 117 118 119 120 121 122 123 124 125 126 127 128 129 130 131 132 133 134 135 136 137 138 139 140 141 142 143 144 145 146 147 148 149 150 151 152 153 154 155 156 157 158 159 160 161 162 163 164 165 166 167 168 169 170 171 172 173 174 175 176 177 178 179 180 181 182 183 184 185 186 187 188 189 190 191 192 193 194 195 196 197 198 199 200 201 202 203 204 205 206 207 208 209 210 211 212 213 214 215 216 217 218 219 220 221 222 223 224 225 226 227 228 229 230 231 232 233 234 235 236 237 238 239 240 241 242 243 244 245 246 247 248 249 250 251 252 253 254 255 256 257 258 259 260 261 262 263 264 265 266 267 268 269 270 271 272 273 274 275 276 277 278 279 280 281 282 283 284 285 286 287 288 289 290 291 292 293 294 295 296 297 298 299 300 301 302 303 304 305 306 307 308 309 310 311 312 313 314 315 316 317 318 319 320 321 322 323 324 325 326 327 328 329 330 331 332 333 334 335 336 337 338 339 340 341 342 343 344 345 346 347 348 349 350 351 352 353 354 355 356 357 358 359 360 361 362 363 364 365 366 367 368 369 370 371 372 373 374 375 376 377 378 379 380 381 382 383 384 385 386 387 388 389 390 391 392 393 394 395 396 397 398 399 400 401 402 403 404 405 406 407 408 409 410 411 412 413 414 415 416 417 418 419 420 421 422 423 424 425 426 427 428 429 430 431 432 433 434 435 436 437 438 439 440 441 442 443 444 445 446 447 448 449 450 451 452 453 454 455 456 457 458 459 460 461 462 463 464 465 466 467 468 469 470 471 472 473 474 475 476 477 478 479 480 481 482 483 484 485 486 487 488 489 490 491 492 493 494 495 496 497 498 499 500 501 502 503 504 505 506 507 508 509 510 511 512 513 514 515 516 517 518 519 520 521 522 523 524 525 526 527 528 529 530 531 532 533 534 535 536 537 538 539 540 541 542 543 544 545 546 547 548 549 550 551 552 553 554 555 556 557 558 559 560 561 562 563 564 565 566 567 568 569 570 571 572 573 574 575 576 577 578 579 580 581 582 583 584 585 586 587 588 589 590 591 592 593 594 595 596 597 598 599 600 601 602 603 604 605 606 607 608 609 610 611 612 613 614 615 616 617 618 619 620 621 622 623 624 625 626 627 628 629 630 631 632 633 634 635 636 637 638 639 640 641 642 643 644 645 646 647 648 649 650 651 652 653 654 655 656 657 658 659 660 661 662 663 664 665 666 667 668 669 670 671 672 673 674 675 676 677 678 679 680 681 682 683 684 685 686 687 688 689 690 691 692 693 694 695 696 697 698 699 700 701 702 703 704 705 706 707 708 709 710 711 712 713 714 715 716 717 718 719 720 721 722 723 724 725 726 727 728 729 730 731 732 733 734 735 736 737 738 739 740 741 742 743 744 745 746 747 748 749 750 751 752 753 754 755 756 757 758 759 760 761 762 763 764 765 766 767 768 769 770 771 772 773 774 775 776 777 778 779 780 781 782 783 784 785 786 787 788 789 790 791 792 793 794 795 796 797 798 799 800 801 802 803 804 805 806 807 808 809 810 811 812 813 814 815 816 817 818 819 820 821 822 823 824 825 826 827 828 829 830 831 832 833 834 835 836 837 838 839 840 841 842 843 844 845 846 847 848 849 850 851 852 853 854 855 856 857 858 859 860 861 862 863 864 865 866 867 868 869 870 871 872 873 874 875 876 877 878 879 880 881 882 883 884 885 886 887 888 889 890 891 892 893 894 895 896 897 898 899 900 901 902 903 904 905 906 907 908 909 910 911 912 913 914 915 916 917 918 919 920 921 922 923 924 925 926 927 928 929 930 931 932 933 934 935 936 937 938 939 940 941 942 943 944 945 946 947 948 949 950 951 952 953 954 955 956 957 958 959 960 961 962 963 964 965 966 967 968 969 970 971 972 973 974 975 976 977 978 979 980 981 982 983 984 985 986 987 988 989 990 991 992 993 994 995 996 997 998 999 1000 1001 1002 1003 1004 1005 1006 1007 1008 1009 1010 1011 1012 1013 1014 1015 1016 1017 1018 1019 1020 1021 1022 1023 1024 1025 1026 1027 1028 1029 1030 1031 1032 1033 1034 1035 1036 1037 1038 1039 1040 1041 1042 1043 1044 1045 1046 1047 1048 1049 1050 1051 1052 1053 1054 1055 1056 1057 1058 1059 1060 1061 1062 1063 1064 1065 1066 1067 1068 1069 1070 1071 1072 1073 1074 1075 1076 1077 1078 1079 1080 1081 1082 1083 1084 1085 1086 1087 1088 1089 1090 1091 1092 1093 1094 1095 1096 1097 1098 1099 1100 1101 1102 1103 1104 1105 1106 1107 1108 1109 1110 1111 1112 1113 1114 1115 1116 1117 1118 1119 1120 1121 1122 1123 1124 1125 1126 1127 1128 1129 1130 1131 1132 1133 1134 1135 1136 1137 1138 1139 1140 1141 1142 1143 1144 1145 1146 1147 1148 1149 1150 1151 1152 1153 1154 1155 1156 1157 1158 1159 1160 1161 1162 1163 1164 1165 1166 1167 1168 1169 1170 1171 1172 1173 1174 1175 1176 1177 1178 1179 1180 1181 1182 1183 1184 1185 1186 1187 1188 1189 1190 1191 1192 1193 1194 1195 1196 1197 1198 1199 1200 1201 1202 1203 1204 1205 1206 1207 1208 1209 1210 1211 1212 1213 1214 1215 1216 1217 1218 1219 1220 1221 1222 1223 1224 1225 1226 1227 1228 1229 1230 1231 1232 1233 1234 1235 1236 1237 1238 1239 1240 1241 1242 1243 1244 1245 1246 1247 1248 1249 1250 1251 1252 1253 1254 1255 1256 1257 1258 1259 1260 1261 1262 1263 1264 1265 1266 1267 1268 1269 1270 1271 1272 1273 1274 1275 1276 1277 1278 1279 1280 1281 1282 1283 1284 1285 1286 1287 1288 1289 1290 1291 1292 1293 1294 1295 1296 1297 1298 1299 1300 1301 1302 1303 1304 1305 1306 1307 1308 1309 1310 1311 1312 1313 1314 1315 1316 1317 1318 1319 1320 1321 1322 1323 1324 1325 1326 1327 1328 1329 1330 1331 1332 1333 1334 1335 1336 1337 1338 1339 1340 1341 1342 1343 1344 1345 1346 1347 1348 1349 1350 1351 1352 1353 1354 1355 1356 1357 1358 1359 1360 1361 1362 1363 1364 1365 1366 1367 1368 1369 1370 1371 1372 1373 1374 1375 1376 1377 1378 1379 1380 1381 1382 1383 1384 1385 1386 1387 1388 1389 1390 1391 1392 1393 1394 1395 1396 1397 1398 1399 1400 1401 1402 1403 1404 1405 1406 1407 1408 1409 1410 1411 1412 1413 1414 1415 1416 1417 1418 1419 1420 1421 1422 1423 1424 1425 1426 1427 1428 1429 1430 1431 1432 1433 1434 1435 1436 1437 1438 1439 1440 1441 1442 1443 1444 1445 1446 1447 1448 1449 1450 1451 1452 1453 1454 1455 1456 1457 1458 1459 1460 1461 1462 1463 1464 1465 1466 1467 1468 1469 1470 1471 1472 1473 1474 1475 1476 1477 1478 1479 1480 1481 1482 1483 1484 1485 1486 1487 1488 1489 1490 1491 1492 1493 1494 1495 1496 1497 1498 1499 1500 1501 1502 1503 1504 1505 1506 1507 1508 1509 1510 1511 1512 1513 1514 1515 1516 1517 1518 1519 1520 1521 1522 1523 1524 1525 1526 1527 1528 1529 1530 1531 1532 1533 1534 1535 1536 1537 1538 1539 1540 1541 1542 1543 1544 1545 1546 1547 1548 1549 1550 1551 1552 1553 1554 1555 1556 1557 1558 1559 1560 1561 1562 1563 1564 1565 1566 1567 1568 1569 1570 1571 1572 1573 1574 1575 1576 1577 1578 1579 1580 1581 1582 1583 1584 1585 1586 1587 1588 1589 1590 1591 1592 1593 1594 1595 1596 1597 1598 1599 1600 1601 1602 1603 1604 1605 1606 1607 1608 1609 1610 1611 1612 1613 1614 1615 1616 1617 1618 1619 1620 1621 1622 1623 1624 1625 1626 1627 1628 1629 1630 1631 1632 1633 1634 1635 1636 1637 1638 1639 1640 1641 1642 1643 1644 1645 1646 1647 1648 1649 1650 1651 1652 1653 1654 1655 1656 1657 1658 1659 1660 1661 1662 1663 1664 1665 1666 1667 1668 1669 1670 1671 1672 1673 1674 1675 1676 1677 1678 1679 1680 1681 1682 1683 1684 1685 1686 1687 1688 1689 1690 1691 1692 1693 1694 1695 1696 1697 1698 1699 1700 1701 1702 1703 1704 1705 1706 1707 1708 1709 1710 1711 1712 1713 1714 1715 1716 1717 1718 1719 1720 1721 1722 1723 1724 1725 1726 1727 1728 1729 1730 1731 1732 1733 1734 1735 1736 1737 1738 1739 1740 1741 1742 1743 1744 1745 1746 1747 1748 1749 1750 1751 1752 1753 1754 1755 1756 1757 1758 1759 1760 1761 1762 1763 1764 1765 1766 1767 1768 1769 1770 1771 1772 1773 1774 1775 1776 1777 1778 1779 1780 1781 1782 1783 1784 1785 1786 1787 1788 1789 1790 1791 1792 1793 1794 1795 1796 1797 1798 1799 1800 1801 1802 1803 1804 1805 1806 1807 1808 1809 1810 1811 1812 1813 1814 1815 1816 1817 1818 1819 1820 1821 1822 1823 1824 1825 1826 1827 1828 1829 1830 1831 1832 1833 1834 1835 1836 1837 1838 1839 1840 1841 1842 1843 1844 1845 1846 1847 1848 1849 1850 1851 1852 1853 1854 1855 1856 1857 1858 1859 1860 1861 1862 1863 1864 1865 1866 1867 1868 1869 1870 1871 1872 1873 1874 1875 1876 1877 1878 1879 1880 1881 1882 1883 1884 1885 1886 1887 1888 1889 1890 1891 1892 1893 1894 1895 1896 1897 1898 1899 1900 1901 1902 1903 1904 1905 1906 1907 1908 1909 1910 1911 1912 1913 1914 1915 1916 1917 1918 1919 1920 1921 1922 1923 1924 1925 1926 1927 1928 1929 1930 1931 1932 1933 1934 1935 1936 1937 1938 1939 1940 1941 1942 1943 1944 1945 1946 1947 1948 1949 1950 1951 1952 1953 1954 1955 1956 1957 1958 1959 1960 1961 1962 1963 1964 1965 1966 1967 1968 1969 1970 1971 1972 1973 1974 1975 1976 1977 1978 1979 1980 1981 1982 1983 1984 1985 1986 1987 1988 1989 1990 1991 1992 1993 1994 1995 1996 1997 1998 1999 2000 2001 2002 2003 2004 2005 2006 2007 2008 2009 2010 2011 2012 2013 2014 2015 2016 2017 2018 2019 2020 2021 2022 2023 2024 2025 2026 2027 2028 2029 2030 2031 2032 2033 2034 2035 2036 2037 2038 2039 2040 2041 2042 2043 2044 2045 2046 2047 2048 2049 2050 2051 2052 2053 2054 2055 2056 2057 2058 2059 2060 2061 2062 2063 2064 2065 2066 2067 2068 2069 2070 2071 2072 2073 2074 2075 2076 2077 2078 2079 2080 2081 2082 2083 2084 2085 2086 2087 2088 2089 2090 2091 2092 2093 2094 2095 2096 2097 2098 2099 2100 2101 2102 2103 2104 2105 2106 2107 2108 2109 2110 2111 2112 2113 2114 2115 2116 2117 2118 2119 2120 2121 2122 2123 2124 2125 2126 2127 2128 2129 2130 2131 2132 2133 2134 2135 2136 2137 2138 2139 2140 2141 2142 2143 2144 2145 2146 2147 2148 2149 2150 2151 2152 2153 2154 2155 2156 2157 2158 2159 2160 2161 2162 2163 2164 2165 2166 2167 2168 2169 2170 2171 2172 2173 2174 2175 2176 2177 2178 2179 2180 2181 2182 2183 2184 2185 2186 2187 2188 2189 2190 2191 2192 2193 2194 2195 2196 2197 2198 2199 2200 2201 2202 2203 2204 2205 2206 2207 2208 2209 2210 2211 2212 2213 2214 2215 2216 2217 2218 2219 2220 2221 2222 2223 2224 2225 2226 2227 2228 2229 2230 2231 2232 2233 2234 2235 2236 2237 2238 2239 2240 2241 2242 2243 2244 2245 2246 2247 2248 2249 2250 2251 2252 2253 2254 2255 2256 2257 2258 2259 2260 2261 2262 2263 2264 2265 2266 2267 2268 2269 2270 2271 2272 2273 2274 2275 2276 2277 2278 2279 2280 2281 2282 2283 2284 2285 2286 2287 2288 2289 2290 2291 2292 2293 2294 2295 2296 2297 2298 2299 2300 2301 2302 2303 2304 2305 2306 2307 2308 2309 2310 2311 2312 2313 2314 2315 2316 2317 2318 2319 2320 2321 2322 2323 2324 2325 2326 2327 2328 2329 2330 2331 2332 2333 2334 2335 2336 2337 2338 2339 2340 2341 2342 2343 2344 2345 2346 2347 2348 2349 2350 2351 2352 2353 2354 2355 2356 2357 2358 2359 2360 2361 2362 2363 2364 2365 2366 2367 2368 2369 2370 2371 2372 2373 2374 2375 2376 2377 2378 2379 2380 2381 2382 2383 2384 2385 2386 2387 2388 2389 2390 2391 2392 2393 2394 2395 2396 2397 2398 2399 2400 2401 2402 2403 2404 2405 2406 2407 2408 2409 2410 2411 2412 2413 2414 2415 2416 2417 2418 2419 2420 2421 2422 2423 2424 2425 2426 2427 2428 2429 2430 2431 2432 2433 2434 2435 2436 2437 2438 2439 2440 2441 2442 2443 2444 2445 2446 2447 2448 2449 2450 2451 2452 2453 2454 2455 2456 2457 2458 2459 2460 2461 2462 2463 2464 2465 2466 2467 2468 2469 2470 2471 2472 2473 2474 2475 2476 2477 2478 2479 2480 2481 2482 2483 2484 2485 2486 2487 2488 2489 2490 2491 2492 2493 2494 2495 2496 2497 2498 2499 2500 2501 2502 2503 2504 2505 2506 2507 2508 2509 2510 2511 2512 2513 2514 2515 2516 2517 2518 2519 2520 2521 2522 2523 2524 2525 2526 2527 2528 2529 2530 2531 2532 2533 2534 2535 2536 2537 2538 2539 2540 2541 2542 2543 2544 2545 2546 2547 2548 2549 2550 2551 2552 2553 2554 2555 2556 2557 2558 2559 2560 2561 2562 2563 2564 2565 2566 2567 2568 2569 2570 2571 2572 2573 2574 2575 2576 2577 2578 2579 2580 2581 2582 2583 2584 2585 2586 2587 2588 2589 2590 2591 2592 2593 2594 2595 2596 2597 2598 2599 2600 2601 2602 2603 2604 2605 2606 2607 2608 2609 2610 2611 2612 2613 2614 2615 2616 2617 2618 2619 2620 2621 2622 2623 2624 2625 2626 2627 2628 2629 2630 2631 2632 2633 2634 2635 2636 2637 2638 2639 2640 2641 2642 2643 2644 2645 2646 2647 2648 2649 2650 2651 2652 2653 2654 2655 2656 2657 2658 2659 2660 2661 2662 2663 2664 2665 2666 2667 2668 2669 2670 2671 2672 2673 2674 2675 2676 2677 2678 2679 2680 2681 2682 2683 2684 2685 2686 2687 2688 2689 2690 2691 2692 2693 2694 2695 2696 2697 2698 2699 2700 2701 2702 2703 2704 2705 2706 2707 2708 2709 2710 2711 2712 2713 2714 2715 2716 2717 2718 2719 2720 2721 2722 2723 2724 2725 2726 2727 2728 2729 2730 2731 2732 2733 2734 2735 2736 2737 2738 2739 2740 2741 2742 2743 2744 2745 2746 2747 2748 2749 2750 2751 2752 2753 2754 2755 2756 2757 2758 2759 2760 2761 2762 2763 2764 2765 2766 2767 2768 2769 2770 2771 2772 2773 2774 2775 2776 2777 2778 2779 2780 2781 2782 2783 2784 2785 2786 2787 2788 2789 2790 2791 2792 2793 2794 2795 2796 2797 2798 2799 2800 2801 2802 2803 2804 2805 2806 2807 2808 2809 2810 2811 2812 2813 2814 2815 2816 2817 2818 2819 2820 2821 2822 2823 2824 2825 2826 2827 2828 2829 2830 2831 2832 2833 2834 2835 2836 2837 2838 2839 2840 2841 2842 2843 2844 2845 2846 2847 2848 2849 2850 2851 2852 2853 2854 2855 2856 2857 2858 2859 2860 2861 2862 2863 2864 2865 2866 2867 2868 2869 2870 2871 2872 2873 2874 2875 2876 2877 2878 2879 2880 2881 2882 2883 2884 2885 2886 2887 2888 2889 2890 2891 2892 2893 2894 2895 2896 2897 2898 2899 2900 2901 2902 2903 2904 2905 2906 2907 2908 2909 2910 2911 2912 2913 2914 2915 2916 2917 2918 2919 2920 2921 2922 2923 2924 2925 2926 2927 2928 2929 2930 2931 2932 2933 2934 2935 2936 2937 2938 2939 2940 2941 2942 2943 2944 2945 2946 2947 2948 2949 2950 2951 2952 2953 2954 2955 2956 2957 2958 2959 2960 2961 2962 2963 2964 2965 2966 2967 2968 2969 2970 2971 2972 2973 2974 2975 2976 2977 2978 2979 2980 2981 2982 2983 2984 2985 2986 2987 2988 2989 2990 2991 2992 2993 2994 2995 2996 2997 2998 2999 3000 3001 3002 3003 3004 3005 3006 3007 3008 3009 3010 3011 3012 3013 3014 3015 3016 3017 3018 3019 3020 3021 3022 3023 3024 3025 3026 3027 3028 3029 3030 3031 3032 3033 3034 3035 3036 3037 3038 3039 3040 3041 3042 3043 3044 3045 3046 3047 3048 3049 3050 3051 3052 3053 3054 3055 3056 3057 3058 3059 3060 3061 3062 3063 3064 3065 3066 3067 3068 3069 3070 3071 3072 3073 3074 3075 3076 3077 3078 3079 3080 3081 3082 3083 3084 3085 3086 3087 3088 3089 3090 3091 3092 3093 3094 3095 3096 3097 3098 3099 3100 3101 3102 3103 3104 3105 3106 3107 3108 3109 3110 3111 3112 3113 3114 3115 3116 3117 3118 3119 3120 3121 3122 3123 3124 3125 3126 3127 3128 3129 3130 3131 3132 3133 3134 3135 3136 3137 3138 3139 3140 3141 3142 3143 3144 3145 3146 3147 3148 3149 3150 3151 3152 3153 3154 3155 3156 3157 3158 3159 3160 3161 3162 3163 3164 3165 3166 3167 3168 3169 3170 3171 3172 3173 3174 3175 3176 3177 3178 3179 3180 3181 3182 3183 3184 3185 3186 3187 3188 3189 3190 3191 3192 3193 3194 3195 3196 3197 3198 3199 3200 3201 3202 3203 3204 3205 3206 3207 3208 3209 3210 3211 3212 3213 3214 3215 3216 3217 3218 3219 3220 3221 3222 3223 3224 3225 3226 3227 3228 3229 3230 3231 3232 3233 3234 3235 3236 3237 3238 3239 3240 3241 3242 3243 3244 3245 3246 3247 3248 3249 3250 3251 3252 3253 3254 3255 3256 3257 3258 3259 3260 3261 3262 3263 3264 3265 3266 3267 3268 3269 3270 3271 3272 3273 3274 3275 3276 3277 3278 3279 3280 3281 3282 3283 3284 3285 3286 3287 3288 3289 3290 3291 3292 3293 3294 3295 3296 3297 3298 3299 3300 3301 3302 3303 3304 3305 3306 3307 3308 3309 3310 3311 3312 3313 3314 3315 3316 3317 3318 3319 3320 3321 3322 3323 3324 3325 3326 3327 3328 3329 3330 3331 3332 3333 3334 3335 3336 3337 3338 3339 3340 3341 3342 3343 3344 3345 3346 3347 3348 3349 3350 3351 3352 3353 3354 3355 3356 3357 3358 3359 3360 3361 3362 3363 3364 3365 3366 3367 3368 3369 3370 3371 3372 3373 3374 3375 3376 3377 3378 3379 3380 3381 3382 3383 3384 3385 3386 3387 3388 3389 3390 3391 3392 3393 3394 3395 3396 3397 3398 3399 3400 3401 3402 3403 3404 3405 3406 3407 3408 3409 3410 3411 3412 3413 3414 3415 3416 3417 3418 3419 3420 3421 3422 3423 3424 3425 3426 3427 3428 3429 3430 3431 3432 3433 3434 3435 3436 3437 3438 3439 3440 3441 3442 3443 3444 3445 3446 3447 3448 3449 3450 3451 3452 3453 3454 3455 3456 3457 3458 3459 3460 3461 3462 3463 3464 3465 3466 3467 3468 3469 3470 3471 3472 3473 3474 3475 3476 3477 3478 3479 3480 3481 3482 3483 3484 3485 3486 3487 3488 3489 3490 3491 3492 3493 3494 3495 3496 3497 3498 3499 3500 3501 3502 3503 3504 3505 3506 3507 3508 3509 3510 3511 3512 3513 3514 3515 3516 3517 3518 3519 3520 3521 3522 3523 3524 3525 3526 3527 3528 3529 3530 3531 3532 3533 3534 3535 3536 3537 3538 3539 3540 3541 3542 3543 3544 3545 3546 3547 3548 3549 3550 3551 3552 3553 3554 3555 3556 3557 3558 3559 3560 3561 3562 3563 3564 3565 3566 3567 3568 3569 3570 3571 3572 3573 3574 3575 3576 3577 3578 3579 3580 3581 3582 3583 3584 3585 3586 3587 3588 3589 3590 3591 3592 3593 3594 3595 3596 3597 3598 3599 3600 3601 3602 3603 3604 3605 3606 3607 3608 3609 3610 3611 3612 3613 3614 3615 3616 3617 3618 3619 3620 3621 3622 3623 3624 3625 3626 3627 3628 3629 3630 3631 3632 3633 3634 3635 3636 3637 3638 3639 3640 3641 3642 3643 3644 3645 3646 3647 3648 3649 3650 3651 3652 3653 3654 3655 3656 3657 3658 3659 3660 3661 3662 3663 3664 3665 3666 3667 3668 3669 3670 3671 3672 3673 3674 3675 3676 3677 3678 3679 3680 3681 3682 3683 3684 3685 3686 3687 3688 3689 3690 3691 3692 3693 3694 3695 3696 3697 3698 3699 3700 3701 3702 3703 3704 3705 3706 3707 3708 3709 3710 3711 3712 3713 3714 3715 3716 3717 3718 3719 3720 3721 3722 3723 3724 3725 3726 3727 3728 3729 3730 3731 3732 3733 3734 3735 3736 3737 3738 3739 3740 3741 3742 3743 3744 3745 3746 3747 3748 3749 3750 3751 3752 3753 3754 3755 3756 3757 3758 3759 3760 3761 3762 3763 3764 3765 3766 3767 3768 3769 3770 3771 3772 3773 3774 3775 3776 3777 3778 3779 3780 3781 3782 3783 3784 3785 3786 3787 3788 3789 3790 3791 3792 3793 3794 3795 3796 3797 3798 3799 3800 3801 3802 3803 3804 3805 3806 3807 3808 3809 3810 3811 3812 3813 3814 3815 3816 3817 3818 3819 3820 3821 3822 3823 3824 3825 3826 3827 3828 3829 3830 3831 3832 3833 3834 3835 3836 3837 3838 3839 3840 3841 3842 3843 3844 3845 3846 3847 3848 3849 3850 3851 3852 3853 3854 3855 3856 3857 3858 3859 3860 3861 3862 3863 3864 3865 3866 3867 3868 3869 3870 3871 3872 3873 3874 3875 3876 3877 3878 3879 3880 3881 3882 3883 3884 3885 3886 3887 3888 3889 3890 3891 3892 3893 3894 3895 3896 3897 3898 3899 3900 3901 3902 3903 3904 3905 3906 3907 3908 3909 3910 3911 3912 3913 3914 3915 3916 3917 3918 3919 3920 3921 3922 3923 3924 3925 3926 3927 3928 3929 3930 3931 3932 3933 3934 3935 3936 3937 3938 3939 3940 3941 3942 3943 3944 3945 3946 3947 3948 3949 3950 3951 3952 3953 3954 3955 3956 3957 3958 3959 3960 3961 3962 3963 3964 3965 3966 3967 3968 3969 3970 3971 3972 3973 3974 3975 3976 3977 3978 3979 3980 3981 3982 3983 3984 3985 3986 3987 3988 3989 3990 3991 3992 3993 3994 3995 3996 3997 3998 3999 4000 4001 4002 4003 4004 4005 4006 4007 4008 4009 4010 4011 4012 4013 4014 4015 4016 4017 4018 4019 4020 4021 4022 4023 4024 4025 4026 4027 4028 4029 4030 4031 4032 4033 4034 4035 4036 4037 4038 4039 4040 4041 4042 4043 4044 4045 4046 4047 4048 4049 4050 4051 4052 4053 4054 4055 4056 4057 4058 4059 4060 4061 4062 4063 4064 4065 4066 4067 4068 4069 4070 4071 4072 4073 4074 4075 4076 4077 4078 4079 4080 4081 4082 4083 4084 4085 4086 4087 4088 4089 4090 4091 4092 4093 4094 4095 4096 4097 4098 4099 4100 4101 4102 4103 4104 4105 4106 4107 4108 4109 4110 4111 4112 4113 4114 4115 4116 4117 4118 4119 4120 4121 4122 4123 4124 4125 4126 4127 4128 4129 4130 4131 4132 4133 4134 4135 4136 4137 4138 4139 4140 4141 4142 4143 4144 4145 4146 4147 4148 4149 4150 4151 4152 4153 4154 4155 4156 4157 4158 4159 4160 4161 4162 4163 4164 4165 4166 4167 4168 4169 4170 4171 4172 4173 4174 4175 4176 4177 4178 4179 4180 4181 4182 4183 4184 4185 4186 4187 4188 4189 4190 4191 4192 4193 4194 4195 4196 4197 4198 4199 4200 4201 4202 4203 4204 4205 4206 4207 4208 4209 4210 4211 4212 4213 4214 4215 4216 4217 4218 4219 4220 4221 4222 4223 4224 4225 4226 4227 4228 4229 4230 4231 4232 4233 4234 4235 4236 4237 4238 4239 4240 4241 4242 4243 4244 4245 4246 4247 4248 4249 4250 4251 4252 4253 4254 4255 4256 4257 4258 4259 4260 4261 4262 4263 4264 4265 4266 4267 4268 4269 4270 4271 4272 4273 4274 4275 4276 4277 4278 4279 4280 4281 4282 4283 4284 4285 4286 4287 4288 4289 4290 4291 4292 4293 4294 4295 4296 4297 4298 4299 4300 4301 4302 4303 4304 4305 4306 4307 4308 4309 4310 4311 4312 4313 4314 4315 4316 4317 4318 4319 4320 4321 4322 4323 4324 4325 4326 4327 4328 4329 4330 4331 4332 4333 4334 4335 4336 4337 4338 4339 4340 4341 4342 4343 4344 4345 4346 4347 4348 4349 4350 4351 4352 4353 4354 4355 4356 4357 4358 4359 4360 4361 4362 4363 4364 4365 4366 4367 4368 4369 4370 4371 4372 4373 4374 4375 4376 4377 4378 4379 4380 4381 4382 4383 4384 4385 4386 4387 4388 4389 4390 4391 4392 4393 4394 4395 4396 4397 4398 4399 4400 4401 4402 4403 4404 4405 4406 4407 4408 4409 4410 4411 4412 4413 4414 4415 4416 4417 4418 4419 4420 4421 4422 4423 4424 4425 4426 4427 4428 4429 4430 4431 4432 4433 4434 4435 4436 4437 4438 4439 4440 4441 4442 4443 4444 4445 4446 4447 4448 4449 4450 4451 4452 4453 4454 4455 4456 4457 4458 4459 4460 4461 4462 4463 4464 4465 4466 4467 4468 4469 4470 4471 4472 4473 4474 4475 4476 4477 4478 4479 4480 4481 4482 4483 4484 4485 4486 4487 4488 4489 4490 4491 4492 4493 4494 4495 4496 4497 4498 4499 4500 4501 4502 4503 4504 4505 4506 4507 4508 4509 4510 4511 4512 4513 4514 4515 4516 4517 4518 4519 4520 4521 4522 4523 4524 4525 4526 4527 4528 4529 4530 4531 4532 4533 4534 4535 4536 4537 4538 4539 4540 4541 4542 4543 4544 4545 4546 4547 4548 4549 4550 4551 4552 4553 4554 4555 4556 4557 4558 4559 4560 4561 4562 4563 4564 4565 4566 4567 4568 4569 4570 4571 4572 4573 4574 4575 4576 4577 4578 4579 4580 4581 4582 4583 4584 4585 4586 4587 4588 4589 4590 4591 4592 4593 4594 4595 4596 4597 4598 4599 4600 4601 4602 4603 4604 4605 4606 4607 4608 4609 4610 4611 4612 4613 4614 4615 4616 4617 4618 4619 4620 4621 4622 4623 4624 4625 4626 4627 4628 4629 4630 4631 4632 4633 4634 4635 4636 4637 4638 4639 4640 4641 4642 4643 4644 4645 4646 4647 4648 4649 4650 4651 4652 4653 4654 4655 4656 4657 4658 4659 4660 4661 4662 4663 4664 4665 4666 4667 4668 4669 4670 4671 4672 4673 4674 4675 4676 4677 4678 4679 4680 4681 4682 4683 4684 4685 4686 4687 4688 4689 4690 4691 4692 4693 4694 4695 4696 4697 4698 4699 4700 4701 4702 4703 4704 4705 4706 4707 4708 4709 4710 4711 4712 4713 4714 4715 4716 4717 4718 4719 4720 4721 4722 4723 4724 4725 4726 4727 4728 4729 4730 4731 4732 4733 4734 4735 4736 4737 4738 4739 4740 4741 4742 4743 4744 4745 4746 4747 4748 4749 4750 4751 4752 4753 4754 4755 4756 4757 4758 4759 4760 4761 4762 4763 4764 4765 4766 4767 4768 4769 4770 4771 4772 4773 4774 4775 4776 4777 4778 4779 4780 4781 4782 4783 4784 4785 4786 4787 4788 4789 4790 4791 4792 4793 4794 4795 4796 4797 4798 4799 4800 4801 4802 4803 4804 4805 4806 4807 4808 4809 4810 4811 4812 4813 4814 4815 4816 4817 4818 4819 4820 4821 4822 4823 4824 4825 4826 4827 4828 4829 4830 4831 4832 4833 4834 4835 4836 4837 4838 4839 4840 4841 4842 4843 4844 4845 4846 4847 4848 4849 4850 4851 4852 4853 4854 4855 4856 4857 4858 4859 4860 4861 4862 4863 4864 4865 4866 4867 4868 4869 4870 4871 4872 4873 4874 4875 4876 4877 4878 4879 4880 4881 4882 4883 4884 4885 4886 4887 4888 4889 4890 4891 4892 4893 4894 4895 4896 4897 4898 4899 4900 4901 4902 4903 4904 4905 4906 4907 4908 4909 4910 4911 4912 4913 4914 4915 4916 4917 4918 4919 4920 4921 4922 4923 4924 4925 4926 4927 4928 4929 4930 4931 4932 4933 4934 4935 4936 4937 4938 4939 4940 4941 4942 4943 4944 4945 4946 4947 4948 4949 4950 4951 4952 4953 4954 4955 4956 4957 4958 4959 4960 4961 4962 4963 4964 4965 4966 4967 4968 4969 4970 4971 4972 4973 4974 4975 4976 4977 4978 4979 4980 4981 4982 4983 4984 4985 4986 4987 4988 4989 4990 4991 4992 4993 4994 4995 4996 4997 4998 4999 5000 5001 5002 5003 5004 5005 5006 5007 5008 5009 5010 5011 5012 5013 5014 5015 5016 5017 5018 5019 5020 5021 5022 5023 5024 5025 5026 5027 5028 5029 5030 5031 5032 5033 5034 5035 5036 5037 5038 5039 5040 5041 5042 5043 5044 5045 5046 5047 5048 5049 5050 5051 5052 5053 5054 5055 5056 5057 5058 5059 5060 5061 5062 5063 5064 5065 5066 5067 5068 5069 5070 5071 5072 5073 5074 5075 5076 5077 5078 5079 5080 5081 5082 5083 5084 5085 5086 5087 5088 5089 5090 5091 5092 5093 5094 5095 5096 5097 5098 5099 5100 5101 5102 5103 5104 5105 5106 5107 5108 5109 5110 5111 5112 5113 5114 5115 5116 5117 5118 5119 5120 5121 5122 5123 5124 5125 5126 5127 5128 5129 5130 5131 5132 5133 5134 5135 5136 5137 5138 5139 5140 5141 5142 5143 5144 5145 5146 5147 5148 5149 5150 5151 5152 5153 5154 5155 5156 5157 5158 5159 5160 5161 5162 5163 5164 5165 5166 5167 5168 5169 5170 5171 5172 5173 5174 5175 5176 5177 5178 5179 5180 5181 5182 5183 5184 5185 5186 5187 5188 5189 5190 5191 5192 5193 5194 5195 5196 5197 5198 5199 5200 5201 5202 5203 5204 5205 5206 5207 5208 5209 5210 5211 5212 5213 5214 5215 5216 5217 5218 5219 5220 5221 5222 5223 5224 5225 5226 5227 5228 5229 5230 5231 5232 5233 5234 5235 5236 5237 5238 5239 5240 5241 5242 5243 5244 5245 5246 5247 5248 5249 5250 5251 5252 5253 5254 5255 5256 5257 5258 5259 5260 5261 5262 5263 5264 5265 5266 5267 5268 5269 5270 5271 5272 5273 5274 5275 5276 5277 5278 5279 5280 5281 5282 5283 5284 5285 5286 5287 5288 5289 5290 5291 5292 5293 5294 5295 5296 5297 5298 5299 5300 5301 5302 5303 5304 5305 5306 5307 5308 5309 5310 5311 5312 5313 5314 5315 5316 5317 5318 5319 5320 5321 5322 5323 5324 5325 5326 5327 5328 5329 5330 5331 5332 5333 5334 5335 5336 5337 5338 5339 5340 5341 5342 5343 5344 5345 5346 5347 5348 5349 5350 5351 5352 5353 5354 5355 5356 5357 5358 5359 5360 5361 5362 5363 5364 5365 5366 5367 5368 5369 5370 5371 5372 5373 5374 5375 5376 5377 5378 5379 5380 5381 5382 5383 5384 5385 5386 5387 5388 5389 5390 5391 5392 5393 5394 5395 5396 5397 5398 5399 5400 5401 5402 5403 5404 5405 5406 5407 5408 5409 5410 5411 5412 5413 5414 5415 5416 5417 5418 5419 5420 5421 5422 5423 5424 5425 5426 5427 5428 5429 5430 5431 5432 5433 5434 5435 5436 5437 5438 5439 5440 5441 5442 5443 5444 5445 5446 5447 5448 5449 5450 5451 5452 5453 5454 5455 5456 5457 5458 5459 5460 5461 5462 5463 5464 5465 5466 5467 5468 5469 5470 5471 5472 5473 5474 5475 5476 5477 5478 5479 5480 5481 5482 5483 5484 5485 5486 5487 5488 5489 5490 5491 5492 5493 5494 5495 5496 5497 5498 5499 5500 5501 5502 5503 5504 5505 5506 5507 5508 5509 5510 5511 5512 5513 5514 5515 5516 5517 5518 5519 5520 5521 5522 5523 5524 5525 5526 5527 5528 5529 5530 5531 5532 5533 5534 5535 5536 5537 5538 5539 5540 5541 5542 5543 5544 5545 5546 5547 5548 5549 5550 5551 5552 5553 5554 5555 5556 5557 5558 5559 5560 5561 5562 5563 5564 5565 5566 5567 5568 5569 5570 5571 5572 5573 5574 5575 5576 5577 5578 5579 5580 5581 5582 5583 5584 5585 5586 5587 5588 5589 5590 5591 5592 5593 5594 5595 5596 5597 5598 5599 5600 5601 5602 5603 5604 5605 5606 5607 5608 5609 5610 5611 5612 5613 5614 5615 5616 5617 5618 5619 5620 5621 5622 5623 5624 5625 5626 5627 5628 5629 5630 5631 5632 5633 5634 5635 5636 5637 5638 5639 5640 5641 5642 5643 5644 5645 5646 5647 5648 5649 5650 5651 5652 5653 5654 5655 5656 5657 5658 5659 5660 5661 5662 5663 5664 5665 5666 5667 5668 5669 5670 5671 5672 5673 5674 5675 5676 5677 5678 5679 5680 5681 5682 5683 5684 5685 5686 5687 5688 5689 5690 5691 5692 5693 5694 5695 5696 5697 5698 5699 5700 5701 5702 5703 5704 5705 5706 5707 5708 5709 5710 5711 5712 5713 5714 5715 5716 5717 5718 5719 5720 5721 5722 5723 5724 5725 5726 5727 5728 5729 5730 5731 5732 5733 5734 5735 5736 5737 5738 5739 5740 5741 5742 5743 5744 5745 5746 5747 5748 5749 5750 5751 5752 5753 5754 5755 5756 5757 5758 5759 5760 5761 5762 5763 5764 5765 5766 5767 5768 5769 5770 5771 5772 5773 5774 5775 5776 5777 5778 5779 5780 5781 5782 5783 5784 5785 5786 5787 5788 5789 5790 5791 5792 5793 5794 5795 5796 5797 5798 5799 5800 5801 5802 5803 5804 5805 5806 5807 5808 5809 5810 5811 5812 5813 5814 5815 5816 5817 5818 5819 5820 5821 5822 5823 5824 5825 5826 5827 5828 5829 5830 5831 5832 5833 5834 5835 5836 5837 5838 5839 5840 5841 5842 5843 5844 5845 5846 5847 5848 5849 5850 5851 5852 5853 5854 5855 5856 5857 5858 5859 5860 5861 5862 5863 5864 5865 5866 5867 5868 5869 5870 5871 5872 5873 5874 5875 5876 5877 5878 5879 5880 5881 5882 5883 5884 5885 5886 5887 5888 5889 5890 5891 5892 5893 5894 5895 5896 5897 5898 5899 5900 5901 5902 5903 5904 5905 5906 5907 5908 5909 5910 5911 5912 5913 5914 5915 5916 5917 5918 5919 5920 5921 5922 5923 5924 5925 5926 5927 5928 5929 5930 5931 5932 5933 5934 5935 5936 5937 5938 5939 5940 5941 5942 5943 5944 5945 5946 5947 5948 5949 5950 5951 5952 5953 5954 5955 5956 5957 5958 5959 5960 5961 5962 5963 5964 5965 5966 5967 5968 5969 5970 5971 5972 5973 5974 5975 5976 5977 5978 5979 5980 5981 5982 5983 5984 5985 5986 5987 5988 5989 5990 5991 5992 5993 5994 5995 5996 5997 5998 5999 6000 6001 6002 6003 6004 6005 6006 6007 6008 6009 6010 6011 6012 6013 6014 6015 6016 6017 6018 6019 6020 6021 6022 6023 6024 6025 6026 6027 6028 6029 6030 6031 6032 6033 6034 6035 6036 6037 6038 6039 6040 6041 6042 6043 6044 6045 6046 6047 6048 6049 6050 6051 6052 6053 6054 6055 6056 6057 6058 6059 6060 6061 6062 6063 6064 6065 6066 6067 6068 6069 6070 6071 6072 6073 6074 6075 6076 6077 6078 6079 6080 6081 6082 6083 6084 6085 6086 6087 6088 6089 6090 6091 6092 6093 6094 6095 6096 6097 6098 6099 6100 6101 6102 6103 6104 6105 6106 6107 6108 6109 6110 6111 6112 6113 6114 6115 6116 6117 6118 6119 6120 6121 6122 6123 6124 6125 6126 6127 6128 6129 6130 6131 6132 6133 6134 6135 6136 6137 6138 6139 6140 6141 6142 6143 6144 6145 6146 6147 6148 6149 6150 6151 6152 6153 6154 6155 6156 6157 6158 6159 6160 6161 6162 6163 6164 6165 6166 6167 6168 6169 6170 6171 6172 6173 6174 6175 6176 6177 6178 6179 6180 6181 6182 6183 6184 6185 6186 6187 6188 6189 6190 6191 6192 6193 6194 6195 6196 6197 6198 6199 6200 6201 6202 6203 6204 6205 6206 6207 6208 6209 6210 6211 6212 6213 6214 6215 6216 6217 6218 6219 6220 6221 6222 6223 6224 6225 6226 6227 6228 6229 6230 6231 6232 6233 6234 6235 6236 6237 6238 6239 6240 6241 6242 6243 6244 6245 6246 6247 6248 6249 6250 6251 6252 6253 6254 6255 6256 6257 6258 6259 6260 6261 6262 6263 6264 6265 6266 6267 6268 6269 6270 6271 6272 6273 6274 6275 6276 6277 6278 6279 6280 6281 6282 6283 6284 6285 6286 6287 6288 6289 6290 6291 6292 6293 6294 6295 6296 6297 6298 6299 6300 6301 6302 6303 6304 6305 6306 6307 6308 6309 6310 6311 6312 6313 6314 6315 6316 6317 6318 6319 6320 6321 6322 6323 6324 6325 6326 6327 6328 6329 6330 6331 6332 6333 6334 6335 6336 6337 6338 6339 6340 6341 6342 6343 6344 6345 6346 6347 6348 6349 6350 6351 6352 6353 6354 6355 6356 6357 6358 6359 6360 6361 6362 6363 6364 6365 6366 6367 6368 6369 6370 6371 6372 6373 6374 6375 6376 6377 6378 6379 6380 6381 6382 6383 6384 6385 6386 6387 6388 6389 6390 6391 6392 6393 6394 6395 6396 6397 6398 6399 6400 6401 6402 6403 6404 6405 6406 6407 6408 6409 6410 6411 6412 6413 6414 6415 6416 6417 6418 6419 6420 6421 6422 6423 6424 6425 6426 6427 6428 6429 6430 6431 6432 6433 6434 6435 6436 6437 6438 6439 6440 6441 6442 6443 6444 6445 6446 6447 6448 6449 6450 6451 6452 6453 6454 6455 6456 6457 6458 6459 6460 6461 6462 6463 6464 6465 6466 6467 6468 6469 6470 6471 6472 6473 6474 6475 6476 6477 6478 6479 6480 6481 6482 6483 6484 6485 6486 6487 6488 6489 6490 6491 6492 6493 6494 6495 6496 6497 6498 6499 6500 6501 6502 6503 6504 6505 6506 6507 6508 6509 6510 6511 6512 6513 6514 6515 6516 6517 6518 6519 6520 6521 6522 6523 6524 6525 6526 6527 6528 6529 6530 6531 6532 6533 6534 6535 6536 6537 6538 6539 6540 6541 6542 6543 6544 6545 6546 6547 6548 6549 6550 6551 6552 6553 6554 6555 6556 6557 6558 6559 6560 6561 6562 6563 6564 6565 6566 6567 6568 6569 6570 6571 6572 6573 6574 6575 6576 6577 6578 6579 6580 6581 6582 6583 6584 6585 6586 6587 6588 6589 6590 6591 6592 6593 6594 6595 6596 6597 6598 6599 6600 6601 6602 6603 6604 6605 6606 6607 6608 6609 6610 6611 6612 6613 6614 6615 6616 6617 6618 6619 6620 6621 6622 6623 6624 6625 6626 6627 6628 6629 6630 6631 6632 6633 6634 6635 6636 6637 6638 6639 6640 6641 6642 6643 6644 6645 6646 6647 6648 6649 6650 6651 6652 6653 6654 6655 6656 6657 6658 6659 6660 6661 6662 6663 6664 6665 6666 6667 6668 6669 6670 6671 6672 6673 6674 6675 6676 6677 6678 6679 6680 6681 6682 6683 6684 6685 6686 6687 6688 6689 6690 6691 6692 6693 6694 6695 6696 6697 6698 6699 6700 6701 6702 6703 6704 6705 6706 6707 6708 6709 6710 6711 6712 6713 6714 6715 6716 6717 6718 6719 6720 6721 6722 6723 6724 6725 6726 6727 6728 6729 6730 6731 6732 6733 6734 6735 6736 6737 6738 6739 6740 6741 6742 6743 6744 6745 6746 6747 6748 6749 6750 6751 6752 6753 6754 6755 6756 6757 6758 6759 6760 6761 6762 6763 6764 6765 6766 6767 6768 6769 6770 6771 6772 6773 6774 6775 6776 6777 6778 6779 6780 6781 6782 6783 6784 6785 6786 6787 6788 6789 6790 6791 6792 6793 6794 6795 6796 6797 6798 6799 6800 6801 6802 6803 6804 6805 6806 6807 6808 6809 6810 6811 6812 6813 6814 6815 6816 6817 6818 6819 6820 6821 6822 6823 6824 6825 6826 6827 6828 6829 6830 6831 6832 6833 6834 6835 6836 6837 6838 6839 6840 6841 6842 6843 6844 6845 6846 6847 6848 6849 6850 6851 6852 6853 6854 6855 6856 6857 6858 6859 6860 6861 6862 6863 6864 6865 6866 6867 6868 6869 6870 6871 6872 6873 6874 6875 6876 6877 6878 6879 6880 6881 6882 6883 6884 6885 6886 6887 6888 6889 6890 6891 6892 6893 6894 6895 6896 6897 6898 6899 6900 6901 6902 6903 6904 6905 6906 6907 6908 6909 6910 6911 6912 6913 6914 6915 6916 6917 6918 6919 6920 6921 6922 6923 6924 6925 6926 6927 6928 6929 6930 6931 6932 6933 6934 6935 6936 6937 6938 6939 6940 6941 6942 6943 6944 6945 6946 6947 6948 6949 6950 6951 6952 6953 6954 6955 6956 6957 6958 6959 6960 6961 6962 6963 6964 6965 6966 6967 6968 6969 6970 6971 6972 6973 6974 6975 6976 6977 6978 6979 6980 6981 6982 6983 6984 6985 6986 6987 6988 6989 6990 6991 6992 6993 6994 6995 6996 6997 6998 6999 7000 7001 7002 7003 7004 7005 7006 7007 7008 7009 7010 7011 7012 7013 7014 7015 7016 7017 7018 7019 7020 7021 7022 7023 7024 7025 7026 7027 7028 7029 7030 7031 7032 7033 7034 7035 7036 7037 7038 7039 7040 7041 7042 7043 7044 7045 7046 7047 7048 7049 7050 7051 7052 7053 7054 7055 7056 7057 7058 7059 7060 7061 7062 7063 7064 7065 7066 7067 7068 7069 7070 7071 7072 7073 7074 7075 7076 7077 7078 7079 7080 7081 7082 7083 7084 7085 7086 7087 7088 7089 7090 7091 7092 7093 7094 7095 7096 7097 7098 7099 7100 7101 7102 7103 7104 7105 7106 7107 7108 7109 7110 7111 7112 7113 7114 7115 7116 7117 7118 7119 7120 7121 7122 7123 7124 7125 7126 7127 7128 7129 7130 7131 7132 7133 7134 7135 7136 7137 7138 7139 7140 7141 7142 7143 7144 7145 7146 7147 7148 7149 7150 7151 7152 7153 7154 7155 7156 7157 7158 7159 7160 7161 7162 7163 7164 7165 7166 7167 7168 7169 7170 7171 7172 7173 7174 7175 7176 7177 7178 7179 7180 7181 7182 7183 7184 7185 7186 7187 7188 7189 7190 7191 7192 7193 7194 7195 7196 7197 7198 7199 7200 7201 7202 7203 7204 7205 7206 7207 7208 7209 7210 7211 7212 7213 7214 7215 7216 7217 7218 7219 7220 7221 7222 7223 7224 7225 7226 7227 7228 7229 7230 7231 7232 7233 7234 7235 7236 7237 7238 7239 7240 7241 7242 7243 7244 7245 7246 7247 7248 7249 7250 7251 7252 7253 7254 7255 7256 7257 7258 7259 7260 7261 7262 7263 7264 7265 7266 7267 7268 7269 7270 7271 7272 7273 7274 7275 7276 7277 7278 7279 7280 7281 7282 7283 7284 7285 7286 7287 7288 7289 7290 7291 7292 7293 7294 7295 7296 7297 7298 7299 7300 7301 7302 7303 7304 7305 7306 7307 7308 7309 7310 7311 7312 7313 7314 7315 7316 7317 7318 7319 7320 7321 7322 7323 7324 7325 7326 7327 7328 7329 7330 7331 7332 7333 7334 7335 7336 7337 7338 7339 7340 7341 7342 7343 7344 7345 7346 7347 7348 7349 7350 7351 7352 7353 7354 7355 7356 7357 7358 7359 7360 7361 7362 7363 7364 7365 7366 7367 7368 7369 7370 7371 7372 7373 7374 7375 7376 7377 7378 7379 7380 7381 7382 7383 7384 7385 7386 7387 7388 7389 7390 7391 7392 7393 7394 7395 7396 7397 7398 7399 7400 7401 7402 7403 7404 7405 7406 7407 7408 7409 7410 7411 7412 7413 7414 7415 7416 7417 7418 7419 7420 7421 7422 7423 7424 7425 7426 7427 7428 7429 7430 7431 7432 7433 7434 7435 7436 7437 7438 7439 7440 7441 7442 7443 7444 7445 7446 7447 7448 7449 7450 7451 7452 7453 7454 7455 7456 7457 7458 7459 7460 7461 7462 7463 7464 7465 7466 7467 7468 7469 7470 7471 7472 7473 7474 7475 7476 7477 7478 7479 7480 7481 7482 7483 7484 7485 7486 7487 7488 7489 7490 7491 7492 7493 7494 7495 7496 7497 7498 7499 7500 7501 7502 7503 7504 7505 7506 7507 7508 7509 7510 7511 7512 7513 7514 7515 7516 7517 7518 7519 7520 7521 7522 7523 7524 7525 7526 7527 7528 7529 7530 7531 7532 7533 7534 7535 7536 7537 7538 7539 7540 7541 7542 7543 7544 7545 7546 7547 7548 7549 7550 7551 7552 7553 7554 7555 7556 7557 7558 7559 7560 7561 7562 7563 7564 7565 7566 7567 7568 7569 7570 7571 7572 7573 7574 7575 7576 7577 7578 7579 7580 7581 7582 7583 7584 7585 7586 7587 7588 7589 7590 7591 7592 7593 7594 7595 7596 7597 7598 7599 7600 7601 7602 7603 7604 7605 7606 7607 7608 7609 7610 7611 7612 7613 7614 7615 7616 7617 7618 7619 7620 7621 7622 7623 7624 7625 7626 7627 7628 7629 7630 7631 7632 7633 7634 7635 7636 7637 7638 7639 7640 7641 7642 7643 7644 7645 7646 7647 7648 7649 7650 7651 7652 7653 7654 7655 7656 7657 7658 7659 7660 7661 7662 7663 7664 7665 7666 7667 7668 7669 7670 7671 7672 7673 7674 7675 7676 7677 7678 7679 7680 7681 7682 7683 7684 7685 7686 7687 7688 7689 7690 7691 7692 7693 7694 7695 7696 7697 7698 7699 7700 7701 7702 7703 7704 7705 7706 7707 7708 7709 7710 7711 7712 7713 7714 7715 7716 7717 7718 7719 7720 7721 7722 7723 7724 7725 7726 7727 7728 7729 7730 7731 7732 7733 7734 7735 7736 7737 7738 7739 7740 7741 7742 7743 7744 7745 7746 7747 7748 7749 7750 7751 7752 7753 7754 7755 7756 7757 7758 7759 7760 7761 7762 7763 7764 7765 7766 7767 7768 7769 7770 7771 7772 7773 7774 7775 7776 7777 7778 7779 7780 7781 7782 7783 7784 7785 7786 7787 7788 7789 7790 7791 7792 7793 7794 7795 7796 7797 7798 7799 7800 7801 7802 7803 7804 7805 7806 7807 7808 7809 7810 7811 7812 7813 7814 7815 7816 7817 7818 7819 7820 7821 7822 7823 7824 7825 7826 7827 7828 7829 7830 7831 7832 7833 7834 7835 7836 7837 7838 7839 7840 7841 7842 7843 7844 7845 7846 7847 7848 7849 7850 7851 7852 7853 7854 7855 7856 7857 7858 7859 7860 7861 7862 7863 7864 7865 7866 7867 7868 7869 7870 7871 7872 7873 7874 7875 7876 7877 7878 7879 7880 7881 7882 7883 7884 7885 7886 7887 7888 7889 7890 7891 7892 7893 7894 7895 7896 7897 7898 7899 7900 7901 7902 7903 7904 7905 7906 7907 7908 7909 7910 7911 7912 7913 7914 7915 7916 7917 7918 7919 7920 7921 7922 7923 7924 7925 7926 7927 7928 7929 7930 7931 7932 7933 7934 7935 7936 7937 7938 7939 7940 7941 7942 7943 7944 7945 7946 7947 7948 7949 7950 7951 7952 7953 7954 7955 7956 7957 7958 7959 7960 7961 7962 7963 7964 7965 7966 7967 7968 7969 7970 7971 7972 7973 7974 7975 7976 7977 7978 7979 7980 7981 7982 7983 7984 7985 7986 7987 7988 7989 7990 7991 7992 7993 7994 7995 7996 7997 7998 7999 8000 8001 8002 8003 8004 8005 8006 8007 8008 8009 8010 8011 8012 8013 8014 8015 8016 8017 8018 8019 8020 8021 8022 8023 8024 8025 8026 8027 8028 8029 8030 8031 8032 8033 8034 8035 8036 8037 8038 8039 8040 8041 8042 8043 8044 8045 8046 8047 8048 8049 8050 8051 8052 8053 8054 8055 8056 8057 8058 8059 8060 8061 8062 8063 8064 8065 8066 8067 8068 8069 8070 8071 8072 8073 8074 8075 8076 8077 8078 8079 8080 8081 8082 8083 8084 8085 8086 8087 8088 8089 8090 8091 8092 8093 8094 8095 8096 8097 8098 8099 8100 8101 8102 8103 8104 8105 8106 8107 8108 8109 8110 8111 8112 8113 8114 8115 8116 8117 8118 8119 8120 8121 8122 8123 8124 8125 8126 8127 8128 8129 8130 8131 8132 8133 8134 8135 8136 8137 8138 8139 8140 8141 8142 8143 8144 8145 8146 8147 8148 8149 8150 8151 8152 8153 8154 8155 8156 8157 8158 8159 8160 8161 8162 8163 8164 8165 8166 8167 8168 8169 8170 8171 8172 8173 8174 8175 8176 8177 8178 8179 8180 8181 8182 8183 8184 8185 8186 8187 8188 8189 8190 8191 8192 8193 8194 8195 8196 8197 8198 8199 8200 8201 8202 8203 8204 8205 8206 8207 8208 8209 8210 8211 8212 8213 8214 8215 8216 8217 8218 8219 8220 8221 8222 8223 8224 8225 8226 8227 8228 8229 8230 8231 8232 8233 8234 8235 8236 8237 8238 8239 8240 8241 8242 8243 8244 8245 8246 8247 8248 8249 8250 8251 8252 8253 8254 8255 8256 8257 8258 8259 8260 8261 8262 8263 8264 8265 8266 8267 8268 8269 8270 8271 8272 8273 8274 8275 8276 8277 8278 8279 8280 8281 8282 8283 8284 8285 8286 8287 8288 8289 8290 8291 8292 8293 8294 8295 8296 8297 8298 8299 8300 8301 8302 8303 8304 8305 8306 8307 8308 8309 8310 8311 8312 8313 8314 8315 8316 8317 8318 8319 8320 8321 8322 8323 8324 8325 8326 8327 8328 8329 8330 8331 8332 8333 8334 8335 8336 8337 8338 8339 8340 8341 8342 8343 8344 8345 8346 8347 8348 8349 8350 8351 8352 8353 8354 8355 8356 8357 8358 8359 8360 8361 8362 8363 8364 8365 8366 8367 8368 8369 8370 8371 8372 8373 8374 8375 8376 8377 8378 8379 8380 8381 8382 8383 8384 8385 8386 8387 8388 8389 8390 8391 8392 8393 8394 8395 8396 8397 8398 8399 8400 8401 8402 8403 8404 8405 8406 8407 8408 8409 8410 8411 8412 8413 8414 8415 8416 8417 8418 8419 8420 8421 8422 8423 8424 8425 8426 8427 8428 8429 8430 8431 8432 8433 8434 8435 8436 8437 8438 8439 8440 8441 8442 8443 8444 8445 8446 8447 8448 8449 8450 8451 8452 8453 8454 8455 8456 8457 8458 8459 8460 8461 8462 8463 8464 8465 8466 8467 8468 8469 8470 8471 8472 8473 8474 8475 8476 8477 8478 8479 8480 8481 8482 8483 8484 8485 8486 8487 8488 8489 8490 8491 8492 8493 8494 8495 8496 8497 8498 8499 8500 8501 8502 8503 8504 8505 8506 8507 8508 8509 8510 8511 8512 8513 8514 8515 8516 8517 8518 8519 8520 8521 8522 8523 8524 8525 8526 8527 8528 8529 8530 8531 8532 8533 8534 8535 8536 8537 8538 8539 8540 8541 8542 8543 8544 8545 8546 8547 8548 8549 8550 8551 8552 8553 8554 8555 8556 8557 8558 8559 8560 8561 8562 8563 8564 8565 8566 8567 8568 8569 8570 8571 8572 8573 8574 8575 8576 8577 8578 8579 8580 8581 8582 8583 8584 8585 8586 8587 8588 8589 8590 8591 8592 8593 8594 8595 8596 8597 8598 8599 8600 8601 8602 8603 8604 8605 8606 8607 8608 8609 8610 8611 8612 8613 8614 8615 8616 8617 8618 8619 8620 8621 8622 8623 8624 8625 8626 8627 8628 8629 8630 8631 8632 8633 8634 8635 8636 8637 8638 8639 8640 8641 8642 8643 8644 8645 8646 8647 8648 8649 8650 8651 8652 8653 8654 8655 8656 8657 8658 8659 8660 8661 8662 8663 8664 8665 8666 8667 8668 8669 8670 8671 8672 8673 8674 8675 8676 8677 8678 8679 8680 8681 8682 8683 8684 8685 8686 8687 8688 8689 8690 8691 8692 8693 8694 8695 8696 8697 8698 8699 8700 8701 8702 8703 8704 8705 8706 8707 8708 8709 8710 8711 8712 8713 8714 8715 8716 8717 8718 8719 8720 8721 8722 8723 8724 8725 8726 8727 8728 8729 8730 8731 8732 8733 8734 8735 8736 8737 8738 8739 8740 8741 8742 8743 8744 8745 8746 8747 8748 8749 8750 8751 8752 8753 8754 8755 8756 8757 8758 8759 8760 8761 8762 8763 8764 8765 8766 8767 8768 8769 8770 8771 8772 8773 8774 8775 8776 8777 8778 8779 8780 8781 8782 8783 8784 8785 8786 8787 8788 8789 8790 8791 8792 8793 8794 8795 8796 8797 8798 8799 8800 8801 8802 8803 8804 8805 8806 8807 8808 8809 8810 8811 8812 8813 8814 8815 8816 8817 8818 8819 8820 8821 8822 8823 8824 8825 8826 8827 8828 8829 8830 8831 8832 8833 8834 8835 8836 8837 8838 8839 8840 8841 8842 8843 8844 8845 8846 8847 8848 8849 8850 8851 8852 8853 8854 8855 8856 8857 8858 8859 8860 8861 8862 8863 8864 8865 8866 8867 8868 8869 8870 8871 8872 8873 8874 8875 8876 8877 8878 8879 8880 8881 8882 8883 8884 8885 8886 8887 8888 8889 8890 8891 8892 8893 8894 8895 8896 8897 8898 8899 8900 8901 8902 8903 8904 8905 8906 8907 8908 8909 8910 8911 8912 8913 8914 8915 8916 8917 8918 8919 8920 8921 8922 8923 8924 8925 8926 8927 8928 8929 8930 8931 8932 8933 8934 8935 8936 8937 8938 8939 8940 8941 8942 8943 8944 8945 8946 8947 8948 8949 8950 8951 8952 8953 8954 8955 8956 8957 8958 8959 8960 8961 8962 8963 8964 8965 8966 8967 8968 8969 8970 8971 8972 8973 8974 8975 8976 8977 8978 8979 8980 8981 8982 8983 8984 8985 8986 8987 8988 8989 8990 8991 8992 8993 8994 8995 8996 8997 8998 8999 9000 9001 9002 9003 9004 9005 9006 9007 9008 9009 9010 9011 9012 9013 9014 9015 9016 9017 9018 9019 9020 9021 9022 9023 9024 9025 9026 9027 9028 9029 9030 9031 9032 9033 9034 9035 9036 9037 9038 9039 9040 9041 9042 9043 9044 9045 9046 9047 9048 9049 9050 9051 9052 9053 9054 9055 9056 9057 9058 9059 9060 9061 9062 9063 9064 9065 9066 9067 9068 9069 9070 9071 9072 9073 9074 9075 9076 9077 9078 9079 9080 9081 9082 9083 9084 9085 9086 9087 9088 9089 9090 9091 9092 9093 9094 9095 9096 9097 9098 9099 9100 9101 9102 9103 9104 9105 9106 9107 9108 9109 9110 9111 9112 9113 9114 9115 9116 9117 9118 9119 9120 9121 9122 9123 9124 9125 9126 9127 9128 9129 9130 9131 9132 9133 9134 9135 9136 9137 9138 9139 9140 9141 9142 9143 9144 9145 9146 9147 9148 9149 9150 9151 9152 9153 9154 9155 9156 9157 9158 9159 9160 9161 9162 9163 9164 9165 9166 9167 9168 9169 9170 9171 9172 9173 9174 9175 9176 9177 9178 9179 9180 9181 9182 9183 9184 9185 9186 9187 9188 9189 9190 9191 9192 9193 9194 9195 9196 9197 9198 9199 9200 9201 9202 9203 9204 9205 9206 9207 9208 9209 9210 9211 9212 9213 9214 9215 9216 9217 9218 9219 9220 9221 9222 9223 9224 9225 9226 9227 9228 9229 9230 9231 9232 9233 9234 9235 9236 9237 9238 9239 9240 9241 9242 9243 9244 9245 9246 9247 9248 9249 9250 9251 9252 9253 9254 9255 9256 9257 9258 9259 9260 9261 9262 9263 9264 9265 9266 9267 9268 9269 9270 9271 9272 9273 9274 9275 9276 9277 9278 9279 9280 9281 9282 9283 9284 9285 9286 9287 9288 9289 9290 9291 9292 9293 9294 9295 9296 9297 9298 9299 9300 9301 9302 9303 9304 9305 9306 9307 9308 9309 9310 9311 9312 9313 9314 9315 9316 9317 9318 9319 9320 9321 9322 9323 9324 9325 9326 9327 9328 9329 9330 9331 9332 9333 9334 9335 9336 9337 9338 9339 9340 9341 9342 9343 9344 9345 9346 9347 9348 9349 9350 9351 9352 9353 9354 9355 9356 9357 9358 9359 9360 9361 9362 9363 9364 9365 9366 9367 9368 9369 9370 9371 9372 9373 9374 9375 9376 9377 9378 9379 9380 9381 9382 9383 9384 9385 9386 9387 9388 9389 9390 9391 9392 9393 9394 9395 9396 9397 9398 9399 9400 9401 9402 9403 9404 9405 9406 9407 9408 9409 9410 9411 9412 9413 9414 9415 9416 9417 9418 9419 9420 9421 9422 9423 9424 9425 9426 9427 9428 9429 9430 9431 9432 9433 9434 9435 9436 9437 9438 9439 9440 9441 9442 9443 9444 9445 9446 9447 9448 9449 9450 9451 9452 9453 9454 9455 9456 9457 9458 9459 9460 9461 9462 9463 9464 9465 9466 9467 9468 9469 9470 9471 9472 9473 9474 9475 9476 9477 9478 9479 9480 9481 9482 9483 9484 9485 9486 9487 9488 9489 9490 9491 9492 9493 9494 9495 9496 9497 9498 9499 9500 9501 9502 9503 9504 9505 9506 9507 9508 9509 9510 9511 9512 9513 9514 9515 9516 9517 9518 9519 9520 9521 9522 9523 9524 9525 9526 9527 9528 9529 9530 9531 9532 9533 9534 9535 9536 9537 9538 9539 9540 9541 9542 9543 9544 9545 9546 9547 9548 9549 9550 9551 9552 9553 9554 9555 9556 9557 9558 9559 9560 9561 9562 9563 9564 9565 9566 9567 9568 9569 9570 9571 9572 9573 9574 9575 9576 9577 9578 9579 9580 9581 9582 9583 9584 9585 9586 9587 9588 9589 9590 9591 9592 9593 9594 9595 9596 9597 9598 9599 9600 9601 9602 9603 9604 9605 9606 9607 9608 9609 9610 9611 9612 9613 9614 9615 9616 9617 9618 9619 9620 9621 9622 9623 9624 9625 9626 9627 9628 9629 9630 9631 9632 9633 9634 9635 9636 9637 9638 9639 9640 9641 9642 9643 9644 9645 9646 9647 9648 9649 9650 9651 9652 9653 9654 9655 9656 9657 9658 9659 9660 9661 9662 9663 9664 9665 9666 9667 9668 9669 9670 9671 9672 9673 9674 9675 9676 9677 9678 9679 9680 9681 9682 9683 9684 9685 9686 9687 9688 9689 9690 9691 9692 9693 9694 9695 9696 9697 9698 9699 9700 9701 9702 9703 9704 9705 9706 9707 9708 9709 9710 9711 9712 9713 9714 9715 9716 9717 9718 9719 9720 9721 9722 9723 9724 9725 9726 9727 9728 9729 9730 9731 9732 9733 9734 9735 9736 9737 9738 9739 9740 9741 9742 9743 9744 9745 9746 9747 9748 9749 9750 9751 9752 9753 9754 9755 9756 9757 9758 9759 9760 9761 9762 9763 9764 9765 9766 9767 9768 9769 9770 9771 9772 9773 9774 9775 9776 9777 9778 9779 9780 9781 9782 9783 9784 9785 9786 9787 9788 9789 9790 9791 9792 9793 9794 9795 9796 9797 9798 9799 9800 9801 9802 9803 9804 9805 9806 9807 9808 9809 9810 9811 9812 9813 9814 9815 9816 9817 9818 9819 9820 9821 9822 9823 9824 9825 9826 9827 9828 9829 9830 9831 9832 9833 9834 9835 9836 9837 9838 9839 9840 9841 9842 9843 9844 9845 9846 9847 9848 9849 9850 9851 9852 9853 9854 9855 9856 9857 9858 9859 9860 9861 9862 9863 9864 9865 9866 9867 9868 9869 9870 9871 9872 9873 9874 9875 9876 9877 9878 9879 9880 9881 9882 9883 9884 9885 9886 9887 9888 9889 9890 9891 9892 9893 9894 9895 9896 9897 9898 9899 9900 9901 9902 9903 9904 9905 9906 9907 9908 9909 9910 9911 9912 9913 9914 9915 9916 9917 9918 9919 9920 9921 9922 9923 9924 9925 9926 9927 9928 9929 9930 9931 9932 9933 9934 9935 9936 9937 9938 9939 9940 9941 9942 9943 9944 9945 9946 9947 9948 9949 9950 9951 9952 9953 9954 9955 9956 9957 9958 9959 9960 9961 9962 9963 9964 9965 9966 9967 9968 9969 9970 9971 9972 9973 9974 9975 9976 9977 9978 9979 9980 9981 9982 9983 9984 9985 9986 9987 9988 9989 9990 9991 9992 9993 9994 9995 9996 9997 9998 9999 10000 10001 10002 10003 10004 10005 10006 10007 10008 10009 10010 10011 10012 10013 10014 10015 10016 10017 10018 10019 10020 10021 10022 10023 10024 10025 10026 10027 10028 10029 10030 10031 10032 10033 10034 10035 10036 10037 10038 10039 10040 10041 10042 10043 10044 10045 10046 10047 10048 10049 10050 10051 10052 10053 10054 10055 10056 10057 10058 10059 10060 10061 10062 10063 10064 10065 10066 10067 10068 10069 10070 10071 10072 10073 10074 10075 10076 10077 10078 10079 10080 10081 10082 10083 10084 10085 10086 10087 10088 10089 10090 10091 10092 10093 10094 10095 10096 10097 10098 10099 10100 10101 10102 10103 10104 10105 10106 10107 10108 10109 10110 10111 10112 10113 10114 10115 10116 10117 10118 10119 10120 10121 10122 10123 10124 10125 10126 10127 10128 10129 10130 10131 10132 10133 10134 10135 10136 10137 10138 10139 10140 10141 10142 10143 10144 10145 10146 10147 10148 10149 10150 10151 10152 10153 10154 10155 10156 10157 10158 10159 10160 10161 10162 10163 10164 10165 10166 10167 10168 10169 10170 10171 10172 10173 10174 10175 10176 10177 10178 10179 10180 10181 10182 10183 10184 10185 10186 10187 10188 10189 10190 10191 10192 10193 10194 10195 10196 10197 10198 10199 10200 10201 10202 10203 10204 10205 10206 10207 10208 10209 10210 10211 10212 10213 10214 10215 10216 10217 10218 10219 10220 10221 10222 10223 10224 10225 10226 10227 10228 10229 10230 10231 10232 10233 10234 10235 10236 10237 10238 10239 10240 10241 10242 10243 10244 10245 10246 10247 10248 10249 10250 10251 10252 10253 10254 10255 10256 10257 10258 10259 10260 10261 10262 10263 10264 10265 10266 10267 10268 10269 10270 10271 10272 10273 10274 10275 10276 10277 10278 10279 10280 10281 10282 10283 10284 10285 10286 10287 10288 10289 10290 10291 10292 10293 10294 10295 10296 10297 10298 10299 10300 10301 10302 10303 10304 10305 10306 10307 10308 10309 10310 10311 10312 10313 10314 10315 10316 10317 10318 10319 10320 10321 10322 10323 10324 10325 10326 10327 10328 10329 10330 10331 10332 10333 10334 10335 10336 10337 10338 10339 10340 10341 10342 10343 10344 10345 10346 10347 10348 10349 10350 10351 10352 10353 10354 10355 10356 10357 10358 10359 10360 10361 10362 10363 10364 10365 10366 10367 10368 10369 10370 10371 10372 10373 10374 10375 10376 10377 10378 10379 10380 10381 10382 10383 10384 10385 10386 10387 10388 10389 10390 10391 10392 10393 10394 10395 10396 10397 10398 10399 10400 10401 10402 10403 10404 10405 10406 10407 10408 10409 10410 10411 10412 10413 10414 10415 10416 10417 10418 10419 10420 10421 10422 10423 10424 10425 10426 10427 10428 10429 10430 10431 10432 10433 10434 10435 10436 10437 10438 10439 10440 10441 10442 10443 10444 10445 10446 10447 10448 10449 10450 10451 10452 10453 10454 10455 10456 10457 10458 10459 10460 10461 10462 10463 10464 10465 10466 10467 10468 10469 10470 10471 10472 10473 10474 10475 10476 10477 10478 10479 10480 10481 10482 10483 10484 10485 10486 10487 10488 10489 10490 10491 10492 10493 10494 10495 10496 10497 10498 10499 10500 10501 10502 10503 10504 10505 10506 10507 10508 10509 10510 10511 10512 10513 10514 10515 10516 10517 10518 10519 10520 10521 10522 10523 10524 10525 10526 10527 10528 10529 10530 10531 10532 10533 10534 10535 10536 10537 10538 10539 10540 10541 10542 10543 10544 10545 10546 10547 10548 10549 10550 10551 10552 10553 10554 10555 10556 10557 10558 10559 10560 10561 10562 10563 10564 10565 10566 10567 10568 10569 10570 10571 10572 10573 10574 10575 10576 10577 10578 10579 10580 10581 10582 10583 10584 10585 10586 10587 10588 10589 10590 10591 10592 10593 10594 10595 10596 10597 10598 10599 10600 10601 10602 10603 10604 10605 10606 10607 10608 10609 10610 10611 10612 10613 10614 10615 10616 10617 10618 10619 10620 10621 10622 10623 10624 10625 10626 10627 10628 10629 10630 10631 10632 10633 10634 10635 10636 10637 10638 10639 10640 10641 10642 10643 10644 10645 10646 10647 10648 10649 10650 10651 10652 10653 10654 10655 10656 10657 10658 10659 10660 10661 10662 10663 10664 10665 10666 10667 10668 10669 10670 10671 10672 10673 10674 10675 10676 10677 10678 10679 10680 10681 10682 10683 10684 10685 10686 10687 10688 10689 10690 10691 10692 10693 10694 10695 10696 10697 10698 10699 10700 10701 10702 10703 10704 10705 10706 10707 10708 10709 10710 10711 10712 10713 10714 10715 10716 10717 10718 10719 10720 10721 10722 10723 10724 10725 10726 10727 10728 10729 10730 10731 10732 10733 10734 10735 10736 10737 10738 10739 10740 10741 10742 10743 10744 10745 10746 10747 10748 10749 10750 10751 10752 10753 10754 10755 10756 10757 10758 10759 10760 10761 10762 10763 10764 10765 10766 10767 10768 10769 10770 10771 10772 10773 10774 10775 10776 10777 10778 10779 10780 10781 10782 10783 10784 10785 10786 10787 10788 10789 10790 10791 10792 10793 10794 10795 10796 10797 10798 10799 10800 10801 10802 10803 10804 10805 10806 10807 10808 10809 10810 10811 10812 10813 10814 10815 10816 10817 10818 10819 10820 10821 10822 10823 10824 10825 10826 10827 10828 10829 10830 10831 10832 10833 10834 10835 10836 10837 10838 10839 10840 10841 10842 10843 10844 10845 10846 10847 10848 10849 10850 10851 10852 10853 10854 10855 10856 10857 10858 10859 10860 10861 10862 10863 10864 10865 10866 10867 10868 10869 10870 10871 10872 10873 10874 10875 10876 10877 10878 10879 10880 10881 10882 10883 10884 10885 10886 10887 10888 10889 10890 10891 10892 10893 10894 10895 10896 10897 10898 10899 10900 10901 10902 10903 10904 10905 10906 10907 10908 10909 10910 10911 10912 10913 10914 10915 10916 10917 10918 10919 10920 10921 10922 10923 10924 10925 10926 10927 10928 10929 10930 10931 10932 10933 10934 10935 10936 10937 10938 10939 10940 10941 10942 10943 10944 10945 10946 10947 10948 10949 10950 10951 10952 10953 10954 10955 10956 10957 10958 10959 10960 10961 10962 10963 10964 10965 10966 10967 10968 10969 10970 10971 10972 10973 10974 10975 10976 10977 10978 10979 10980 10981 10982 10983 10984 10985 10986 10987 10988 10989 10990 10991 10992 10993 10994 10995 10996 10997 10998 10999 11000 11001 11002 11003 11004 11005 11006 11007 11008 11009 11010 11011 11012 11013 11014 11015 11016 11017 11018 11019 11020 11021 11022 11023 11024 11025 11026 11027 11028 11029 11030 11031 11032 11033 11034 11035 11036 11037 11038 11039 11040 11041 11042 11043 11044 11045 11046 11047 11048 11049 11050 11051 11052 11053 11054 11055 11056 11057 11058 11059 11060 11061 11062 11063 11064 11065 11066 11067 11068 11069 11070 11071 11072 11073 11074 11075 11076 11077 11078 11079 11080 11081 11082 11083 11084 11085 11086 11087 11088 11089 11090 11091 11092 11093 11094 11095 11096 11097 11098 11099 11100 11101 11102 11103 11104 11105 11106 11107 11108 11109 11110 11111 11112 11113 11114 11115 11116 11117 11118 11119 11120 11121 11122 11123 11124 11125 11126 11127 11128 11129 11130 11131 11132 11133 11134 11135 11136 11137 11138 11139 11140 11141 11142 11143 11144 11145 11146 11147 11148 11149 11150 11151 11152 11153 11154 11155 11156 11157 11158 11159 11160 11161 11162 11163 11164 11165 11166 11167 11168 11169 11170 11171 11172 11173 11174 11175 11176 11177 11178 11179 11180 11181 11182 11183 11184 11185 11186 11187 11188 11189 11190 11191 11192 11193 11194 11195 11196 11197 11198 11199 11200 11201 11202 11203 11204 11205 11206 11207 11208 11209 11210 11211 11212 11213 11214 11215 11216 11217 11218 11219 11220 11221 11222 11223 11224 11225 11226 11227 11228 11229 11230 11231 11232 11233 11234 11235 11236 11237 11238 11239 11240 11241 11242 11243 11244 11245 11246 11247 11248 11249 11250 11251 11252 11253 11254 11255 11256 11257 11258 11259 11260 11261 11262 11263 11264 11265 11266 11267 11268 11269 11270 11271 11272 11273 11274 11275 11276 11277 11278 11279 11280 11281 11282 11283 11284 11285 11286 11287 11288 11289 11290 11291 11292 11293 11294 11295 11296 11297 11298 11299 11300 11301 11302 11303 11304 11305 11306 11307 11308 11309 11310 11311 11312 11313 11314 11315 11316 11317 11318 11319 11320 11321 11322 11323 11324 11325 11326 11327 11328 11329 11330 11331 11332 11333 11334 11335 11336 11337 11338 11339 11340 11341 11342 11343 11344 11345 11346 11347 11348 11349 11350 11351 11352 11353 11354 11355 11356 11357 11358 11359 11360 11361 11362 11363 11364 11365 11366 11367 11368 11369 11370 11371 11372 11373 11374 11375 11376 11377 11378 11379 11380 11381 11382 11383 11384 11385 11386 11387 11388 11389 11390 11391 11392 11393 11394 11395 11396 11397 11398 11399 11400 11401 11402 11403 11404 11405 11406 11407 11408 11409 11410 11411 11412 11413 11414 11415 11416 11417 11418 11419 11420 11421 11422 11423 11424 11425 11426 11427 11428 11429 11430 11431 11432 11433 11434 11435 11436 11437 11438 11439 11440 11441 11442 11443 11444 11445 11446 11447 11448 11449 11450 11451 11452 11453 11454 11455 11456 11457 11458 11459 11460 11461 11462 11463 11464 11465 11466 11467 11468 11469 11470 11471 11472 11473 11474 11475 11476 11477 11478 11479 11480 11481 11482 11483 11484 11485 11486 11487 11488 11489 11490 11491 11492 11493 11494 11495 11496 11497 11498 11499 11500 11501 11502 11503 11504 11505 11506 11507 11508 11509 11510 11511 11512 11513 11514 11515 11516 11517 11518 11519 11520 11521 11522 11523 11524 11525 11526 11527 11528 11529 11530 11531 11532 11533 11534 11535 11536 11537 11538 11539 11540 11541 11542 11543 11544 11545 11546 11547 11548 11549 11550 11551 11552 11553 11554 11555 11556 11557 11558 11559 11560 11561 11562 11563 11564 11565 11566 11567 11568 11569 11570 11571 11572 11573 11574 11575 11576 11577 11578 11579 11580 11581 11582 11583 11584 11585 11586 11587 11588 11589 11590 11591 11592 11593 11594 11595 11596 11597 11598 11599 11600 11601 11602 11603 11604 11605 11606 11607 11608 11609 11610 11611 11612 11613 11614 11615 11616 11617 11618 11619 11620 11621 11622 11623 11624 11625 11626 11627 11628 11629 11630 11631 11632 11633 11634 11635 11636 11637 11638 11639 11640 11641 11642 11643 11644 11645 11646 11647 11648 11649 11650 11651 11652 11653 11654 11655 11656 11657 11658 11659 11660 11661 11662 11663 11664 11665 11666 11667 11668 11669 11670 11671 11672 11673 11674 11675 11676 11677 11678 11679 11680 11681 11682 11683 11684 11685 11686 11687 11688 11689 11690 11691 11692 11693 11694 11695 11696 11697 11698 11699 11700 11701 11702 11703 11704 11705 11706 11707 11708 11709 11710 11711 11712 11713 11714 11715 11716 11717 11718 11719 11720 11721 11722 11723 11724 11725 11726 11727 11728 11729 11730 11731 11732 11733 11734 11735 11736 11737 11738 11739 11740 11741 11742 11743 11744 11745 11746 11747 11748 11749 11750 11751 11752 11753 11754 11755 11756 11757 11758 11759 11760 11761 11762 11763 11764 11765 11766 11767 11768 11769 11770 11771 11772 11773 11774 11775 11776 11777 11778 11779 11780 11781 11782 11783 11784 11785 11786 11787 11788 11789 11790 11791 11792 11793 11794 11795 11796 11797 11798 11799 11800 11801 11802 11803 11804 11805 11806 11807 11808 11809 11810 11811 11812 11813 11814 11815 11816 11817 11818 11819 11820 11821 11822 11823 11824 11825 11826 11827 11828 11829 11830 11831 11832 11833 11834 11835 11836 11837 11838 11839 11840 11841 11842 11843 11844 11845 11846 11847 11848 11849 11850 11851 11852 11853 11854 11855 11856 11857 11858 11859 11860 11861 11862 11863 11864 11865 11866 11867 11868 11869 11870 11871 11872 11873 11874 11875 11876 11877 11878 11879 11880 11881 11882 11883 11884 11885 11886 11887 11888 11889 11890 11891 11892 11893 11894 11895 11896 11897 11898 11899 11900 11901 11902 11903 11904 11905 11906 11907 11908 11909 11910 11911 11912 11913 11914 11915 11916 11917 11918 11919 11920 11921 11922 11923 11924 11925 11926 11927 11928 11929 11930 11931 11932 11933 11934 11935 11936 11937 11938 11939 11940 11941 11942 11943 11944 11945 11946 11947 11948 11949 11950 11951 11952 11953 11954 11955 11956 11957 11958 11959 11960 11961 11962 11963 11964 11965 11966 11967 11968 11969 11970 11971 11972 11973 11974 11975 11976 11977 11978 11979 11980 11981 11982 11983 11984 11985 11986 11987 11988 11989 11990 11991 11992 11993 11994 11995 11996 11997 11998 11999 12000 12001 12002 12003 12004 12005 12006 12007 12008 12009 12010 12011 12012 12013 12014 12015 12016 12017 12018 12019 12020 12021 12022 12023 12024 12025 12026 12027 12028 12029 12030 12031 12032 12033 12034 12035 12036 12037 12038 12039 12040 12041 12042 12043 12044 12045 12046 12047 12048 12049 12050 12051 12052 12053 12054 12055 12056 12057 12058 12059 12060 12061 12062 12063 12064 12065 12066 12067 12068 12069 12070 12071 12072 12073 12074 12075 12076 12077 12078 12079 12080 12081 12082 12083 12084 12085 12086 12087 12088 12089 12090 12091 12092 12093 12094 12095 12096 12097 12098 12099 12100 12101 12102 12103 12104 12105 12106 12107 12108 12109 12110 12111 12112 12113 12114 12115 12116 12117 12118 12119 12120 12121 12122 12123 12124 12125 12126 12127 12128 12129 12130 12131 12132 12133 12134 12135 12136 12137 12138 12139 12140 12141 12142 12143 12144 12145 12146 12147 12148 12149 12150 12151 12152 12153 12154 12155 12156 12157 12158 12159 12160 12161 12162 12163 12164 12165 12166 12167 12168 12169 12170 12171 12172 12173 12174 12175 12176 12177 12178 12179 12180 12181 12182 12183 12184 12185 12186 12187 12188 12189 12190 12191 12192 12193 12194 12195 12196 12197 12198 12199 12200 12201 12202 12203 12204 12205 12206 12207 12208 12209 12210 12211 12212 12213 12214 12215 12216 12217 12218 12219 12220 12221 12222 12223 12224 12225 12226 12227 12228 12229 12230 12231 12232 12233 12234 12235 12236 12237 12238 12239 12240 12241 12242 12243 12244 12245 12246 12247 12248 12249 12250 12251 12252 12253 12254 12255 12256 12257 12258 12259 12260 12261 12262 12263 12264 12265 12266 12267 12268 12269 12270 12271 12272 12273 12274 12275 12276 12277 12278 12279 12280 12281 12282 12283 12284 12285 12286 12287 12288 12289 12290 12291 12292 12293 12294 12295 12296 12297 12298 12299 12300 12301 12302 12303 12304 12305 12306 12307 12308 12309 12310 12311 12312 12313 12314 12315 12316 12317 12318 12319 12320 12321 12322 12323 12324 12325 12326 12327 12328 12329 12330 12331 12332 12333 12334 12335 12336 12337 12338 12339 12340 12341 12342 12343 12344 12345 12346 12347 12348 12349 12350 12351 12352 12353 12354 12355 12356 12357 12358 12359 12360 12361 12362 12363 12364 12365 12366 12367 12368 12369 12370 12371 12372 12373 12374 12375 12376 12377 12378 12379 12380 12381 12382 12383 12384 12385 12386 12387 12388 12389 12390 12391 12392 12393 12394 12395 12396 12397 12398 12399 12400 12401 12402 12403 12404 12405 12406 12407 12408 12409 12410 12411 12412 12413 12414 12415 12416 12417 12418 12419 12420 12421 12422 12423 12424 12425 12426 12427 12428 12429 12430 12431 12432 12433 12434 12435 12436 12437 12438 12439 12440 12441 12442 12443 12444 12445 12446 12447 12448 12449 12450 12451 12452 12453 12454 12455 12456 12457 12458 12459 12460 12461 12462 12463 12464 12465 12466 12467 12468 12469 12470 12471 12472 12473 12474 12475 12476 12477 12478 12479 12480 12481 12482 12483 12484 12485 12486 12487 12488 12489 12490 12491 12492 12493 12494 12495 12496 12497 12498 12499 12500 12501 12502 12503 12504 12505 12506 12507 12508 12509 12510 12511 12512 12513 12514 12515 12516 12517 12518 12519 12520 12521 12522 12523 12524 12525 12526 12527 12528 12529 12530 12531 12532 12533 12534 12535 12536 12537 12538 12539 12540 12541 12542 12543 12544 12545 12546 12547 12548 12549 12550 12551 12552 12553 12554 12555 12556 12557 12558 12559 12560 12561 12562 12563 12564 12565 12566 12567 12568 12569 12570 12571 12572 12573 12574 12575 12576 12577 12578 12579 12580 12581 12582 12583 12584 12585 12586 12587 12588 12589 12590 12591 12592 12593 12594 12595 12596 12597 12598 12599 12600 12601 12602 12603 12604 12605 12606 12607 12608 12609 12610 12611 12612 12613 12614 12615 12616 12617 12618 12619 12620 12621 12622 12623 12624 12625 12626 12627 12628 12629 12630 12631 12632 12633 12634 12635 12636 12637 12638 12639 12640 12641 12642 12643 12644 12645 12646 12647 12648 12649 12650 12651 12652 12653 12654 12655 12656 12657 12658 12659 12660 12661 12662 12663 12664 12665 12666 12667 12668 12669 12670 12671 12672 12673 12674 12675 12676 12677 12678 12679 12680 12681 12682 12683 12684 12685 12686 12687 12688 12689 12690 12691 12692 12693 12694 12695 12696 12697 12698 12699 12700 12701 12702 12703 12704 12705 12706 12707 12708 12709 12710 12711 12712 12713 12714 12715 12716 12717 12718 12719 12720 12721 12722 12723 12724 12725 12726 12727 12728 12729 12730 12731 12732 12733 12734 12735 12736 12737 12738 12739 12740 12741 12742 12743 12744 12745 12746 12747 12748 12749 12750 12751 12752 12753 12754 12755 12756 12757 12758 12759 12760 12761 12762 12763 12764 12765 12766 12767 12768 12769 12770 12771 12772 12773 12774 12775 12776 12777 12778 12779 12780 12781 12782 12783 12784 12785 12786 12787 12788 12789 12790 12791 12792 12793 12794 12795 12796 12797 12798 12799 12800 12801 12802 12803 12804 12805 12806 12807 12808 12809 12810 12811 12812 12813 12814 12815 12816 12817 12818 12819 12820 12821 12822 12823 12824 12825 12826 12827 12828 12829 12830 12831 12832 12833 12834 12835 12836 12837 12838 12839 12840 12841 12842 12843 12844 12845 12846 12847 12848 12849 12850 12851 12852 12853 12854 12855 12856 12857 12858 12859 12860 12861 12862 12863 12864 12865 12866 12867 12868 12869 12870 12871 12872 12873 12874 12875 12876 12877 12878 12879 12880 12881 12882 12883 12884 12885 12886 12887 12888 12889 12890 12891 12892 12893 12894 12895 12896 12897 12898 12899 12900 12901 12902 12903 12904 12905 12906 12907 12908 12909 12910 12911 12912 12913 12914 12915 12916 12917 12918 12919 12920 12921 12922 12923 12924 12925 12926 12927 12928 12929 12930 12931 12932 12933 12934 12935 12936 12937 12938 12939 12940 12941 12942 12943 12944 12945 12946 12947 12948 12949 12950 12951 12952 12953 12954 12955 12956 12957 12958 12959 12960 12961 12962 12963 12964 12965 12966 12967 12968 12969 12970 12971 12972 12973 12974 12975 12976 12977 12978 12979 12980 12981 12982 12983 12984 12985 12986 12987 12988 12989 12990 12991 12992 12993 12994 12995 12996 12997 12998 12999 13000 13001 13002 13003 13004 13005 13006 13007 13008 13009 13010 13011 13012 13013 13014 13015 13016 13017 13018 13019 13020 13021 13022 13023 13024 13025 13026 13027 13028 13029 13030 13031 13032 13033 13034 13035 13036 13037 13038 13039 13040 13041 13042 13043 13044 13045 13046 13047 13048 13049 13050 13051 13052 13053 13054 13055 13056 13057 13058 13059 13060 13061 13062 13063 13064 13065 13066 13067 13068 13069 13070 13071 13072 13073 13074 13075 13076 13077 13078 13079 13080 13081 13082 13083 13084 13085 13086 13087 13088 13089 13090 13091 13092 13093 13094 13095 13096 13097 13098 13099 13100 13101 13102 13103 13104 13105 13106 13107 13108 13109 13110 13111 13112 13113 13114 13115 13116 13117 13118 13119 13120 13121 13122 13123 13124 13125 13126 13127 13128 13129 13130 13131 13132 13133 13134 13135 13136 13137 13138 13139 13140 13141 13142 13143 13144 13145 13146 13147 13148 13149 13150 13151 13152 13153 13154 13155 13156 13157 13158 13159 13160 13161 13162 13163 13164 13165 13166 13167 13168 13169 13170 13171 13172 13173 13174 13175 13176 13177 13178 13179 13180 13181 13182 13183 13184 13185 13186 13187 13188 13189 13190 13191 13192 13193 13194 13195 13196 13197 13198 13199 13200 13201 13202 13203 13204 13205 13206 13207 13208 13209 13210 13211 13212 13213 13214 13215 13216 13217 13218 13219 13220 13221 13222 13223 13224 13225 13226 13227 13228 13229 13230 13231 13232 13233 13234 13235 13236 13237 13238 13239 13240 13241 13242 13243 13244 13245 13246 13247 13248 13249 13250 13251 13252 13253 13254 13255 13256 13257 13258 13259 13260 13261 13262 13263 13264 13265 13266 13267 13268 13269 13270 13271 13272 13273 13274 13275 13276 13277 13278 13279 13280 13281 13282 13283 13284 13285 13286 13287 13288 13289 13290 13291 13292 13293 13294 13295 13296 13297 13298 13299 13300 13301 13302 13303 13304 13305 13306 13307 13308 13309 13310 13311 13312 13313 13314 13315 13316 13317 13318 13319 13320 13321 13322 13323 13324 13325 13326 13327 13328 13329 13330 13331 13332 13333 13334 13335 13336 13337 13338 13339 13340 13341 13342 13343 13344 13345 13346 13347 13348 13349 13350 13351 13352 13353 13354 13355 13356 13357 13358 13359 13360 13361 13362 13363 13364 13365 13366 13367 13368 13369 13370 13371 13372 13373 13374 13375 13376 13377 13378 13379 13380 13381 13382 13383 13384 13385 13386 13387 13388 13389 13390 13391 13392 13393 13394 13395 13396 13397 13398 13399 13400 13401 13402 13403 13404 13405 13406 13407 13408 13409 13410 13411 13412 13413 13414 13415 13416 13417 13418 13419 13420 13421 13422 13423 13424 13425 13426 13427 13428 13429 13430 13431 13432 13433 13434 13435 13436 13437 13438 13439 13440 13441 13442 13443 13444 13445 13446 13447 13448 13449 13450 13451 13452 13453 13454 13455 13456 13457 13458 13459 13460 13461 13462 13463 13464 13465 13466 13467 13468 13469 13470 13471 13472 13473 13474 13475 13476 13477 13478 13479 13480 13481 13482 13483 13484 13485 13486 13487 13488 13489 13490 13491 13492 13493 13494 13495 13496 13497 13498 13499 13500 13501 13502 13503 13504 13505 13506 13507 13508 13509 13510 13511 13512 13513 13514 13515 13516 13517 13518 13519 13520 13521 13522 13523 13524 13525 13526 13527 13528 13529 13530 13531 13532 13533 13534 13535 13536 13537 13538 13539 13540 13541 13542 13543 13544 13545 13546 13547 13548 13549 13550 13551 13552 13553 13554 13555 13556 13557 13558 13559 13560 13561 13562 13563 13564 13565 13566 13567 13568 13569 13570 13571 13572 13573 13574 13575 13576 13577 13578 13579 13580 13581 13582 13583 13584 13585 13586 13587 13588 13589 13590 13591 13592 13593 13594 13595 13596 13597 13598 13599 13600 13601 13602 13603 13604 13605 13606 13607 13608 13609 13610 13611 13612 13613 13614 13615 13616 13617 13618 13619 13620 13621 13622 13623 13624 13625 13626 13627 13628 13629 13630 13631 13632 13633 13634 13635 13636 13637 13638 13639 13640 13641 13642 13643 13644 13645 13646 13647 13648 13649 13650 13651 13652 13653 13654 13655 13656 13657 13658 13659 13660 13661 13662 13663 13664 13665 13666 13667 13668 13669 13670 13671 13672 13673 13674 13675 13676 13677 13678 13679 13680 13681 13682 13683 13684 13685 13686 13687 13688 13689 13690 13691 13692 13693 13694 13695 13696 13697 13698 13699 13700 13701 13702 13703 13704 13705 13706 13707 13708 13709 13710 13711 13712 13713 13714 13715 13716 13717 13718 13719 13720 13721 13722 13723 13724 13725 13726 13727 13728 13729 13730 13731 13732 13733 13734 13735 13736 13737 13738 13739 13740 13741 13742 13743 13744 13745 13746 13747 13748 13749 13750 13751 13752 13753 13754 13755 13756 13757 13758 13759 13760 13761 13762 13763 13764 13765 13766 13767 13768 13769 13770 13771 13772 13773 13774 13775 13776 13777 13778 13779 13780 13781 13782 13783 13784 13785 13786 13787 13788 13789 13790 13791 13792 13793 13794 13795 13796 13797 13798 13799 13800 13801 13802 13803 13804 13805 13806 13807 13808 13809 13810 13811 13812 13813 13814 13815 13816 13817 13818 13819 13820 13821 13822 13823 13824 13825 13826 13827 13828 13829 13830 13831 13832 13833 13834 13835 13836 13837 13838 13839 13840 13841 13842 13843 13844 13845 13846 13847 13848 13849 13850 13851 13852 13853 13854 13855 13856 13857 13858 13859 13860 13861 13862 13863 13864 13865 13866 13867 13868 13869 13870 13871 13872 13873 13874 13875 13876 13877 13878 13879 13880 13881 13882 13883 13884 13885 13886 13887 13888 13889 13890 13891 13892 13893 13894 13895 13896 13897 13898 13899 13900 13901 13902 13903 13904 13905 13906 13907 13908 13909 13910 13911 13912 13913 13914 13915 13916 13917 13918 13919 13920 13921 13922 13923 13924 13925 13926 13927 13928 13929 13930 13931 13932 13933 13934 13935 13936 13937 13938 13939 13940 13941 13942 13943 13944 13945 13946 13947 13948 13949 13950 13951 13952 13953 13954 13955 13956 13957 13958 13959 13960 13961 13962 13963 13964 13965 13966 13967 13968 13969 13970 13971 13972 13973 13974 13975 13976 13977 13978 13979 13980 13981 13982 13983 13984 13985 13986 13987 13988 13989 13990 13991 13992 13993 13994 13995 13996 13997 13998 13999 14000 14001 14002 14003 14004 14005 14006 14007 14008 14009 14010 14011 14012 14013 14014 14015 14016 14017 14018 14019 14020 14021 14022 14023 14024 14025 14026 14027 14028 14029 14030 14031 14032 14033 14034 14035 14036 14037 14038 14039 14040 14041 14042 14043 14044 14045 14046 14047 14048 14049 14050 14051 14052 14053 14054 14055 14056 14057 14058 14059 14060 14061 14062 14063 14064 14065 14066 14067 14068 14069 14070 14071 14072 14073 14074 14075 14076 14077 14078 14079 14080 14081 14082 14083 14084 14085 14086 14087 14088 14089 14090 14091 14092 14093 14094 14095 14096 14097 14098 14099 14100 14101 14102 14103 14104 14105 14106 14107 14108 14109 14110 14111 14112 14113 14114 14115 14116 14117 14118 14119 14120 14121 14122 14123 14124 14125 14126 14127 14128 14129 14130 14131 14132 14133 14134 14135 14136 14137 14138 14139 14140 14141 14142 14143 14144 14145 14146 14147 14148 14149 14150 14151 14152 14153 14154 14155 14156 14157 14158 14159 14160 14161 14162 14163 14164 14165 14166 14167 14168 14169 14170 14171 14172 14173 14174 14175 14176 14177 14178 14179 14180 14181 14182 14183 14184 14185 14186 14187 14188 14189 14190 14191 14192 14193 14194 14195 14196 14197 14198 14199 14200 14201 14202 14203 14204 14205 14206 14207 14208 14209 14210 14211 14212 14213 14214 14215 14216 14217 14218 14219 14220 14221 14222 14223 14224 14225 14226 14227 14228 14229 14230 14231 14232 14233 14234 14235 14236 14237 14238 14239 14240 14241 14242 14243 14244 14245 14246 14247 14248 14249 14250 14251 14252 14253 14254 14255 14256 14257 14258 14259 14260 14261 14262 14263 14264 14265 14266 14267 14268 14269 14270 14271 14272 14273 14274 14275 14276 14277 14278 14279 14280 14281 14282 14283 14284 14285 14286 14287 14288 14289 14290 14291 14292 14293 14294 14295 14296 14297 14298 14299 14300 14301 14302 14303 14304 14305 14306 14307 14308 14309 14310 14311 14312 14313 14314 14315 14316 14317 14318 14319 14320 14321 14322 14323 14324 14325 14326 14327 14328 14329 14330 14331 14332 14333 14334 14335 14336 14337 14338 14339 14340 14341 14342 14343 14344 14345 14346 14347 14348 14349 14350 14351 14352 14353 14354 14355 14356 14357 14358 14359 14360 14361 14362 14363 14364 14365 14366 14367 14368 14369 14370 14371 14372 14373 14374 14375 14376 14377 14378 14379 14380 14381 14382 14383 14384 14385 14386 14387 14388 14389 14390 14391 14392 14393 14394 14395 14396 14397 14398 14399 14400 14401 14402 14403 14404 14405 14406 14407 14408 14409 14410 14411 14412 14413 14414 14415 14416 14417 14418 14419 14420 14421 14422 14423 14424 14425 14426 14427 14428 14429 14430 14431 14432 14433 14434 14435 14436 14437 14438 14439 14440 14441 14442 14443 14444 14445 14446 14447 14448 14449 14450 14451 14452 14453 14454 14455 14456 14457 14458 14459 14460 14461 14462 14463 14464 14465 14466 14467 14468 14469 14470 14471 14472 14473 14474 14475 14476 14477 14478 14479 14480 14481 14482 14483 14484 14485 14486 14487 14488 14489 14490 14491 14492 14493 14494 14495 14496 14497 14498 14499 14500 14501 14502 14503 14504 14505 14506 14507 14508 14509 14510 14511 14512 14513 14514 14515 14516 14517 14518 14519 14520 14521 14522 14523 14524 14525 14526 14527 14528 14529 14530 14531 14532 14533 14534 14535 14536 14537 14538 14539 14540 14541 14542 14543 14544 14545 14546 14547 14548 14549 14550 14551 14552 14553 14554 14555 14556 14557 14558 14559 14560 14561 14562 14563 14564 14565 14566 14567 14568 14569 14570 14571 14572 14573 14574 14575 14576 14577 14578 14579 14580 14581 14582 14583 14584 14585 14586 14587 14588 14589 14590 14591 14592 14593 14594 14595 14596 14597 14598 14599 14600 14601 14602 14603 14604 14605 14606 14607 14608 14609 14610 14611 14612 14613 14614 14615 14616 14617 14618 14619 14620 14621 14622 14623 14624 14625 14626 14627 14628 14629 14630 14631 14632 14633 14634 14635 14636 14637 14638 14639 14640 14641 14642 14643 14644 14645 14646 14647 14648 14649 14650 14651 14652 14653 14654 14655 14656 14657 14658 14659 14660 14661 14662 14663 14664 14665 14666 14667 14668 14669 14670 14671 14672 14673 14674 14675 14676 14677 14678 14679 14680 14681 14682 14683 14684 14685 14686 14687 14688 14689 14690 14691 14692 14693 14694 14695 14696 14697 14698 14699 14700 14701 14702 14703 14704 14705 14706 14707 14708 14709 14710 14711 14712 14713 14714 14715 14716 14717 14718 14719 14720 14721 14722 14723 14724 14725 14726 14727 14728 14729 14730 14731 14732 14733 14734 14735 14736 14737 14738 14739 14740 14741 14742 14743 14744 14745 14746 14747 14748 14749 14750 14751 14752 14753 14754 14755 14756 14757 14758 14759 14760 14761 14762 14763 14764 14765 14766 14767 14768 14769 14770 14771 14772 14773 14774 14775 14776 14777 14778 14779 14780 14781 14782 14783 14784 14785 14786 14787 14788 14789 14790 14791 14792 14793 14794 14795 14796 14797 14798 14799 14800 14801 14802 14803 14804 14805 14806 14807 14808 14809 14810 14811 14812 14813 14814 14815 14816 14817 14818 14819 14820 14821 14822 14823 14824 14825 14826 14827 14828 14829 14830 14831 14832 14833 14834 14835 14836 14837 14838 14839 14840 14841 14842 14843 14844 14845 14846 14847 14848 14849 14850 14851 14852 14853 14854 14855 14856 14857 14858 14859 14860 14861 14862 14863 14864 14865 14866 14867 14868 14869 14870 14871 14872 14873 14874 14875 14876 14877 14878 14879 14880 14881 14882 14883 14884 14885 14886 14887 14888 14889 14890 14891 14892 14893 14894 14895 14896 14897 14898 14899 14900 14901 14902 14903 14904 14905 14906 14907 14908 14909 14910 14911 14912 14913 14914 14915 14916 14917 14918 14919 14920 14921 14922 14923 14924 14925 14926 14927 14928 14929 14930 14931 14932 14933 14934 14935 14936 14937 14938 14939 14940 14941 14942 14943 14944 14945 14946 14947 14948 14949 14950 14951 14952 14953 14954 14955 14956 14957 14958 14959 14960 14961 14962 14963 14964 14965 14966 14967 14968 14969 14970 14971 14972 14973 14974 14975 14976 14977 14978 14979 14980 14981 14982 14983 14984 14985 14986 14987 14988 14989 14990 14991 14992 14993 14994 14995 14996 14997 14998 14999 15000 15001 15002 15003 15004 15005 15006 15007 15008 15009 15010 15011 15012 15013 15014 15015 15016 15017 15018 15019 15020 15021 15022 15023 15024 15025 15026 15027 15028 15029 15030 15031 15032 15033 15034 15035 15036 15037 15038 15039 15040 15041 15042 15043 15044 15045 15046 15047 15048 15049 15050 15051 15052 15053 15054 15055 15056 15057 15058 15059 15060 15061 15062 15063 15064 15065 15066 15067 15068 15069 15070 15071 15072 15073 15074 15075 15076 15077 15078 15079 15080 15081 15082 15083 15084 15085 15086 15087 15088 15089 15090 15091 15092 15093 15094 15095 15096 15097 15098 15099 15100 15101 15102 15103 15104 15105 15106 15107 15108 15109 15110 15111 15112 15113 15114 15115 15116 15117 15118 15119 15120 15121 15122 15123 15124 15125 15126 15127 15128 15129 15130 15131 15132 15133 15134 15135 15136 15137 15138 15139 15140 15141 15142 15143 15144 15145 15146 15147 15148 15149 15150 15151 15152 15153 15154 15155 15156 15157 15158 15159 15160 15161 15162 15163 15164 15165 15166 15167 15168 15169 15170 15171 15172 15173 15174 15175 15176 15177 15178 15179 15180 15181 15182 15183 15184 15185 15186 15187 15188 15189 15190 15191 15192 15193 15194 15195 15196 15197 15198 15199 15200 15201 15202 15203 15204 15205 15206 15207 15208 15209 15210 15211 15212 15213 15214 15215 15216 15217 15218 15219 15220 15221 15222 15223 15224 15225 15226 15227 15228 15229 15230 15231 15232 15233 15234 15235 15236 15237 15238 15239 15240 15241 15242 15243 15244 15245 15246 15247 15248 15249 15250 15251 15252 15253 15254 15255 15256 15257 15258 15259 15260 15261 15262 15263 15264 15265 15266 15267 15268 15269 15270 15271 15272 15273 15274 15275 15276 15277 15278 15279 15280 15281 15282 15283 15284 15285 15286 15287 15288 15289 15290 15291 15292 15293 15294 15295 15296 15297 15298 15299 15300 15301 15302 15303 15304 15305 15306 15307 15308 15309 15310 15311 15312 15313 15314 15315 15316 15317 15318 15319 15320 15321 15322 15323 15324 15325 15326 15327 15328 15329 15330 15331 15332 15333 15334 15335 15336 15337 15338 15339 15340 15341 15342 15343 15344 15345 15346 15347 15348 15349 15350 15351 15352 15353 15354 15355 15356 15357 15358 15359 15360 15361 15362 15363 15364 15365 15366 15367 15368 15369 15370 15371 15372 15373 15374 15375 15376 15377 15378 15379 15380 15381 15382 15383 15384 15385 15386 15387 15388 15389 15390 15391 15392 15393 15394 15395 15396 15397 15398 15399 15400 15401 15402 15403 15404 15405 15406 15407 15408 15409 15410 15411 15412 15413 15414 15415 15416 15417 15418 15419 15420 15421 15422 15423 15424 15425 15426 15427 15428 15429 15430 15431 15432 15433 15434 15435 15436 15437 15438 15439 15440 15441 15442 15443 15444 15445 15446 15447 15448 15449 15450 15451 15452 15453 15454 15455 15456 15457 15458 15459 15460 15461 15462 15463 15464 15465 15466 15467 15468 15469 15470 15471 15472 15473 15474 15475 15476 15477 15478 15479 15480 15481 15482 15483 15484 15485 15486 15487 15488 15489 15490 15491 15492 15493 15494 15495 15496 15497 15498 15499 15500 15501 15502 15503 15504 15505 15506 15507 15508 15509 15510 15511 15512 15513 15514 15515 15516 15517 15518 15519 15520 15521 15522 15523 15524 15525 15526 15527 15528 15529 15530 15531 15532 15533 15534 15535 15536 15537 15538 15539 15540 15541 15542 15543 15544 15545 15546 15547 15548 15549 15550 15551 15552 15553 15554 15555 15556 15557 15558 15559 15560 15561 15562 15563 15564 15565 15566 15567 15568 15569 15570 15571 15572 15573 15574 15575 15576 15577 15578 15579 15580 15581 15582 15583 15584 15585 15586 15587 15588 15589 15590 15591 15592 15593 15594 15595 15596 15597 15598 15599 15600 15601 15602 15603 15604 15605 15606 15607 15608 15609 15610 15611 15612 15613 15614 15615 15616 15617 15618 15619 15620 15621 15622 15623 15624 15625 15626 15627 15628 15629 15630 15631 15632 15633 15634 15635 15636 15637 15638 15639 15640 15641 15642 15643 15644 15645 15646 15647 15648 15649 15650 15651 15652 15653 15654 15655 15656 15657 15658 15659 15660 15661 15662 15663 15664 15665 15666 15667 15668 15669 15670 15671 15672 15673 15674 15675 15676 15677 15678 15679 15680 15681 15682 15683 15684 15685 15686 15687 15688 15689 15690 15691 15692 15693 15694 15695 15696 15697 15698 15699 15700 15701 15702 15703 15704 15705 15706 15707 15708 15709 15710 15711 15712 15713 15714 15715 15716 15717 15718 15719 15720 15721 15722 15723 15724 15725 15726 15727 15728 15729 15730 15731 15732 15733 15734 15735 15736 15737 15738 15739 15740 15741 15742 15743 15744 15745 15746 15747 15748 15749 15750 15751 15752 15753 15754 15755 15756 15757 15758 15759 15760 15761 15762 15763 15764 15765 15766 15767 15768 15769 15770 15771 15772 15773 15774 15775 15776 15777 15778 15779 15780 15781 15782 15783 15784 15785 15786 15787 15788 15789 15790 15791 15792 15793 15794 15795 15796 15797 15798 15799 15800 15801 15802 15803 15804 15805 15806 15807 15808 15809 15810 15811 15812 15813 15814 15815 15816 15817 15818 15819 15820 15821 15822 15823 15824 15825 15826 15827 15828 15829 15830 15831 15832 15833 15834 15835 15836 15837 15838 15839 15840 15841 15842 15843 15844 15845 15846 15847 15848 15849 15850 15851 15852 15853 15854 15855 15856 15857 15858 15859 15860 15861 15862 15863 15864 15865 15866 15867 15868 15869 15870 15871 15872 15873 15874 15875 15876 15877 15878 15879 15880 15881 15882 15883 15884 15885 15886 15887 15888 15889 15890 15891 15892 15893 15894 15895 15896 15897 15898 15899 15900 15901 15902 15903 15904 15905 15906 15907 15908 15909 15910 15911 15912 15913 15914 15915 15916 15917 15918 15919 15920 15921 15922 15923 15924 15925 15926 15927 15928 15929 15930 15931 15932 15933 15934 15935 15936 15937 15938 15939 15940 15941 15942 15943 15944 15945 15946 15947 15948 15949 15950 15951 15952 15953 15954 15955 15956 15957 15958 15959 15960 15961 15962 15963 15964 15965 15966 15967 15968 15969 15970 15971 15972 15973 15974 15975 15976 15977 15978 15979 15980 15981 15982 15983 15984 15985 15986 15987 15988 15989 15990 15991 15992 15993 15994 15995 15996 15997 15998 15999 16000 16001 16002 16003 16004 16005 16006 16007 16008 16009 16010 16011 16012 16013 16014 16015 16016 16017 16018 16019 16020 16021 16022 16023 16024 16025 16026 16027 16028 16029 16030 16031 16032 16033 16034 16035 16036 16037 16038 16039 16040 16041 16042 16043 16044 16045 16046 16047 16048 16049 16050 16051 16052 16053 16054 16055 16056 16057 16058 16059 16060 16061 16062 16063 16064 16065 16066 16067 16068 16069 16070 16071 16072 16073 16074 16075 16076 16077 16078 16079 16080 16081 16082 16083 16084 16085 16086 16087 16088 16089 16090 16091 16092 16093 16094 16095 16096 16097 16098 16099 16100 16101 16102 16103 16104 16105 16106 16107 16108 16109 16110 16111 16112 16113 16114 16115 16116 16117 16118 16119 16120 16121 16122 16123 16124 16125 16126 16127 16128 16129 16130 16131 16132 16133 16134 16135 16136 16137 16138 16139 16140 16141 16142 16143 16144 16145 16146 16147 16148 16149 16150 16151 16152 16153 16154 16155 16156 16157 16158 16159 16160 16161 16162 16163 16164 16165 16166 16167 16168 16169 16170 16171 16172 16173 16174 16175 16176 16177 16178 16179 16180 16181 16182 16183 16184 16185 16186 16187 16188 16189 16190 16191 16192 16193 16194 16195 16196 16197 16198 16199 16200 16201 16202 16203 16204 16205 16206 16207 16208 16209 16210 16211 16212 16213 16214 16215 16216 16217 16218 16219 16220 16221 16222 16223 16224 16225 16226 16227 16228 16229 16230 16231 16232 16233 16234 16235 16236 16237 16238 16239 16240 16241 16242 16243 16244 16245 16246 16247 16248 16249 16250 16251 16252 16253 16254 16255 16256 16257 16258 16259 16260 16261 16262 16263 16264 16265 16266 16267 16268 16269 16270 16271 16272 16273 16274 16275 16276 16277 16278 16279 16280 16281 16282 16283 16284 16285 16286 16287 16288 16289 16290 16291 16292 16293 16294 16295 16296 16297 16298 16299 16300 16301 16302 16303 16304 16305 16306 16307 16308 16309 16310 16311 16312 16313 16314 16315 16316 16317 16318 16319 16320 16321 16322 16323 16324 16325 16326 16327 16328 16329 16330 16331 16332 16333 16334 16335 16336 16337 16338 16339 16340 16341 16342 16343 16344 16345 16346 16347 16348 16349 16350 16351 16352 16353 16354 16355 16356 16357 16358 16359 16360 16361 16362 16363 16364 16365 16366 16367 16368 16369 16370 16371 16372 16373 16374 16375 16376 16377 16378 16379 16380 16381 16382 16383 16384 16385 16386 16387 16388 16389 16390 16391 16392 16393 16394 16395 16396 16397 16398 16399 16400 16401 16402 16403 16404 16405 16406 16407 16408 16409 16410 16411 16412 16413 16414 16415 16416 16417 16418 16419 16420 16421 16422 16423 16424 16425 16426 16427 16428 16429 16430 16431 16432 16433 16434 16435 16436 16437 16438 16439 16440 16441 16442 16443 16444 16445 16446 16447 16448 16449 16450 16451 16452 16453 16454 16455 16456 16457 16458 16459 16460 16461 16462 16463 16464 16465 16466 16467 16468 16469 16470 16471 16472 16473 16474 16475 16476 16477 16478 16479 16480 16481 16482 16483 16484 16485 16486 16487 16488 16489 16490 16491 16492 16493 16494 16495 16496 16497 16498 16499 16500 16501 16502 16503 16504 16505 16506 16507 16508 16509 16510 16511 16512 16513 16514 16515 16516 16517 16518 16519 16520 16521 16522 16523 16524 16525 16526 16527 16528 16529 16530 16531 16532 16533 16534 16535 16536 16537 16538 16539 16540 16541 16542 16543 16544 16545 16546 16547 16548 16549 16550 16551 16552 16553 16554 16555 16556 16557 16558 16559 16560 16561 16562 16563 16564 16565 16566 16567 16568 16569 16570 16571 16572 16573 16574 16575 16576 16577 16578 16579 16580 16581 16582 16583 16584 16585 16586 16587 16588 16589 16590 16591 16592 16593 16594 16595 16596 16597 16598 16599 16600 16601 16602 16603 16604 16605 16606 16607 16608 16609 16610 16611 16612 16613 16614 16615 16616 16617 16618 16619 16620 16621 16622 16623 16624 16625 16626 16627 16628 16629 16630 16631 16632 16633 16634 16635 16636 16637 16638 16639 16640 16641 16642 16643 16644 16645 16646 16647 16648 16649 16650 16651 16652 16653 16654 16655 16656 16657 16658 16659 16660 16661 16662 16663 16664 16665 16666 16667 16668 16669 16670 16671 16672 16673 16674 16675 16676 16677 16678 16679 16680 16681 16682 16683 16684 16685 16686 16687 16688 16689 16690 16691 16692 16693 16694 16695 16696 16697 16698 16699 16700 16701 16702 16703 16704 16705 16706 16707 16708 16709 16710 16711 16712 16713 16714 16715 16716 16717 16718 16719 16720 16721 16722 16723 16724 16725 16726 16727 16728 16729 16730 16731 16732 16733 16734 16735 16736 16737 16738 16739 16740 16741 16742 16743 16744 16745 16746 16747 16748 16749 16750 16751 16752 16753 16754 16755 16756 16757 16758 16759 16760 16761 16762 16763 16764 16765 16766 16767 16768 16769 16770 16771 16772 16773 16774 16775 16776 16777 16778 16779 16780 16781 16782 16783 16784 16785 16786 16787 16788 16789 16790 16791 16792 16793 16794 16795 16796 16797 16798 16799 16800 16801 16802 16803 16804 16805 16806 16807 16808 16809 16810 16811 16812 16813 16814 16815 16816 16817 16818 16819 16820 16821 16822 16823 16824 16825 16826 16827 16828 16829 16830 16831 16832 16833 16834 16835 16836 16837 16838 16839 16840 16841 16842 16843 16844 16845 16846 16847 16848 16849 16850 16851 16852 16853 16854 16855 16856 16857 16858 16859 16860 16861 16862 16863 16864 16865 16866 16867 16868 16869 16870 16871 16872 16873 16874 16875 16876 16877 16878 16879 16880 16881 16882 16883 16884 16885 16886 16887 16888 16889 16890 16891 16892 16893 16894 16895 16896 16897 16898 16899 16900 16901 16902 16903 16904 16905 16906 16907 16908 16909 16910 16911 16912 16913 16914 16915 16916 16917 16918 16919 16920 16921 16922 16923 16924 16925 16926 16927 16928 16929 16930 16931 16932 16933 16934 16935 16936 16937 16938 16939 16940 16941 16942 16943 16944 16945 16946 16947 16948 16949 16950 16951 16952 16953 16954 16955 16956 16957 16958 16959 16960 16961 16962 16963 16964 16965 16966 16967 16968 16969 16970 16971 16972 16973 16974 16975 16976 16977 16978 16979 16980 16981 16982 16983 16984 16985 16986 16987 16988 16989 16990 16991 16992 16993 16994 16995 16996 16997 16998 16999 17000 17001 17002 17003 17004 17005 17006 17007 17008 17009 17010 17011 17012 17013 17014 17015 17016 17017 17018 17019 17020 17021 17022 17023 17024 17025 17026 17027 17028 17029 17030 17031 17032 17033 17034 17035 17036 17037 17038 17039 17040 17041 17042 17043 17044 17045 17046 17047 17048 17049 17050 17051 17052 17053 17054 17055 17056 17057 17058 17059 17060 17061 17062 17063 17064 17065 17066 17067 17068 17069 17070 17071 17072 17073 17074 17075 17076 17077 17078 17079 17080 17081 17082 17083 17084 17085 17086 17087 17088 17089 17090 17091 17092 17093 17094 17095 17096 17097 17098 17099 17100 17101 17102 17103 17104 17105 17106 17107 17108 17109 17110 17111 17112 17113 17114 17115 17116 17117 17118 17119 17120 17121 17122 17123 17124 17125 17126 17127 17128 17129 17130 17131 17132 17133 17134 17135 17136 17137 17138 17139 17140 17141 17142 17143 17144 17145 17146 17147 17148 17149 17150 17151 17152 17153 17154 17155 17156 17157 17158 17159 17160 17161 17162 17163 17164 17165 17166 17167 17168 17169 17170 17171 17172 17173 17174 17175 17176 17177 17178 17179 17180 17181 17182 17183 17184 17185 17186 17187 17188 17189 17190 17191 17192 17193 17194 17195 17196 17197 17198 17199 17200 17201 17202 17203 17204 17205 17206 17207 17208 17209 17210 17211 17212 17213 17214 17215 17216 17217 17218 17219 17220 17221 17222 17223 17224 17225 17226 17227 17228 17229 17230 17231 17232 17233 17234 17235 17236 17237 17238 17239 17240 17241 17242 17243 17244 17245 17246 17247 17248 17249 17250 17251 17252 17253 17254 17255 17256 17257 17258 17259 17260 17261 17262 17263 17264 17265 17266 17267 17268 17269 17270 17271 17272 17273 17274 17275 17276 17277 17278 17279 17280 17281 17282 17283 17284 17285 17286 17287 17288 17289 17290 17291 17292 17293 17294 17295 17296 17297 17298 17299 17300 17301 17302 17303 17304 17305 17306 17307 17308 17309 17310 17311 17312 17313 17314 17315 17316 17317 17318 17319 17320 17321 17322 17323 17324 17325 17326 17327 17328 17329 17330 17331 17332 17333 17334 17335 17336 17337 17338 17339 17340 17341 17342 17343 17344 17345 17346 17347 17348 17349 17350 17351 17352 17353 17354 17355 17356 17357 17358 17359 17360 17361 17362 17363 17364 17365 17366 17367 17368 17369 17370 17371 17372 17373 17374 17375 17376 17377 17378 17379 17380 17381 17382 17383 17384 17385 17386 17387 17388 17389 17390 17391 17392 17393 17394 17395 17396 17397 17398 17399 17400 17401 17402 17403 17404 17405 17406 17407 17408 17409 17410 17411 17412 17413 17414 17415 17416 17417 17418 17419 17420 17421 17422 17423 17424 17425 17426 17427 17428 17429 17430 17431 17432 17433 17434 17435 17436 17437 17438 17439 17440 17441 17442 17443 17444 17445 17446 17447 17448 17449 17450 17451 17452 17453 17454 17455 17456 17457 17458 17459 17460 17461 17462 17463 17464 17465 17466 17467 17468 17469 17470 17471 17472 17473 17474 17475 17476 17477 17478 17479 17480 17481 17482 17483 17484 17485 17486 17487 17488 17489 17490 17491 17492 17493 17494 17495 17496 17497 17498 17499 17500 17501 17502 17503 17504 17505 17506 17507 17508 17509 17510 17511 17512 17513 17514 17515 17516 17517 17518 17519 17520 17521 17522 17523 17524 17525 17526 17527 17528 17529 17530 17531 17532 17533 17534 17535 17536 17537 17538 17539 17540 17541 17542 17543 17544 17545 17546 17547 17548 17549 17550 17551 17552 17553 17554 17555 17556 17557 17558 17559 17560 17561 17562 17563 17564 17565 17566 17567 17568 17569 17570 17571 17572 17573 17574 17575 17576 17577 17578 17579 17580 17581 17582 17583 17584 17585 17586 17587 17588 17589 17590 17591 17592 17593 17594 17595 17596 17597 17598 17599 17600 17601 17602 17603 17604 17605 17606 17607 17608 17609 17610 17611 17612 17613 17614 17615 17616 17617 17618 17619 17620 17621 17622 17623 17624 17625 17626 17627 17628 17629 17630 17631 17632 17633 17634 17635 17636 17637 17638 17639 17640 17641 17642 17643 17644 17645 17646 17647 17648 17649 17650 17651 17652 17653 17654 17655 17656 17657 17658 17659 17660 17661 17662 17663 17664 17665 17666 17667 17668 17669 17670 17671 17672 17673 17674 17675 17676 17677 17678 17679 17680 17681 17682 17683 17684 17685 17686 17687 17688 17689 17690 17691 17692 17693 17694 17695 17696 17697 17698 17699 17700 17701 17702 17703 17704 17705 17706 17707 17708 17709 17710 17711 17712 17713 17714 17715 17716 17717 17718 17719 17720 17721 17722 17723 17724 17725 17726 17727 17728 17729 17730 17731 17732 17733 17734 17735 17736 17737 17738 17739 17740 17741 17742 17743 17744 17745 17746 17747 17748 17749 17750 17751 17752 17753 17754 17755 17756 17757 17758 17759 17760 17761 17762 17763 17764 17765 17766 17767 17768 17769 17770 17771 17772 17773 17774 17775 17776 17777 17778 17779 17780 17781 17782 17783 17784 17785 17786 17787 17788 17789 17790 17791 17792 17793 17794 17795 17796 17797 17798 17799 17800 17801 17802 17803 17804 17805 17806 17807 17808 17809 17810 17811 17812 17813 17814 17815 17816 17817 17818 17819 17820 17821 17822 17823 17824 17825 17826 17827 17828 17829 17830 17831 17832 17833 17834 17835 17836 17837 17838 17839 17840 17841 17842 17843 17844 17845 17846 17847 17848 17849 17850 17851 17852 17853 17854 17855 17856 17857 17858 17859 17860 17861 17862 17863 17864 17865 17866 17867 17868 17869 17870 17871 17872 17873 17874 17875 17876 17877 17878 17879 17880 17881 17882 17883 17884 17885 17886 17887 17888 17889 17890 17891 17892 17893 17894 17895 17896 17897 17898 17899 17900 17901 17902 17903 17904 17905 17906 17907 17908 17909 17910 17911 17912 17913 17914 17915 17916 17917 17918 17919 17920 17921 17922 17923 17924 17925 17926 17927 17928 17929 17930 17931 17932 17933 17934 17935 17936 17937 17938 17939 17940 17941 17942 17943 17944 17945 17946 17947 17948 17949 17950 17951 17952 17953 17954 17955 17956 17957 17958 17959 17960 17961 17962 17963 17964 17965 17966 17967 17968 17969 17970 17971 17972 17973 17974 17975 17976 17977 17978 17979 17980 17981 17982 17983 17984 17985 17986 17987 17988 17989 17990 17991 17992 17993 17994 17995 17996 17997 17998 17999 18000 18001 18002 18003 18004 18005 18006 18007 18008 18009 18010 18011 18012 18013 18014 18015 18016 18017 18018 18019 18020 18021 18022 18023 18024 18025 18026 18027 18028 18029 18030 18031 18032 18033 18034 18035 18036 18037 18038 18039 18040 18041 18042 18043 18044 18045 18046 18047 18048 18049 18050 18051 18052 18053 18054 18055 18056 18057 18058 18059 18060 18061 18062 18063 18064 18065 18066 18067 18068 18069 18070 18071 18072 18073 18074 18075 18076 18077 18078 18079 18080 18081 18082 18083 18084 18085 18086 18087 18088 18089 18090 18091 18092 18093 18094 18095 18096 18097 18098 18099 18100 18101 18102 18103 18104 18105 18106 18107 18108 18109 18110 18111 18112 18113 18114 18115 18116 18117 18118 18119 18120 18121 18122 18123 18124 18125 18126 18127 18128 18129 18130 18131 18132 18133 18134 18135 18136 18137 18138 18139 18140 18141 18142 18143 18144 18145 18146 18147 18148 18149 18150 18151 18152 18153 18154 18155 18156 18157 18158 18159 18160 18161 18162 18163 18164 18165 18166 18167 18168 18169 18170 18171 18172 18173 18174 18175 18176 18177 18178 18179 18180 18181 18182 18183 18184 18185 18186 18187 18188 18189 18190 18191 18192 18193 18194 18195 18196 18197 18198 18199 18200 18201 18202 18203 18204 18205 18206 18207 18208 18209 18210 18211 18212 18213 18214 18215 18216 18217 18218 18219 18220 18221 18222 18223 18224 18225 18226 18227 18228 18229 18230 18231 18232 18233 18234 18235 18236 18237 18238 18239 18240 18241 18242 18243 18244 18245 18246 18247 18248 18249 18250 18251 18252 18253 18254 18255 18256 18257 18258 18259 18260 18261 18262 18263 18264 18265 18266 18267 18268 18269 18270 18271 18272 18273 18274 18275 18276 18277 18278 18279 18280 18281 18282 18283 18284 18285 18286 18287 18288 18289 18290 18291 18292 18293 18294 18295 18296 18297 18298 18299 18300 18301 18302 18303 18304 18305 18306 18307 18308 18309 18310 18311 18312 18313 18314 18315 18316 18317 18318 18319 18320 18321 18322 18323 18324 18325 18326 18327 18328 18329 18330 18331 18332 18333 18334 18335 18336 18337 18338 18339 18340 18341 18342 18343 18344 18345 18346 18347 18348 18349 18350 18351 18352 18353 18354 18355 18356 18357 18358 18359 18360 18361 18362 18363 18364 18365 18366 18367 18368 18369 18370 18371 18372 18373 18374 18375 18376 18377 18378 18379 18380 18381 18382 18383 18384 18385 18386 18387 18388 18389 18390 18391 18392 18393 18394 18395 18396 18397 18398 18399 18400 18401 18402 18403 18404 18405 18406 18407 18408 18409 18410 18411 18412 18413 18414 18415 18416 18417 18418 18419 18420 18421 18422 18423 18424 18425 18426 18427 18428 18429 18430 18431 18432 18433 18434 18435 18436 18437 18438 18439 18440 18441 18442 18443 18444 18445 18446 18447 18448 18449 18450 18451 18452 18453 18454 18455 18456 18457 18458 18459 18460 18461 18462 18463 18464 18465 18466 18467 18468 18469 18470 18471 18472 18473 18474 18475 18476 18477 18478 18479 18480 18481 18482 18483 18484 18485 18486 18487 18488 18489 18490 18491 18492 18493 18494 18495 18496 18497 18498 18499 18500 18501 18502 18503 18504 18505 18506 18507 18508 18509 18510 18511 18512 18513 18514 18515 18516 18517 18518 18519 18520 18521 18522 18523 18524 18525 18526 18527 18528 18529 18530 18531 18532 18533 18534 18535 18536 18537 18538 18539 18540 18541 18542 18543 18544 18545 18546 18547 18548 18549 18550 18551 18552 18553 18554 18555 18556 18557 18558 18559 18560 18561 18562 18563 18564 18565 18566 18567 18568 18569 18570 18571 18572 18573 18574 18575 18576 18577 18578 18579 18580 18581 18582 18583 18584 18585 18586 18587 18588 18589 18590 18591 18592 18593 18594 18595 18596 18597 18598 18599 18600 18601 18602 18603 18604 18605 18606 18607 18608 18609 18610 18611 18612 18613 18614 18615 18616 18617 18618 18619 18620 18621 18622 18623 18624 18625 18626 18627 18628 18629 18630 18631 18632 18633 18634 18635 18636 18637 18638 18639 18640 18641 18642 18643 18644 18645 18646 18647 18648 18649 18650 18651 18652 18653 18654 18655 18656 18657 18658 18659 18660 18661 18662 18663 18664 18665 18666 18667 18668 18669 18670 18671 18672 18673 18674 18675 18676 18677 18678 18679 18680 18681 18682 18683 18684 18685 18686 18687 18688 18689 18690 18691 18692 18693 18694 18695 18696 18697 18698 18699 18700 18701 18702 18703 18704 18705 18706 18707 18708 18709 18710 18711 18712 18713 18714 18715 18716 18717 18718 18719 18720 18721 18722 18723 18724 18725 18726 18727 18728 18729 18730 18731 18732 18733 18734 18735 18736 18737 18738 18739 18740 18741 18742 18743 18744 18745 18746 18747 18748 18749 18750 18751 18752 18753 18754 18755 18756 18757 18758 18759 18760 18761 18762 18763 18764 18765 18766 18767 18768 18769 18770 18771 18772 18773 18774 18775 18776 18777 18778 18779 18780 18781 18782 18783 18784 18785 18786 18787 18788 18789 18790 18791 18792 18793 18794 18795 18796 18797 18798 18799 18800 18801 18802 18803 18804 18805 18806 18807 18808 18809 18810 18811 18812 18813 18814 18815 18816 18817 18818 18819 18820 18821 18822 18823 18824 18825 18826 18827 18828 18829 18830 18831 18832 18833 18834 18835 18836 18837 18838 18839 18840 18841 18842 18843 18844 18845 18846 18847 18848 18849 18850 18851 18852 18853 18854 18855 18856 18857 18858 18859 18860 18861 18862 18863 18864 18865 18866 18867 18868 18869 18870 18871 18872 18873 18874 18875 18876 18877 18878 18879 18880 18881 18882 18883 18884 18885 18886 18887 18888 18889 18890 18891 18892 18893 18894 18895 18896 18897 18898 18899 18900 18901 18902 18903 18904 18905 18906 18907 18908 18909 18910 18911 18912 18913 18914 18915 18916 18917 18918 18919 18920 18921 18922 18923 18924 18925 18926 18927 18928 18929 18930 18931 18932 18933 18934 18935 18936 18937 18938 18939 18940 18941 18942 18943 18944 18945 18946 18947 18948 18949 18950 18951 18952 18953 18954 18955 18956 18957 18958 18959 18960 18961 18962 18963 18964 18965 18966 18967 18968 18969 18970 18971 18972 18973 18974 18975 18976 18977 18978 18979 18980 18981 18982 18983 18984 18985 18986 18987 18988 18989 18990 18991 18992 18993 18994 18995 18996 18997 18998 18999 19000 19001 19002 19003 19004 19005 19006 19007 19008 19009 19010 19011 19012 19013 19014 19015 19016 19017 19018 19019 19020 19021 19022 19023 19024 19025 19026 19027 19028 19029 19030 19031 19032 19033 19034 19035 19036 19037 19038 19039 19040 19041 19042 19043 19044 19045 19046 19047 19048 19049 19050 19051 19052 19053 19054 19055 19056 19057 19058 19059 19060 19061 19062 19063 19064 19065 19066 19067 19068 19069 19070 19071 19072 19073 19074 19075 19076 19077 19078 19079 19080 19081 19082 19083 19084 19085 19086 19087 19088 19089 19090 19091 19092 19093 19094 19095 19096 19097 19098 19099 19100 19101 19102 19103 19104 19105 19106 19107 19108 19109 19110 19111 19112 19113 19114 19115 19116 19117 19118 19119 19120 19121 19122 19123 19124 19125 19126 19127 19128 19129 19130 19131 19132 19133 19134 19135 19136 19137 19138 19139 19140 19141 19142 19143 19144 19145 19146 19147 19148 19149 19150 19151 19152 19153 19154 19155 19156 19157 19158 19159 19160 19161 19162 19163 19164 19165 19166 19167 19168 19169 19170 19171 19172 19173 19174 19175 19176 19177 19178 19179 19180 19181 19182 19183 19184 19185 19186 19187 19188 19189 19190 19191 19192 19193 19194 19195 19196 19197 19198 19199 19200 19201 19202 19203 19204 19205 19206 19207 19208 19209 19210 19211 19212 19213 19214 19215 19216 19217 19218 19219 19220 19221 19222 19223 19224 19225 19226 19227 19228 19229 19230 19231 19232 19233 19234 19235 19236 19237 19238 19239 19240 19241 19242 19243 19244 19245 19246 19247 19248 19249 19250 19251 19252 19253 19254 19255 19256 19257 19258 19259 19260 19261 19262 19263 19264 19265 19266 19267 19268 19269 19270 19271 19272 19273 19274 19275 19276 19277 19278 19279 19280 19281 19282 19283 19284 19285 19286 19287 19288 19289 19290 19291 19292 19293 19294 19295 19296 19297 19298 19299 19300 19301 19302 19303 19304 19305 19306 19307 19308 19309 19310 19311 19312 19313 19314 19315 19316 19317 19318 19319 19320 19321 19322 19323 19324 19325 19326 19327 19328 19329 19330 19331 19332 19333 19334 19335 19336 19337 19338 19339 19340 19341 19342 19343 19344 19345 19346 19347 19348 19349 19350 19351 19352 19353 19354 19355 19356 19357 19358 19359 19360 19361 19362 19363 19364 19365 19366 19367 19368 19369 19370 19371 19372 19373 19374 19375 19376 19377 19378 19379 19380 19381 19382 19383 19384 19385 19386 19387 19388 19389 19390 19391 19392 19393 19394 19395 19396 19397 19398 19399 19400 19401 19402 19403 19404 19405 19406 19407 19408 19409 19410 19411 19412 19413 19414 19415 19416 19417 19418 19419 19420 19421 19422 19423 19424 19425 19426 19427 19428 19429 19430 19431 19432 19433 19434 19435 19436 19437 19438 19439 19440 19441 19442 19443 19444 19445 19446 19447 19448 19449 19450 19451 19452 19453 19454 19455 19456 19457 19458 19459 19460 19461 19462 19463 19464 19465 19466 19467 19468 19469 19470 19471 19472 19473 19474 19475 19476 19477 19478 19479 19480 19481 19482 19483 19484 19485 19486 19487 19488 19489 19490 19491 19492 19493 19494 19495 19496 19497 19498 19499 19500 19501 19502 19503 19504 19505 19506 19507 19508 19509 19510 19511 19512 19513 19514 19515 19516 19517 19518 19519 19520 19521 19522 19523 19524 19525 19526 19527 19528 19529 19530 19531 19532 19533 19534 19535 19536 19537 19538 19539 19540 19541 19542 19543 19544 19545 19546 19547 19548 19549 19550 19551 19552 19553 19554 19555 19556 19557 19558 19559 19560 19561 19562 19563 19564 19565 19566 19567 19568 19569 19570 19571 19572 19573 19574 19575 19576 19577 19578 19579 19580 19581 19582 19583 19584 19585 19586 19587 19588 19589 19590 19591 19592 19593 19594 19595 19596 19597 19598 19599 19600 19601 19602 19603 19604 19605 19606 19607 19608 19609 19610 19611 19612 19613 19614 19615 19616 19617 19618 19619 19620 19621 19622 19623 19624 19625 19626 19627 19628 19629 19630 19631 19632 19633 19634 19635 19636 19637 19638 19639 19640 19641 19642 19643 19644 19645 19646 19647 19648 19649 19650 19651 19652 19653 19654 19655 19656 19657 19658 19659 19660 19661 19662 19663 19664 19665 19666 19667 19668 19669 19670 19671 19672 19673 19674 19675 19676 19677 19678 19679 19680 19681 19682 19683 19684 19685 19686 19687 19688 19689 19690 19691 19692 19693 19694 19695 19696 19697 19698 19699 19700 19701 19702 19703 19704 19705 19706 19707 19708 19709 19710 19711 19712 19713 19714 19715 19716 19717 19718 19719 19720 19721 19722 19723 19724 19725 19726 19727 19728 19729 19730 19731 19732 19733 19734 19735 19736 19737 19738 19739 19740 19741 19742 19743 19744 19745 19746 19747 19748 19749 19750 19751 19752 19753 19754 19755 19756 19757 19758 19759 19760 19761 19762 19763 19764 19765 19766 19767 19768 19769 19770 19771 19772 19773 19774 19775 19776 19777 19778 19779 19780 19781 19782 19783 19784 19785 19786 19787 19788 19789 19790 19791 19792 19793 19794 19795 19796 19797 19798 19799 19800 19801 19802 19803 19804 19805 19806 19807 19808 19809 19810 19811 19812 19813 19814 19815 19816 19817 19818 19819 19820 19821 19822 19823 19824 19825 19826 19827 19828 19829 19830 19831 19832 19833 19834 19835 19836 19837 19838 19839 19840 19841 19842 19843 19844 19845 19846 19847 19848 19849 19850 19851 19852 19853 19854 19855 19856 19857 19858 19859 19860 19861 19862 19863 19864 19865 19866 19867 19868 19869 19870 19871 19872 19873 19874 19875 19876 19877 19878 19879 19880 19881 19882 19883 19884 19885 19886 19887 19888 19889 19890 19891 19892 19893 19894 19895 19896 19897 19898 19899 19900 19901 19902 19903 19904 19905 19906 19907 19908 19909 19910 19911 19912 19913 19914 19915 19916 19917 19918 19919 19920 19921 19922 19923 19924 19925 19926 19927 19928 19929 19930 19931 19932 19933 19934 19935 19936 19937 19938 19939 19940 19941 19942 19943 19944 19945 19946 19947 19948 19949 19950 19951 19952 19953 19954 19955 19956 19957 19958 19959 19960 19961 19962 19963 19964 19965 19966 19967 19968 19969 19970 19971 19972 19973 19974 19975 19976 19977 19978 19979 19980 19981 19982 19983 19984 19985 19986 19987 19988 19989 19990 19991 19992 19993 19994 19995 19996 19997 19998 19999 20000 20001 20002 20003 20004 20005 20006 20007 20008 20009 20010 20011 20012 20013 20014 20015 20016 20017 20018 20019 20020 20021 20022 20023 20024 20025 20026 20027 20028 20029 20030 20031 20032 20033 20034 20035 20036 20037 20038 20039 20040 20041 20042 20043 20044 20045 20046 20047 20048 20049 20050 20051 20052 20053 20054 20055 20056 20057 20058 20059 20060 20061 20062 20063 20064 20065 20066 20067 20068 20069 20070 20071 20072 20073 20074 20075 20076 20077 20078 20079 20080 20081 20082 20083 20084 20085 20086 20087 20088 20089 20090 20091 20092 20093 20094 20095 20096 20097 20098 20099 20100 20101 20102 20103 20104 20105 20106 20107 20108 20109 20110 20111 20112 20113 20114 20115 20116 20117 20118 20119 20120 20121 20122 20123 20124 20125 20126 20127 20128 20129 20130 20131 20132 20133 20134 20135 20136 20137 20138 20139 20140 20141 20142 20143 20144 20145 20146 20147 20148 20149 20150 20151 20152 20153 20154 20155 20156 20157 20158 20159 20160 20161 20162 20163 20164 20165 20166 20167 20168 20169 20170 20171 20172 20173 20174 20175 20176 20177 20178 20179 20180 20181 20182 20183 20184 20185 20186 20187 20188 20189 20190 20191 20192 20193 20194 20195 20196 20197 20198 20199 20200 20201 20202 20203 20204 20205 20206 20207 20208 20209 20210 20211 20212 20213 20214 20215 20216 20217 20218 20219 20220 20221 20222 20223 20224 20225 20226 20227 20228 20229 20230 20231 20232 20233 20234 20235 20236 20237 20238 20239 20240 20241 20242 20243 20244 20245 20246 20247 20248 20249 20250 20251 20252 20253 20254 20255 20256 20257 20258 20259 20260 20261 20262 20263 20264 20265 20266 20267 20268 20269 20270 20271 20272 20273 20274 20275 20276 20277 20278 20279 20280 20281 20282 20283 20284 20285 20286 20287 20288 20289 20290 20291 20292 20293 20294 20295 20296 20297 20298 20299 20300 20301 20302 20303 20304 20305 20306 20307 20308 20309 20310 20311 20312 20313 20314 20315 20316 20317 20318 20319 20320 20321 20322 20323 20324 20325 20326 20327 20328 20329 20330 20331 20332 20333 20334 20335 20336 20337 20338 20339 20340 20341 20342 20343 20344 20345 20346 20347 20348 20349 20350 20351 20352 20353 20354 20355 20356 20357 20358 20359 20360 20361 20362 20363 20364 20365 20366 20367 20368 20369 20370 20371 20372 20373 20374 20375 20376 20377 20378 20379 20380 20381 20382 20383 20384 20385 20386 20387 20388 20389 20390 20391 20392 20393 20394 20395 20396 20397 20398 20399 20400 20401 20402 20403 20404 20405 20406 20407 20408 20409 20410 20411 20412 20413 20414 20415 20416 20417 20418 20419 20420 20421 20422 20423 20424 20425 20426 20427 20428 20429 20430 20431 20432 20433 20434 20435 20436 20437 20438 20439 20440 20441 20442 20443 20444 20445 20446 20447 20448 20449 20450 20451 20452 20453 20454 20455 20456 20457 20458 20459 20460 20461 20462 20463 20464 20465 20466 20467 20468 20469 20470 20471 20472 20473 20474 20475 20476 20477 20478 20479 20480 20481 20482 20483 20484 20485 20486 20487 20488 20489 20490 20491 20492 20493 20494 20495 20496 20497 20498 20499 20500 20501 20502 20503 20504 20505 20506 20507 20508 20509 20510 20511 20512 20513 20514 20515 20516 20517 20518 20519 20520 20521 20522 20523 20524 20525 20526 20527 20528 20529 20530 20531 20532 20533 20534 20535 20536 20537 20538 20539 20540 20541 20542 20543 20544 20545 20546 20547 20548 20549 20550 20551 20552 20553 20554 20555 20556 20557 20558 20559 20560 20561 20562 20563 20564 20565 20566 20567 20568 20569 20570 20571 20572 20573 20574 20575 20576 20577 20578 20579 20580 20581 20582 20583 20584 20585 20586 20587 20588 20589 20590 20591 20592 20593 20594 20595 20596 20597 20598 20599 20600 20601 20602 20603 20604 20605 20606 20607 20608 20609 20610 20611 20612 20613 20614 20615 20616 20617 20618 20619 20620 20621 20622 20623 20624 20625 20626 20627 20628 20629 20630 20631 20632 20633 20634 20635 20636 20637 20638 20639 20640 20641 20642 20643 20644 20645 20646 20647 20648 20649 20650 20651 20652 20653 20654 20655 20656 20657 20658 20659 20660 20661 20662 20663 20664 20665 20666 20667 20668 20669 20670 20671 20672 20673 20674 20675 20676 20677 20678 20679 20680 20681 20682 20683 20684 20685 20686 20687 20688 20689 20690 20691 20692 20693 20694 20695 20696 20697 20698 20699 20700 20701 20702 20703 20704 20705 20706 20707 20708 20709 20710 20711 20712 20713 20714 20715 20716 20717 20718 20719 20720 20721 20722 20723 20724 20725 20726 20727 20728 20729 20730 20731 20732 20733 20734 20735 20736 20737 20738 20739 20740 20741 20742 20743 20744 20745 20746 20747 20748 20749 20750 20751 20752 20753 20754 20755 20756 20757 20758 20759 20760 20761 20762 20763 20764 20765 20766 20767 20768 20769 20770 20771 20772 20773 20774 20775 20776 20777 20778 20779 20780 20781 20782 20783 20784 20785 20786 20787 20788 20789 20790 20791 20792 20793 20794 20795 20796 20797 20798 20799 20800 20801 20802 20803 20804 20805 20806 20807 20808 20809 20810 20811 20812 20813 20814 20815 20816 20817 20818 20819 20820 20821 20822 20823 20824 20825 20826 20827 20828 20829 20830 20831 20832 20833 20834 20835 20836 20837 20838 20839 20840 20841 20842 20843 20844 20845 20846 20847 20848 20849 20850 20851 20852 20853 20854 20855 20856 20857 20858 20859 20860 20861 20862 20863 20864 20865 20866 20867 20868 20869 20870 20871 20872 20873 20874 20875 20876 20877 20878 20879 20880 20881 20882 20883 20884 20885 20886 20887 20888 20889 20890 20891 20892 20893 20894 20895 20896 20897 20898 20899 20900 20901 20902 20903 20904 20905 20906 20907 20908 20909 20910 20911 20912 20913 20914 20915 20916 20917 20918 20919 20920 20921 20922 20923 20924 20925 20926 20927 20928 20929 20930 20931 20932 20933 20934 20935 20936 20937 20938 20939 20940 20941 20942 20943 20944 20945 20946 20947 20948 20949 20950 20951 20952 20953 20954 20955 20956 20957 20958 20959 20960 20961 20962 20963 20964 20965 20966 20967 20968 20969 20970 20971 20972 20973 20974 20975 20976 20977 20978 20979 20980 20981 20982 20983 20984 20985 20986 20987 20988 20989 20990 20991 20992 20993 20994 20995 20996 20997 20998 20999 21000 21001 21002 21003 21004 21005 21006 21007 21008 21009 21010 21011 21012 21013 21014 21015 21016 21017 21018 21019 21020 21021 21022 21023 21024 21025 21026 21027 21028 21029 21030 21031 21032 21033 21034 21035 21036 21037 21038 21039 21040 21041 21042 21043 21044 21045 21046 21047 21048 21049 21050 21051 21052 21053 21054 21055 21056 21057 21058 21059 21060 21061 21062 21063 21064 21065 21066 21067 21068 21069 21070 21071 21072 21073 21074 21075 21076 21077 21078 21079 21080 21081 21082 21083 21084 21085 21086 21087 21088 21089 21090 21091 21092 21093 21094 21095 21096 21097 21098 21099 21100 21101 21102 21103 21104 21105 21106 21107 21108 21109 21110 21111 21112 21113 21114 21115 21116 21117 21118 21119 21120 21121 21122 21123 21124 21125 21126 21127 21128 21129 21130 21131 21132 21133 21134 21135 21136 21137 21138 21139 21140 21141 21142 21143 21144 21145 21146 21147 21148 21149 21150 21151 21152 21153 21154 21155 21156 21157 21158 21159 21160 21161 21162 21163 21164 21165 21166 21167 21168 21169 21170 21171 21172 21173 21174 21175 21176 21177 21178 21179 21180 21181 21182 21183 21184 21185 21186 21187 21188 21189 21190 21191 21192 21193 21194 21195 21196 21197 21198 21199 21200 21201 21202 21203 21204 21205 21206 21207 21208 21209 21210 21211 21212 21213 21214 21215 21216 21217 21218 21219 21220 21221 21222 21223 21224 21225 21226 21227 21228 21229 21230 21231 21232 21233 21234 21235 21236 21237 21238 21239 21240 21241 21242 21243 21244 21245 21246 21247 21248 21249 21250 21251 21252 21253 21254 21255 21256 21257 21258 21259 21260 21261 21262 21263 21264 21265 21266 21267 21268 21269 21270 21271 21272 21273 21274 21275 21276 21277 21278 21279 21280 21281 21282 21283 21284 21285 21286 21287 21288 21289 21290 21291 21292 21293 21294 21295 21296 21297 21298 21299 21300 21301 21302 21303 21304 21305 21306 21307 21308 21309 21310 21311 21312 21313 21314 21315 21316 21317 21318 21319 21320 21321 21322 21323 21324 21325 21326 21327 21328 21329 21330 21331 21332 21333 21334 21335 21336 21337 21338 21339 21340 21341 21342 21343 21344 21345 21346 21347 21348 21349 21350 21351 21352 21353 21354 21355 21356 21357 21358 21359 21360 21361 21362 21363 21364 21365 21366 21367 21368 21369 21370 21371 21372 21373 21374 21375 21376 21377 21378 21379 21380 21381 21382 21383 21384 21385 21386 21387 21388 21389 21390 21391 21392 21393 21394 21395 21396 21397 21398 21399 21400 21401 21402 21403 21404 21405 21406 21407 21408 21409 21410 21411 21412 21413 21414 21415 21416 21417 21418 21419 21420 21421 21422 21423 21424 21425 21426 21427 21428 21429 21430 21431 21432 21433 21434 21435 21436 21437 21438 21439 21440 21441 21442 21443 21444 21445 21446 21447 21448 21449 21450 21451 21452 21453 21454 21455 21456 21457 21458 21459 21460 21461 21462 21463 21464 21465 21466 21467 21468 21469 21470 21471 21472 21473 21474 21475 21476 21477 21478 21479 21480 21481 21482 21483 21484 21485 21486 21487 21488 21489 21490 21491 21492 21493 21494 21495 21496 21497 21498 21499 21500 21501 21502 21503 21504 21505 21506 21507 21508 21509 21510 21511 21512 21513 21514 21515 21516 21517 21518 21519 21520 21521 21522 21523 21524 21525 21526 21527 21528 21529 21530 21531 21532 21533 21534 21535 21536 21537 21538 21539 21540 21541 21542 21543 21544 21545 21546 21547 21548 21549 21550 21551 21552 21553 21554 21555 21556 21557 21558 21559 21560 21561 21562 21563 21564 21565 21566 21567 21568 21569 21570 21571 21572 21573 21574 21575 21576 21577 21578 21579 21580 21581 21582 21583 21584 21585 21586 21587 21588 21589 21590 21591 21592 21593 21594 21595 21596 21597 21598 21599 21600 21601 21602 21603 21604 21605 21606 21607 21608 21609 21610 21611 21612 21613 21614 21615 21616 21617 21618 21619 21620 21621 21622 21623 21624 21625 21626 21627 21628 21629 21630 21631 21632 21633 21634 21635 21636 21637 21638 21639 21640 21641 21642 21643 21644 21645 21646 21647 21648 21649 21650 21651 21652 21653 21654 21655 21656 21657 21658 21659 21660 21661 21662 21663 21664 21665 21666 21667 21668 21669 21670 21671 21672 21673 21674 21675 21676 21677 21678 21679 21680 21681 21682 21683 21684 21685 21686 21687 21688 21689 21690 21691 21692 21693 21694 21695 21696 21697 21698 21699 21700 21701 21702 21703 21704 21705 21706 21707 21708 21709 21710 21711 21712 21713 21714 21715 21716 21717 21718 21719 21720 21721 21722 21723 21724 21725 21726 21727 21728 21729 21730 21731 21732 21733 21734 21735 21736 21737 21738 21739 21740 21741 21742 21743 21744 21745 21746 21747 21748 21749 21750 21751 21752 21753 21754 21755 21756 21757 21758 21759 21760 21761 21762 21763 21764 21765 21766 21767 21768 21769 21770 21771 21772 21773 21774 21775 21776 21777 21778 21779 21780 21781 21782 21783 21784 21785 21786 21787 21788 21789 21790 21791 21792 21793 21794 21795 21796 21797 21798 21799 21800 21801 21802 21803 21804 21805 21806 21807 21808 21809 21810 21811 21812 21813 21814 21815 21816 21817 21818 21819 21820 21821 21822 21823 21824 21825 21826 21827 21828 21829 21830 21831 21832 21833 21834 21835 21836 21837 21838 21839 21840 21841 21842 21843 21844 21845 21846 21847 21848 21849 21850 21851 21852 21853 21854 21855 21856 21857 21858 21859 21860 21861 21862 21863 21864 21865 21866 21867 21868 21869 21870 21871 21872 21873 21874 21875 21876 21877 21878 21879 21880 21881 21882 21883 21884 21885 21886 21887 21888 21889 21890 21891 21892 21893 21894 21895 21896 21897 21898 21899 21900 21901 21902 21903 21904 21905 21906 21907 21908 21909 21910 21911 21912 21913 21914 21915 21916 21917 21918 21919 21920 21921 21922 21923 21924 21925 21926 21927 21928 21929 21930 21931 21932 21933 21934 21935 21936 21937 21938 21939 21940 21941 21942 21943 21944 21945 21946 21947 21948 21949 21950 21951 21952 21953 21954 21955 21956 21957 21958 21959 21960 21961 21962 21963 21964 21965 21966 21967 21968 21969 21970 21971 21972 21973 21974 21975 21976 21977 21978 21979 21980 21981 21982 21983 21984 21985 21986 21987 21988 21989 21990 21991 21992 21993 21994 21995 21996 21997 21998 21999 22000 22001 22002 22003 22004 22005 22006 22007 22008 22009 22010 22011 22012 22013 22014 22015 22016 22017 22018 22019 22020 22021 22022 22023 22024 22025 22026 22027 22028 22029 22030 22031 22032 22033 22034 22035 22036 22037 22038 22039 22040 22041 22042 22043 22044 22045 22046 22047 22048 22049 22050 22051 22052 22053 22054 22055 22056 22057 22058 22059 22060 22061 22062 22063 22064 22065 22066 22067 22068 22069 22070 22071 22072 22073 22074 22075 22076 22077 22078 22079 22080 22081 22082 22083 22084 22085 22086 22087 22088 22089 22090 22091 22092 22093 22094 22095 22096 22097 22098 22099 22100 22101 22102 22103 22104 22105 22106 22107 22108 22109 22110 22111 22112 22113 22114 22115 22116 22117 22118 22119 22120 22121 22122 22123 22124 22125 22126 22127 22128 22129 22130 22131 22132 22133 22134 22135 22136 22137 22138 22139 22140 22141 22142 22143 22144 22145 22146 22147 22148 22149 22150 22151 22152 22153 22154 22155 22156 22157 22158 22159 22160 22161 22162 22163 22164 22165 22166 22167 22168 22169 22170 22171 22172 22173 22174 22175 22176 22177 22178 22179 22180 22181 22182 22183 22184 22185 22186 22187 22188 22189 22190 22191 22192 22193 22194 22195 22196 22197 22198 22199 22200 22201 22202 22203 22204 22205 22206 22207 22208 22209 22210 22211 22212 22213 22214 22215 22216 22217 22218 22219 22220 22221 22222 22223 22224 22225 22226 22227 22228 22229 22230 22231 22232 22233 22234 22235 22236 22237 22238 22239 22240 22241 22242 22243 22244 22245 22246 22247 22248 22249 22250 22251 22252 22253 22254 22255 22256 22257 22258 22259 22260 22261 22262 22263 22264 22265 22266 22267 22268 22269 22270 22271 22272 22273 22274 22275 22276 22277 22278 22279 22280 22281 22282 22283 22284 22285 22286 22287 22288 22289 22290 22291 22292 22293 22294 22295 22296 22297 22298 22299 22300 22301 22302 22303 22304 22305 22306 22307 22308 22309 22310 22311 22312 22313 22314 22315 22316 22317 22318 22319 22320 22321 22322 22323 22324 22325 22326 22327 22328 22329 22330 22331 22332 22333 22334 22335 22336 22337 22338 22339 22340 22341 22342 22343 22344 22345 22346 22347 22348 22349 22350 22351 22352 22353 22354 22355 22356 22357 22358 22359 22360 22361 22362 22363 22364 22365 22366 22367 22368 22369 22370 22371 22372 22373 22374 22375 22376 22377 22378 22379 22380 22381 22382 22383 22384 22385 22386 22387 22388 22389 22390 22391 22392 22393 22394 22395 22396 22397 22398 22399 22400 22401 22402 22403 22404 22405 22406 22407 22408 22409 22410 22411 22412 22413 22414 22415 22416 22417 22418 22419 22420 22421 22422 22423 22424 22425 22426 22427 22428 22429 22430 22431 22432 22433 22434 22435 22436 22437 22438 22439 22440 22441 22442 22443 22444 22445 22446 22447 22448 22449 22450 22451 22452 22453 22454 22455 22456 22457 22458 22459 22460 22461 22462 22463 22464 22465 22466 22467 22468 22469 22470 22471 22472 22473 22474 22475 22476 22477 22478 22479 22480 22481 22482 22483 22484 22485 22486 22487 22488 22489 22490 22491 22492 22493 22494 22495 22496 22497 22498 22499 22500 22501 22502 22503 22504 22505 22506 22507 22508 22509 22510 22511 22512 22513 22514 22515 22516 22517 22518 22519 22520 22521 22522 22523 22524 22525 22526 22527 22528 22529 22530 22531 22532 22533 22534 22535 22536 22537 22538 22539 22540 22541 22542 22543 22544 22545 22546 22547 22548 22549 22550 22551 22552 22553 22554 22555 22556 22557 22558 22559 22560 22561 22562 22563 22564 22565 22566 22567 22568 22569 22570 22571 22572 22573 22574 22575 22576 22577 22578 22579 22580 22581 22582 22583 22584 22585 22586 22587 22588 22589 22590 22591 22592 22593 22594 22595 22596 22597 22598 22599 22600 22601 22602 22603 22604 22605 22606 22607 22608 22609 22610 22611 22612 22613 22614 22615 22616 22617 22618 22619 22620 22621 22622 22623 22624 22625 22626 22627 22628 22629 22630 22631 22632 22633 22634 22635 22636 22637 22638 22639 22640 22641 22642 22643 22644 22645 22646 22647 22648 22649 22650 22651 22652 22653 22654 22655 22656 22657 22658 22659 22660 22661 22662 22663 22664 22665 22666 22667 22668 22669 22670 22671 22672 22673 22674 22675 22676 22677 22678 22679 22680 22681 22682 22683 22684 22685 22686 22687 22688 22689 22690 22691 22692 22693 22694 22695 22696 22697 22698 22699 22700 22701 22702 22703 22704 22705 22706 22707 22708 22709 22710 22711 22712 22713 22714 22715 22716 22717 22718 22719 22720 22721 22722 22723 22724 22725 22726 22727 22728 22729 22730 22731 22732 22733 22734 22735 22736 22737 22738 22739 22740 22741 22742 22743 22744 22745 22746 22747 22748 22749 22750 22751 22752 22753 22754 22755 22756 22757 22758 22759 22760 22761 22762 22763 22764 22765 22766 22767 22768 22769 22770 22771 22772 22773 22774 22775 22776 22777 22778 22779 22780 22781 22782 22783 22784 22785 22786 22787 22788 22789 22790 22791 22792 22793 22794 22795 22796 22797 22798 22799 22800 22801 22802 22803 22804 22805 22806 22807 22808 22809 22810 22811 22812 22813 22814 22815 22816 22817 22818 22819 22820 22821 22822 22823 22824 22825 22826 22827 22828 22829 22830 22831 22832 22833 22834 22835 22836 22837 22838 22839 22840 22841 22842 22843 22844 22845 22846 22847 22848 22849 22850 22851 22852 22853 22854 22855 22856 22857 22858 22859 22860 22861 22862 22863 22864 22865 22866 22867 22868 22869 22870 22871 22872 22873 22874 22875 22876 22877 22878 22879 22880 22881 22882 22883 22884 22885 22886 22887 22888 22889 22890 22891 22892 22893 22894 22895 22896 22897 22898 22899 22900 22901 22902 22903 22904 22905 22906 22907 22908 22909 22910 22911 22912 22913 22914 22915 22916 22917 22918 22919 22920 22921 22922 22923 22924 22925 22926 22927 22928 22929 22930 22931 22932 22933 22934 22935 22936 22937 22938 22939 22940 22941 22942 22943 22944 22945 22946 22947 22948 22949 22950 22951 22952 22953 22954 22955 22956 22957 22958 22959 22960 22961 22962 22963 22964 22965 22966 22967 22968 22969 22970 22971 22972 22973 22974 22975 22976 22977 22978 22979 22980 22981 22982 22983 22984 22985 22986 22987 22988 22989 22990 22991 22992 22993 22994 22995 22996 22997 22998 22999 23000 23001 23002 23003 23004 23005 23006 23007 23008 23009 23010 23011 23012 23013 23014 23015 23016 23017 23018 23019 23020 23021 23022 23023 23024 23025 23026 23027 23028 23029 23030 23031 23032 23033 23034 23035 23036 23037 23038 23039 23040 23041 23042 23043 23044 23045 23046 23047 23048 23049 23050 23051 23052 23053 23054 23055 23056 23057 23058 23059 23060 23061 23062 23063 23064 23065 23066 23067 23068 23069 23070 23071 23072 23073 23074 23075 23076 23077 23078 23079 23080 23081 23082 23083 23084 23085 23086 23087 23088 23089 23090 23091 23092 23093 23094 23095 23096 23097 23098 23099 23100 23101 23102 23103 23104 23105 23106 23107 23108 23109 23110 23111 23112 23113 23114 23115 23116 23117 23118 23119 23120 23121 23122 23123 23124 23125 23126 23127 23128 23129 23130 23131 23132 23133 23134 23135 23136 23137 23138 23139 23140 23141 23142 23143 23144 23145 23146 23147 23148 23149 23150 23151 23152 23153 23154 23155 23156 23157 23158 23159 23160 23161 23162 23163 23164 23165 23166 23167 23168 23169 23170 23171 23172 23173 23174 23175 23176 23177 23178 23179 23180 23181 23182 23183 23184 23185 23186 23187 23188 23189 23190 23191 23192 23193 23194 23195 23196 23197 23198 23199 23200 23201 23202 23203 23204 23205 23206 23207 23208 23209 23210 23211 23212 23213 23214 23215 23216 23217 23218 23219 23220 23221 23222 23223 23224 23225 23226 23227 23228 23229 23230 23231 23232 23233 23234 23235 23236 23237 23238 23239 23240 23241 23242 23243 23244 23245 23246 23247 23248 23249 23250 23251 23252 23253 23254 23255 23256 23257 23258 23259 23260 23261 23262 23263 23264 23265 23266 23267 23268 23269 23270 23271 23272 23273 23274 23275 23276 23277 23278 23279 23280 23281 23282 23283 23284 23285 23286 23287 23288 23289 23290 23291 23292 23293 23294 23295 23296 23297 23298 23299 23300 23301 23302 23303 23304 23305 23306 23307 23308 23309 23310 23311 23312 23313 23314 23315 23316 23317 23318 23319 23320 23321 23322 23323 23324 23325 23326 23327 23328 23329 23330 23331 23332 23333 23334 23335 23336 23337 23338 23339 23340 23341 23342 23343 23344 23345 23346 23347 23348 23349 23350 23351 23352 23353 23354 23355 23356 23357 23358 23359 23360 23361 23362 23363 23364 23365 23366 23367 23368 23369 23370 23371 23372 23373 23374 23375 23376 23377 23378 23379 23380 23381 23382 23383 23384 23385 23386 23387 23388 23389 23390 23391 23392 23393 23394 23395 23396 23397 23398 23399 23400 23401 23402 23403 23404 23405 23406 23407 23408 23409 23410 23411 23412 23413 23414 23415 23416 23417 23418 23419 23420 23421 23422 23423 23424 23425 23426 23427 23428 23429 23430 23431 23432 23433 23434 23435 23436 23437 23438 23439 23440 23441 23442 23443 23444 23445 23446 23447 23448 23449 23450 23451 23452 23453 23454 23455 23456 23457 23458 23459 23460 23461 23462 23463 23464 23465 23466 23467 23468 23469 23470 23471 23472 23473 23474 23475 23476 23477 23478 23479 23480 23481 23482 23483 23484 23485 23486 23487 23488 23489 23490 23491 23492 23493 23494 23495 23496 23497 23498 23499 23500 23501 23502 23503 23504 23505 23506 23507 23508 23509 23510 23511 23512 23513 23514 23515 23516 23517 23518 23519 23520 23521 23522 23523 23524 23525 23526 23527 23528 23529 23530 23531 23532 23533 23534 23535 23536 23537 23538 23539 23540 23541 23542 23543 23544 23545 23546 23547 23548 23549 23550 23551 23552 23553 23554 23555 23556 23557 23558 23559 23560 23561 23562 23563 23564 23565 23566 23567 23568 23569 23570 23571 23572 23573 23574 23575 23576 23577 23578 23579 23580 23581 23582 23583 23584 23585 23586 23587 23588 23589 23590 23591 23592 23593 23594 23595 23596 23597 23598 23599 23600 23601 23602 23603 23604 23605 23606 23607 23608 23609 23610 23611 23612 23613 23614 23615 23616 23617 23618 23619 23620 23621 23622 23623 23624 23625 23626 23627 23628 23629 23630 23631 23632 23633 23634 23635 23636 23637 23638 23639 23640 23641 23642 23643 23644 23645 23646 23647 23648 23649 23650 23651 23652 23653 23654 23655 23656 23657 23658 23659 23660 23661 23662 23663 23664 23665 23666 23667 23668 23669 23670 23671 23672 23673 23674 23675 23676 23677 23678 23679 23680 23681 23682 23683 23684 23685 23686 23687 23688 23689 23690 23691 23692 23693 23694 23695 23696 23697 23698 23699 23700 23701 23702 23703 23704 23705 23706 23707 23708 23709 23710 23711 23712 23713 23714 23715 23716 23717 23718 23719 23720 23721 23722 23723 23724 23725 23726 23727 23728 23729 23730 23731 23732 23733 23734 23735 23736 23737 23738 23739 23740 23741 23742 23743 23744 23745 23746 23747 23748 23749 23750 23751 23752 23753 23754 23755 23756 23757 23758 23759 23760 23761 23762 23763 23764 23765 23766 23767 23768 23769 23770 23771 23772 23773 23774 23775 23776 23777 23778 23779 23780 23781 23782 23783 23784 23785 23786 23787 23788 23789 23790 23791 23792 23793 23794 23795 23796 23797 23798 23799 23800 23801 23802 23803 23804 23805 23806 23807 23808 23809 23810 23811 23812 23813 23814 23815 23816 23817 23818 23819 23820 23821 23822 23823 23824 23825 23826 23827 23828 23829 23830 23831 23832 23833 23834 23835 23836 23837 23838 23839 23840 23841 23842 23843 23844 23845 23846 23847 23848 23849 23850 23851 23852 23853 23854 23855 23856 23857 23858 23859 23860 23861 23862 23863 23864 23865 23866 23867 23868 23869 23870 23871 23872 23873 23874 23875 23876 23877 23878 23879 23880 23881 23882 23883 23884 23885 23886 23887 23888 23889 23890 23891 23892 23893 23894 23895 23896 23897 23898 23899 23900 23901 23902 23903 23904 23905 23906 23907 23908 23909 23910 23911 23912 23913 23914 23915 23916 23917 23918 23919 23920 23921 23922 23923 23924 23925 23926 23927 23928 23929 23930 23931 23932 23933 23934 23935 23936 23937 23938 23939 23940 23941 23942 23943 23944 23945 23946 23947 23948 23949 23950 23951 23952 23953 23954 23955 23956 23957 23958 23959 23960 23961 23962 23963 23964 23965 23966 23967 23968 23969 23970 23971 23972 23973 23974 23975 23976 23977 23978 23979 23980 23981 23982 23983 23984 23985 23986 23987 23988 23989 23990 23991 23992 23993 23994 23995 23996 23997 23998 23999 24000 24001 24002 24003 24004 24005 24006 24007 24008 24009 24010 24011 24012 24013 24014 24015 24016 24017 24018 24019 24020 24021 24022 24023 24024 24025 24026 24027 24028 24029 24030 24031 24032 24033 24034 24035 24036 24037 24038 24039 24040 24041 24042 24043 24044 24045 24046 24047 24048 24049 24050 24051 24052 24053 24054 24055 24056 24057 24058 24059 24060 24061 24062 24063 24064 24065 24066 24067 24068 24069 24070 24071 24072 24073 24074 24075 24076 24077 24078 24079 24080 24081 24082 24083 24084 24085 24086 24087 24088 24089 24090 24091 24092 24093 24094 24095 24096 24097 24098 24099 24100 24101 24102 24103 24104 24105 24106 24107 24108 24109 24110 24111 24112 24113 24114 24115 24116 24117 24118 24119 24120 24121 24122 24123 24124 24125 24126 24127 24128 24129 24130 24131 24132 24133 24134 24135 24136 24137 24138 24139 24140 24141 24142 24143 24144 24145 24146 24147 24148 24149 24150 24151 24152 24153 24154 24155 24156 24157 24158 24159 24160 24161 24162 24163 24164 24165 24166 24167 24168 24169 24170 24171 24172 24173 24174 24175 24176 24177 24178 24179 24180 24181 24182 24183 24184 24185 24186 24187 24188 24189 24190 24191 24192 24193 24194 24195 24196 24197 24198 24199 24200 24201 24202 24203 24204 24205 24206 24207 24208 24209 24210 24211 24212 24213 24214 24215 24216 24217 24218 24219 24220 24221 24222 24223 24224 24225 24226 24227 24228 24229 24230 24231 24232 24233 24234 24235 24236 24237 24238 24239 24240 24241 24242 24243 24244 24245 24246 24247 24248 24249 24250 24251 24252 24253 24254 24255 24256 24257 24258 24259 24260 24261 24262 24263 24264 24265 24266 24267 24268 24269 24270 24271 24272 24273 24274 24275 24276 24277 24278 24279 24280 24281 24282 24283 24284 24285 24286 24287 24288 24289 24290 24291 24292 24293 24294 24295 24296 24297 24298 24299 24300 24301 24302 24303 24304 24305 24306 24307 24308 24309 24310 24311 24312 24313 24314 24315 24316 24317 24318 24319 24320 24321 24322 24323 24324 24325 24326 24327 24328 24329 24330 24331 24332 24333 24334 24335 24336 24337 24338 24339 24340 24341 24342 24343 24344 24345 24346 24347 24348 24349 24350 24351 24352 24353 24354 24355 24356 24357 24358 24359 24360 24361 24362 24363 24364 24365 24366 24367 24368 24369 24370 24371 24372 24373 24374 24375 24376 24377 24378 24379 24380 24381 24382 24383 24384 24385 24386 24387 24388 24389 24390 24391 24392 24393 24394 24395 24396 24397 24398 24399 24400 24401 24402 24403 24404 24405 24406 24407 24408 24409 24410 24411 24412 24413 24414 24415 24416 24417 24418 24419 24420 24421 24422 24423 24424 24425 24426 24427 24428 24429 24430 24431 24432 24433 24434 24435 24436 24437 24438 24439 24440 24441 24442 24443 24444 24445 24446 24447 24448 24449 24450 24451 24452 24453 24454 24455 24456 24457 24458 24459 24460 24461 24462 24463 24464 24465 24466 24467 24468 24469 24470 24471 24472 24473 24474 24475 24476 24477 24478 24479 24480 24481 24482 24483 24484 24485 24486 24487 24488 24489 24490 24491 24492 24493 24494 24495 24496 24497 24498 24499 24500 24501 24502 24503 24504 24505 24506 24507 24508 24509 24510 24511 24512 24513 24514 24515 24516 24517 24518 24519 24520 24521 24522 24523 24524 24525 24526 24527 24528 24529 24530 24531 24532 24533 24534 24535 24536 24537 24538 24539 24540 24541 24542 24543 24544 24545 24546 24547 24548 24549 24550 24551 24552 24553 24554 24555 24556 24557 24558 24559 24560 24561 24562 24563 24564 24565 24566 24567 24568 24569 24570 24571 24572 24573 24574 24575 24576 24577 24578 24579 24580 24581 24582 24583 24584 24585 24586 24587 24588 24589 24590 24591 24592 24593 24594 24595 24596 24597 24598 24599 24600 24601 24602 24603 24604 24605 24606 24607 24608 24609 24610 24611 24612 24613 24614 24615 24616 24617 24618 24619 24620 24621 24622 24623 24624 24625 24626 24627 24628 24629 24630 24631 24632 24633 24634 24635 24636 24637 24638 24639 24640 24641 24642 24643 24644 24645 24646 24647 24648 24649 24650 24651 24652 24653 24654 24655 24656 24657 24658 24659 24660 24661 24662 24663 24664 24665 24666 24667 24668 24669 24670 24671 24672 24673 24674 24675 24676 24677 24678 24679 24680 24681 24682 24683 24684 24685 24686 24687 24688 24689 24690 24691 24692 24693 24694 24695 24696 24697 24698 24699 24700 24701 24702 24703 24704 24705 24706 24707 24708 24709 24710 24711 24712 24713 24714 24715 24716 24717 24718 24719 24720 24721 24722 24723 24724 24725 24726 24727 24728 24729 24730 24731 24732 24733 24734 24735 24736 24737 24738 24739 24740 24741 24742 24743 24744 24745 24746 24747 24748 24749 24750 24751 24752 24753 24754 24755 24756 24757 24758 24759 24760 24761 24762 24763 24764 24765 24766 24767 24768 24769 24770 24771 24772 24773 24774 24775 24776 24777 24778 24779 24780 24781 24782 24783 24784 24785 24786 24787 24788 24789 24790 24791 24792 24793 24794 24795 24796 24797 24798 24799 24800 24801 24802 24803 24804 24805 24806 24807 24808 24809 24810 24811 24812 24813 24814 24815 24816 24817 24818 24819 24820 24821 24822 24823 24824 24825 24826 24827 24828 24829 24830 24831 24832 24833 24834 24835 24836 24837 24838 24839 24840 24841 24842 24843 24844 24845 24846 24847 24848 24849 24850 24851 24852 24853 24854 24855 24856 24857 24858 24859 24860 24861 24862 24863 24864 24865 24866 24867 24868 24869 24870 24871 24872 24873 24874 24875 24876 24877 24878 24879 24880 24881 24882 24883 24884 24885 24886 24887 24888 24889 24890 24891 24892 24893 24894 24895 24896 24897 24898 24899 24900 24901 24902 24903 24904 24905 24906 24907 24908 24909 24910 24911 24912 24913 24914 24915 24916 24917 24918 24919 24920 24921 24922 24923 24924 24925 24926 24927 24928 24929 24930 24931 24932 24933 24934 24935 24936 24937 24938 24939 24940 24941 24942 24943 24944 24945 24946 24947 24948 24949 24950 24951 24952 24953 24954 24955 24956 24957 24958 24959 24960 24961 24962 24963 24964 24965 24966 24967 24968 24969 24970 24971 24972 24973 24974 24975 24976 24977 24978 24979 24980 24981 24982 24983 24984 24985 24986 24987 24988 24989 24990 24991 24992 24993 24994 24995 24996 24997 24998 24999 25000 25001 25002 25003 25004 25005 25006 25007 25008 25009 25010 25011 25012 25013 25014 25015 25016 25017 25018 25019 25020 25021 25022 25023 25024 25025 25026 25027 25028 25029 25030 25031 25032 25033 25034 25035 25036 25037 25038 25039 25040 25041 25042 25043 25044 25045 25046 25047 25048 25049 25050 25051 25052 25053 25054 25055 25056 25057 25058 25059 25060 25061 25062 25063 25064 25065 25066 25067 25068 25069 25070 25071 25072 25073 25074 25075 25076 25077 25078 25079 25080 25081 25082 25083 25084 25085 25086 25087 25088 25089 25090 25091 25092 25093 25094 25095 25096 25097 25098 25099 25100 25101 25102 25103 25104 25105 25106 25107 25108 25109 25110 25111 25112 25113 25114 25115 25116 25117 25118 25119 25120 25121 25122 25123 25124 25125 25126 25127 25128 25129 25130 25131 25132 25133 25134 25135 25136 25137 25138 25139 25140 25141 25142 25143 25144 25145 25146 25147 25148 25149 25150 25151 25152 25153 25154 25155 25156 25157 25158 25159 25160 25161 25162 25163 25164 25165 25166 25167 25168 25169 25170 25171 25172 25173 25174 25175 25176 25177 25178 25179 25180 25181 25182 25183 25184 25185 25186 25187 25188 25189 25190 25191 25192 25193 25194 25195 25196 25197 25198 25199 25200 25201 25202 25203 25204 25205 25206 25207 25208 25209 25210 25211 25212 25213 25214 25215 25216 25217 25218 25219 25220 25221 25222 25223 25224 25225 25226 25227 25228 25229 25230 25231 25232 25233 25234 25235 25236 25237 25238 25239 25240 25241 25242 25243 25244 25245 25246 25247 25248 25249 25250 25251 25252 25253 25254 25255 25256 25257 25258 25259 25260 25261 25262 25263 25264 25265 25266 25267 25268 25269 25270 25271 25272 25273 25274 25275 25276 25277 25278 25279 25280 25281 25282 25283 25284 25285 25286 25287 25288 25289 25290 25291 25292 25293 25294 25295 25296 25297 25298 25299 25300 25301 25302 25303 25304 25305 25306 25307 25308 25309 25310 25311 25312 25313 25314 25315 25316 25317 25318 25319 25320 25321 25322 25323 25324 25325 25326 25327 25328 25329 25330 25331 25332 25333 25334 25335 25336 25337 25338 25339 25340 25341 25342 25343 25344 25345 25346 25347 25348 25349 25350 25351 25352 25353 25354 25355 25356 25357 25358 25359 25360 25361 25362 25363 25364 25365 25366 25367 25368 25369 25370 25371 25372 25373 25374 25375 25376 25377 25378 25379 25380 25381 25382 25383 25384 25385 25386 25387 25388 25389 25390 25391 25392 25393 25394 25395 25396 25397 25398 25399 25400 25401 25402 25403 25404 25405 25406 25407 25408 25409 25410 25411 25412 25413 25414 25415 25416 25417 25418 25419 25420 25421 25422 25423 25424 25425 25426 25427 25428 25429 25430 25431 25432 25433 25434 25435 25436 25437 25438 25439 25440 25441 25442 25443 25444 25445 25446 25447 25448 25449 25450 25451 25452 25453 25454 25455 25456 25457 25458 25459 25460 25461 25462 25463 25464 25465 25466 25467 25468 25469 25470 25471 25472 25473 25474 25475 25476 25477 25478 25479 25480 25481 25482 25483 25484 25485 25486 25487 25488 25489 25490 25491 25492 25493 25494 25495 25496 25497 25498 25499 25500 25501 25502 25503 25504 25505 25506 25507 25508 25509 25510 25511 25512 25513 25514 25515 25516 25517 25518 25519 25520 25521 25522 25523 25524 25525 25526 25527 25528 25529 25530 25531 25532 25533 25534 25535 25536 25537 25538 25539 25540 25541 25542 25543 25544 25545 25546 25547 25548 25549 25550 25551 25552 25553 25554 25555 25556 25557 25558 25559 25560 25561 25562 25563 25564 25565 25566 25567 25568 25569 25570 25571 25572 25573 25574 25575 25576 25577 25578 25579 25580 25581 25582 25583 25584 25585 25586 25587 25588 25589 25590 25591 25592 25593 25594 25595 25596 25597 25598 25599 25600 25601 25602 25603 25604 25605 25606 25607 25608 25609 25610 25611 25612 25613 25614 25615 25616 25617 25618 25619 25620 25621 25622 25623 25624 25625 25626 25627 25628 25629 25630 25631 25632 25633 25634 25635 25636 25637 25638 25639 25640 25641 25642 25643 25644 25645 25646 25647 25648 25649 25650 25651 25652 25653 25654 25655 25656 25657 25658 25659 25660 25661 25662 25663 25664 25665 25666 25667 25668 25669 25670 25671 25672 25673 25674 25675 25676 25677 25678 25679 25680 25681 25682 25683 25684 25685 25686 25687 25688 25689 25690 25691 25692 25693 25694 25695 25696 25697 25698 25699 25700 25701 25702 25703 25704 25705 25706 25707 25708 25709 25710 25711 25712 25713 25714 25715 25716 25717 25718 25719 25720 25721 25722 25723 25724 25725 25726 25727 25728 25729 25730 25731 25732 25733 25734 25735 25736 25737 25738 25739 25740 25741 25742 25743 25744 25745 25746 25747 25748 25749 25750 25751 25752 25753 25754 25755 25756 25757 25758 25759 25760 25761 25762 25763 25764 25765 25766 25767 25768 25769 25770 25771 25772 25773 25774 25775 25776 25777 25778 25779 25780 25781 25782 25783 25784 25785 25786 25787 25788 25789 25790 25791 25792 25793 25794 25795 25796 25797 25798 25799 25800 25801 25802 25803 25804 25805 25806 25807 25808 25809 25810 25811 25812 25813 25814 25815 25816 25817 25818 25819 25820 25821 25822 25823 25824 25825 25826 25827 25828 25829 25830 25831 25832 25833 25834 25835 25836 25837 25838 25839 25840 25841 25842 25843 25844 25845 25846 25847 25848 25849 25850 25851 25852 25853 25854 25855 25856 25857 25858 25859 25860 25861 25862 25863 25864 25865 25866 25867 25868 25869 25870 25871 25872 25873 25874 25875 25876 25877 25878 25879 25880 25881 25882 25883 25884 25885 25886 25887 25888 25889 25890 25891 25892 25893 25894 25895 25896 25897 25898 25899 25900 25901 25902 25903 25904 25905 25906 25907 25908 25909 25910 25911 25912 25913 25914 25915 25916 25917 25918 25919 25920 25921 25922 25923 25924 25925 25926 25927 25928 25929 25930 25931 25932 25933 25934 25935 25936 25937 25938 25939 25940 25941 25942 25943 25944 25945 25946 25947 25948 25949 25950 25951 25952 25953 25954 25955 25956 25957 25958 25959 25960 25961 25962 25963 25964 25965 25966 25967 25968 25969 25970 25971 25972 25973 25974 25975 25976 25977 25978 25979 25980 25981 25982 25983 25984 25985 25986 25987 25988 25989 25990 25991 25992 25993 25994 25995 25996 25997 25998 25999 26000 26001 26002 26003 26004 26005 26006 26007 26008 26009 26010 26011 26012 26013 26014 26015 26016 26017 26018 26019 26020 26021 26022 26023 26024 26025 26026 26027 26028 26029 26030 26031 26032 26033 26034 26035 26036 26037 26038 26039 26040 26041 26042 26043 26044 26045 26046 26047 26048 26049 26050 26051 26052 26053 26054 26055 26056 26057 26058 26059 26060 26061 26062 26063 26064 26065 26066 26067 26068 26069 26070 26071 26072 26073 26074 26075 26076 26077 26078 26079 26080 26081 26082 26083 26084 26085 26086 26087 26088 26089 26090 26091 26092 26093 26094 26095 26096 26097 26098 26099 26100 26101 26102 26103 26104 26105 26106 26107 26108 26109 26110 26111 26112 26113 26114 26115 26116 26117 26118 26119 26120 26121 26122 26123 26124 26125 26126 26127 26128 26129 26130 26131 26132 26133 26134 26135 26136 26137 26138 26139 26140 26141 26142 26143 26144 26145 26146 26147 26148 26149 26150 26151 26152 26153 26154 26155 26156 26157 26158 26159 26160 26161 26162 26163 26164 26165 26166 26167 26168 26169 26170 26171 26172 26173 26174 26175 26176 26177 26178 26179 26180 26181 26182 26183 26184 26185 26186 26187 26188 26189 26190 26191 26192 26193 26194 26195 26196 26197 26198 26199 26200 26201 26202 26203 26204 26205 26206 26207 26208 26209 26210 26211 26212 26213 26214 26215 26216 26217 26218 26219 26220 26221 26222 26223 26224 26225 26226 26227 26228 26229 26230 26231 26232 26233 26234 26235 26236 26237 26238 26239 26240 26241 26242 26243 26244 26245 26246 26247 26248 26249 26250 26251 26252 26253 26254 26255 26256 26257 26258 26259 26260 26261 26262 26263 26264 26265 26266 26267 26268 26269 26270 26271 26272 26273 26274 26275 26276 26277 26278 26279 26280 26281 26282 26283 26284 26285 26286 26287 26288 26289 26290 26291 26292 26293 26294 26295 26296 26297 26298 26299 26300 26301 26302 26303 26304 26305 26306 26307 26308 26309 26310 26311 26312 26313 26314 26315 26316 26317 26318 26319 26320 26321 26322 26323 26324 26325 26326 26327 26328 26329 26330 26331 26332 26333 26334 26335 26336 26337 26338 26339 26340 26341 26342 26343 26344 26345 26346 26347 26348 26349 26350 26351 26352 26353 26354 26355 26356 26357 26358 26359 26360 26361 26362 26363 26364 26365 26366 26367 26368 26369 26370 26371 26372 26373 26374 26375 26376 26377 26378 26379 26380 26381 26382 26383 26384 26385 26386 26387 26388 26389 26390 26391 26392 26393 26394 26395 26396 26397 26398 26399 26400 26401 26402 26403 26404 26405 26406 26407 26408 26409 26410 26411 26412 26413 26414 26415 26416 26417 26418 26419 26420 26421 26422 26423 26424 26425 26426 26427 26428 26429 26430 26431 26432 26433 26434 26435 26436 26437 26438 26439 26440 26441 26442 26443 26444 26445 26446 26447 26448 26449 26450 26451 26452 26453 26454 26455 26456 26457 26458 26459 26460 26461 26462 26463 26464 26465 26466 26467 26468 26469 26470 26471 26472 26473 26474 26475 26476 26477 26478 26479 26480 26481 26482 26483 26484 26485 26486 26487 26488 26489 26490 26491 26492 26493 26494 26495 26496 26497 26498 26499 26500 26501 26502 26503 26504 26505 26506 26507 26508 26509 26510 26511 26512 26513 26514 26515 26516 26517 26518 26519 26520 26521 26522 26523 26524 26525 26526 26527 26528 26529 26530 26531 26532 26533 26534 26535 26536 26537 26538 26539 26540 26541 26542 26543 26544 26545 26546 26547 26548 26549 26550 26551 26552 26553 26554 26555 26556 26557 26558 26559 26560 26561 26562 26563 26564 26565 26566 26567 26568 26569 26570 26571 26572 26573 26574 26575 26576 26577 26578 26579 26580 26581 26582 26583 26584 26585 26586 26587 26588 26589 26590 26591 26592 26593 26594 26595 26596 26597 26598 26599 26600 26601 26602 26603 26604 26605 26606 26607 26608 26609 26610 26611 26612 26613 26614 26615 26616 26617 26618 26619 26620 26621 26622 26623 26624 26625 26626 26627 26628 26629 26630 26631 26632 26633 26634 26635 26636 26637 26638 26639 26640 26641 26642 26643 26644 26645 26646 26647 26648 26649 26650 26651 26652 26653 26654 26655 26656 26657 26658 26659 26660 26661 26662 26663 26664 26665 26666 26667 26668 26669 26670 26671 26672 26673 26674 26675 26676 26677 26678 26679 26680 26681 26682 26683 26684 26685 26686 26687 26688 26689 26690 26691 26692 26693 26694 26695 26696 26697 26698 26699 26700 26701 26702 26703 26704 26705 26706 26707 26708 26709 26710 26711 26712 26713 26714 26715 26716 26717 26718 26719 26720 26721 26722 26723 26724 26725 26726 26727 26728 26729 26730 26731 26732 26733 26734 26735 26736 26737 26738 26739 26740 26741 26742 26743 26744 26745 26746 26747 26748 26749 26750 26751 26752 26753 26754 26755 26756 26757 26758 26759 26760 26761 26762 26763 26764 26765 26766 26767 26768 26769 26770 26771 26772 26773 26774 26775 26776 26777 26778 26779 26780 26781 26782 26783 26784 26785 26786 26787 26788 26789 26790 26791 26792 26793 26794 26795 26796 26797 26798 26799 26800 26801 26802 26803 26804 26805 26806 26807 26808 26809 26810 26811 26812 26813 26814 26815 26816 26817 26818 26819 26820 26821 26822 26823 26824 26825 26826 26827 26828 26829 26830 26831 26832 26833 26834 26835 26836 26837 26838 26839 26840 26841 26842 26843 26844 26845 26846 26847 26848 26849 26850 26851 26852 26853 26854 26855 26856 26857 26858 26859 26860 26861 26862 26863 26864 26865 26866 26867 26868 26869 26870 26871 26872 26873 26874 26875 26876 26877 26878 26879 26880 26881 26882 26883 26884 26885 26886 26887 26888 26889 26890 26891 26892 26893 26894 26895 26896 26897 26898 26899 26900 26901 26902 26903 26904 26905 26906 26907 26908 26909 26910 26911 26912 26913 26914 26915 26916 26917 26918 26919 26920 26921 26922 26923 26924 26925 26926 26927 26928 26929 26930 26931 26932 26933 26934 26935 26936 26937 26938 26939 26940 26941 26942 26943 26944 26945 26946 26947 26948 26949 26950 26951 26952 26953 26954 26955 26956 26957 26958 26959 26960 26961 26962 26963 26964 26965 26966 26967 26968 26969 26970 26971 26972 26973 26974 26975 26976 26977 26978 26979 26980 26981 26982 26983 26984 26985 26986 26987 26988 26989 26990 26991 26992 26993 26994 26995 26996 26997 26998 26999 27000 27001 27002 27003 27004 27005 27006 27007 27008 27009 27010 27011 27012 27013 27014 27015 27016 27017 27018 27019 27020 27021 27022 27023 27024 27025 27026 27027 27028 27029 27030 27031 27032 27033 27034 27035 27036 27037 27038 27039 27040 27041 27042 27043 27044 27045 27046 27047 27048 27049 27050 27051 27052 27053 27054 27055 27056 27057 27058 27059 27060 27061 27062 27063 27064 27065 27066 27067 27068 27069 27070 27071 27072 27073 27074 27075 27076 27077 27078 27079 27080 27081 27082 27083 27084 27085 27086 27087 27088 27089 27090 27091 27092 27093 27094 27095 27096 27097 27098 27099 27100 27101 27102 27103 27104 27105 27106 27107 27108 27109 27110 27111 27112 27113 27114 27115 27116 27117 27118 27119 27120 27121 27122 27123 27124 27125 27126 27127 27128 27129 27130 27131 27132 27133 27134 27135 27136 27137 27138 27139 27140 27141 27142 27143 27144 27145 27146 27147 27148 27149 27150 27151 27152 27153 27154 27155 27156 27157 27158 27159 27160 27161 27162 27163 27164 27165 27166 27167 27168 27169 27170 27171 27172 27173 27174 27175 27176 27177 27178 27179 27180 27181 27182 27183 27184 27185 27186 27187 27188 27189 27190 27191 27192 27193 27194 27195 27196 27197 27198 27199 27200 27201 27202 27203 27204 27205 27206 27207 27208 27209 27210 27211 27212 27213 27214 27215 27216 27217 27218 27219 27220 27221 27222 27223 27224 27225 27226 27227 27228 27229 27230 27231 27232 27233 27234 27235 27236 27237 27238 27239 27240 27241 27242 27243 27244 27245 27246 27247 27248 27249 27250 27251 27252 27253 27254 27255 27256 27257 27258 27259 27260 27261 27262 27263 27264 27265 27266 27267 27268 27269 27270 27271 27272 27273 27274 27275 27276 27277 27278 27279 27280 27281 27282 27283 27284 27285 27286 27287 27288 27289 27290 27291 27292 27293 27294 27295 27296 27297 27298 27299 27300 27301 27302 27303 27304 27305 27306 27307 27308 27309 27310 27311 27312 27313 27314 27315 27316 27317 27318 27319 27320 27321 27322 27323 27324 27325 27326 27327 27328 27329 27330 27331 27332 27333 27334 27335 27336 27337 27338 27339 27340 27341 27342 27343 27344 27345 27346 27347 27348 27349 27350 27351 27352 27353 27354 27355 27356 27357 27358 27359 27360 27361 27362 27363 27364 27365 27366 27367 27368 27369 27370 27371 27372 27373 27374 27375 27376 27377 27378 27379 27380 27381 27382 27383 27384 27385 27386 27387 27388 27389 27390 27391 27392 27393 27394 27395 27396 27397 27398 27399 27400 27401 27402 27403 27404 27405 27406 27407 27408 27409 27410 27411 27412 27413 27414 27415 27416 27417 27418 27419 27420 27421 27422 27423 27424 27425 27426 27427 27428 27429 27430 27431 27432 27433 27434 27435 27436 27437 27438 27439 27440 27441 27442 27443 27444 27445 27446 27447 27448 27449 27450 27451 27452 27453 27454 27455 27456 27457 27458 27459 27460 27461 27462 27463 27464 27465 27466 27467 27468 27469 27470 27471 27472 27473 27474 27475 27476 27477 27478 27479 27480 27481 27482 27483 27484 27485 27486 27487 27488 27489 27490 27491 27492 27493 27494 27495 27496 27497 27498 27499 27500 27501 27502 27503 27504 27505 27506 27507 27508 27509 27510 27511 27512 27513 27514 27515 27516 27517 27518 27519 27520 27521 27522 27523 27524 27525 27526 27527 27528 27529 27530 27531 27532 27533 27534 27535 27536 27537 27538 27539 27540 27541 27542 27543 27544 27545 27546 27547 27548 27549 27550 27551 27552 27553 27554 27555 27556 27557 27558 27559 27560 27561 27562 27563 27564 27565 27566 27567 27568 27569 27570 27571 27572 27573 27574 27575 27576 27577 27578 27579 27580 27581 27582 27583 27584 27585 27586 27587 27588 27589 27590 27591 27592 27593 27594 27595 27596 27597 27598 27599 27600 27601 27602 27603 27604 27605 27606 27607 27608 27609 27610 27611 27612 27613 27614 27615 27616 27617 27618 27619 27620 27621 27622 27623 27624 27625 27626 27627 27628 27629 27630 27631 27632 27633 27634 27635 27636 27637 27638 27639 27640 27641 27642 27643 27644 27645 27646 27647 27648 27649 27650 27651 27652 27653 27654 27655 27656 27657 27658 27659 27660 27661 27662 27663 27664 27665 27666 27667 27668 27669 27670 27671 27672 27673 27674 27675 27676 27677 27678 27679 27680 27681 27682 27683 27684 27685 27686 27687 27688 27689 27690 27691 27692 27693 27694 27695 27696 27697 27698 27699 27700 27701 27702 27703 27704 27705 27706 27707 27708 27709 27710 27711 27712 27713 27714 27715 27716 27717 27718 27719 27720 27721 27722 27723 27724 27725 27726 27727 27728 27729 27730 27731 27732 27733 27734 27735 27736 27737 27738 27739 27740 27741 27742 27743 27744 27745 27746 27747 27748 27749 27750 27751 27752 27753 27754 27755 27756 27757 27758 27759 27760 27761 27762 27763 27764 27765 27766 27767 27768 27769 27770 27771 27772 27773 27774 27775 27776 27777 27778 27779 27780 27781 27782 27783 27784 27785 27786 27787 27788 27789 27790 27791 27792 27793 27794 27795 27796 27797 27798 27799 27800 27801 27802 27803 27804 27805 27806 27807 27808 27809 27810 27811 27812 27813 27814 27815 27816 27817 27818 27819 27820 27821 27822 27823 27824 27825 27826 27827 27828 27829 27830 27831 27832 27833 27834 27835 27836 27837 27838 27839 27840 27841 27842 27843 27844 27845 27846 27847 27848 27849 27850 27851 27852 27853 27854 27855 27856 27857 27858 27859 27860 27861 27862 27863 27864 27865 27866 27867 27868 27869 27870 27871 27872 27873 27874 27875 27876 27877 27878 27879 27880 27881 27882 27883 27884 27885 27886 27887 27888 27889 27890 27891 27892 27893 27894 27895 27896 27897 27898 27899 27900 27901 27902 27903 27904 27905 27906 27907 27908 27909 27910 27911 27912 27913 27914 27915 27916 27917 27918 27919 27920 27921 27922 27923 27924 27925 27926 27927 27928 27929 27930 27931 27932 27933 27934 27935 27936 27937 27938 27939 27940 27941 27942 27943 27944 27945 27946 27947 27948 27949 27950 27951 27952 27953 27954 27955 27956 27957 27958 27959 27960 27961 27962 27963 27964 27965 27966 27967 27968 27969 27970 27971 27972 27973 27974 27975 27976 27977 27978 27979 27980 27981 27982 27983 27984 27985 27986 27987 27988 27989 27990 27991 27992 27993 27994 27995 27996 27997 27998 27999 28000 28001 28002 28003 28004 28005 28006 28007 28008 28009 28010 28011 28012 28013 28014 28015 28016 28017 28018 28019 28020 28021 28022 28023 28024 28025 28026 28027 28028 28029 28030 28031 28032 28033 28034 28035 28036 28037 28038 28039 28040 28041 28042 28043 28044 28045 28046 28047 28048 28049 28050 28051 28052 28053 28054 28055 28056 28057 28058 28059 28060 28061 28062 28063 28064 28065 28066 28067 28068 28069 28070 28071 28072 28073 28074 28075 28076 28077 28078 28079 28080 28081 28082 28083 28084 28085 28086 28087 28088 28089 28090 28091 28092 28093 28094 28095 28096 28097 28098 28099 28100 28101 28102 28103 28104 28105 28106 28107 28108 28109 28110 28111 28112 28113 28114 28115 28116 28117 28118 28119 28120 28121 28122 28123 28124 28125 28126 28127 28128 28129 28130 28131 28132 28133 28134 28135 28136 28137 28138 28139 28140 28141 28142 28143 28144 28145 28146 28147 28148 28149 28150 28151 28152 28153 28154 28155 28156 28157 28158 28159 28160 28161 28162 28163 28164 28165 28166 28167 28168 28169 28170 28171 28172 28173 28174 28175 28176 28177 28178 28179 28180 28181 28182 28183 28184 28185 28186 28187 28188 28189 28190 28191 28192 28193 28194 28195 28196 28197 28198 28199 28200 28201 28202 28203 28204 28205 28206 28207 28208 28209 28210 28211 28212 28213 28214 28215 28216 28217 28218 28219 28220 28221 28222 28223 28224 28225 28226 28227 28228 28229 28230 28231 28232 28233 28234 28235 28236 28237 28238 28239 28240 28241 28242 28243 28244 28245 28246 28247 28248 28249 28250 28251 28252 28253 28254 28255 28256 28257 28258 28259 28260 28261 28262 28263 28264 28265 28266 28267 28268 28269 28270 28271 28272 28273 28274 28275 28276 28277 28278 28279 28280 28281 28282 28283 28284 28285 28286 28287 28288 28289 28290 28291 28292 28293 28294 28295 28296 28297 28298 28299 28300 28301 28302 28303 28304 28305 28306 28307 28308 28309 28310 28311 28312 28313 28314 28315 28316 28317 28318 28319 28320 28321 28322 28323 28324 28325 28326 28327 28328 28329 28330 28331 28332 28333 28334 28335 28336 28337 28338 28339 28340 28341 28342 28343 28344 28345 28346 28347 28348 28349 28350 28351 28352 28353 28354 28355 28356 28357 28358 28359 28360 28361 28362 28363 28364 28365 28366 28367 28368 28369 28370 28371 28372 28373 28374 28375 28376 28377 28378 28379 28380 28381 28382 28383 28384 28385 28386 28387 28388 28389 28390 28391 28392 28393 28394 28395 28396 28397 28398 28399 28400 28401 28402 28403 28404 28405 28406 28407 28408 28409 28410 28411 28412 28413 28414 28415 28416 28417 28418 28419 28420 28421 28422 28423 28424 28425 28426 28427 28428 28429 28430 28431 28432 28433 28434 28435 28436 28437 28438 28439 28440 28441 28442 28443 28444 28445 28446 28447 28448 28449 28450 28451 28452 28453 28454 28455 28456 28457 28458 28459 28460 28461 28462 28463 28464 28465 28466 28467 28468 28469 28470 28471 28472 28473 28474 28475 28476 28477 28478 28479 28480 28481 28482 28483 28484 28485 28486 28487 28488 28489 28490 28491 28492 28493 28494 28495 28496 28497 28498 28499 28500 28501 28502 28503 28504 28505 28506 28507 28508 28509 28510 28511 28512 28513 28514 28515 28516 28517 28518 28519 28520 28521 28522 28523 28524 28525 28526 28527 28528 28529 28530 28531 28532 28533 28534 28535 28536 28537 28538 28539 28540 28541 28542 28543 28544 28545 28546 28547 28548 28549 28550 28551 28552 28553 28554 28555 28556 28557 28558 28559 28560 28561 28562 28563 28564 28565 28566 28567 28568 28569 28570 28571 28572 28573 28574 28575 28576 28577 28578 28579 28580 28581 28582 28583 28584 28585 28586 28587 28588 28589 28590 28591 28592 28593 28594 28595 28596 28597 28598 28599 28600 28601 28602 28603 28604 28605 28606 28607 28608 28609 28610 28611 28612 28613 28614 28615 28616 28617 28618 28619 28620 28621 28622 28623 28624 28625 28626 28627 28628 28629 28630 28631 28632 28633 28634 28635 28636 28637 28638 28639 28640 28641 28642 28643 28644 28645 28646 28647 28648 28649 28650 28651 28652 28653 28654 28655 28656 28657 28658 28659 28660 28661 28662 28663 28664 28665 28666 28667 28668 28669 28670 28671 28672 28673 28674 28675 28676 28677 28678 28679 28680 28681 28682 28683 28684 28685 28686 28687 28688 28689 28690 28691 28692 28693 28694 28695 28696 28697 28698 28699 28700 28701 28702 28703 28704 28705 28706 28707 28708 28709 28710 28711 28712 28713 28714 28715 28716 28717 28718 28719 28720 28721 28722 28723 28724 28725 28726 28727 28728 28729 28730 28731 28732 28733 28734 28735 28736 28737 28738 28739 28740 28741 28742 28743 28744 28745 28746 28747 28748 28749 28750 28751 28752 28753 28754 28755 28756 28757 28758 28759 28760 28761 28762 28763 28764 28765 28766 28767 28768 28769 28770 28771 28772 28773 28774 28775 28776 28777 28778 28779 28780 28781 28782 28783 28784 28785 28786 28787 28788 28789 28790 28791 28792 28793 28794 28795 28796 28797 28798 28799 28800 28801 28802 28803 28804 28805 28806 28807 28808 28809 28810 28811 28812 28813 28814 28815 28816 28817 28818 28819 28820 28821 28822 28823 28824 28825 28826 28827 28828 28829 28830 28831 28832 28833 28834 28835 28836 28837 28838 28839 28840 28841 28842 28843 28844 28845 28846 28847 28848 28849 28850 28851 28852 28853 28854 28855 28856 28857 28858 28859 28860 28861 28862 28863 28864 28865 28866 28867 28868 28869 28870 28871 28872 28873 28874 28875 28876 28877 28878 28879 28880 28881 28882 28883 28884 28885 28886 28887 28888 28889 28890 28891 28892 28893 28894 28895 28896 28897 28898 28899 28900 28901 28902 28903 28904 28905 28906 28907 28908 28909 28910 28911 28912 28913 28914 28915 28916 28917 28918 28919 28920 28921 28922 28923 28924 28925 28926 28927 28928 28929 28930 28931 28932 28933 28934 28935 28936 28937 28938 28939 28940 28941 28942 28943 28944 28945 28946 28947 28948 28949 28950 28951 28952 28953 28954 28955 28956 28957 28958 28959 28960 28961 28962 28963 28964 28965 28966 28967 28968 28969 28970 28971 28972 28973 28974 28975 28976 28977 28978 28979 28980 28981 28982 28983 28984 28985 28986 28987 28988 28989 28990 28991 28992 28993 28994 28995 28996 28997 28998 28999 29000 29001 29002 29003 29004 29005 29006 29007 29008 29009 29010 29011 29012 29013 29014 29015 29016 29017 29018 29019 29020 29021 29022 29023 29024 29025 29026 29027 29028 29029 29030 29031 29032 29033 29034 29035 29036 29037 29038 29039 29040 29041 29042 29043 29044 29045 29046 29047 29048 29049 29050 29051 29052 29053 29054 29055 29056 29057 29058 29059 29060 29061 29062 29063 29064 29065 29066 29067 29068 29069 29070 29071 29072 29073 29074 29075 29076 29077 29078 29079 29080 29081 29082 29083 29084 29085 29086 29087 29088 29089 29090 29091 29092 29093 29094 29095 29096 29097 29098 29099 29100 29101 29102 29103 29104 29105 29106 29107 29108 29109 29110 29111 29112 29113 29114 29115 29116 29117 29118 29119 29120 29121 29122 29123 29124 29125 29126 29127 29128 29129 29130 29131 29132 29133 29134 29135 29136 29137 29138 29139 29140 29141 29142 29143 29144 29145 29146 29147 29148 29149 29150 29151 29152 29153 29154 29155 29156 29157 29158 29159 29160 29161 29162 29163 29164 29165 29166 29167 29168 29169 29170 29171 29172 29173 29174 29175 29176 29177 29178 29179 29180 29181 29182 29183 29184 29185 29186 29187 29188 29189 29190 29191 29192 29193 29194 29195 29196 29197 29198 29199 29200 29201 29202 29203 29204 29205 29206 29207 29208 29209 29210 29211 29212 29213 29214 29215 29216 29217 29218 29219 29220 29221 29222 29223 29224 29225 29226 29227 29228 29229 29230 29231 29232 29233 29234 29235 29236 29237 29238 29239 29240 29241 29242 29243 29244 29245 29246 29247 29248 29249 29250 29251 29252 29253 29254 29255 29256 29257 29258 29259 29260 29261 29262 29263 29264 29265 29266 29267 29268 29269 29270 29271 29272 29273 29274 29275 29276 29277 29278 29279 29280 29281 29282 29283 29284 29285 29286 29287 29288 29289 29290 29291 29292 29293 29294 29295 29296 29297 29298 29299 29300 29301 29302 29303 29304 29305 29306 29307 29308 29309 29310 29311 29312 29313 29314 29315 29316 29317 29318 29319 29320 29321 29322 29323 29324 29325 29326 29327 29328 29329 29330 29331 29332 29333 29334 29335 29336 29337 29338 29339 29340 29341 29342 29343 29344 29345 29346 29347 29348 29349 29350 29351 29352 29353 29354 29355 29356 29357 29358 29359 29360 29361 29362 29363 29364 29365 29366 29367 29368 29369 29370 29371 29372 29373 29374 29375 29376 29377 29378 29379 29380 29381 29382 29383 29384 29385 29386 29387 29388 29389 29390 29391 29392 29393 29394 29395 29396 29397 29398 29399 29400 29401 29402 29403 29404 29405 29406 29407 29408 29409 29410 29411 29412 29413 29414 29415 29416 29417 29418 29419 29420 29421 29422 29423 29424 29425 29426 29427 29428 29429 29430 29431 29432 29433 29434 29435 29436 29437 29438 29439 29440 29441 29442 29443 29444 29445 29446 29447 29448 29449 29450 29451 29452 29453 29454 29455 29456 29457 29458 29459 29460 29461 29462 29463 29464 29465 29466 29467 29468 29469 29470 29471 29472 29473 29474 29475 29476 29477 29478 29479 29480 29481 29482 29483 29484 29485 29486 29487 29488 29489 29490 29491 29492 29493 29494 29495 29496 29497 29498 29499 29500 29501 29502 29503 29504 29505 29506 29507 29508 29509 29510 29511 29512 29513 29514 29515 29516 29517 29518 29519 29520 29521 29522 29523 29524 29525 29526 29527 29528 29529 29530 29531 29532 29533 29534 29535 29536 29537 29538 29539 29540 29541 29542 29543 29544 29545 29546 29547 29548 29549 29550 29551 29552 29553 29554 29555 29556 29557 29558 29559 29560 29561 29562 29563 29564 29565 29566 29567 29568 29569 29570 29571 29572 29573 29574 29575 29576 29577 29578 29579 29580 29581 29582 29583 29584 29585 29586 29587 29588 29589 29590 29591 29592 29593 29594 29595 29596 29597 29598 29599 29600 29601 29602 29603 29604 29605 29606 29607 29608 29609 29610 29611 29612 29613 29614 29615 29616 29617 29618 29619 29620 29621 29622 29623 29624 29625 29626 29627 29628 29629 29630 29631 29632 29633 29634 29635 29636 29637 29638 29639 29640 29641 29642 29643 29644 29645 29646 29647 29648 29649 29650 29651 29652 29653 29654 29655 29656 29657 29658 29659 29660 29661 29662 29663 29664 29665 29666 29667 29668 29669 29670 29671 29672 29673 29674 29675 29676 29677 29678 29679 29680 29681 29682 29683 29684 29685 29686 29687 29688 29689 29690 29691 29692 29693 29694 29695 29696 29697 29698 29699 29700 29701 29702 29703 29704 29705 29706 29707 29708 29709 29710 29711 29712 29713 29714 29715 29716 29717 29718 29719 29720 29721 29722 29723 29724 29725 29726 29727 29728 29729 29730 29731 29732 29733 29734 29735 29736 29737 29738 29739 29740 29741 29742 29743 29744 29745 29746 29747 29748 29749 29750 29751 29752 29753 29754 29755 29756 29757 29758 29759 29760 29761 29762 29763 29764 29765 29766 29767 29768 29769 29770 29771 29772 29773 29774 29775 29776 29777 29778 29779 29780 29781 29782 29783 29784 29785 29786 29787 29788 29789 29790 29791 29792 29793 29794 29795 29796 29797 29798 29799 29800 29801 29802 29803 29804 29805 29806 29807 29808 29809 29810 29811 29812 29813 29814 29815 29816 29817 29818 29819 29820 29821 29822 29823 29824 29825 29826 29827 29828 29829 29830 29831 29832 29833 29834 29835 29836 29837 29838 29839 29840 29841 29842 29843 29844 29845 29846 29847 29848 29849 29850 29851 29852 29853 29854 29855 29856 29857 29858 29859 29860 29861 29862 29863 29864 29865 29866 29867 29868 29869 29870 29871 29872 29873 29874 29875 29876 29877 29878 29879 29880 29881 29882 29883 29884 29885 29886 29887 29888 29889 29890 29891 29892 29893 29894 29895 29896 29897 29898 29899 29900 29901 29902 29903 29904 29905 29906 29907 29908 29909 29910 29911 29912 29913 29914 29915 29916 29917 29918 29919 29920 29921 29922 29923 29924 29925 29926 29927 29928 29929 29930 29931 29932 29933 29934 29935 29936 29937 29938 29939 29940 29941 29942 29943 29944 29945 29946 29947 29948 29949 29950 29951 29952 29953 29954 29955 29956 29957 29958 29959 29960 29961 29962 29963 29964 29965 29966 29967 29968 29969 29970 29971 29972 29973 29974 29975 29976 29977 29978 29979 29980 29981 29982 29983 29984 29985 29986 29987 29988 29989 29990 29991 29992 29993 29994 29995 29996 29997 29998 29999 30000 30001 30002 30003 30004 30005 30006 30007 30008 30009 30010 30011 30012 30013 30014 30015 30016 30017 30018 30019 30020 30021 30022 30023 30024 30025 30026 30027 30028 30029 30030 30031 30032 30033 30034 30035 30036 30037 30038 30039 30040 30041 30042 30043 30044 30045 30046 30047 30048 30049 30050 30051 30052 30053 30054 30055 30056 30057 30058 30059 30060 30061 30062 30063 30064 30065 30066 30067 30068 30069 30070 30071 30072 30073 30074 30075 30076 30077 30078 30079 30080 30081 30082 30083 30084 30085 30086 30087 30088 30089 30090 30091 30092 30093 30094 30095 30096 30097 30098 30099 30100 30101 30102 30103 30104 30105 30106 30107 30108 30109 30110 30111 30112 30113 30114 30115 30116 30117 30118 30119 30120 30121 30122 30123 30124 30125 30126 30127 30128 30129 30130 30131 30132 30133 30134 30135 30136 30137 30138 30139 30140 30141 30142 30143 30144 30145 30146 30147 30148 30149 30150 30151 30152 30153 30154 30155 30156 30157 30158 30159 30160 30161 30162 30163 30164 30165 30166 30167 30168 30169 30170 30171 30172 30173 30174 30175 30176 30177 30178 30179 30180 30181 30182 30183 30184 30185 30186 30187 30188 30189 30190 30191 30192 30193 30194 30195 30196 30197 30198 30199 30200 30201 30202 30203 30204 30205 30206 30207 30208 30209 30210 30211 30212 30213 30214 30215 30216 30217 30218 30219 30220 30221 30222 30223 30224 30225 30226 30227 30228 30229 30230 30231 30232 30233 30234 30235 30236 30237 30238 30239 30240 30241 30242 30243 30244 30245 30246 30247 30248 30249 30250 30251 30252 30253 30254 30255 30256 30257 30258 30259 30260 30261 30262 30263 30264 30265 30266 30267 30268 30269 30270 30271 30272 30273 30274 30275 30276 30277 30278 30279 30280 30281 30282 30283 30284 30285 30286 30287 30288 30289 30290 30291 30292 30293 30294 30295 30296 30297 30298 30299 30300 30301 30302 30303 30304 30305 30306 30307 30308 30309 30310 30311 30312 30313 30314 30315 30316 30317 30318 30319 30320 30321 30322 30323 30324 30325 30326 30327 30328 30329 30330 30331 30332 30333 30334 30335 30336 30337 30338 30339 30340 30341 30342 30343 30344 30345 30346 30347 30348 30349 30350 30351 30352 30353 30354 30355 30356 30357 30358 30359 30360 30361 30362 30363 30364 30365 30366 30367 30368 30369 30370 30371 30372 30373 30374 30375 30376 30377 30378 30379 30380 30381 30382 30383 30384 30385 30386 30387 30388 30389 30390 30391 30392 30393 30394 30395 30396 30397 30398 30399 30400 30401 30402 30403 30404 30405 30406 30407 30408 30409 30410 30411 30412 30413 30414 30415 30416 30417 30418 30419 30420 30421 30422 30423 30424 30425 30426 30427 30428 30429 30430 30431 30432 30433 30434 30435 30436 30437 30438 30439 30440 30441 30442 30443 30444 30445 30446 30447 30448 30449 30450 30451 30452 30453 30454 30455 30456 30457 30458 30459 30460 30461 30462 30463 30464 30465 30466 30467 30468 30469 30470 30471 30472 30473 30474 30475 30476 30477 30478 30479 30480 30481 30482 30483 30484 30485 30486 30487 30488 30489 30490 30491 30492 30493 30494 30495 30496 30497 30498 30499 30500 30501 30502 30503 30504 30505 30506 30507 30508 30509 30510 30511 30512 30513 30514 30515 30516 30517 30518 30519 30520 30521 30522 30523 30524 30525 30526 30527 30528 30529 30530 30531 30532 30533 30534 30535 30536 30537 30538 30539 30540 30541 30542 30543 30544 30545 30546 30547 30548 30549 30550 30551 30552 30553 30554 30555 30556 30557 30558 30559 30560 30561 30562 30563 30564 30565 30566 30567 30568 30569 30570 30571 30572 30573 30574 30575 30576 30577 30578 30579 30580 30581 30582 30583 30584 30585 30586 30587 30588 30589 30590 30591 30592 30593 30594 30595 30596 30597 30598 30599 30600 30601 30602 30603 30604 30605 30606 30607 30608 30609 30610 30611 30612 30613 30614 30615 30616 30617 
</DataArray>
<DataArray type="UInt32" Name="offsets" format="ascii">
2 5 8 11 14 17 20 23 26 28 31 34 37 39 42 45 48 51 54 57 60 63 66 69 72 75 78 81 84 86 89 92 94 97 100 103 105 108 111 114 116 119 122 125 128 131 134 137 140 142 145 148 151 154 157 160 162 165 168 171 174 177 180 183 186 189 191 194 197 199 202 205 208 210 213 215 218 220 222 225 228 231 234 237 240 243 246 249 251 254 256 259 262 264 267 270 273 276 279 282 285 288 291 294 297 300 303 306 309 311 314 317 320 323 325 328 331 333 335 338 341 343 346 349 352 354 356 358 361 363 366 369 372 375 378 381 384 387 390 392 394 397 400 403 406 409 412 414 417 420 423 426 429 431 433 436 439 441 444 447 449 451 454 456 458 461 464 467 470 473 476 479 482 485 488 491 494 496 499 502 504 507 510 513 516 519 522 525 528 531 534 537 540 543 546 549 552 555 558 561 564 566 569 572 575 578 581 584 587 590 593 596 599 602 605 608 611 613 616 619 621 624 627 630 633 635 637 640 643 646 649 652 655 658 661 664 667 670 673 676 679 682 684 687 690 693 695 698 701 704 707 710 713 716 719 721 723 726 729 732 735 738 741 744 747 750 752 755 758 761 764 767 769 772 774 777 780 783 786 789 791 793 796 799 802 804 807 809 812 815 818 820 823 825 828 831 833 836 839 842 844 847 850 853 856 859 861 863 866 869 871 874 876 878 881 884 886 889 891 894 897 900 903 905 908 910 913 916 918 920 922 925 927 930 932 934 937 940 943 946 949 952 955 958 961 963 966 969 972 975 978 981 984 987 990 993 996 999 1002 1005 1008 1011 1014 1017 1020 1023 1026 1029 1032 1035 1037 1040 1042 1045 1048 1051 1054 1057 1059 1062 1064 1067 1070 1072 1075 1078 1081 1084 1086 1089 1091 1094 1097 1100 1103 1106 1109 1112 1115 1118 1121 1124 1127 1130 1132 1135 1138 1140 1143 1146 1149 1152 1155 1158 1161 1164 1167 1170 1173 1176 1179 1182 1185 1188 1191 1193 1196 1199 1202 1205 1208 1211 1214 1217 1220 1223 1225 1228 1231 1234 1236 1238 1241 1244 1247 1250 1253 1256 1259 1262 1265 1268 1271 1274 1277 1280 1283 1286 1289 1292 1295 1298 1301 1304 1307 1309 1312 1315 1317 1320 1323 1325 1328 1330 1333 1336 1339 1341 1344 1346 1348 1351 1354 1357 1360 1363 1366 1369 1372 1375 1378 1380 1383 1386 1389 1392 1395 1398 1401 1404 1407 1410 1413 1416 1419 1422 1425 1428 1431 1434 1437 1440 1443 1446 1449 1452 1455 1458 1461 1464 1467 1470 1473 1476 1478 1481 1484 1487 1490 1492 1495 1498 1501 1504 1507 1510 1513 1515 1518 1521 1524 1527 1530 1533 1536 1539 1542 1544 1547 1549 1551 1554 1557 1559 1562 1564 1567 1570 1573 1576 1579 1582 1585 1588 1590 1593 1596 1599 1602 1605 1607 1610 1613 1616 1619 1622 1625 1627 1630 1633 1636 1639 1642 1645 1648 1651 1653 1656 1658 1661 1664 1667 1670 1673 1675 1678 1680 1683 1686 1689 1692 1695 1698 1700 1703 1706 1709 1712 1715 1718 1721 1724 1727 1730 1732 1734 1737 1740 1743 1746 1748 1751 1754 1757 1760 1763 1766 1769 1772 1775 1778 1781 1784 1786 1789 1792 1794 1797 1800 1803 1806 1809 1812 1815 1818 1821 1824 1826 1828 1831 1834 1837 1840 1843 1846 1849 1852 1855 1858 1860 1863 1865 1868 1871 1874 1877 1880 1883 1886 1889 1892 1895 1898 1901 1904 1907 1910 1913 1916 1919 1922 1925 1928 1931 1934 1937 1940 1943 1946 1949 1952 1955 1958 1961 1964 1967 1970 1973 1976 1979 1982 1984 1987 1990 1993 1995 1998 2000 2003 2005 2008 2011 2013 2016 2018 2021 2023 2026 2029 2031 2034 2037 2040 2043 2046 2049 2052 2055 2057 2060 2063 2065 2068 2071 2074 2077 2079 2082 2085 2088 2091 2094 2097 2100 2103 2106 2109 2111 2114 2116 2119 2121 2124 2126 2129 2131 2134 2137 2140 2142 2145 2147 2150 2153 2156 2159 2162 2165 2168 2171 2174 2177 2180 2183 2185 2188 2191 2193 2195 2198 2201 2204 2206 2209 2212 2214 2217 2220 2222 2225 2228 2231 2233 2236 2239 2242 2245 2248 2250 2253 2256 2258 2260 2263 2266 2269 2271 2273 2275 2278 2281 2283 2286 2289 2291 2294 2297 2300 2303 2306 2309 2311 2314 2317 2319 2322 2325 2327 2330 2333 2336 2339 2342 2345 2348 2351 2353 2356 2359 2362 2365 2368 2370 2372 2374 2377 2380 2383 2386 2389 2392 2395 2398 2401 2404 2407 2409 2412 2415 2418 2421 2423 2426 2429 2432 2435 2438 2441 2444 2446 2449 2452 2455 2457 2460 2462 2465 2467 2470 2472 2475 2478 2481 2484 2487 2490 2493 2496 2499 2502 2504 2507 2510 2513 2516 2519 2522 2525 2528 2530 2533 2536 2538 2541 2544 2547 2550 2552 2555 2558 2561 2564 2567 2570 2572 2575 2577 2580 2583 2586 2589 2592 2595 2597 2599 2602 2605 2608 2611 2613 2616 2618 2621 2624 2627 2629 2632 2635 2638 2641 2644 2647 2650 2652 2654 2657 2660 2662 2665 2667 2669 2671 2674 2677 2680 2683 2686 2689 2692 2694 2697 2700 2703 2706 2709 2712 2715 2718 2721 2724 2727 2730 2733 2735 2738 2741 2744 2747 2750 2753 2756 2759 2762 2765 2767 2770 2773 2775 2778 2781 2784 2787 2790 2792 2795 2798 2801 2804 2807 2810 2813 2816 2818 2821 2823 2826 2829 2831 2834 2837 2839 2842 2845 2848 2851 2853 2856 2859 2862 2865 2868 2870 2873 2876 2879 2882 2885 2888 2891 2894 2897 2899 2902 2905 2907 2909 2912 2915 2918 2921 2923 2926 2928 2931 2934 2936 2938 2941 2943 2946 2948 2951 2954 2957 2960 2963 2965 2968 2971 2974 2976 2979 2982 2985 2987 2990 2993 2996 2999 3002 3005 3008 3011 3014 3017 3019 3022 3025 3028 3031 3034 3037 3040 3043 3046 3049 3052 3055 3058 3061 3064 3067 3070 3073 3075 3078 3081 3083 3086 3089 3092 3095 3097 3100 3103 3106 3109 3112 3115 3118 3121 3124 3127 3130 3133 3136 3139 3142 3145 3148 3151 3154 3157 3160 3163 3166 3169 3172 3175 3178 3181 3184 3187 3190 3193 3196 3199 3202 3205 3208 3211 3214 3217 3220 3223 3226 3229 3232 3235 3238 3241 3244 3247 3250 3253 3256 3259 3262 3265 3268 3271 3273 3276 3279 3282 3285 3288 3291 3294 3297 3300 3303 3306 3309 3312 3315 3318 3321 3324 3327 3330 3332 3335 3338 3341 3344 3346 3349 3352 3355 3358 3361 3364 3367 3370 3373 3376 3379 3382 3385 3388 3391 3394 3397 3400 3402 3405 3408 3411 3414 3416 3419 3422 3425 3428 3431 3433 3435 3438 3441 3444 3447 3450 3453 3456 3459 3462 3465 3468 3471 3474 3477 3480 3483 3486 3489 3491 3494 3497 3500 3502 3505 3507 3510 3513 3516 3519 3522 3525 3528 3531 3534 3536 3539 3542 3545 3548 3550 3552 3555 3558 3561 3564 3567 3570 3573 3576 3579 3582 3585 3588 3591 3594 3597 3600 3603 3606 3609 3611 3614 3617 3620 3623 3626 3629 3632 3635 3638 3641 3644 3647 3650 3652 3655 3658 3661 3664 3667 3670 3673 3676 3679 3682 3685 3688 3691 3694 3697 3700 3703 3706 3709 3712 3715 3718 3720 3723 3726 3729 3732 3735 3738 3741 3743 3746 3749 3752 3754 3757 3760 3763 3766 3769 3772 3775 3778 3781 3784 3787 3790 3793 3796 3799 3802 3805 3808 3811 3814 3817 3820 3823 3826 3828 3831 3833 3836 3839 3842 3845 3847 3850 3852 3855 3858 3861 3864 3867 3870 3873 3875 3878 3881 3884 3887 3889 3892 3895 3898 3901 3904 3907 3910 3913 3916 3919 3922 3924 3927 3930 3933 3936 3939 3942 3944 3947 3949 3952 3955 3958 3961 3964 3966 3969 3972 3974 3977 3980 3982 3985 3988 3991 3994 3997 4000 4003 4006 4009 4012 4015 4018 4021 4024 4027 4030 4033 4036 4039 4042 4045 4048 4051 4054 4057 4060 4063 4065 4068 4071 4074 4076 4079 4081 4084 4087 4089 4091 4094 4097 4100 4102 4105 4108 4111 4114 4116 4119 4121 4124 4127 4129 4132 4135 4138 4141 4144 4146 4149 4152 4155 4158 4161 4163 4166 4169 4172 4175 4178 4181 4184 4187 4190 4193 4196 4199 4202 4205 4208 4211 4214 4217 4220 4223 4226 4229 4232 4235 4238 4241 4244 4247 4250 4253 4256 4259 4262 4265 4268 4271 4274 4277 4280 4283 4286 4289 4292 4294 4296 4299 4302 4305 4308 4311 4314 4317 4320 4323 4326 4329 4332 4335 4338 4341 4344 4347 4350 4353 4356 4359 4362 4365 4368 4371 4374 4377 4380 4382 4385 4388 4391 4394 4396 4399 4402 4405 4408 4410 4413 4416 4419 4422 4425 4428 4431 4433 4436 4438 4441 4444 4447 4450 4453 4455 4458 4461 4464 4467 4470 4473 4476 4479 4482 4485 4487 4490 4493 4496 4499 4502 4505 4508 4511 4514 4517 4520 4523 4526 4529 4532 4535 4538 4541 4544 4547 4550 4553 4556 4559 4562 4564 4567 4570 4573 4576 4578 4581 4583 4586 4589 4591 4594 4596 4599 4602 4605 4608 4611 4614 4616 4619 4622 4625 4627 4630 4633 4636 4639 4642 4645 4648 4651 4654 4657 4660 4663 4666 4669 4672 4675 4678 4680 4683 4685 4688 4691 4694 4697 4700 4702 4705 4707 4710 4713 4716 4719 4722 4725 4728 4731 4733 4736 4739 4742 4745 4748 4751 4754 4757 4760 4763 4766 4769 4772 4775 4778 4781 4784 4787 4790 4793 4796 4799 4802 4804 4807 4809 4812 4815 4818 4821 4824 4827 4830 4833 4836 4839 4842 4845 4847 4850 4853 4856 4859 4862 4865 4868 4871 4874 4877 4880 4883 4886 4889 4892 4895 4898 4901 4904 4907 4910 4913 4916 4919 4922 4925 4928 4930 4933 4936 4939 4941 4944 4946 4948 4951 4954 4957 4960 4963 4965 4968 4971 4974 4977 4980 4983 4986 4989 4992 4995 4998 5001 5004 5007 5010 5013 5016 5019 5022 5025 5028 5031 5034 5037 5039 5042 5045 5047 5050 5053 5056 5059 5062 5065 5068 5071 5073 5075 5078 5081 5084 5087 5090 5093 5096 5099 5102 5105 5107 5110 5113 5115 5117 5120 5122 5125 5128 5131 5134 5137 5139 5142 5144 5146 5148 5151 5154 5157 5160 5163 5166 5168 5171 5174 5177 5180 5183 5186 5189 5192 5195 5197 5200 5202 5205 5208 5210 5213 5216 5219 5222 5225 5228 5231 5234 5237 5240 5243 5246 5249 5252 5255 5258 5261 5264 5267 5270 5273 5276 5279 5282 5285 5288 5290 5292 5295 5298 5301 5304 5307 5310 5313 5316 5319 5322 5325 5328 5331 5334 5337 5340 5343 5346 5349 5352 5355 5358 5361 5364 5367 5370 5373 5376 5379 5382 5385 5388 5391 5394 5397 5400 5403 5406 5409 5412 5415 5418 5421 5424 5427 5430 5433 5436 5439 5442 5445 5448 5451 5454 5457 5460 5462 5465 5468 5471 5474 5477 5480 5483 5486 5489 5491 5493 5496 5499 5502 5504 5507 5510 5513 5516 5519 5522 5525 5528 5531 5534 5537 5540 5543 5546 5549 5552 5555 5558 5561 5564 5567 5570 5573 5576 5579 5582 5585 5588 5591 5594 5596 5599 5602 5605 5608 5611 5614 5617 5619 5622 5625 5628 5631 5634 5637 5640 5642 5645 5648 5650 5653 5656 5659 5662 5665 5668 5671 5674 5677 5679 5682 5685 5687 5689 5692 5695 5698 5700 5703 5706 5709 5712 5715 5718 5721 5724 5727 5730 5733 5735 5738 5741 5744 5747 5749 5752 5754 5757 5760 5762 5765 5768 5770 5772 5775 5778 5781 5784 5787 5790 5793 5796 5799 5802 5804 5806 5809 5812 5815 5818 5821 5824 5826 5829 5832 5835 5838 5841 5844 5846 5849 5851 5854 5857 5860 5863 5866 5868 5870 5873 5876 5879 5882 5885 5888 5891 5894 5897 5900 5903 5906 5909 5912 5915 5918 5921 5924 5927 5929 5931 5934 5937 5939 5942 5945 5948 5951 5954 5957 5960 5963 5966 5969 5972 5974 5977 5980 5983 5986 5989 5992 5995 5998 6001 6004 6007 6010 6013 6016 6019 6022 6025 6028 6031 6034 6037 6040 6043 6046 6049 6052 6055 6058 6060 6063 6066 6069 6072 6074 6076 6079 6082 6085 6088 6091 6094 6097 6099 6102 6104 6107 6110 6113 6116 6119 6122 6125 6128 6131 6134 6137 6140 6143 6146 6149 6152 6155 6158 6161 6164 6166 6168 6171 6173 6176 6179 6182 6185 6188 6190 6193 6196 6199 6202 6205 6208 6211 6214 6217 6220 6223 6226 6229 6232 6235 6238 6241 6243 6246 6249 6252 6255 6258 6261 6264 6267 6270 6273 6276 6278 6281 6284 6287 6290 6293 6296 6299 6302 6305 6308 6310 6313 6316 6319 6322 6325 6328 6331 6334 6337 6339 6342 6345 6348 6351 6353 6356 6359 6362 6364 6367 6370 6373 6376 6378 6381 6384 6387 6390 6393 6396 6399 6402 6405 6407 6410 6413 6416 6419 6421 6424 6427 6430 6433 6436 6439 6442 6445 6447 6450 6452 6454 6457 6459 6461 6464 6467 6470 6472 6475 6478 6481 6483 6486 6488 6491 6494 6497 6500 6503 6505 6508 6511 6514 6516 6519 6522 6525 6528 6531 6534 6536 6538 6541 6544 6547 6550 6553 6556 6559 6562 6565 6568 6571 6573 6576 6578 6580 6583 6586 6589 6592 6595 6597 6599 6602 6605 6607 6610 6613 6616 6619 6621 6624 6627 6630 6633 6636 6638 6641 6644 6647 6650 6652 6654 6657 6660 6662 6665 6667 6669 6672 6675 6678 6681 6684 6687 6690 6693 6696 6699 6702 6705 6708 6711 6714 6717 6720 6723 6726 6729 6732 6734 6737 6740 6742 6745 6747 6750 6753 6756 6758 6761 6764 6767 6770 6773 6776 6778 6780 6783 6786 6789 6792 6795 6798 6800 6803 6806 6808 6811 6814 6817 6820 6823 6826 6828 6831 6834 6837 6839 6842 6845 6848 6851 6854 6857 6859 6862 6865 6868 6871 6874 6877 6880 6883 6886 6889 6892 6895 6898 6900 6903 6905 6908 6911 6914 6917 6920 6923 6926 6929 6932 6934 6937 6940 6943 6945 6948 6951 6954 6957 6960 6963 6966 6969 6972 6975 6977 6980 6983 6986 6989 6992 6995 6998 7001 7004 7007 7010 7013 7016 7019 7022 7025 7028 7031 7034 7037 7040 7043 7046 7049 7052 7054 7057 7060 7063 7065 7068 7071 7073 7076 7079 7082 7085 7088 7090 7093 7096 7099 7101 7104 7107 7110 7113 7116 7119 7122 7124 7127 7130 7133 7136 7139 7142 7145 7148 7151 7154 7157 7160 7163 7166 7169 7172 7175 7177 7180 7182 7185 7188 7191 7194 7197 7200 7203 7206 7209 7211 7214 7216 7219 7221 7224 7226 7228 7231 7234 7237 7240 7242 7245 7248 7251 7254 7256 7259 7262 7265 7268 7271 7273 7276 7278 7281 7284 7286 7289 7292 7295 7298 7301 7304 7307 7310 7313 7316 7319 7322 7325 7328 7331 7334 7337 7339 7342 7345 7348 7351 7354 7357 7359 7362 7365 7368 7371 7374 7376 7379 7382 7385 7388 7391 7394 7397 7399 7402 7405 7407 7410 7413 7416 7419 7422 7425 7427 7430 7433 7436 7438 7441 7444 7447 7450 7453 7456 7459 7462 7465 7468 7471 7474 7477 7480 7483 7486 7489 7491 7494 7497 7500 7503 7506 7508 7510 7513 7516 7519 7522 7525 7527 7530 7532 7535 7537 7540 7542 7544 7547 7550 7553 7555 7557 7560 7563 7566 7569 7572 7575 7578 7581 7584 7587 7590 7593 7596 7599 7602 7605 7608 7611 7614 7617 7620 7623 7626 7629 7632 7635 7638 7641 7644 7647 7650 7653 7656 7659 7662 7665 7668 7671 7673 7676 7679 7682 7685 7688 7691 7694 7696 7699 7701 7704 7707 7710 7713 7716 7719 7721 7724 7727 7730 7732 7735 7738 7741 7743 7745 7748 7750 7753 7756 7759 7762 7765 7768 7770 7773 7776 7778 7781 7784 7787 7790 7793 7796 7799 7802 7805 7808 7811 7814 7816 7818 7820 7823 7826 7829 7831 7834 7837 7840 7843 7846 7849 7852 7855 7858 7861 7864 7867 7870 7873 7876 7879 7882 7885 7888 7891 7894 7897 7899 7902 7905 7908 7911 7913 7916 7919 7922 7925 7928 7931 7934 7936 7939 7942 7945 7948 7951 7953 7956 7959 7962 7965 7968 7970 7973 7976 7979 7982 7985 7988 7991 7994 7997 7999 8002 8005 8008 8011 8013 8016 8019 8022 8025 8028 8031 8034 8037 8040 8043 8045 8048 8051 8053 8056 8059 8062 8065 8068 8071 8074 8077 8080 8083 8086 8089 8092 8095 8098 8101 8104 8107 8110 8113 8115 8118 8121 8124 8127 8129 8132 8135 8138 8141 8144 8147 8150 8153 8155 8158 8161 8164 8167 8170 8172 8175 8178 8180 8183 8186 8189 8192 8195 8198 8201 8204 8207 8210 8213 8216 8218 8221 8224 8227 8230 8233 8236 8239 8242 8245 8248 8251 8254 8257 8260 8263 8266 8269 8272 8275 8278 8281 8284 8287 8290 8293 8296 8299 8302 8304 8307 8310 8313 8316 8319 8322 8325 8328 8331 8334 8337 8340 8343 8346 8348 8351 8354 8357 8360 8363 8366 8369 8372 8375 8378 8381 8384 8387 8390 8393 8396 8399 8402 8405 8407 8410 8413 8416 8419 8422 8425 8428 8430 8433 8436 8439 8442 8445 8448 8451 8454 8457 8460 8463 8466 8469 8472 8475 8478 8481 8484 8487 8490 8493 8496 8499 8502 8504 8507 8510 8513 8516 8519 8521 8524 8527 8530 8533 8536 8539 8542 8545 8548 8551 8553 8556 8559 8561 8564 8566 8569 8572 8575 8578 8581 8584 8587 8589 8592 8594 8597 8599 8602 8605 8608 8611 8614 8617 8620 8623 8626 8629 8632 8635 8638 8641 8644 8647 8650 8653 8656 8659 8662 8665 8668 8671 8674 8677 8680 8683 8686 8689 8692 8695 8698 8701 8704 8707 8709 8712 8715 8718 8721 8724 8727 8730 8733 8736 8739 8742 8745 8748 8751 8754 8757 8760 8763 8766 8769 8772 8775 8778 8781 8784 8787 8790 8793 8796 8799 8802 8804 8807 8810 8813 8816 8819 8822 8824 8826 8829 8832 8835 8838 8841 8844 8847 8850 8853 8856 8859 8862 8865 8867 8870 8873 8876 8879 8882 8885 8888 8891 8894 8897 8899 8901 8904 8906 8909 8912 8915 8917 8920 8922 8924 8927 8929 8932 8935 8938 8941 8944 8947 8950 8952 8954 8957 8960 8963 8966 8968 8971 8974 8977 8980 8982 8985 8987 8990 8992 8994 8997 8999 9002 9005 9008 9011 9014 9016 9019 9021 9023 9025 9027 9030 9033 9036 9039 9042 9044 9047 9050 9052 9054 9057 9060 9063 9065 9068 9071 9073 9076 9079 9082 9085 9087 9090 9093 9095 9098 9101 9103 9106 9109 9112 9115 9118 9121 9124 9127 9130 9133 9136 9139 9142 9145 9147 9150 9152 9155 9158 9161 9164 9167 9169 9172 9175 9177 9180 9183 9186 9189 9192 9194 9197 9200 9203 9206 9209 9212 9215 9218 9221 9224 9226 9229 9232 9235 9238 9241 9244 9247 9250 9253 9256 9259 9261 9264 9267 9270 9273 9276 9279 9281 9284 9287 9290 9293 9296 9299 9302 9305 9308 9311 9314 9317 9320 9323 9325 9328 9331 9334 9336 9339 9342 9345 9348 9351 9354 9357 9359 9362 9364 9367 9370 9373 9376 9379 9382 9385 9388 9391 9394 9397 9400 9403 9406 9409 9412 9415 9418 9421 9424 9427 9430 9433 9436 9439 9442 9445 9448 9451 9454 9457 9460 9463 9466 9469 9472 9474 9477 9479 9482 9485 9487 9490 9492 9495 9498 9501 9504 9507 9510 9512 9515 9518 9520 9522 9525 9528 9531 9534 9537 9540 9542 9545 9548 9551 9554 9557 9560 9563 9565 9568 9571 9574 9577 9580 9583 9586 9589 9592 9595 9598 9601 9604 9607 9610 9613 9616 9619 9622 9624 9627 9630 9633 9635 9638 9640 9643 9645 9648 9651 9654 9657 9659 9662 9665 9668 9671 9674 9677 9679 9682 9685 9688 9691 9694 9697 9699 9702 9705 9707 9710 9713 9716 9719 9722 9725 9727 9730 9733 9736 9739 9742 9745 9748 9751 9754 9756 9759 9761 9764 9767 9770 9773 9776 9778 9780 9783 9786 9789 9791 9793 9796 9799 9802 9805 9808 9811 9813 9816 9819 9821 9823 9826 9829 9831 9834 9837 9839 9842 9845 9848 9851 9853 9856 9859 9862 9865 9868 9871 9873 9876 9879 9882 9885 9888 9891 9894 9897 9900 9903 9905 9908 9911 9914 9916 9918 9921 9924 9927 9930 9933 9936 9939 9942 9945 9947 9950 9953 9956 9959 9962 9965 9968 9971 9974 9977 9980 9982 9984 9987 9990 9993 9996 9998 10001 10004 10007 10010 10012 10015 10018 10021 10024 10026 10029 10032 10035 10037 10040 10043 10046 10049 10051 10054 10057 10060 10063 10066 10068 10071 10074 10077 10080 10082 10085 10088 10091 10094 10097 10100 10103 10106 10109 10112 10115 10118 10121 10124 10127 10130 10133 10136 10139 10142 10145 10148 10151 10154 10157 10160 10163 10166 10169 10172 10175 10178 10180 10183 10186 10189 10192 10194 10197 10200 10203 10206 10209 10212 10214 10217 10220 10223 10225 10228 10230 10233 10236 10239 10242 10245 10248 10251 10254 10257 10260 10263 10266 10269 10272 10275 10278 10281 10284 10287 10290 10293 10296 10299 10301 10304 10306 10309 10312 10315 10317 10320 10323 10326 10329 10332 10335 10338 10341 10344 10347 10350 10353 10356 10358 10361 10364 10366 10369 10372 10374 10376 10379 10381 10384 10387 10390 10393 10396 10399 10402 10405 10408 10411 10414 10417 10420 10423 10426 10429 10432 10434 10437 10440 10443 10446 10449 10451 10454 10457 10460 10463 10466 10469 10472 10474 10477 10480 10483 10486 10489 10492 10495 10497 10500 10503 10506 10509 10512 10515 10518 10521 10524 10527 10530 10533 10536 10539 10542 10544 10547 10550 10553 10555 10558 10561 10564 10567 10570 10573 10576 10579 10582 10585 10588 10590 10593 10596 10599 10602 10605 10608 10610 10613 10616 10618 10621 10623 10626 10629 10632 10634 10637 10640 10643 10646 10649 10652 10655 10658 10661 10664 10667 10669 10672 10675 10678 10681 10684 10686 10689 10692 10695 10697 10700 10703 10706 10708 10711 10714 10717 10720 10723 10725 10728 10730 10733 10736 10739 10742 10745 10748 10751 10754 10756 10759 10761 10764 10767 10769 10772 10774 10777 10779 10782 10785 10788 10791 10794 10797 10800 10803 10806 10809 10811 10814 10816 10819 10822 10825 10828 10830 10833 10836 10839 10841 10843 10846 10849 10852 10854 10857 10859 10861 10864 10867 10869 10871 10874 10876 10878 10881 10884 10886 10888 10891 10894 10896 10899 10902 10904 10907 10909 10912 10915 10917 10920 10923 10925 10928 10930 10933 10936 10939 10941 10944 10946 10949 10952 10954 10956 10959 10962 10965 10967 10969 10972 10974 10977 10980 10983 10986 10989 10992 10995 10998 11000 11003 11006 11008 11010 11013 11015 11018 11020 11022 11025 11028 11031 11033 11036 11039 11041 11044 11047 11050 11053 11056 11059 11061 11063 11066 11069 11072 11075 11078 11081 11084 11086 11088 11091 11094 11097 11100 11102 11105 11108 11111 11113 11116 11119 11121 11124 11127 11130 11133 11136 11138 11141 11144 11146 11149 11152 11155 11157 11159 11162 11165 11167 11170 11173 11176 11178 11181 11184 11187 11189 11191 11194 11197 11199 11202 11205 11208 11211 11213 11215 11218 11221 11223 11225 11228 11230 11232 11235 11238 11241 11244 11247 11250 11252 11255 11258 11261 11264 11267 11270 11273 11276 11279 11282 11284 11286 11289 11292 11295 11298 11301 11304 11307 11309 11312 11315 11318 11321 11324 11327 11330 11333 11336 11338 11341 11344 11346 11349 11352 11354 11357 11360 11363 11366 11369 11372 11375 11378 11381 11384 11387 11390 11393 11396 11399 11402 11405 11408 11410 11412 11415 11418 11421 11424 11426 11429 11432 11434 11437 11440 11443 11446 11449 11452 11455 11458 11461 11463 11466 11469 11471 11474 11477 11480 11483 11486 11489 11492 11495 11498 11501 11504 11506 11509 11511 11514 11517 11520 11523 11526 11529 11532 11535 11538 11541 11543 11546 11549 11552 11555 11558 11561 11564 11567 11570 11573 11576 11579 11582 11585 11588 11591 11594 11597 11600 11603 11606 11609 11612 11615 11618 11621 11624 11627 11630 11633 11636 11639 11642 11645 11648 11651 11654 11657 11660 11662 11665 11668 11671 11674 11677 11680 11683 11686 11689 11691 11694 11697 11699 11702 11705 11708 11711 11714 11717 11720 11723 11726 11729 11732 11735 11738 11741 11744 11747 11749 11752 11754 11757 11760 11762 11765 11768 11771 11773 11775 11778 11780 11782 11785 11787 11790 11793 11795 11798 11801 11803 11806 11809 11812 11815 11818 11821 11824 11827 11830 11833 11836 11839 11842 11845 11848 11851 11854 11857 11860 11863 11866 11868 11871 11874 11877 11880 11883 11886 11889 11892 11895 11898 11901 11904 11907 11910 11913 11916 11919 11922 11925 11927 11930 11933 11936 11939 11942 11944 11947 11950 11953 11956 11959 11962 11965 11968 11971 11974 11977 11980 11983 11986 11989 11992 11995 11998 12001 12004 12007 12010 12013 12016 12018 12021 12024 12027 12030 12033 12036 12038 12041 12044 12047 12050 12053 12056 12059 12062 12065 12068 12071 12074 12077 12080 12083 12085 12088 12091 12094 12096 12098 12101 12104 12107 12109 12112 12115 12118 12121 12124 12127 12130 12133 12135 12138 12141 12144 12147 12149 12152 12155 12158 12161 12164 12167 12170 12173 12176 12179 12182 12185 12188 12190 12193 12196 12199 12202 12205 12208 12211 12214 12217 12220 12223 12226 12229 12232 12235 12238 12241 12244 12247 12250 12253 12256 12259 12262 12265 12268 12271 12273 12276 12279 12282 12285 12288 12291 12294 12297 12300 12303 12306 12309 12312 12315 12318 12320 12322 12325 12328 12331 12333 12336 12339 12342 12345 12348 12351 12354 12357 12360 12363 12366 12369 12372 12375 12378 12381 12384 12387 12390 12393 12396 12399 12402 12405 12408 12411 12414 12417 12420 12423 12425 12428 12431 12434 12437 12440 12443 12446 12449 12452 12455 12458 12461 12464 12467 12470 12473 12476 12479 12482 12485 12488 12491 12494 12497 12500 12502 12505 12508 12511 12514 12517 12520 12523 12525 12528 12531 12534 12536 12539 12542 12544 12547 12550 12553 12556 12559 12562 12565 12568 12570 12572 12575 12578 12581 12584 12587 12589 12592 12595 12598 12601 12604 12607 12610 12613 12616 12619 12622 12625 12628 12631 12634 12637 12640 12643 12646 12648 12651 12653 12656 12658 12661 12664 12667 12669 12672 12674 12677 12680 12683 12686 12689 12692 12695 12698 12701 12704 12707 12710 12712 12715 12718 12721 12724 12726 12729 12732 12734 12737 12739 12742 12745 12747 12750 12753 12756 12758 12761 12764 12767 12770 12773 12776 12779 12782 12785 12787 12790 12793 12796 12799 12801 12804 12807 12810 12813 12815 12818 12821 12824 12827 12830 12833 12835 12838 12840 12843 12845 12848 12851 12854 12856 12859 12862 12865 12868 12871 12874 12876 12878 12881 12884 12887 12890 12893 12895 12898 12901 12904 12907 12910 12913 12916 12919 12922 12925 12928 12931 12934 12937 12940 12943 12946 12949 12952 12954 12957 12960 12963 12966 12969 12972 12975 12978 12981 12983 12986 12988 12991 12993 12996 12999 13002 13005 13008 13011 13014 13017 13020 13023 13026 13029 13031 13034 13037 13039 13042 13045 13048 13051 13054 13057 13060 13063 13066 13068 13071 13073 13076 13079 13082 13085 13088 13091 13093 13096 13099 13102 13105 13108 13111 13114 13117 13120 13123 13126 13129 13132 13135 13138 13141 13144 13147 13150 13153 13156 13159 13162 13165 13168 13171 13174 13177 13180 13183 13186 13189 13192 13195 13198 13201 13204 13207 13210 13213 13216 13218 13221 13224 13226 13229 13231 13234 13237 13240 13242 13244 13247 13250 13252 13255 13258 13261 13264 13267 13270 13273 13276 13279 13282 13285 13288 13290 13293 13296 13299 13302 13305 13308 13311 13314 13317 13320 13323 13326 13328 13331 13334 13337 13340 13343 13346 13349 13352 13355 13358 13361 13364 13367 13370 13373 13375 13378 13381 13384 13387 13390 13392 13395 13398 13401 13404 13407 13410 13413 13416 13419 13421 13424 13427 13430 13433 13435 13438 13441 13444 13447 13450 13453 13456 13459 13462 13465 13468 13470 13473 13475 13478 13480 13483 13486 13489 13491 13494 13497 13500 13503 13506 13509 13512 13515 13518 13521 13524 13527 13530 13533 13536 13539 13542 13545 13548 13551 13553 13556 13559 13562 13565 13568 13571 13574 13577 13580 13583 13586 13589 13592 13595 13598 13601 13604 13607 13609 13612 13615 13618 13621 13624 13626 13629 13632 13635 13638 13641 13644 13647 13650 13652 13655 13658 13660 13663 13666 13669 13672 13675 13678 13681 13683 13686 13689 13692 13695 13698 13701 13704 13707 13710 13712 13715 13718 13721 13724 13727 13730 13733 13736 13739 13742 13745 13748 13751 13754 13757 13760 13763 13766 13769 13772 13775 13778 13781 13784 13786 13789 13791 13794 13797 13799 13802 13805 13808 13811 13814 13817 13820 13823 13825 13828 13831 13834 13837 13840 13843 13845 13848 13851 13854 13857 13860 13863 13866 13869 13872 13875 13878 13881 13883 13886 13889 13892 13895 13898 13901 13904 13907 13910 13913 13916 13919 13922 13925 13927 13930 13933 13936 13938 13941 13944 13947 13950 13952 13955 13958 13961 13964 13967 13970 13973 13976 13979 13982 13985 13988 13991 13994 13997 14000 14003 14006 14009 14012 14015 14018 14021 14024 14027 14030 14032 14035 14038 14040 14043 14046 14049 14052 14055 14058 14061 14064 14067 14069 14072 14075 14077 14080 14083 14085 14088 14091 14094 14097 14100 14103 14106 14109 14112 14115 14118 14121 14124 14127 14130 14133 14136 14139 14142 14145 14148 14151 14154 14157 14160 14163 14166 14169 14172 14175 14178 14181 14184 14187 14190 14193 14196 14199 14202 14205 14208 14211 14214 14217 14220 14223 14226 14229 14232 14235 14238 14241 14244 14247 14250 14253 14256 14259 14262 14265 14268 14271 14274 14276 14279 14282 14285 14288 14291 14294 14296 14299 14302 14305 14308 14311 14314 14317 14320 14323 14326 14329 14331 14333 14336 14339 14341 14344 14346 14349 14352 14354 14357 14360 14362 14365 14368 14371 14374 14377 14380 14383 14386 14388 14391 14394 14397 14400 14403 14406 14409 14412 14415 14417 14420 14423 14426 14429 14431 14434 14437 14440 14443 14446 14449 14452 14455 14458 14461 14464 14467 14470 14473 14476 14478 14481 14484 14487 14490 14492 14495 14497 14500 14503 14506 14508 14511 14514 14516 14519 14522 14525 14528 14531 14534 14537 14540 14543 14546 14549 14551 14554 14557 14559 14562 14565 14568 14570 14573 14576 14578 14580 14583 14586 14588 14591 14594 14597 14600 14603 14606 14609 14612 14614 14617 14620 14623 14626 14628 14631 14633 14636 14638 14641 14644 14647 14650 14652 14655 14658 14661 14663 14666 14669 14672 14675 14678 14681 14684 14687 14690 14693 14696 14699 14702 14705 14708 14711 14714 14717 14719 14722 14725 14728 14731 14734 14737 14740 14743 14746 14749 14752 14755 14758 14761 14764 14767 14770 14773 14776 14779 14782 14785 14788 14791 14794 14797 14800 14803 14806 14809 14812 14815 14818 14821 14824 14827 14830 14833 14836 14839 14841 14844 14847 14850 14853 14856 14858 14861 14864 14867 14870 14873 14876 14879 14882 14885 14888 14891 14894 14897 14899 14902 14905 14907 14910 14913 14916 14918 14921 14923 14926 14929 14932 14935 14937 14940 14943 14946 14949 14952 14955 14958 14961 14964 14966 14969 14972 14974 14976 14979 14981 14984 14987 14990 14993 14996 14999 15002 15005 15008 15011 15014 15017 15020 15023 15026 15029 15032 15035 15038 15041 15044 15047 15050 15052 15055 15058 15061 15063 15066 15069 15072 15075 15078 15081 15084 15086 15089 15092 15095 15098 15101 15104 15107 15110 15113 15116 15119 15122 15125 15128 15131 15134 15137 15140 15143 15146 15149 15152 15155 15157 15160 15163 15166 15169 15172 15174 15177 15179 15181 15184 15187 15190 15192 15195 15198 15200 15203 15206 15209 15212 15215 15218 15221 15224 15227 15230 15233 15235 15238 15241 15244 15246 15249 15251 15254 15257 15260 15263 15266 15268 15271 15273 15276 15278 15281 15284 15287 15290 15293 15296 15299 15302 15304 15306 15308 15311 15314 15316 15319 15322 15325 15328 15331 15334 15337 15340 15343 15346 15349 15352 15355 15358 15361 15364 15367 15370 15373 15376 15379 15382 15385 15388 15391 15394 15397 15400 15403 15406 15409 15412 15415 15418 15421 15424 15427 15429 15432 15435 15438 15441 15444 15447 15450 15452 15455 15458 15460 15463 15466 15469 15472 15475 15478 15481 15484 15487 15490 15493 15496 15499 15502 15505 15508 15511 15514 15517 15520 15523 15526 15529 15531 15534 15537 15540 15543 15546 15549 15552 15555 15558 15561 15563 15566 15569 15572 15575 15577 15580 15583 15586 15589 15591 15594 15596 15598 15601 15604 15607 15610 15612 15615 15618 15620 15623 15626 15628 15630 15633 15636 15639 15642 15645 15648 15651 15653 15656 15659 15662 15665 15668 15671 15674 15677 15680 15683 15686 15689 15692 15694 15697 15700 15703 15706 15709 15712 15715 15717 15719 15722 15724 15727 15729 15732 15735 15738 15740 15743 15746 15749 15752 15755 15757 15760 15763 15765 15768 15771 15774 15777 15780 15783 15786 15788 15791 15794 15797 15800 15803 15806 15809 15812 15814 15817 15820 15823 15825 15828 15831 15834 15837 15840 15842 15844 15847 15850 15852 15855 15858 15861 15864 15867 15870 15873 15876 15879 15882 15885 15888 15891 15894 15896 15899 15902 15904 15907 15909 15912 15915 15918 15921 15923 15926 15929 15932 15935 15938 15940 15943 15946 15948 15950 15953 15956 15959 15962 15964 15967 15970 15973 15976 15979 15982 15985 15988 15990 15993 15995 15998 16001 16004 16007 16010 16013 16016 16019 16021 16024 16027 16030 16033 16035 16038 16041 16044 16047 16050 16053 16056 16059 16062 16065 16068 16071 16074 16077 16080 16083 16086 16089 16092 16095 16098 16101 16104 16107 16110 16113 16116 16119 16122 16125 16128 16131 16134 16136 16139 16142 16145 16148 16151 16154 16157 16159 16162 16165 16168 16171 16174 16177 16180 16183 16186 16189 16192 16195 16197 16200 16203 16206 16209 16211 16214 16217 16220 16223 16226 16229 16232 16235 16238 16241 16244 16247 16250 16252 16255 16258 16260 16263 16266 16269 16272 16274 16277 16280 16283 16286 16289 16292 16295 16298 16301 16304 16307 16309 16312 16314 16317 16320 16322 16325 16328 16331 16334 16336 16339 16342 16345 16348 16351 16354 16357 16360 16363 16366 16369 16372 16375 16378 16381 16384 16387 16390 16393 16396 16399 16402 16405 16408 16411 16414 16417 16420 16422 16425 16428 16431 16434 16436 16439 16442 16445 16448 16451 16454 16457 16460 16463 16465 16468 16471 16474 16476 16479 16482 16485 16488 16491 16494 16496 16499 16501 16504 16506 16509 16512 16515 16518 16521 16524 16527 16530 16533 16536 16539 16542 16545 16548 16551 16554 16557 16560 16563 16566 16569 16572 16575 16578 16581 16584 16587 16590 16593 16596 16599 16602 16605 16608 16611 16613 16616 16618 16621 16624 16627 16630 16633 16636 16639 16642 16644 16647 16650 16653 16656 16659 16662 16665 16668 16671 16674 16677 16680 16682 16685 16688 16691 16694 16697 16700 16703 16706 16709 16712 16715 16718 16721 16723 16726 16729 16731 16734 16737 16740 16743 16745 16748 16751 16754 16757 16759 16762 16765 16768 16771 16774 16776 16778 16781 16783 16786 16789 16791 16794 16797 16800 16803 16805 16808 16810 16813 16816 16819 16822 16825 16828 16831 16834 16836 16839 16842 16845 16848 16850 16853 16856 16859 16862 16865 16868 16871 16874 16877 16880 16883 16886 16889 16892 16895 16898 16901 16904 16907 16910 16913 16916 16918 16921 16924 16927 16930 16933 16936 16939 16942 16945 16948 16951 16954 16957 16960 16963 16966 16969 16972 16975 16978 16981 16983 16986 16989 16992 16995 16998 17001 17004 17006 17009 17011 17014 17017 17020 17023 17026 17029 17032 17035 17038 17041 17044 17047 17050 17053 17056 17059 17062 17065 17068 17071 17074 17077 17080 17083 17086 17089 17091 17094 17097 17100 17103 17106 17108 17111 17113 17116 17119 17122 17125 17127 17129 17131 17134 17136 17139 17142 17145 17147 17150 17153 17156 17159 17161 17164 17166 17169 17172 17175 17178 17180 17183 17186 17189 17191 17193 17195 17198 17200 17203 17205 17208 17211 17213 17216 17219 17222 17225 17228 17231 17234 17237 17240 17243 17245 17248 17250 17253 17255 17258 17261 17264 17267 17269 17272 17275 17278 17281 17283 17286 17289 17292 17295 17298 17301 17304 17307 17310 17313 17315 17318 17320 17323 17326 17328 17331 17334 17336 17339 17342 17345 17348 17351 17353 17356 17359 17362 17365 17368 17371 17374 17377 17380 17383 17386 17389 17391 17394 17397 17400 17402 17405 17408 17411 17414 17417 17419 17422 17425 17428 17431 17434 17437 17440 17443 17446 17449 17452 17455 17458 17461 17464 17467 17470 17473 17476 17479 17482 17484 17487 17490 17493 17496 17498 17501 17504 17507 17509 17512 17514 17517 17520 17522 17525 17527 17530 17533 17536 17539 17542 17545 17547 17550 17553 17556 17559 17561 17564 17566 17569 17572 17575 17578 17581 17584 17587 17589 17592 17595 17598 17601 17604 17607 17610 17612 17615 17618 17621 17624 17627 17630 17633 17636 17639 17642 17645 17648 17651 17654 17657 17660 17663 17665 17668 17671 17674 17676 17679 17682 17685 17688 17691 17694 17697 17700 17703 17706 17709 17712 17715 17718 17720 17723 17726 17729 17732 17735 17738 17741 17744 17747 17750 17753 17756 17759 17762 17765 17768 17771 17774 17777 17780 17783 17786 17789 17792 17795 17798 17801 17803 17806 17808 17811 17814 17817 17819 17822 17825 17828 17830 17833 17836 17838 17840 17843 17846 17849 17852 17855 17858 17861 17864 17866 17869 17872 17874 17877 17880 17883 17886 17888 17891 17893 17896 17899 17902 17904 17907 17910 17913 17916 17919 17922 17925 17928 17931 17934 17936 17939 17942 17944 17947 17950 17952 17955 17958 17961 17964 17967 17970 17973 17975 17978 17981 17983 17985 17988 17991 17994 17996 17999 18002 18005 18008 18011 18014 18016 18019 18022 18025 18028 18030 18033 18036 18039 18041 18044 18047 18050 18053 18055 18058 18061 18063 18066 18069 18072 18075 18078 18081 18084 18087 18090 18093 18096 18098 18101 18104 18107 18110 18112 18115 18117 18120 18122 18125 18127 18130 18133 18136 18139 18142 18145 18148 18151 18154 18157 18160 18162 18164 18167 18170 18173 18176 18179 18182 18184 18187 18190 18192 18195 18198 18201 18204 18207 18210 18212 18215 18218 18221 18223 18226 18228 18231 18234 18237 18239 18242 18245 18248 18251 18254 18257 18259 18262 18265 18268 18271 18274 18277 18279 18282 18284 18287 18290 18293 18295 18298 18301 18304 18307 18309 18312 18315 18318 18321 18324 18327 18330 18332 18335 18337 18340 18342 18345 18348 18351 18353 18355 18358 18361 18363 18366 18369 18372 18375 18378 18380 18383 18385 18387 18389 18391 18394 18397 18400 18403 18406 18408 18410 18413 18416 18418 18421 18424 18427 18429 18432 18435 18438 18441 18444 18447 18450 18453 18456 18458 18461 18464 18467 18469 18472 18475 18478 18481 18484 18487 18490 18492 18495 18497 18500 18503 18506 18509 18511 18514 18516 18519 18522 18525 18528 18530 18533 18536 18539 18542 18545 18548 18551 18554 18557 18559 18562 18565 18568 18571 18574 18577 18580 18583 18586 18589 18592 18595 18598 18601 18604 18607 18610 18613 18616 18619 18622 18624 18627 18630 18633 18636 18638 18641 18644 18647 18650 18653 18655 18658 18660 18663 18666 18669 18672 18675 18678 18681 18684 18687 18690 18693 18695 18698 18700 18703 18705 18707 18710 18712 18715 18717 18720 18723 18726 18728 18731 18734 18737 18739 18742 18745 18748 18751 18753 18756 18758 18761 18764 18767 18770 18773 18776 18779 18782 18784 18787 18790 18793 18796 18799 18802 18805 18808 18810 18813 18816 18819 18822 18825 18828 18831 18834 18837 18839 18842 18845 18847 18850 18853 18856 18858 18861 18864 18867 18870 18873 18876 18879 18882 18885 18888 18891 18894 18896 18899 18902 18905 18908 18910 18913 18916 18919 18922 18925 18928 18930 18933 18936 18939 18942 18944 18947 18949 18952 18955 18958 18961 18964 18967 18970 18972 18975 18978 18981 18983 18985 18988 18991 18994 18997 18999 19002 19004 19007 19010 19012 19015 19018 19021 19024 19027 19030 19033 19036 19039 19042 19045 19048 19051 19054 19057 19060 19063 19066 19069 19072 19075 19078 19081 19084 19087 19090 19093 19096 19099 19102 19105 19108 19111 19114 19117 19119 19122 19125 19128 19130 19133 19136 19139 19142 19145 19148 19151 19154 19157 19160 19163 19166 19169 19171 19174 19176 19179 19182 19185 19188 19191 19194 19197 19200 19203 19206 19209 19212 19215 19217 19220 19223 19225 19228 19231 19234 19237 19240 19242 19245 19248 19251 19254 19257 19260 19263 19266 19269 19272 19275 19278 19281 19284 19287 19290 19293 19296 19299 19301 19303 19306 19309 19311 19314 19317 19319 19322 19325 19328 19331 19334 19337 19340 19342 19345 19348 19351 19354 19356 19359 19362 19365 19368 19371 19374 19377 19380 19383 19386 19389 19392 19395 19398 19400 19403 19406 19408 19411 19414 19417 19420 19423 19426 19429 19431 19433 19436 19439 19442 19445 19448 19451 19454 19457 19460 19463 19466 19469 19472 19475 19478 19481 19483 19486 19489 19492 19495 19497 19500 19503 19505 19508 19511 19513 19516 19519 19522 19525 19528 19531 19534 19537 19540 19543 19546 19549 19551 19554 19557 19560 19563 19565 19568 19571 19574 19577 19580 19583 19586 19589 19592 19594 19596 19598 19601 19604 19607 19609 19612 19615 19617 19619 19622 19624 19627 19630 19633 19635 19638 19641 19644 19647 19650 19653 19656 19659 19662 19665 19668 19671 19674 19677 19680 19683 19686 19689 19692 19695 19698 19701 19704 19707 19710 19713 19716 19719 19722 19725 19728 19731 19734 19737 19740 19743 19746 19749 19752 19755 19758 19761 19764 19767 19770 19773 19776 19779 19781 19784 19786 19789 19792 19795 19798 19801 19804 19807 19810 19813 19815 19818 19821 19824 19827 19830 19833 19835 19838 19841 19844 19847 19850 19852 19855 19858 19861 19864 19867 19870 19873 19876 19879 19882 19885 19888 19891 19894 19897 19899 19902 19905 19908 19911 19914 19917 19920 19922 19925 19928 19931 19934 19937 19939 19941 19944 19947 19950 19953 19955 19958 19961 19964 19967 19970 19973 19976 19979 19982 19985 19988 19991 19994 19997 20000 20003 20006 20009 20012 20015 20018 20020 20023 20026 20029 20032 20035 20038 20040 20043 20046 20049 20051 20054 20057 20060 20063 20066 20069 20072 20075 20078 20081 20084 20087 20090 20093 20096 20099 20102 20105 20107 20110 20112 20115 20118 20121 20124 20127 20129 20131 20134 20137 20140 20142 20145 20148 20151 20154 20157 20160 20162 20165 20168 20171 20174 20177 20179 20182 20184 20187 20190 20192 20195 20198 20201 20204 20206 20209 20212 20215 20218 20220 20223 20226 20229 20232 20234 20237 20240 20243 20246 20249 20252 20255 20258 20261 20264 20267 20270 20273 20275 20278 20281 20284 20287 20290 20293 20296 20299 20302 20305 20308 20311 20314 20317 20320 20323 20325 20328 20331 20334 20337 20339 20342 20345 20348 20351 20353 20356 20359 20362 20365 20368 20371 20374 20377 20380 20383 20385 20388 20391 20394 20397 20399 20402 20405 20408 20411 20414 20417 20420 20423 20426 20429 20432 20435 20438 20441 20444 20446 20449 20452 20455 20457 20460 20463 20466 20469 20472 20475 20478 20481 20484 20487 20490 20493 20496 20499 20501 20504 20507 20510 20513 20516 20519 20522 20525 20528 20531 20534 20536 20539 20542 20544 20547 20550 20553 20556 20559 20562 20564 20566 20569 20572 20575 20578 20580 20583 20585 20588 20591 20594 20596 20599 20602 20604 20607 20610 20613 20616 20619 20622 20625 20628 20631 20634 20637 20640 20643 20646 20649 20652 20654 20657 20660 20663 20666 20669 20672 20675 20678 20680 20682 20685 20688 20691 20693 20695 20698 20700 20703 20705 20708 20711 20714 20717 20719 20722 20725 20728 20731 20734 20737 20740 20743 20746 20749 20752 20755 20758 20760 20763 20765 20768 20771 20774 20777 20780 20783 20786 20789 20791 20793 20796 20799 20801 20803 20805 20808 20811 20814 20817 20820 20823 20825 20828 20831 20833 20836 20839 20841 20843 20845 20847 20850 20853 20856 20859 20862 20865 20868 20871 20874 20877 20880 20883 20886 20888 20891 20894 20896 20899 20901 20904 20907 20910 20913 20916 20919 20922 20924 20926 20929 20932 20934 20937 20940 20942 20945 20948 20951 20954 20956 20958 20960 20962 20965 20968 20971 20974 20977 20980 20983 20986 20989 20992 20995 20998 21001 21004 21006 21009 21012 21014 21017 21020 21023 21026 21028 21031 21034 21037 21039 21042 21045 21047 21050 21053 21055 21058 21061 21063 21065 21068 21070 21073 21076 21079 21082 21085 21088 21090 21093 21096 21099 21102 21104 21107 21110 21113 21116 21119 21121 21124 21127 21129 21132 21134 21136 21139 21142 21145 21147 21150 21153 21156 21159 21162 21164 21167 21170 21173 21175 21178 21181 21184 21186 21189 21192 21195 21198 21201 21204 21207 21209 21212 21215 21218 21221 21224 21226 21229 21232 21235 21238 21241 21244 21247 21249 21252 21254 21256 21259 21262 21264 21267 21270 21273 21276 21279 21282 21284 21287 21290 21293 21296 21299 21302 21304 21307 21310 21313 21316 21319 21322 21324 21327 21329 21332 21334 21337 21340 21342 21345 21348 21351 21354 21356 21358 21360 21362 21365 21368 21371 21374 21377 21380 21383 21386 21388 21391 21394 21397 21399 21402 21404 21407 21410 21413 21416 21419 21422 21425 21428 21431 21434 21437 21440 21443 21446 21449 21452 21454 21457 21459 21462 21465 21468 21471 21474 21477 21480 21483 21485 21488 21491 21494 21497 21500 21502 21505 21508 21510 21513 21516 21519 21522 21525 21528 21530 21532 21535 21538 21540 21543 21546 21549 21552 21555 21558 21561 21564 21567 21570 21573 21575 21577 21580 21583 21586 21589 21591 21594 21597 21600 21603 21606 21609 21612 21615 21617 21620 21623 21626 21629 21631 21634 21637 21640 21643 21646 21649 21651 21654 21656 21659 21661 21664 21667 21670 21673 21676 21679 21682 21685 21688 21691 21694 21697 21700 21703 21706 21709 21712 21715 21717 21720 21723 21726 21729 21732 21735 21738 21741 21744 21747 21750 21753 21756 21759 21762 21765 21768 21770 21772 21775 21778 21781 21784 21787 21790 21793 21796 21799 21802 21805 21808 21811 21814 21817 21820 21823 21826 21829 21832 21835 21838 21841 21844 21847 21850 21853 21856 21859 21862 21865 21868 21871 21874 21877 21880 21883 21886 21889 21892 21895 21898 21901 21904 21907 21909 21912 21914 21917 21920 21923 21926 21929 21932 21935 21937 21940 21943 21946 21948 21951 21953 21955 21957 21960 21962 21964 21967 21970 21972 21974 21976 21979 21982 21985 21988 21991 21993 21996 21998 22000 22003 22006 22009 22012 22015 22018 22021 22023 22026 22029 22031 22034 22037 22039 22041 22044 22047 22050 22053 22056 22059 22061 22064 22067 22069 22071 22074 22077 22079 22082 22085 22088 22090 22093 22096 22099 22102 22104 22107 22110 22113 22115 22118 22121 22123 22126 22129 22132 22135 22138 22141 22144 22147 22150 22153 22156 22159 22162 22165 22168 22171 22174 22177 22180 22182 22184 22187 22190 22193 22195 22198 22201 22204 22207 22209 22212 22215 22218 22221 22224 22226 22228 22231 22234 22237 22240 22243 22246 22249 22252 22255 22257 22260 22263 22266 22269 22272 22275 22278 22281 22284 22287 22290 22293 22296 22299 22302 22305 22308 22311 22314 22317 22320 22323 22326 22329 22332 22335 22338 22340 22343 22345 22347 22350 22353 22356 22359 22362 22365 22368 22371 22374 22377 22380 22383 22386 22389 22392 22395 22398 22401 22404 22407 22410 22413 22416 22419 22422 22425 22428 22430 22433 22436 22438 22441 22444 22446 22449 22452 22454 22457 22459 22462 22465 22468 22471 22474 22477 22480 22482 22485 22488 22491 22494 22497 22500 22503 22506 22509 22512 22515 22518 22520 22523 22525 22528 22530 22533 22536 22539 22542 22545 22547 22550 22553 22556 22559 22561 22564 22567 22569 22572 22575 22578 22581 22584 22587 22590 22593 22595 22598 22601 22604 22607 22610 22613 22615 22618 22621 22624 22627 22629 22632 22635 22638 22640 22643 22646 22649 22652 22655 22658 22661 22664 22667 22670 22673 22676 22679 22682 22685 22688 22691 22694 22696 22699 22701 22704 22707 22710 22712 22715 22718 22721 22724 22727 22730 22733 22736 22739 22742 22745 22748 22751 22754 22757 22760 22763 22766 22769 22771 22774 22777 22780 22782 22785 22788 22791 22793 22796 22799 22802 22805 22808 22811 22814 22817 22820 22823 22826 22829 22832 22835 22838 22840 22843 22846 22849 22852 22854 22857 22860 22862 22865 22868 22871 22874 22877 22880 22882 22885 22887 22890 22892 22894 22896 22899 22902 22905 22907 22909 22912 22915 22918 22921 22924 22927 22930 22932 22935 22938 22941 22943 22946 22948 22951 22954 22957 22960 22963 22966 22969 22972 22975 22977 22980 22983 22986 22989 22992 22995 22998 23001 23003 23006 23009 23012 23015 23017 23020 23023 23026 23029 23032 23035 23038 23041 23044 23047 23050 23053 23056 23059 23062 23065 23068 23071 23074 23077 23080 23082 23084 23087 23090 23093 23096 23099 23102 23105 23108 23110 23113 23116 23119 23122 23125 23128 23131 23134 23137 23140 23142 23145 23148 23151 23154 23157 23160 23162 23165 23168 23171 23174 23177 23179 23182 23184 23187 23190 23192 23194 23197 23200 23203 23206 23209 23212 23215 23218 23221 23224 23227 23230 23233 23236 23239 23242 23245 23248 23251 23254 23257 23260 23263 23266 23269 23272 23275 23278 23281 23284 23287 23290 23293 23296 23299 23302 23305 23308 23311 23314 23317 23320 23323 23326 23329 23332 23335 23338 23340 23342 23345 23348 23350 23353 23356 23359 23362 23365 23367 23369 23372 23375 23377 23379 23382 23385 23388 23391 23394 23397 23400 23403 23406 23409 23411 23414 23417 23420 23423 23426 23429 23432 23435 23438 23441 23444 23447 23450 23453 23456 23458 23461 23464 23467 23470 23473 23476 23479 23482 23485 23488 23491 23494 23497 23499 23502 23504 23506 23508 23511 23514 23517 23520 23523 23526 23529 23532 23534 23536 23539 23542 23545 23548 23550 23553 23556 23559 23562 23565 23568 23571 23574 23576 23579 23582 23585 23588 23591 23594 23597 23600 23603 23606 23609 23612 23615 23618 23621 23624 23627 23629 23632 23635 23638 23641 23644 23647 23649 23652 23655 23657 23660 23663 23666 23669 23672 23675 23678 23681 23684 23687 23690 23693 23696 23699 23702 23705 23708 23711 23713 23716 23719 23722 23724 23727 23730 23732 23735 23737 23739 23742 23745 23747 23750 23753 23756 23758 23761 23764 23766 23769 23771 23773 23776 23779 23782 23785 23787 23790 23793 23796 23799 23802 23805 23807 23810 23812 23815 23818 23821 23823 23826 23829 23832 23835 23837 23840 23842 23844 23847 23850 23853 23856 23859 23861 23864 23866 23869 23871 23874 23876 23878 23881 23884 23887 23890 23893 23896 23899 23901 23904 23906 23909 23912 23914 23917 23920 23922 23925 23928 23931 23934 23937 23940 23943 23946 23949 23952 23955 23958 23961 23964 23967 23970 23973 23976 23979 23982 23985 23988 23991 23994 23997 24000 24003 24006 24009 24012 24015 24017 24020 24023 24026 24029 24032 24035 24038 24041 24044 24047 24050 24053 24056 24059 24062 24065 24068 24071 24074 24077 24080 24083 24086 24088 24091 24094 24097 24100 24103 24105 24107 24110 24113 24116 24119 24122 24125 24128 24131 24134 24137 24140 24143 24146 24149 24152 24155 24158 24161 24164 24167 24170 24172 24175 24178 24181 24184 24187 24190 24193 24196 24199 24202 24205 24208 24211 24213 24216 24218 24221 24224 24227 24229 24232 24235 24238 24241 24244 24247 24250 24253 24255 24258 24260 24263 24266 24269 24272 24275 24277 24280 24283 24286 24289 24292 24295 24298 24301 24304 24307 24310 24312 24315 24318 24321 24324 24327 24330 24333 24336 24339 24342 24345 24347 24350 24353 24356 24359 24362 24365 24368 24371 24373 24376 24379 24382 24385 24388 24391 24394 24397 24400 24403 24406 24409 24412 24415 24418 24421 24424 24427 24430 24433 24436 24439 24442 24445 24448 24451 24453 24456 24459 24461 24464 24467 24470 24473 24476 24479 24482 24485 24488 24491 24494 24497 24500 24503 24506 24509 24512 24515 24518 24521 24524 24527 24530 24533 24536 24539 24542 24545 24547 24550 24552 24555 24557 24560 24563 24566 24569 24572 24574 24577 24580 24583 24586 24588 24591 24594 24597 24599 24602 24605 24608 24611 24614 24617 24620 24623 24626 24629 24632 24635 24638 24641 24644 24647 24650 24653 24655 24657 24659 24662 24665 24668 24671 24674 24677 24680 24683 24686 24689 24692 24695 24698 24700 24703 24706 24709 24712 24715 24718 24721 24724 24727 24730 24733 24736 24738 24741 24744 24746 24749 24752 24755 24758 24761 24764 24767 24770 24773 24776 24779 24782 24785 24788 24791 24794 24797 24800 24803 24806 24809 24811 24813 24816 24819 24822 24825 24828 24831 24834 24837 24840 24843 24846 24849 24852 24855 24857 24860 24863 24865 24868 24871 24874 24877 24879 24882 24885 24888 24891 24894 24897 24899 24902 24905 24908 24911 24914 24917 24920 24923 24926 24929 24932 24935 24938 24941 24944 24947 24950 24953 24955 24958 24961 24964 24967 24970 24972 24975 24978 24981 24984 24987 24990 24993 24996 24999 25002 25005 25008 25011 25014 25017 25020 25023 25026 25029 25032 25035 25038 25041 25044 25047 25050 25053 25056 25058 25061 25063 25066 25069 25072 25075 25077 25079 25082 25085 25088 25091 25094 25097 25100 25103 25106 25109 25112 25115 25118 25121 25124 25127 25130 25133 25136 25139 25142 25145 25148 25151 25154 25157 25160 25163 25166 25169 25172 25175 25178 25181 25184 25186 25189 25192 25195 25198 25200 25203 25206 25209 25212 25215 25218 25221 25224 25227 25230 25233 25235 25238 25241 25244 25247 25250 25253 25256 25259 25262 25265 25268 25271 25274 25277 25280 25283 25286 25288 25290 25293 25295 25298 25301 25304 25307 25310 25313 25316 25319 25322 25325 25327 25330 25333 25336 25339 25342 25345 25348 25351 25354 25357 25360 25363 25366 25369 25372 25375 25378 25380 25383 25386 25389 25392 25394 25397 25400 25403 25406 25409 25412 25415 25418 25421 25424 25427 25430 25433 25436 25439 25442 25445 25448 25451 25454 25457 25460 25463 25466 25469 25472 25475 25478 25481 25484 25487 25490 25493 25496 25499 25502 25505 25508 25511 25514 25517 25520 25523 25526 25529 25532 25535 25538 25541 25544 25547 25550 25553 25556 25559 25562 25565 25568 25571 25574 25577 25580 25583 25586 25589 25592 25595 25598 25601 25604 25607 25610 25613 25616 25619 25622 25625 25628 25631 25634 25637 25639 25642 25645 25648 25651 25654 25657 25660 25662 25665 25668 25670 25673 25676 25679 25682 25685 25688 25691 25694 25697 25700 25703 25706 25708 25711 25713 25716 25718 25721 25724 25727 25730 25733 25736 25739 25742 25744 25747 25750 25753 25756 25759 25762 25765 25768 25771 25773 25776 25779 25782 25785 25788 25791 25794 25797 25800 25803 25806 25809 25812 25815 25818 25821 25824 25827 25830 25833 25836 25838 25841 25844 25847 25850 25853 25856 25859 25862 25865 25868 25871 25874 25876 25879 25882 25885 25888 25891 25893 25896 25899 25901 25904 25907 25910 25913 25915 25917 25920 25923 25925 25928 25931 25934 25937 25940 25943 25946 25948 25950 25953 25956 25959 25962 25965 25968 25971 25974 25977 25980 25983 25986 25988 25991 25994 25997 26000 26002 26005 26008 26011 26014 26017 26020 26023 26026 26028 26031 26034 26037 26040 26042 26045 26048 26051 26054 26056 26059 26062 26065 26068 26071 26074 26077 26079 26082 26085 26088 26091 26094 26096 26099 26102 26105 26107 26110 26113 26116 26119 26122 26124 26127 26130 26133 26136 26139 26142 26145 26148 26151 26154 26157 26160 26163 26166 26168 26171 26174 26176 26179 26182 26185 26188 26191 26194 26197 26200 26203 26206 26209 26212 26215 26218 26221 26224 26227 26230 26233 26236 26239 26241 26244 26247 26249 26252 26255 26257 26260 26263 26266 26269 26272 26275 26278 26281 26284 26287 26290 26293 26296 26299 26302 26305 26308 26311 26314 26317 26320 26323 26326 26329 26332 26335 26338 26341 26344 26347 26349 26352 26355 26358 26361 26363 26366 26369 26371 26374 26376 26379 26382 26385 26388 26390 26393 26395 26398 26401 26403 26406 26408 26411 26413 26415 26418 26421 26423 26426 26428 26431 26433 26436 26439 26441 26444 26447 26450 26453 26456 26459 26461 26464 26466 26469 26472 26474 26476 26479 26482 26484 26487 26489 26492 26495 26497 26500 26503 26505 26508 26511 26513 26515 26517 26520 26522 26525 26528 26531 26534 26537 26540 26543 26546 26548 26551 26554 26557 26560 26563 26566 26569 26571 26574 26577 26580 26583 26586 26589 26592 26595 26598 26601 26604 26607 26610 26613 26615 26618 26621 26624 26627 26630 26633 26636 26639 26642 26645 26648 26651 26654 26657 26660 26663 26666 26669 26672 26674 26677 26680 26683 26686 26689 26692 26695 26698 26701 26704 26707 26710 26713 26716 26719 26722 26725 26728 26731 26734 26737 26740 26743 26746 26749 26752 26755 26758 26761 26764 26767 26769 26772 26775 26778 26780 26783 26785 26787 26790 26792 26795 26798 26801 26803 26806 26809 26812 26815 26817 26819 26821 26824 26827 26830 26833 26836 26839 26842 26845 26848 26851 26854 26857 26860 26863 26866 26869 26872 26874 26877 26880 26883 26886 26889 26892 26895 26898 26901 26903 26906 26909 26912 26914 26917 26920 26923 26926 26929 26932 26935 26938 26941 26944 26947 26950 26952 26955 26958 26960 26963 26966 26969 26972 26975 26978 26981 26984 26987 26990 26993 26996 26999 27002 27005 27008 27011 27014 27017 27020 27023 27026 27028 27031 27034 27037 27040 27043 27046 27049 27052 27055 27058 27061 27064 27067 27070 27073 27076 27079 27082 27084 27087 27090 27093 27096 27099 27102 27105 27107 27110 27113 27116 27119 27121 27124 27127 27130 27133 27136 27139 27142 27145 27148 27151 27154 27157 27160 27163 27166 27169 27172 27175 27178 27181 27184 27187 27190 27193 27196 27199 27202 27205 27208 27211 27214 27217 27220 27223 27226 27228 27230 27233 27236 27239 27242 27244 27247 27249 27252 27255 27258 27261 27264 27266 27269 27272 27275 27278 27281 27284 27287 27290 27292 27294 27297 27300 27303 27306 27308 27311 27314 27317 27320 27323 27326 27329 27332 27335 27338 27341 27344 27347 27350 27353 27356 27359 27362 27365 27368 27371 27373 27376 27379 27382 27385 27388 27391 27393 27396 27399 27401 27404 27407 27410 27413 27416 27419 27422 27425 27428 27430 27433 27436 27439 27442 27445 27448 27451 27454 27456 27459 27462 27465 27468 27471 27474 27477 27480 27483 27486 27489 27492 27495 27498 27501 27504 27507 27509 27512 27515 27517 27520 27523 27526 27529 27532 27535 27538 27541 27544 27547 27550 27553 27556 27559 27562 27565 27568 27571 27574 27577 27580 27583 27586 27589 27592 27595 27598 27601 27604 27606 27609 27611 27614 27617 27620 27623 27626 27629 27632 27635 27638 27641 27644 27647 27650 27653 27656 27659 27662 27665 27668 27671 27674 27677 27679 27682 27685 27688 27690 27693 27696 27699 27702 27705 27708 27711 27714 27717 27720 27723 27726 27728 27731 27734 27737 27739 27741 27744 27747 27749 27752 27755 27758 27761 27764 27767 27770 27773 27776 27778 27781 27784 27787 27790 27793 27796 27799 27802 27805 27808 27811 27814 27817 27819 27822 27824 27827 27830 27833 27836 27839 27842 27845 27848 27851 27854 27857 27860 27863 27866 27869 27872 27875 27878 27881 27884 27887 27890 27893 27896 27899 27902 27905 27908 27911 27913 27916 27919 27922 27925 27928 27931 27933 27936 27939 27942 27945 27948 27951 27954 27957 27960 27963 27966 27969 27972 27975 27978 27981 27983 27986 27988 27991 27994 27997 28000 28003 28006 28009 28011 28014 28017 28020 28022 28025 28028 28031 28034 28036 28039 28042 28045 28048 28051 28054 28056 28059 28062 28065 28068 28070 28073 28075 28078 28081 28084 28087 28090 28093 28096 28099 28101 28103 28106 28109 28112 28114 28116 28119 28122 28125 28128 28131 28134 28137 28139 28141 28144 28146 28148 28151 28154 28157 28160 28162 28165 28167 28170 28173 28176 28179 28182 28185 28187 28190 28193 28196 28199 28201 28204 28207 28210 28213 28215 28218 28221 28224 28227 28230 28232 28235 28238 28240 28243 28246 28249 28252 28254 28257 28260 28263 28266 28269 28272 28275 28278 28281 28283 28285 28288 28291 28294 28297 28300 28303 28306 28309 28312 28315 28318 28321 28324 28326 28329 28331 28334 28337 28340 28343 28346 28349 28352 28355 28358 28361 28364 28367 28370 28373 28376 28379 28382 28385 28388 28391 28394 28396 28399 28402 28405 28408 28411 28414 28417 28420 28423 28426 28429 28432 28435 28438 28441 28444 28447 28450 28453 28456 28459 28462 28465 28468 28471 28474 28476 28479 28482 28485 28488 28491 28494 28497 28500 28502 28505 28507 28510 28513 28516 28519 28522 28525 28527 28530 28533 28536 28539 28542 28545 28548 28551 28554 28557 28560 28563 28566 28569 28572 28575 28578 28581 28584 28587 28590 28593 28596 28599 28602 28605 28607 28610 28613 28616 28619 28622 28625 28628 28631 28633 28636 28639 28641 28644 28647 28649 28652 28655 28658 28661 28664 28666 28669 28672 28675 28678 28681 28684 28687 28690 28693 28695 28698 28701 28704 28707 28710 28713 28716 28719 28722 28725 28728 28731 28734 28737 28740 28742 28745 28748 28751 28754 28757 28760 28763 28766 28768 28771 28774 28777 28780 28783 28786 28789 28792 28795 28798 28801 28804 28807 28810 28813 28816 28819 28822 28824 28827 28829 28832 28834 28837 28840 28842 28844 28847 28850 28853 28856 28859 28862 28865 28868 28871 28874 28877 28880 28883 28886 28888 28891 28894 28897 28900 28903 28906 28908 28911 28914 28917 28919 28922 28925 28928 28931 28934 28937 28940 28943 28946 28949 28952 28955 28957 28960 28963 28966 28969 28971 28973 28975 28978 28981 28984 28987 28990 28993 28996 28998 29001 29004 29006 29009 29011 29014 29016 29019 29022 29025 29028 29031 29033 29036 29039 29042 29045 29048 29051 29054 29057 29060 29063 29066 29069 29072 29075 29078 29081 29084 29087 29090 29093 29095 29098 29101 29104 29106 29109 29111 29113 29115 29118 29121 29124 29127 29130 29132 29135 29138 29141 29144 29147 29150 29153 29156 29159 29162 29165 29168 29171 29174 29177 29180 29183 29186 29189 29192 29195 29198 29201 29204 29207 29210 29212 29215 29218 29220 29223 29226 29229 29232 29235 29238 29241 29244 29246 29249 29251 29254 29257 29260 29263 29266 29269 29272 29275 29277 29280 29283 29286 29289 29291 29294 29297 29299 29302 29305 29307 29310 29313 29316 29318 29321 29324 29327 29330 29333 29336 29339 29342 29345 29348 29351 29354 29357 29360 29363 29366 29369 29372 29375 29378 29380 29383 29386 29389 29392 29395 29398 29400 29403 29406 29409 29412 29415 29417 29420 29423 29426 29429 29432 29434 29437 29439 29441 29444 29447 29450 29453 29456 29459 29462 29465 29468 29471 29474 29477 29479 29482 29485 29488 29491 29493 29496 29498 29500 29503 29506 29509 29511 29514 29517 29520 29523 29526 29529 29532 29535 29538 29541 29544 29547 29550 29553 29556 29559 29562 29565 29568 29571 29574 29577 29579 29582 29584 29587 29590 29592 29595 29598 29600 29603 29606 29608 29611 29614 29617 29619 29621 29624 29627 29630 29633 29636 29639 29642 29644 29647 29650 29653 29656 29659 29662 29665 29668 29670 29673 29676 29679 29682 29685 29688 29691 29693 29696 29699 29702 29704 29707 29709 29711 29714 29717 29720 29722 29725 29728 29731 29734 29737 29740 29743 29746 29749 29752 29755 29758 29761 29764 29767 29770 29773 29776 29779 29782 29785 29788 29790 29793 29796 29798 29801 29804 29807 29809 29812 29815 29818 29821 29824 29827 29830 29832 29834 29837 29840 29842 29845 29848 29851 29854 29857 29860 29863 29866 29869 29872 29875 29878 29881 29884 29887 29890 29893 29896 29899 29902 29905 29908 29911 29914 29917 29920 29923 29926 29929 29932 29935 29938 29941 29944 29947 29949 29952 29955 29958 29961 29964 29967 29970 29972 29975 29978 29980 29983 29986 29988 29991 29994 29997 30000 30003 30006 30009 30012 30015 30018 30021 30024 30027 30030 30033 30036 30039 30042 30045 30047 30050 30053 30056 30059 30061 30064 30067 30070 30073 30076 30079 30082 30085 30088 30091 30093 30096 30099 30102 30105 30107 30110 30113 30116 30119 30121 30123 30126 30128 30131 30134 30137 30140 30143 30146 30149 30152 30155 30158 30161 30164 30167 30170 30172 30175 30178 30181 30184 30187 30190 30193 30196 30199 30201 30204 30207 30210 30213 30216 30219 30222 30225 30228 30231 30234 30237 30240 30243 30246 30249 30252 30255 30258 30261 30264 30267 30270 30273 30276 30279 30282 30285 30288 30291 30294 30297 30300 30303 30306 30309 30312 30315 30318 30321 30324 30326 30329 30332 30335 30338 30340 30343 30346 30348 30351 30354 30357 30360 30363 30366 30368 30370 30373 30376 30379 30382 30384 30387 30390 30393 30396 30399 30402 30405 30408 30411 30414 30417 30420 30423 30426 30429 30432 30435 30438 30441 30444 30447 30450 30453 30456 30459 30462 30465 30468 30471 30474 30477 30480 30483 30486 30489 30492 30495 30498 30501 30504 30507 30510 30513 30516 30519 30522 30525 30528 30531 30534 30537 30540 30543 30546 30549 30552 30555 30558 30561 30564 30567 30569 30572 30575 30578 30581 30584 30586 30589 30591 30594 30597 30600 30603 30606 30609 30612 30615 30618 
</DataArray>
<DataArray type="UInt32" Name="types" format="ascii">
3 5 5 5 5 5 5 5 5 3 5 5 5 3 5 5 5 5 5 5 5 5 5 5 5 5 5 5 5 3 5 5 3 5 5 5 3 5 5 5 3 5 5 5 5 5 5 5 5 3 5 5 5 5 5 5 3 5 5 5 5 5 5 5 5 5 3 5 5 3 5 5 5 3 5 3 5 3 3 5 5 5 5 5 5 5 5 5 3 5 3 5 5 3 5 5 5 5 5 5 5 5 5 5 5 5 5 5 5 3 5 5 5 5 3 5 5 3 3 5 5 3 5 5 5 3 3 3 5 3 5 5 5 5 5 5 5 5 5 3 3 5 5 5 5 5 5 3 5 5 5 5 5 3 3 5 5 3 5 5 3 3 5 3 3 5 5 5 5 5 5 5 5 5 5 5 5 3 5 5 3 5 5 5 5 5 5 5 5 5 5 5 5 5 5 5 5 5 5 5 5 3 5 5 5 5 5 5 5 5 5 5 5 5 5 5 5 3 5 5 3 5 5 5 5 3 3 5 5 5 5 5 5 5 5 5 5 5 5 5 5 5 3 5 5 5 3 5 5 5 5 5 5 5 5 3 3 5 5 5 5 5 5 5 5 5 3 5 5 5 5 5 3 5 3 5 5 5 5 5 3 3 5 5 5 3 5 3 5 5 5 3 5 3 5 5 3 5 5 5 3 5 5 5 5 5 3 3 5 5 3 5 3 3 5 5 3 5 3 5 5 5 5 3 5 3 5 5 3 3 3 5 3 5 3 3 5 5 5 5 5 5 5 5 5 3 5 5 5 5 5 5 5 5 5 5 5 5 5 5 5 5 5 5 5 5 5 5 5 5 3 5 3 5 5 5 5 5 3 5 3 5 5 3 5 5 5 5 3 5 3 5 5 5 5 5 5 5 5 5 5 5 5 5 3 5 5 3 5 5 5 5 5 5 5 5 5 5 5 5 5 5 5 5 5 3 5 5 5 5 5 5 5 5 5 5 3 5 5 5 3 3 5 5 5 5 5 5 5 5 5 5 5 5 5 5 5 5 5 5 5 5 5 5 5 3 5 5 3 5 5 3 5 3 5 5 5 3 5 3 3 5 5 5 5 5 5 5 5 5 5 3 5 5 5 5 5 5 5 5 5 5 5 5 5 5 5 5 5 5 5 5 5 5 5 5 5 5 5 5 5 5 5 5 3 5 5 5 5 3 5 5 5 5 5 5 5 3 5 5 5 5 5 5 5 5 5 3 5 3 3 5 5 3 5 3 5 5 5 5 5 5 5 5 3 5 5 5 5 5 3 5 5 5 5 5 5 3 5 5 5 5 5 5 5 5 3 5 3 5 5 5 5 5 3 5 3 5 5 5 5 5 5 3 5 5 5 5 5 5 5 5 5 5 3 3 5 5 5 5 3 5 5 5 5 5 5 5 5 5 5 5 5 3 5 5 3 5 5 5 5 5 5 5 5 5 5 3 3 5 5 5 5 5 5 5 5 5 5 3 5 3 5 5 5 5 5 5 5 5 5 5 5 5 5 5 5 5 5 5 5 5 5 5 5 5 5 5 5 5 5 5 5 5 5 5 5 5 5 5 5 3 5 5 5 3 5 3 5 3 5 5 3 5 3 5 3 5 5 3 5 5 5 5 5 5 5 5 3 5 5 3 5 5 5 5 3 5 5 5 5 5 5 5 5 5 5 3 5 3 5 3 5 3 5 3 5 5 5 3 5 3 5 5 5 5 5 5 5 5 5 5 5 5 3 5 5 3 3 5 5 5 3 5 5 3 5 5 3 5 5 5 3 5 5 5 5 5 3 5 5 3 3 5 5 5 3 3 3 5 5 3 5 5 3 5 5 5 5 5 5 3 5 5 3 5 5 3 5 5 5 5 5 5 5 5 3 5 5 5 5 5 3 3 3 5 5 5 5 5 5 5 5 5 5 5 3 5 5 5 5 3 5 5 5 5 5 5 5 3 5 5 5 3 5 3 5 3 5 3 5 5 5 5 5 5 5 5 5 5 3 5 5 5 5 5 5 5 5 3 5 5 3 5 5 5 5 3 5 5 5 5 5 5 3 5 3 5 5 5 5 5 5 3 3 5 5 5 5 3 5 3 5 5 5 3 5 5 5 5 5 5 5 3 3 5 5 3 5 3 3 3 5 5 5 5 5 5 5 3 5 5 5 5 5 5 5 5 5 5 5 5 5 3 5 5 5 5 5 5 5 5 5 5 3 5 5 3 5 5 5 5 5 3 5 5 5 5 5 5 5 5 3 5 3 5 5 3 5 5 3 5 5 5 5 3 5 5 5 5 5 3 5 5 5 5 5 5 5 5 5 3 5 5 3 3 5 5 5 5 3 5 3 5 5 3 3 5 3 5 3 5 5 5 5 5 3 5 5 5 3 5 5 5 3 5 5 5 5 5 5 5 5 5 5 3 5 5 5 5 5 5 5 5 5 5 5 5 5 5 5 5 5 5 3 5 5 3 5 5 5 5 3 5 5 5 5 5 5 5 5 5 5 5 5 5 5 5 5 5 5 5 5 5 5 5 5 5 5 5 5 5 5 5 5 5 5 5 5 5 5 5 5 5 5 5 5 5 5 5 5 5 5 5 5 5 5 5 5 5 5 3 5 5 5 5 5 5 5 5 5 5 5 5 5 5 5 5 5 5 5 3 5 5 5 5 3 5 5 5 5 5 5 5 5 5 5 5 5 5 5 5 5 5 5 3 5 5 5 5 3 5 5 5 5 5 3 3 5 5 5 5 5 5 5 5 5 5 5 5 5 5 5 5 5 5 3 5 5 5 3 5 3 5 5 5 5 5 5 5 5 5 3 5 5 5 5 3 3 5 5 5 5 5 5 5 5 5 5 5 5 5 5 5 5 5 5 5 3 5 5 5 5 5 5 5 5 5 5 5 5 5 3 5 5 5 5 5 5 5 5 5 5 5 5 5 5 5 5 5 5 5 5 5 5 3 5 5 5 5 5 5 5 3 5 5 5 3 5 5 5 5 5 5 5 5 5 5 5 5 5 5 5 5 5 5 5 5 5 5 5 5 3 5 3 5 5 5 5 3 5 3 5 5 5 5 5 5 5 3 5 5 5 5 3 5 5 5 5 5 5 5 5 5 5 5 3 5 5 5 5 5 5 3 5 3 5 5 5 5 5 3 5 5 3 5 5 3 5 5 5 5 5 5 5 5 5 5 5 5 5 5 5 5 5 5 5 5 5 5 5 5 5 5 5 3 5 5 5 3 5 3 5 5 3 3 5 5 5 3 5 5 5 5 3 5 3 5 5 3 5 5 5 5 5 3 5 5 5 5 5 3 5 5 5 5 5 5 5 5 5 5 5 5 5 5 5 5 5 5 5 5 5 5 5 5 5 5 5 5 5 5 5 5 5 5 5 5 5 5 5 5 5 5 5 3 3 5 5 5 5 5 5 5 5 5 5 5 5 5 5 5 5 5 5 5 5 5 5 5 5 5 5 5 5 3 5 5 5 5 3 5 5 5 5 3 5 5 5 5 5 5 5 3 5 3 5 5 5 5 5 3 5 5 5 5 5 5 5 5 5 5 3 5 5 5 5 5 5 5 5 5 5 5 5 5 5 5 5 5 5 5 5 5 5 5 5 5 3 5 5 5 5 3 5 3 5 5 3 5 3 5 5 5 5 5 5 3 5 5 5 3 5 5 5 5 5 5 5 5 5 5 5 5 5 5 5 5 5 3 5 3 5 5 5 5 5 3 5 3 5 5 5 5 5 5 5 5 3 5 5 5 5 5 5 5 5 5 5 5 5 5 5 5 5 5 5 5 5 5 5 5 3 5 3 5 5 5 5 5 5 5 5 5 5 5 5 3 5 5 5 5 5 5 5 5 5 5 5 5 5 5 5 5 5 5 5 5 5 5 5 5 5 5 5 3 5 5 5 3 5 3 3 5 5 5 5 5 3 5 5 5 5 5 5 5 5 5 5 5 5 5 5 5 5 5 5 5 5 5 5 5 5 3 5 5 3 5 5 5 5 5 5 5 5 3 3 5 5 5 5 5 5 5 5 5 5 3 5 5 3 3 5 3 5 5 5 5 5 3 5 3 3 3 5 5 5 5 5 5 3 5 5 5 5 5 5 5 5 5 3 5 3 5 5 3 5 5 5 5 5 5 5 5 5 5 5 5 5 5 5 5 5 5 5 5 5 5 5 5 5 5 3 3 5 5 5 5 5 5 5 5 5 5 5 5 5 5 5 5 5 5 5 5 5 5 5 5 5 5 5 5 5 5 5 5 5 5 5 5 5 5 5 5 5 5 5 5 5 5 5 5 5 5 5 5 5 5 5 5 3 5 5 5 5 5 5 5 5 5 3 3 5 5 5 3 5 5 5 5 5 5 5 5 5 5 5 5 5 5 5 5 5 5 5 5 5 5 5 5 5 5 5 5 5 5 3 5 5 5 5 5 5 5 3 5 5 5 5 5 5 5 3 5 5 3 5 5 5 5 5 5 5 5 5 3 5 5 3 3 5 5 5 3 5 5 5 5 5 5 5 5 5 5 5 3 5 5 5 5 3 5 3 5 5 3 5 5 3 3 5 5 5 5 5 5 5 5 5 5 3 3 5 5 5 5 5 5 3 5 5 5 5 5 5 3 5 3 5 5 5 5 5 3 3 5 5 5 5 5 5 5 5 5 5 5 5 5 5 5 5 5 5 5 3 3 5 5 3 5 5 5 5 5 5 5 5 5 5 5 3 5 5 5 5 5 5 5 5 5 5 5 5 5 5 5 5 5 5 5 5 5 5 5 5 5 5 5 5 3 5 5 5 5 3 3 5 5 5 5 5 5 5 3 5 3 5 5 5 5 5 5 5 5 5 5 5 5 5 5 5 5 5 5 5 5 3 3 5 3 5 5 5 5 5 3 5 5 5 5 5 5 5 5 5 5 5 5 5 5 5 5 5 3 5 5 5 5 5 5 5 5 5 5 5 3 5 5 5 5 5 5 5 5 5 5 3 5 5 5 5 5 5 5 5 5 3 5 5 5 5 3 5 5 5 3 5 5 5 5 3 5 5 5 5 5 5 5 5 5 3 5 5 5 5 3 5 5 5 5 5 5 5 5 3 5 3 3 5 3 3 5 5 5 3 5 5 5 3 5 3 5 5 5 5 5 3 5 5 5 3 5 5 5 5 5 5 3 3 5 5 5 5 5 5 5 5 5 5 5 3 5 3 3 5 5 5 5 5 3 3 5 5 3 5 5 5 5 3 5 5 5 5 5 3 5 5 5 5 3 3 5 5 3 5 3 3 5 5 5 5 5 5 5 5 5 5 5 5 5 5 5 5 5 5 5 5 5 3 5 5 3 5 3 5 5 5 3 5 5 5 5 5 5 3 3 5 5 5 5 5 5 3 5 5 3 5 5 5 5 5 5 3 5 5 5 3 5 5 5 5 5 5 3 5 5 5 5 5 5 5 5 5 5 5 5 5 3 5 3 5 5 5 5 5 5 5 5 5 3 5 5 5 3 5 5 5 5 5 5 5 5 5 5 3 5 5 5 5 5 5 5 5 5 5 5 5 5 5 5 5 5 5 5 5 5 5 5 5 5 3 5 5 5 3 5 5 3 5 5 5 5 5 3 5 5 5 3 5 5 5 5 5 5 5 3 5 5 5 5 5 5 5 5 5 5 5 5 5 5 5 5 5 3 5 3 5 5 5 5 5 5 5 5 5 3 5 3 5 3 5 3 3 5 5 5 5 3 5 5 5 5 3 5 5 5 5 5 3 5 3 5 5 3 5 5 5 5 5 5 5 5 5 5 5 5 5 5 5 5 5 3 5 5 5 5 5 5 3 5 5 5 5 5 3 5 5 5 5 5 5 5 3 5 5 3 5 5 5 5 5 5 3 5 5 5 3 5 5 5 5 5 5 5 5 5 5 5 5 5 5 5 5 5 3 5 5 5 5 5 3 3 5 5 5 5 5 3 5 3 5 3 5 3 3 5 5 5 3 3 5 5 5 5 5 5 5 5 5 5 5 5 5 5 5 5 5 5 5 5 5 5 5 5 5 5 5 5 5 5 5 5 5 5 5 5 5 5 3 5 5 5 5 5 5 5 3 5 3 5 5 5 5 5 5 3 5 5 5 3 5 5 5 3 3 5 3 5 5 5 5 5 5 3 5 5 3 5 5 5 5 5 5 5 5 5 5 5 5 3 3 3 5 5 5 3 5 5 5 5 5 5 5 5 5 5 5 5 5 5 5 5 5 5 5 5 5 5 3 5 5 5 5 3 5 5 5 5 5 5 5 3 5 5 5 5 5 3 5 5 5 5 5 3 5 5 5 5 5 5 5 5 5 3 5 5 5 5 3 5 5 5 5 5 5 5 5 5 5 3 5 5 3 5 5 5 5 5 5 5 5 5 5 5 5 5 5 5 5 5 5 5 5 3 5 5 5 5 3 5 5 5 5 5 5 5 5 3 5 5 5 5 5 3 5 5 3 5 5 5 5 5 5 5 5 5 5 5 5 3 5 5 5 5 5 5 5 5 5 5 5 5 5 5 5 5 5 5 5 5 5 5 5 5 5 5 5 5 3 5 5 5 5 5 5 5 5 5 5 5 5 5 5 3 5 5 5 5 5 5 5 5 5 5 5 5 5 5 5 5 5 5 5 3 5 5 5 5 5 5 5 3 5 5 5 5 5 5 5 5 5 5 5 5 5 5 5 5 5 5 5 5 5 5 5 5 3 5 5 5 5 5 3 5 5 5 5 5 5 5 5 5 5 3 5 5 3 5 3 5 5 5 5 5 5 5 3 5 3 5 3 5 5 5 5 5 5 5 5 5 5 5 5 5 5 5 5 5 5 5 5 5 5 5 5 5 5 5 5 5 5 5 5 5 5 5 5 3 5 5 5 5 5 5 5 5 5 5 5 5 5 5 5 5 5 5 5 5 5 5 5 5 5 5 5 5 5 5 5 3 5 5 5 5 5 5 3 3 5 5 5 5 5 5 5 5 5 5 5 5 5 3 5 5 5 5 5 5 5 5 5 5 3 3 5 3 5 5 5 3 5 3 3 5 3 5 5 5 5 5 5 5 3 3 5 5 5 5 3 5 5 5 5 3 5 3 5 3 3 5 3 5 5 5 5 5 3 5 3 3 3 3 5 5 5 5 5 3 5 5 3 3 5 5 5 3 5 5 3 5 5 5 5 3 5 5 3 5 5 3 5 5 5 5 5 5 5 5 5 5 5 5 5 5 3 5 3 5 5 5 5 5 3 5 5 3 5 5 5 5 5 3 5 5 5 5 5 5 5 5 5 5 3 5 5 5 5 5 5 5 5 5 5 5 3 5 5 5 5 5 5 3 5 5 5 5 5 5 5 5 5 5 5 5 5 5 3 5 5 5 3 5 5 5 5 5 5 5 3 5 3 5 5 5 5 5 5 5 5 5 5 5 5 5 5 5 5 5 5 5 5 5 5 5 5 5 5 5 5 5 5 5 5 5 5 5 5 3 5 3 5 5 3 5 3 5 5 5 5 5 5 3 5 5 3 3 5 5 5 5 5 5 3 5 5 5 5 5 5 5 3 5 5 5 5 5 5 5 5 5 5 5 5 5 5 5 5 5 5 5 3 5 5 5 3 5 3 5 3 5 5 5 5 3 5 5 5 5 5 5 3 5 5 5 5 5 5 3 5 5 3 5 5 5 5 5 5 3 5 5 5 5 5 5 5 5 5 3 5 3 5 5 5 5 5 3 3 5 5 5 3 3 5 5 5 5 5 5 3 5 5 3 3 5 5 3 5 5 3 5 5 5 5 3 5 5 5 5 5 5 3 5 5 5 5 5 5 5 5 5 5 3 5 5 5 3 3 5 5 5 5 5 5 5 5 5 3 5 5 5 5 5 5 5 5 5 5 5 3 3 5 5 5 5 3 5 5 5 5 3 5 5 5 5 3 5 5 5 3 5 5 5 5 3 5 5 5 5 5 3 5 5 5 5 3 5 5 5 5 5 5 5 5 5 5 5 5 5 5 5 5 5 5 5 5 5 5 5 5 5 5 5 5 5 5 5 5 3 5 5 5 5 3 5 5 5 5 5 5 3 5 5 5 3 5 3 5 5 5 5 5 5 5 5 5 5 5 5 5 5 5 5 5 5 5 5 5 5 5 3 5 3 5 5 5 3 5 5 5 5 5 5 5 5 5 5 5 5 5 3 5 5 3 5 5 3 3 5 3 5 5 5 5 5 5 5 5 5 5 5 5 5 5 5 5 5 3 5 5 5 5 5 3 5 5 5 5 5 5 5 3 5 5 5 5 5 5 5 3 5 5 5 5 5 5 5 5 5 5 5 5 5 5 5 3 5 5 5 3 5 5 5 5 5 5 5 5 5 5 5 3 5 5 5 5 5 5 3 5 5 3 5 3 5 5 5 3 5 5 5 5 5 5 5 5 5 5 5 3 5 5 5 5 5 3 5 5 5 3 5 5 5 3 5 5 5 5 5 3 5 3 5 5 5 5 5 5 5 5 3 5 3 5 5 3 5 3 5 3 5 5 5 5 5 5 5 5 5 5 3 5 3 5 5 5 5 3 5 5 5 3 3 5 5 5 3 5 3 3 5 5 3 3 5 3 3 5 5 3 3 5 5 3 5 5 3 5 3 5 5 3 5 5 3 5 3 5 5 5 3 5 3 5 5 3 3 5 5 5 3 3 5 3 5 5 5 5 5 5 5 5 3 5 5 3 3 5 3 5 3 3 5 5 5 3 5 5 3 5 5 5 5 5 5 3 3 5 5 5 5 5 5 5 3 3 5 5 5 5 3 5 5 5 3 5 5 3 5 5 5 5 5 3 5 5 3 5 5 5 3 3 5 5 3 5 5 5 3 5 5 5 3 3 5 5 3 5 5 5 5 3 3 5 5 3 3 5 3 3 5 5 5 5 5 5 3 5 5 5 5 5 5 5 5 5 5 3 3 5 5 5 5 5 5 5 3 5 5 5 5 5 5 5 5 5 3 5 5 3 5 5 3 5 5 5 5 5 5 5 5 5 5 5 5 5 5 5 5 5 5 3 3 5 5 5 5 3 5 5 3 5 5 5 5 5 5 5 5 5 3 5 5 3 5 5 5 5 5 5 5 5 5 5 5 3 5 3 5 5 5 5 5 5 5 5 5 5 3 5 5 5 5 5 5 5 5 5 5 5 5 5 5 5 5 5 5 5 5 5 5 5 5 5 5 5 5 5 5 5 5 5 5 5 5 5 5 5 3 5 5 5 5 5 5 5 5 5 3 5 5 3 5 5 5 5 5 5 5 5 5 5 5 5 5 5 5 5 3 5 3 5 5 3 5 5 5 3 3 5 3 3 5 3 5 5 3 5 5 3 5 5 5 5 5 5 5 5 5 5 5 5 5 5 5 5 5 5 5 5 5 3 5 5 5 5 5 5 5 5 5 5 5 5 5 5 5 5 5 5 5 3 5 5 5 5 5 3 5 5 5 5 5 5 5 5 5 5 5 5 5 5 5 5 5 5 5 5 5 5 5 5 3 5 5 5 5 5 5 3 5 5 5 5 5 5 5 5 5 5 5 5 5 5 5 3 5 5 5 3 3 5 5 5 3 5 5 5 5 5 5 5 5 3 5 5 5 5 3 5 5 5 5 5 5 5 5 5 5 5 5 5 3 5 5 5 5 5 5 5 5 5 5 5 5 5 5 5 5 5 5 5 5 5 5 5 5 5 5 5 3 5 5 5 5 5 5 5 5 5 5 5 5 5 5 5 3 3 5 5 5 3 5 5 5 5 5 5 5 5 5 5 5 5 5 5 5 5 5 5 5 5 5 5 5 5 5 5 5 5 5 5 3 5 5 5 5 5 5 5 5 5 5 5 5 5 5 5 5 5 5 5 5 5 5 5 5 5 3 5 5 5 5 5 5 5 3 5 5 5 3 5 5 3 5 5 5 5 5 5 5 5 3 3 5 5 5 5 5 3 5 5 5 5 5 5 5 5 5 5 5 5 5 5 5 5 5 5 5 3 5 3 5 3 5 5 5 3 5 3 5 5 5 5 5 5 5 5 5 5 5 5 3 5 5 5 5 3 5 5 3 5 3 5 5 3 5 5 5 3 5 5 5 5 5 5 5 5 5 3 5 5 5 5 3 5 5 5 5 3 5 5 5 5 5 5 3 5 3 5 3 5 5 5 3 5 5 5 5 5 5 3 3 5 5 5 5 5 3 5 5 5 5 5 5 5 5 5 5 5 5 5 5 5 5 5 5 5 3 5 5 5 5 5 5 5 5 5 3 5 3 5 3 5 5 5 5 5 5 5 5 5 5 5 5 3 5 5 3 5 5 5 5 5 5 5 5 5 3 5 3 5 5 5 5 5 5 3 5 5 5 5 5 5 5 5 5 5 5 5 5 5 5 5 5 5 5 5 5 5 5 5 5 5 5 5 5 5 5 5 5 5 5 5 5 5 5 5 5 3 5 5 3 5 3 5 5 5 3 3 5 5 3 5 5 5 5 5 5 5 5 5 5 5 5 3 5 5 5 5 5 5 5 5 5 5 5 5 3 5 5 5 5 5 5 5 5 5 5 5 5 5 5 5 3 5 5 5 5 5 3 5 5 5 5 5 5 5 5 5 3 5 5 5 5 3 5 5 5 5 5 5 5 5 5 5 5 3 5 3 5 3 5 5 5 3 5 5 5 5 5 5 5 5 5 5 5 5 5 5 5 5 5 5 5 5 3 5 5 5 5 5 5 5 5 5 5 5 5 5 5 5 5 5 5 3 5 5 5 5 5 3 5 5 5 5 5 5 5 5 3 5 5 3 5 5 5 5 5 5 5 3 5 5 5 5 5 5 5 5 5 3 5 5 5 5 5 5 5 5 5 5 5 5 5 5 5 5 5 5 5 5 5 5 5 5 3 5 3 5 5 3 5 5 5 5 5 5 5 5 3 5 5 5 5 5 5 3 5 5 5 5 5 5 5 5 5 5 5 5 3 5 5 5 5 5 5 5 5 5 5 5 5 5 5 3 5 5 5 3 5 5 5 5 3 5 5 5 5 5 5 5 5 5 5 5 5 5 5 5 5 5 5 5 5 5 5 5 5 5 5 3 5 5 3 5 5 5 5 5 5 5 5 5 3 5 5 3 5 5 3 5 5 5 5 5 5 5 5 5 5 5 5 5 5 5 5 5 5 5 5 5 5 5 5 5 5 5 5 5 5 5 5 5 5 5 5 5 5 5 5 5 5 5 5 5 5 5 5 5 5 5 5 5 5 5 5 5 5 5 5 5 5 5 3 5 5 5 5 5 5 3 5 5 5 5 5 5 5 5 5 5 5 3 3 5 5 3 5 3 5 5 3 5 5 3 5 5 5 5 5 5 5 5 3 5 5 5 5 5 5 5 5 5 3 5 5 5 5 3 5 5 5 5 5 5 5 5 5 5 5 5 5 5 5 3 5 5 5 5 3 5 3 5 5 5 3 5 5 3 5 5 5 5 5 5 5 5 5 5 5 3 5 5 3 5 5 5 3 5 5 3 3 5 5 3 5 5 5 5 5 5 5 5 3 5 5 5 5 3 5 3 5 3 5 5 5 5 3 5 5 5 3 5 5 5 5 5 5 5 5 5 5 5 5 5 5 5 5 5 5 3 5 5 5 5 5 5 5 5 5 5 5 5 5 5 5 5 5 5 5 5 5 5 5 5 5 5 5 5 5 5 5 5 5 5 5 5 5 5 5 5 3 5 5 5 5 5 3 5 5 5 5 5 5 5 5 5 5 5 5 5 3 5 5 3 5 5 5 3 5 3 5 5 5 5 3 5 5 5 5 5 5 5 5 5 3 5 5 3 3 5 3 5 5 5 5 5 5 5 5 5 5 5 5 5 5 5 5 5 5 5 5 5 5 5 3 5 5 5 3 5 5 5 5 5 5 5 3 5 5 5 5 5 5 5 5 5 5 5 5 5 5 5 5 5 5 5 5 5 5 5 3 5 5 5 5 5 3 5 3 3 5 5 5 3 5 5 3 5 5 5 5 5 5 5 5 5 5 5 3 5 5 5 3 5 3 5 5 5 5 5 3 5 3 5 3 5 5 5 5 5 5 5 5 3 3 3 5 5 3 5 5 5 5 5 5 5 5 5 5 5 5 5 5 5 5 5 5 5 5 5 5 5 5 5 5 5 5 5 5 5 5 5 5 5 5 5 3 5 5 5 5 5 5 5 3 5 5 3 5 5 5 5 5 5 5 5 5 5 5 5 5 5 5 5 5 5 5 5 5 5 5 3 5 5 5 5 5 5 5 5 5 5 3 5 5 5 5 3 5 5 5 5 3 5 3 3 5 5 5 5 3 5 5 3 5 5 3 3 5 5 5 5 5 5 5 3 5 5 5 5 5 5 5 5 5 5 5 5 5 3 5 5 5 5 5 5 5 3 3 5 3 5 3 5 5 5 3 5 5 5 5 5 3 5 5 3 5 5 5 5 5 5 5 3 5 5 5 5 5 5 5 5 3 5 5 5 3 5 5 5 5 5 3 3 5 5 3 5 5 5 5 5 5 5 5 5 5 5 5 5 5 3 5 5 3 5 3 5 5 5 5 3 5 5 5 5 5 3 5 5 3 3 5 5 5 5 3 5 5 5 5 5 5 5 5 3 5 3 5 5 5 5 5 5 5 5 3 5 5 5 5 3 5 5 5 5 5 5 5 5 5 5 5 5 5 5 5 5 5 5 5 5 5 5 5 5 5 5 5 5 5 5 5 5 5 3 5 5 5 5 5 5 5 3 5 5 5 5 5 5 5 5 5 5 5 5 3 5 5 5 5 3 5 5 5 5 5 5 5 5 5 5 5 5 5 3 5 5 3 5 5 5 5 3 5 5 5 5 5 5 5 5 5 5 5 3 5 3 5 5 3 5 5 5 5 3 5 5 5 5 5 5 5 5 5 5 5 5 5 5 5 5 5 5 5 5 5 5 5 5 5 5 5 5 3 5 5 5 5 3 5 5 5 5 5 5 5 5 5 3 5 5 5 3 5 5 5 5 5 5 3 5 3 5 3 5 5 5 5 5 5 5 5 5 5 5 5 5 5 5 5 5 5 5 5 5 5 5 5 5 5 5 5 5 5 5 5 5 5 5 3 5 3 5 5 5 5 5 5 5 5 3 5 5 5 5 5 5 5 5 5 5 5 5 3 5 5 5 5 5 5 5 5 5 5 5 5 5 3 5 5 3 5 5 5 5 3 5 5 5 5 3 5 5 5 5 5 3 3 5 3 5 5 3 5 5 5 5 3 5 3 5 5 5 5 5 5 5 5 3 5 5 5 5 3 5 5 5 5 5 5 5 5 5 5 5 5 5 5 5 5 5 5 5 5 5 5 3 5 5 5 5 5 5 5 5 5 5 5 5 5 5 5 5 5 5 5 5 5 3 5 5 5 5 5 5 5 3 5 3 5 5 5 5 5 5 5 5 5 5 5 5 5 5 5 5 5 5 5 5 5 5 5 5 5 5 3 5 5 5 5 5 3 5 3 5 5 5 5 3 3 3 5 3 5 5 5 3 5 5 5 5 3 5 3 5 5 5 5 3 5 5 5 3 3 3 5 3 5 3 5 5 3 5 5 5 5 5 5 5 5 5 5 3 5 3 5 3 5 5 5 5 3 5 5 5 5 3 5 5 5 5 5 5 5 5 5 5 3 5 3 5 5 3 5 5 3 5 5 5 5 5 3 5 5 5 5 5 5 5 5 5 5 5 5 3 5 5 5 3 5 5 5 5 5 3 5 5 5 5 5 5 5 5 5 5 5 5 5 5 5 5 5 5 5 5 5 3 5 5 5 5 3 5 5 5 3 5 3 5 5 3 5 3 5 5 5 5 5 5 3 5 5 5 5 3 5 3 5 5 5 5 5 5 5 3 5 5 5 5 5 5 5 3 5 5 5 5 5 5 5 5 5 5 5 5 5 5 5 5 5 3 5 5 5 3 5 5 5 5 5 5 5 5 5 5 5 5 5 5 3 5 5 5 5 5 5 5 5 5 5 5 5 5 5 5 5 5 5 5 5 5 5 5 5 5 5 5 3 5 3 5 5 5 3 5 5 5 3 5 5 3 3 5 5 5 5 5 5 5 5 3 5 5 3 5 5 5 5 3 5 3 5 5 5 3 5 5 5 5 5 5 5 5 5 5 3 5 5 3 5 5 3 5 5 5 5 5 5 5 3 5 5 3 3 5 5 5 3 5 5 5 5 5 5 3 5 5 5 5 3 5 5 5 3 5 5 5 5 3 5 5 3 5 5 5 5 5 5 5 5 5 5 5 3 5 5 5 5 3 5 3 5 3 5 3 5 5 5 5 5 5 5 5 5 5 5 3 3 5 5 5 5 5 5 3 5 5 3 5 5 5 5 5 5 3 5 5 5 3 5 3 5 5 5 3 5 5 5 5 5 5 3 5 5 5 5 5 5 3 5 3 5 5 5 3 5 5 5 5 3 5 5 5 5 5 5 5 3 5 3 5 3 5 5 5 3 3 5 5 3 5 5 5 5 5 3 5 3 3 3 3 5 5 5 5 5 3 3 5 5 3 5 5 5 3 5 5 5 5 5 5 5 5 5 3 5 5 5 3 5 5 5 5 5 5 5 3 5 3 5 5 5 5 3 5 3 5 5 5 5 3 5 5 5 5 5 5 5 5 5 3 5 5 5 5 5 5 5 5 5 5 5 5 5 5 5 5 5 5 5 5 5 3 5 5 5 5 3 5 5 5 5 5 3 5 3 5 5 5 5 5 5 5 5 5 5 5 3 5 3 5 3 3 5 3 5 3 5 5 5 3 5 5 5 3 5 5 5 5 3 5 3 5 5 5 5 5 5 5 5 3 5 5 5 5 5 5 5 5 3 5 5 5 5 5 5 5 5 5 3 5 5 3 5 5 5 3 5 5 5 5 5 5 5 5 5 5 5 5 3 5 5 5 5 3 5 5 5 5 5 5 3 5 5 5 5 3 5 3 5 5 5 5 5 5 5 3 5 5 5 3 3 5 5 5 5 3 5 3 5 5 3 5 5 5 5 5 5 5 5 5 5 5 5 5 5 5 5 5 5 5 5 5 5 5 5 5 5 5 5 5 5 5 5 5 5 5 3 5 5 5 3 5 5 5 5 5 5 5 5 5 5 5 5 5 3 5 3 5 5 5 5 5 5 5 5 5 5 5 5 5 3 5 5 3 5 5 5 5 5 3 5 5 5 5 5 5 5 5 5 5 5 5 5 5 5 5 5 5 5 3 3 5 5 3 5 5 3 5 5 5 5 5 5 5 3 5 5 5 5 3 5 5 5 5 5 5 5 5 5 5 5 5 5 5 3 5 5 3 5 5 5 5 5 5 5 3 3 5 5 5 5 5 5 5 5 5 5 5 5 5 5 5 5 3 5 5 5 5 3 5 5 3 5 5 3 5 5 5 5 5 5 5 5 5 5 5 5 3 5 5 5 5 3 5 5 5 5 5 5 5 5 5 3 3 3 5 5 5 3 5 5 3 3 5 3 5 5 5 3 5 5 5 5 5 5 5 5 5 5 5 5 5 5 5 5 5 5 5 5 5 5 5 5 5 5 5 5 5 5 5 5 5 5 5 5 5 5 5 5 5 5 5 5 5 5 5 5 3 5 3 5 5 5 5 5 5 5 5 5 3 5 5 5 5 5 5 3 5 5 5 5 5 3 5 5 5 5 5 5 5 5 5 5 5 5 5 5 5 3 5 5 5 5 5 5 5 3 5 5 5 5 5 3 3 5 5 5 5 3 5 5 5 5 5 5 5 5 5 5 5 5 5 5 5 5 5 5 5 5 5 3 5 5 5 5 5 5 3 5 5 5 3 5 5 5 5 5 5 5 5 5 5 5 5 5 5 5 5 5 5 3 5 3 5 5 5 5 5 3 3 5 5 5 3 5 5 5 5 5 5 3 5 5 5 5 5 3 5 3 5 5 3 5 5 5 5 3 5 5 5 5 3 5 5 5 5 3 5 5 5 5 5 5 5 5 5 5 5 5 5 3 5 5 5 5 5 5 5 5 5 5 5 5 5 5 5 5 3 5 5 5 5 3 5 5 5 5 3 5 5 5 5 5 5 5 5 5 5 3 5 5 5 5 3 5 5 5 5 5 5 5 5 5 5 5 5 5 5 5 3 5 5 5 3 5 5 5 5 5 5 5 5 5 5 5 5 5 5 3 5 5 5 5 5 5 5 5 5 5 5 3 5 5 3 5 5 5 5 5 5 3 3 5 5 5 5 3 5 3 5 5 5 3 5 5 3 5 5 5 5 5 5 5 5 5 5 5 5 5 5 5 5 3 5 5 5 5 5 5 5 5 3 3 5 5 5 3 3 5 3 5 3 5 5 5 5 3 5 5 5 5 5 5 5 5 5 5 5 5 5 3 5 3 5 5 5 5 5 5 5 5 3 3 5 5 3 3 3 5 5 5 5 5 5 3 5 5 3 5 5 3 3 3 3 5 5 5 5 5 5 5 5 5 5 5 5 5 3 5 5 3 5 3 5 5 5 5 5 5 5 3 3 5 5 3 5 5 3 5 5 5 5 3 3 3 3 5 5 5 5 5 5 5 5 5 5 5 5 5 5 3 5 5 3 5 5 5 5 3 5 5 5 3 5 5 3 5 5 3 5 5 3 3 5 3 5 5 5 5 5 5 3 5 5 5 5 3 5 5 5 5 5 3 5 5 3 5 3 3 5 5 5 3 5 5 5 5 5 3 5 5 5 3 5 5 5 3 5 5 5 5 5 5 5 3 5 5 5 5 5 3 5 5 5 5 5 5 5 3 5 3 3 5 5 3 5 5 5 5 5 5 3 5 5 5 5 5 5 3 5 5 5 5 5 5 3 5 3 5 3 5 5 3 5 5 5 5 3 3 3 3 5 5 5 5 5 5 5 5 3 5 5 5 3 5 3 5 5 5 5 5 5 5 5 5 5 5 5 5 5 5 5 3 5 3 5 5 5 5 5 5 5 5 3 5 5 5 5 5 3 5 5 3 5 5 5 5 5 5 3 3 5 5 3 5 5 5 5 5 5 5 5 5 5 5 3 3 5 5 5 5 3 5 5 5 5 5 5 5 5 3 5 5 5 5 3 5 5 5 5 5 5 3 5 3 5 3 5 5 5 5 5 5 5 5 5 5 5 5 5 5 5 5 5 5 3 5 5 5 5 5 5 5 5 5 5 5 5 5 5 5 5 5 3 3 5 5 5 5 5 5 5 5 5 5 5 5 5 5 5 5 5 5 5 5 5 5 5 5 5 5 5 5 5 5 5 5 5 5 5 5 5 5 5 5 5 5 5 5 5 3 5 3 5 5 5 5 5 5 5 3 5 5 5 3 5 3 3 3 5 3 3 5 5 3 3 3 5 5 5 5 5 3 5 3 3 5 5 5 5 5 5 5 3 5 5 3 5 5 3 3 5 5 5 5 5 5 3 5 5 3 3 5 5 3 5 5 5 3 5 5 5 5 3 5 5 5 3 5 5 3 5 5 5 5 5 5 5 5 5 5 5 5 5 5 5 5 5 5 5 3 3 5 5 5 3 5 5 5 5 3 5 5 5 5 5 3 3 5 5 5 5 5 5 5 5 5 3 5 5 5 5 5 5 5 5 5 5 5 5 5 5 5 5 5 5 5 5 5 5 5 5 5 5 5 3 5 3 3 5 5 5 5 5 5 5 5 5 5 5 5 5 5 5 5 5 5 5 5 5 5 5 5 5 5 5 3 5 5 3 5 5 3 5 5 3 5 3 5 5 5 5 5 5 5 3 5 5 5 5 5 5 5 5 5 5 5 5 3 5 3 5 3 5 5 5 5 5 3 5 5 5 5 3 5 5 3 5 5 5 5 5 5 5 5 3 5 5 5 5 5 5 3 5 5 5 5 3 5 5 5 3 5 5 5 5 5 5 5 5 5 5 5 5 5 5 5 5 5 5 3 5 3 5 5 5 3 5 5 5 5 5 5 5 5 5 5 5 5 5 5 5 5 5 5 5 3 5 5 5 3 5 5 5 3 5 5 5 5 5 5 5 5 5 5 5 5 5 5 5 3 5 5 5 5 3 5 5 3 5 5 5 5 5 5 3 5 3 5 3 3 3 5 5 5 3 3 5 5 5 5 5 5 5 3 5 5 5 3 5 3 5 5 5 5 5 5 5 5 5 3 5 5 5 5 5 5 5 5 3 5 5 5 5 3 5 5 5 5 5 5 5 5 5 5 5 5 5 5 5 5 5 5 5 5 5 3 3 5 5 5 5 5 5 5 5 3 5 5 5 5 5 5 5 5 5 5 3 5 5 5 5 5 5 3 5 5 5 5 5 3 5 3 5 5 3 3 5 5 5 5 5 5 5 5 5 5 5 5 5 5 5 5 5 5 5 5 5 5 5 5 5 5 5 5 5 5 5 5 5 5 5 5 5 5 5 5 5 5 5 5 5 5 5 5 3 3 5 5 3 5 5 5 5 5 3 3 5 5 3 3 5 5 5 5 5 5 5 5 5 5 3 5 5 5 5 5 5 5 5 5 5 5 5 5 5 5 3 5 5 5 5 5 5 5 5 5 5 5 5 5 3 5 3 3 3 5 5 5 5 5 5 5 5 3 3 5 5 5 5 3 5 5 5 5 5 5 5 5 3 5 5 5 5 5 5 5 5 5 5 5 5 5 5 5 5 5 3 5 5 5 5 5 5 3 5 5 3 5 5 5 5 5 5 5 5 5 5 5 5 5 5 5 5 5 5 3 5 5 5 3 5 5 3 5 3 3 5 5 3 5 5 5 3 5 5 3 5 3 3 5 5 5 5 3 5 5 5 5 5 5 3 5 3 5 5 5 3 5 5 5 5 3 5 3 3 5 5 5 5 5 3 5 3 5 3 5 3 3 5 5 5 5 5 5 5 3 5 3 5 5 3 5 5 3 5 5 5 5 5 5 5 5 5 5 5 5 5 5 5 5 5 5 5 5 5 5 5 5 5 5 5 5 5 5 5 3 5 5 5 5 5 5 5 5 5 5 5 5 5 5 5 5 5 5 5 5 5 5 5 3 5 5 5 5 5 3 3 5 5 5 5 5 5 5 5 5 5 5 5 5 5 5 5 5 5 5 5 5 3 5 5 5 5 5 5 5 5 5 5 5 5 5 3 5 3 5 5 5 3 5 5 5 5 5 5 5 5 3 5 3 5 5 5 5 5 3 5 5 5 5 5 5 5 5 5 5 5 3 5 5 5 5 5 5 5 5 5 5 5 3 5 5 5 5 5 5 5 5 3 5 5 5 5 5 5 5 5 5 5 5 5 5 5 5 5 5 5 5 5 5 5 5 5 5 5 3 5 5 3 5 5 5 5 5 5 5 5 5 5 5 5 5 5 5 5 5 5 5 5 5 5 5 5 5 5 5 5 3 5 3 5 3 5 5 5 5 5 3 5 5 5 5 3 5 5 5 3 5 5 5 5 5 5 5 5 5 5 5 5 5 5 5 5 5 5 3 3 3 5 5 5 5 5 5 5 5 5 5 5 5 5 3 5 5 5 5 5 5 5 5 5 5 5 5 3 5 5 3 5 5 5 5 5 5 5 5 5 5 5 5 5 5 5 5 5 5 5 5 5 3 3 5 5 5 5 5 5 5 5 5 5 5 5 5 5 3 5 5 3 5 5 5 5 3 5 5 5 5 5 5 3 5 5 5 5 5 5 5 5 5 5 5 5 5 5 5 5 5 5 3 5 5 5 5 5 3 5 5 5 5 5 5 5 5 5 5 5 5 5 5 5 5 5 5 5 5 5 5 5 5 5 5 5 5 3 5 3 5 5 5 5 3 3 5 5 5 5 5 5 5 5 5 5 5 5 5 5 5 5 5 5 5 5 5 5 5 5 5 5 5 5 5 5 5 5 5 5 5 3 5 5 5 5 3 5 5 5 5 5 5 5 5 5 5 5 3 5 5 5 5 5 5 5 5 5 5 5 5 5 5 5 5 5 3 3 5 3 5 5 5 5 5 5 5 5 5 5 3 5 5 5 5 5 5 5 5 5 5 5 5 5 5 5 5 5 3 5 5 5 5 3 5 5 5 5 5 5 5 5 5 5 5 5 5 5 5 5 5 5 5 5 5 5 5 5 5 5 5 5 5 5 5 5 5 5 5 5 5 5 5 5 5 5 5 5 5 5 5 5 5 5 5 5 5 5 5 5 5 5 5 5 5 5 5 5 5 5 5 5 5 5 5 5 5 5 5 5 5 5 5 5 5 3 5 5 5 5 5 5 5 3 5 5 3 5 5 5 5 5 5 5 5 5 5 5 5 3 5 3 5 3 5 5 5 5 5 5 5 5 3 5 5 5 5 5 5 5 5 5 3 5 5 5 5 5 5 5 5 5 5 5 5 5 5 5 5 5 5 5 5 5 3 5 5 5 5 5 5 5 5 5 5 5 5 3 5 5 5 5 5 3 5 5 3 5 5 5 5 3 3 5 5 3 5 5 5 5 5 5 5 3 3 5 5 5 5 5 5 5 5 5 5 5 5 3 5 5 5 5 3 5 5 5 5 5 5 5 5 3 5 5 5 5 3 5 5 5 5 3 5 5 5 5 5 5 5 3 5 5 5 5 5 3 5 5 5 3 5 5 5 5 5 3 5 5 5 5 5 5 5 5 5 5 5 5 5 5 3 5 5 3 5 5 5 5 5 5 5 5 5 5 5 5 5 5 5 5 5 5 5 5 5 3 5 5 3 5 5 3 5 5 5 5 5 5 5 5 5 5 5 5 5 5 5 5 5 5 5 5 5 5 5 5 5 5 5 5 5 5 3 5 5 5 5 3 5 5 3 5 3 5 5 5 5 3 5 3 5 5 3 5 3 5 3 3 5 5 3 5 3 5 3 5 5 3 5 5 5 5 5 5 3 5 3 5 5 3 3 5 5 3 5 3 5 5 3 5 5 3 5 5 3 3 3 5 3 5 5 5 5 5 5 5 5 3 5 5 5 5 5 5 5 3 5 5 5 5 5 5 5 5 5 5 5 5 5 5 3 5 5 5 5 5 5 5 5 5 5 5 5 5 5 5 5 5 5 5 3 5 5 5 5 5 5 5 5 5 5 5 5 5 5 5 5 5 5 5 5 5 5 5 5 5 5 5 5 5 5 5 3 5 5 5 3 5 3 3 5 3 5 5 5 3 5 5 5 5 3 3 3 5 5 5 5 5 5 5 5 5 5 5 5 5 5 5 5 5 3 5 5 5 5 5 5 5 5 5 3 5 5 5 3 5 5 5 5 5 5 5 5 5 5 5 5 3 5 5 3 5 5 5 5 5 5 5 5 5 5 5 5 5 5 5 5 5 5 5 5 5 5 3 5 5 5 5 5 5 5 5 5 5 5 5 5 5 5 5 5 5 3 5 5 5 5 5 5 5 3 5 5 5 5 3 5 5 5 5 5 5 5 5 5 5 5 5 5 5 5 5 5 5 5 5 5 5 5 5 5 5 5 5 5 5 5 5 5 5 5 3 3 5 5 5 5 3 5 3 5 5 5 5 5 3 5 5 5 5 5 5 5 5 3 3 5 5 5 5 3 5 5 5 5 5 5 5 5 5 5 5 5 5 5 5 5 5 5 5 5 5 3 5 5 5 5 5 5 3 5 5 3 5 5 5 5 5 5 5 5 5 3 5 5 5 5 5 5 5 5 3 5 5 5 5 5 5 5 5 5 5 5 5 5 5 5 5 5 3 5 5 3 5 5 5 5 5 5 5 5 5 5 5 5 5 5 5 5 5 5 5 5 5 5 5 5 5 5 5 5 5 3 5 3 5 5 5 5 5 5 5 5 5 5 5 5 5 5 5 5 5 5 5 5 5 5 3 5 5 5 3 5 5 5 5 5 5 5 5 5 5 5 5 3 5 5 5 3 3 5 5 3 5 5 5 5 5 5 5 5 5 3 5 5 5 5 5 5 5 5 5 5 5 5 5 3 5 3 5 5 5 5 5 5 5 5 5 5 5 5 5 5 5 5 5 5 5 5 5 5 5 5 5 5 5 5 5 3 5 5 5 5 5 5 3 5 5 5 5 5 5 5 5 5 5 5 5 5 5 5 5 3 5 3 5 5 5 5 5 5 5 3 5 5 5 3 5 5 5 5 3 5 5 5 5 5 5 3 5 5 5 5 3 5 3 5 5 5 5 5 5 5 5 3 3 5 5 5 3 3 5 5 5 5 5 5 5 3 3 5 3 3 5 5 5 5 3 5 3 5 5 5 5 5 5 3 5 5 5 5 3 5 5 5 5 3 5 5 5 5 5 3 5 5 3 5 5 5 5 3 5 5 5 5 5 5 5 5 5 3 3 5 5 5 5 5 5 5 5 5 5 5 5 5 3 5 3 5 5 5 5 5 5 5 5 5 5 5 5 5 5 5 5 5 5 5 5 5 3 5 5 5 5 5 5 5 5 5 5 5 5 5 5 5 5 5 5 5 5 5 5 5 5 5 5 3 5 5 5 5 5 5 5 5 3 5 3 5 5 5 5 5 5 3 5 5 5 5 5 5 5 5 5 5 5 5 5 5 5 5 5 5 5 5 5 5 5 5 5 5 3 5 5 5 5 5 5 5 5 3 5 5 3 5 5 3 5 5 5 5 5 3 5 5 5 5 5 5 5 5 5 3 5 5 5 5 5 5 5 5 5 5 5 5 5 5 5 3 5 5 5 5 5 5 5 5 3 5 5 5 5 5 5 5 5 5 5 5 5 5 5 5 5 5 5 3 5 3 5 3 5 5 3 3 5 5 5 5 5 5 5 5 5 5 5 5 5 5 3 5 5 5 5 5 5 3 5 5 5 3 5 5 5 5 5 5 5 5 5 5 5 5 3 5 5 5 5 3 3 3 5 5 5 5 5 5 5 3 5 5 3 5 3 5 3 5 5 5 5 5 3 5 5 5 5 5 5 5 5 5 5 5 5 5 5 5 5 5 5 5 5 3 5 5 5 3 5 3 3 3 5 5 5 5 5 3 5 5 5 5 5 5 5 5 5 5 5 5 5 5 5 5 5 5 5 5 5 5 5 5 5 5 3 5 5 3 5 5 5 5 5 5 5 5 3 5 3 5 5 5 5 5 5 5 5 3 5 5 5 5 3 5 5 3 5 5 3 5 5 5 3 5 5 5 5 5 5 5 5 5 5 5 5 5 5 5 5 5 5 5 5 3 5 5 5 5 5 5 3 5 5 5 5 5 3 5 5 5 5 5 3 5 3 3 5 5 5 5 5 5 5 5 5 5 5 5 3 5 5 5 5 3 5 3 3 5 5 5 3 5 5 5 5 5 5 5 5 5 5 5 5 5 5 5 5 5 5 5 5 5 5 3 5 3 5 5 3 5 5 3 5 5 3 5 5 5 3 3 5 5 5 5 5 5 5 3 5 5 5 5 5 5 5 5 3 5 5 5 5 5 5 5 3 5 5 5 3 5 3 3 5 5 5 3 5 5 5 5 5 5 5 5 5 5 5 5 5 5 5 5 5 5 5 5 5 5 3 5 5 3 5 5 5 3 5 5 5 5 5 5 5 3 3 5 5 3 5 5 5 5 5 5 5 5 5 5 5 5 5 5 5 5 5 5 5 5 5 5 5 5 5 5 5 5 5 5 5 5 5 5 5 3 5 5 5 5 5 5 5 3 5 5 3 5 5 3 5 5 5 5 5 5 5 5 5 5 5 5 5 5 5 5 5 5 5 3 5 5 5 5 3 5 5 5 5 5 5 5 5 5 5 3 5 5 5 5 3 5 5 5 5 3 3 5 3 5 5 5 5 5 5 5 5 5 5 5 5 5 5 3 5 5 5 5 5 5 5 5 5 3 5 5 5 5 5 5 5 5 5 5 5 5 5 5 5 5 5 5 5 5 5 5 5 5 5 5 5 5 5 5 5 5 5 5 5 5 5 5 5 5 5 3 5 5 5 5 3 5 5 3 5 5 5 5 5 5 3 3 5 5 5 5 3 5 5 5 5 5 5 5 5 5 5 5 5 5 5 5 5 5 5 5 5 5 5 5 5 5 5 5 5 5 5 5 5 5 5 5 5 5 5 5 5 5 5 5 5 5 5 5 5 5 5 5 5 5 5 5 5 5 5 5 5 5 3 5 5 5 5 5 3 5 3 5 5 5 5 5 5 5 5 5 
</DataArray>
</Cells>
<PointData Scalars="" Vectors="displacement," Tensors="">
<DataArray type="Float64" Name="displacement" NumberOfComponents="3" format="ascii">
0.034599263766711179 -1.5463952694144143e-07 0 0.033665658472165683 -0.00028616917067886104 0 0.034603720479646959 -4.4897324912034852e-07 0 0.034997278277563958 3.2725467457526389e-07 0 0.034992191835082821 -1.1302702210653415e-06 0 0.034997278277563958 3.2725467457526389e-07 0 0.034992191835082821 -1.1302702210653415e-06 0 0.035001150274288295 -3.0118187096511242e-07 0 0.034597678882165764 -1.6966973456115864e-06 0 0.032372309296821951 -0.00067360210867353418 0 0.033347314694921332 6.0852197430990616e-05 0 0.034597678882165764 -1.6966973456115864e-06 0 0.033354243293203162 9.9826420954405277e-07 0 0.033347314694921332 6.0852197430990616e-05 0 0.032372309296821951 -0.00067360210867353418 0 0.032762152590085795 0.0005246009158540757 0 0.033347314694921332 6.0852197430990616e-05 0 0.032762152590085795 0.0005246009158540757 0 0.033354243293203162 9.9826420954405277e-07 0 0.033347314694921332 6.0852197430990616e-05 0 0.030603846570825721 -0.00062962400724972248 0 0.032106185784067758 -1.6824645008983553e-06 0 0.031094308952186765 -1.8340884594311356e-05 0 0.032762152590085795 0.0005246009158540757 0 0.033354243293203162 9.9826420954405277e-07 0 0.032113384605671431 -1.7356630203804111e-07 0 0.031655104090432616 -3.7794365935288626e-05 0 0.032110414320910587 3.716666566274316e-09 0 0.030603846570825721 -0.00062962400724972248 0 0.031094308952186765 -1.8340884594311356e-05 0 0.030440136120097664 -0.00036233421581506625 0 0.03086812598933705 0.00012787883996097919 0 0.031094308952186765 -1.8340884594311356e-05 0 0.030440136120097664 -0.00036233421581506625 0 0.03086812598933705 0.00012787883996097919 0 0.031007504780054498 1.3143751739276079e-06 0 0.031094308952186765 -1.8340884594311356e-05 0 0.030019417712107033 5.3675427398373891e-05 0 0.031003369455240248 9.2873750293977271e-09 0 0.032106185784067758 -1.6824645008983553e-06 0 0.031007504780054498 1.3143751739276079e-06 0 0.031094308952186765 -1.8340884594311356e-05 0 0.030166707652251139 -0.00050180134340687863 0 0.029587850169090272 -1.2238726724219942e-05 0 0.029826393087429771 -0.000298453291896967 0 0.030166707652251139 -0.00050180134340687863 0 0.030155281201068244 -0.00052982300018900345 0 0.029826393087429771 -0.000298453291896967 0 0.030166707652251139 -0.00050180134340687863 0 0.030440136120097664 -0.00036233421581506625 0 0.030414201311617654 -0.00046757370445582044 0 0.030166707652251139 -0.00050180134340687863 0 0.030440136120097664 -0.00036233421581506625 0 0.029587850169090272 -1.2238726724219942e-05 0 0.03086812598933705 0.00012787883996097919 0 0.030440136120097664 -0.00036233421581506625 0 0.029587850169090272 -1.2238726724219942e-05 0 0.030603846570825721 -0.00062962400724972248 0 0.030440136120097664 -0.00036233421581506625 0 0.030587603769313319 -0.00046357652719361352 0 0.030440136120097664 -0.00036233421581506625 0 0.030414201311617654 -0.00046757370445582044 0 0.030587603769313319 -0.00046357652719361352 0 0.030166707652251139 -0.00050180134340687863 0 0.030725944576373565 -0.00048312248578366986 0 0.031019252105938949 -0.0010220472304839062 0 0.030166707652251139 -0.00050180134340687863 0 0.030414201311617654 -0.00046757370445582044 0 0.030725944576373565 -0.00048312248578366986 0 0.030414201311617654 -0.00046757370445582044 0 0.030587603769313319 -0.00046357652719361352 0 0.030725944576373565 -0.00048312248578366986 0 0.034992191835082821 -1.1302702210653415e-06 0 0.035001150274288295 -3.0118187096511242e-07 0 0.034996026344746016 -1.7603808934919461e-06 0 0.030725944576373565 -0.00048312248578366986 0 0.031043154174211798 -8.3029810930809178e-05 0 0.031406937186949715 -0.00014530238209250573 0 0.030725944576373565 -0.00048312248578366986 0 0.030876984082260448 -6.1067497169766947e-05 0 0.031043154174211798 -8.3029810930809178e-05 0 0.030587603769313319 -0.00046357652719361352 0 0.030725944576373565 -0.00048312248578366986 0 0.030876984082260448 -6.1067497169766947e-05 0 0.031655104090432616 -3.7794365935288626e-05 0 0.030949744153562071 -9.8422208739728872e-05 0 0.032372309296821951 -0.00067360210867353418 0 0.032762152590085795 0.0005246009158540757 0 0.030876984082260448 -6.1067497169766947e-05 0 0.030603846570825721 -0.00062962400724972248 0 0.030587603769313319 -0.00046357652719361352 0 0.030876984082260448 -6.1067497169766947e-05 0 0.033665658472165683 -0.00028616917067886104 0 0.032983177649016308 -5.7587384247977291e-05 0 0.032372309296821951 -0.00067360210867353418 0 0.030876984082260448 -6.1067497169766947e-05 0 0.030816477894518725 -0.00014054376641107349 0 0.030876984082260448 -6.1067497169766947e-05 0 0.031043154174211798 -8.3029810930809178e-05 0 0.030816477894518725 -0.00014054376641107349 0 0.035001150274288295 -3.0118187096511242e-07 0 0.035005941985106016 2.3796890239949198e-06 0 0.034998003305829979 8.8854472978883669e-07 0 0.032983177649016308 -5.7587384247977291e-05 0 0.033569065287208835 0.00026368670694064975 0 0.031043154174211798 -8.3029810930809178e-05 0 0.032067633658861998 0.00065858314324758244 0 0.031406937186949715 -0.00014530238209250573 0 0.035001150274288295 -3.0118187096511242e-07 0 0.034996026344746016 -1.7603808934919461e-06 0 0.035005941985106016 2.3796890239949198e-06 0 0.031043154174211798 -8.3029810930809178e-05 0 0.030816477894518725 -0.00014054376641107349 0 0.032067633658861998 0.00065858314324758244 0 0.033569065287208835 0.00026368670694064975 0 0.034738983756947985 0.00013597905427163622 0 0.032067633658861998 0.00065858314324758244 0 0.03333011168144516 -0.00011512399018453129 0 0.034864918973107076 7.4739417790209618e-05 0 0.032067633658861998 0.00065858314324758244 0 0.03333011168144516 -0.00011512399018453129 0 0.032045679144195025 -0.00053737004047726652 0 0.03333011168144516 -0.00011512399018453129 0 0.032045679144195025 -0.00053737004047726652 0 0.034192046774305415 -0.0005054724521151013 0 0.030725944576373565 -0.00048312248578366986 0 0.032045679144195025 -0.00053737004047726652 0 0.031406937186949715 -0.00014530238209250573 0 0.032067633658861998 0.00065858314324758244 0 0.032045679144195025 -0.00053737004047726652 0 0.031406937186949715 -0.00014530238209250573 0 0.034998003305829979 8.8854472978883669e-07 0 0.034864918973107076 7.4739417790209618e-05 0 0.034956853472221217 -4.4534044262167944e-05 0 0.035005941985106016 2.3796890239949198e-06 0 0.034998003305829979 8.8854472978883669e-07 0 0.034864918973107076 7.4739417790209618e-05 0 0.03333011168144516 -0.00011512399018453129 0 0.034864918973107076 7.4739417790209618e-05 0 0.034192046774305415 -0.0005054724521151013 0 0.034177752976424301 -0.00048351797891505344 0 0.035365122505591748 -0.00012428342987523942 0 0.034864918973107076 7.4739417790209618e-05 0 0.034192046774305415 -0.0005054724521151013 0 0.034956853472221217 -4.4534044262167944e-05 0 0.034192046774305415 -0.0005054724521151013 0 0.035037747738136317 -0.0011216819111486967 0 0.035564009490123685 -0.00022238737972114488 0 0.035037747738136317 -0.0011216819111486967 0 0.033178770297514593 -0.0014349492450663121 0 0.034749171503099481 -0.0023412237358238852 0 0.034192046774305415 -0.0005054724521151013 0 0.035037747738136317 -0.0011216819111486967 0 0.033178770297514593 -0.0014349492450663121 0 0.033178770297514593 -0.0014349492450663121 0 0.033231834664137462 -0.0028427093961831051 0 0.034749171503099481 -0.0023412237358238852 0 0.026814066439188128 -0.00092440948021857211 0 0.028270416761172361 -0.00038263281926922494 0 0.026993713947776232 -0.0011652182539250214 0 0.030029516167546288 -0.0019226778672078106 0 0.031576842388267086 -0.0013760339582645485 0 0.030725944576373565 -0.00048312248578366986 0 0.032045679144195025 -0.00053737004047726652 0 0.031019252105938949 -0.0010220472304839062 0 0.032045679144195025 -0.00053737004047726652 0 0.034192046774305415 -0.0005054724521151013 0 0.033178770297514593 -0.0014349492450663121 0 0.032045679144195025 -0.00053737004047726652 0 0.033178770297514593 -0.0014349492450663121 0 0.031019252105938949 -0.0010220472304839062 0 0.033178770297514593 -0.0014349492450663121 0 0.031019252105938949 -0.0010220472304839062 0 0.031993253034439076 -0.0024396309849002498 0 0.033178770297514593 -0.0014349492450663121 0 0.033231834664137462 -0.0028427093961831051 0 0.031993253034439076 -0.0024396309849002498 0 0.033231834664137462 -0.0028427093961831051 0 0.031993253034439076 -0.0024396309849002498 0 0.031298987887036014 -0.0034931637435199224 0 0.030166707652251139 -0.00050180134340687863 0 0.031019252105938949 -0.0010220472304839062 0 0.030155281201068244 -0.00052982300018900345 0 0.031019252105938949 -0.0010220472304839062 0 0.030155281201068244 -0.00052982300018900345 0 0.029578023098920169 -0.00024317757163273783 0 0.031019252105938949 -0.0010220472304839062 0 0.031993253034439076 -0.0024396309849002498 0 0.031018709453569736 -0.003573218291051145 0 0.031046091249023786 -0.0011431051235204278 0 0.029542837366110852 -0.001480098978961101 0 0.030155281201068244 -0.00052982300018900345 0 0.029601263448705183 -0.00018816006432165395 0 0.029826393087429771 -0.000298453291896967 0 0.030155281201068244 -0.00052982300018900345 0 0.029601263448705183 -0.00018816006432165395 0 0.029578023098920169 -0.00024317757163273783 0 0.029704275445557465 -0.001123979591481129 0 0.029542837366110852 -0.001480098978961101 0 0.029601263448705183 -0.00018816006432165395 0 0.029443844755969378 -9.546321295793963e-05 0 0.029285893866927388 -5.7875971590118029e-05 0 0.029601263448705183 -0.00018816006432165395 0 0.029443844755969378 -9.546321295793963e-05 0 0.029458273427326299 -0.0002403042452317884 0 0.026461380958624804 -0.0012488761108125274 0 0.026493615874654874 -0.0011433216895359486 0 0.026596185542534973 -0.0012886534834594377 0 0.027965594214620151 -0.00080923562560467988 0 0.028791892294843899 -0.0018039125823061776 0 0.028599063768318181 -0.001202630865596943 0 0.028613896545510754 -0.0011732293809975215 0 0.028601385319607903 -0.0011761456660210885 0 0.027965594214620151 -0.00080923562560467988 0 0.029542837366110852 -0.001480098978961101 0 0.031993253034439076 -0.0024396309849002498 0 0.031298987887036014 -0.0034931637435199224 0 0.031018709453569736 -0.003573218291051145 0 0.028791892294843899 -0.0018039125823061776 0 0.029542837366110852 -0.001480098978961101 0 0.030029516167546288 -0.0019226778672078106 0 0.028791892294843899 -0.0018039125823061776 0 0.026814066439188128 -0.00092440948021857211 0 0.026493615874654874 -0.0011433216895359486 0 0.026690139809512445 -0.0012088375190315824 0 0.026814066439188128 -0.00092440948021857211 0 0.026690139809512445 -0.0012088375190315824 0 0.026851414864388801 -0.0012232613261167254 0 0.026690139809512445 -0.0012088375190315824 0 0.026596185542534973 -0.0012886534834594377 0 0.026730314678975152 -0.0013769072846035722 0 0.026690139809512445 -0.0012088375190315824 0 0.026730314678975152 -0.0013769072846035722 0 0.026851414864388801 -0.0012232613261167254 0 0.026493615874654874 -0.0011433216895359486 0 0.026690139809512445 -0.0012088375190315824 0 0.026596185542534973 -0.0012886534834594377 0 0.026730314678975152 -0.0013769072846035722 0 0.026584629151863513 -0.001416361179457632 0 0.026657658342987885 -0.0015784416810529804 0 0.026730314678975152 -0.0013769072846035722 0 0.026817641585041564 -0.001528647683678641 0 0.026657658342987885 -0.0015784416810529804 0 0.026596185542534973 -0.0012886534834594377 0 0.026730314678975152 -0.0013769072846035722 0 0.026584629151863513 -0.001416361179457632 0 0.029443844755969378 -9.546321295793963e-05 0 0.029285893866927388 -5.7875971590118029e-05 0 0.028845318566593982 -2.1366360163496678e-05 0 0.027965594214620151 -0.00080923562560467988 0 0.02758837624503873 -6.7381453478014902e-05 0 0.026266844779017254 -0.00057289858438420256 0 0.026315095235992011 -0.00037343158937150562 0 0.026235028631980583 -0.0003574909861043481 0 0.027965594214620151 -0.00080923562560467988 0 0.026206149089711209 -0.00098931246142398735 0 0.026461380958624804 -0.0012488761108125274 0 0.026584629151863513 -0.001416361179457632 0 0.026474350345561844 -0.0015657295285730199 0 0.026461380958624804 -0.0012488761108125274 0 0.026596185542534973 -0.0012886534834594377 0 0.026584629151863513 -0.001416361179457632 0 0.027066988647295981 -0.0010996404784898316 0 0.027704991584868197 -0.0021918340836772749 0 0.026993713947776232 -0.0011652182539250214 0 0.026999285568362199 -0.0013510102584169718 0 0.027101631664227355 -0.0013602435449131449 0 0.028302700323809642 -0.0012161394369185612 0 0.026993713947776232 -0.0011652182539250214 0 0.028680126023732457 -0.0022275919785559825 0 0.028270416761172361 -0.00038263281926922494 0 0.028302700323809642 -0.0012161394369185612 0 0.026993713947776232 -0.0011652182539250214 0 0.028302700323809642 -0.0012161394369185612 0 0.028680126023732457 -0.0022275919785559825 0 0.029289245617700816 -0.0010875696143790167 0 0.028270416761172361 -0.00038263281926922494 0 0.028302700323809642 -0.0012161394369185612 0 0.029289245617700816 -0.0010875696143790167 0 0.026993713947776232 -0.0011652182539250214 0 0.026888901665897406 -0.001309435656713489 0 0.026999285568362199 -0.0013510102584169718 0 0.026814066439188128 -0.00092440948021857211 0 0.026993713947776232 -0.0011652182539250214 0 0.026851414864388801 -0.0012232613261167254 0 0.026993713947776232 -0.0011652182539250214 0 0.026851414864388801 -0.0012232613261167254 0 0.026888901665897406 -0.001309435656713489 0 0.026730314678975152 -0.0013769072846035722 0 0.026851414864388801 -0.0012232613261167254 0 0.026888901665897406 -0.001309435656713489 0 0.026917168516924581 -0.0015019433551587632 0 0.026999285568362199 -0.0013510102584169718 0 0.027027924930016961 -0.0015652826819445083 0 0.026730314678975152 -0.0013769072846035722 0 0.026888901665897406 -0.001309435656713489 0 0.026874006999381125 -0.0014127844447637023 0 0.026730314678975152 -0.0013769072846035722 0 0.026874006999381125 -0.0014127844447637023 0 0.026817641585041564 -0.001528647683678641 0 0.026874006999381125 -0.0014127844447637023 0 0.026917168516924581 -0.0015019433551587632 0 0.026817641585041564 -0.001528647683678641 0 0.026874006999381125 -0.0014127844447637023 0 0.026917168516924581 -0.0015019433551587632 0 0.026999285568362199 -0.0013510102584169718 0 0.026888901665897406 -0.001309435656713489 0 0.026874006999381125 -0.0014127844447637023 0 0.026999285568362199 -0.0013510102584169718 0 0.027024135021006344 -0.0014601348662920293 0 0.025815433873772511 -0.0016220737324114799 0 0.026999285568362199 -0.0013510102584169718 0 0.027065736602981953 -0.0014228319328252182 0 0.02702234232940421 -0.0014973759837028538 0 0.026999285568362199 -0.0013510102584169718 0 0.027067778703307652 -0.0013770312555639959 0 0.027101631664227355 -0.0013602435449131449 0 0.026999285568362199 -0.0013510102584169718 0 0.027066629593762312 -0.0014027793204889919 0 0.027067778703307652 -0.0013770312555639959 0 0.026999285568362199 -0.0013510102584169718 0 0.027066629593762312 -0.0014027793204889919 0 0.027065736602981953 -0.0014228319328252182 0 0.026166869976107489 -0.0022261180278678712 0 0.025711904352669609 -0.0018819554457211421 0 0.027066629593762312 -0.0014027793204889919 0 0.02708203687259771 -0.0013921864221306394 0 0.027064945007903244 -0.001423765387904361 0 0.024414238233412135 -0.0022426615943609181 0 0.024444084097709599 -0.0021797743992804678 0 0.024197859112419007 -0.0020476794991778073 0 0.025794492584933496 -0.0017785365527230078 0 0.025711904352669609 -0.0018819554457211421 0 0.026166869976107489 -0.0022261180278678712 0 0.027704991584868197 -0.0021918340836772749 0 0.027080917730415557 -0.0013916459238338683 0 0.027067778703307652 -0.0013770312555639959 0 0.027101631664227355 -0.0013602435449131449 0 0.027066629593762312 -0.0014027793204889919 0 0.02708203687259771 -0.0013921864221306394 0 0.027067778703307652 -0.0013770312555639959 0 0.026166869976107489 -0.0022261180278678712 0 0.026244065717091307 -0.0021737300211281153 0 0.024634610750821337 -0.0017868489674833284 0 0.024618030793372409 -0.0015460697296648042 0 0.024684370687087096 -0.0016744805888003291 0 0.02457344699896041 -0.0016297779390005108 0 0.024582241168684498 -0.0016390899786248503 0 0.024587014598161514 -0.0016202458355916111 0 0.024444084097709599 -0.0021797743992804678 0 0.024434346881834962 -0.001880633410551282 0 0.024197859112419007 -0.0020476794991778073 0 0.025711904352669609 -0.0018819554457211421 0 0.023016587463869313 -0.0016176510285270901 0 0.025711904352669609 -0.0018819554457211421 0 0.025815433873772511 -0.0016220737324114799 0 0.023016587463869313 -0.0016176510285270901 0 0.025815433873772511 -0.0016220737324114799 0 0.027027924930016961 -0.0015652826819445083 0 0.026873402316634602 -0.0016509844562611145 0 0.026864272617018802 -0.0018433679521660897 0 0.025815433873772511 -0.0016220737324114799 0 0.024453135515898054 -0.0014738160011484392 0 0.026917168516924581 -0.0015019433551587632 0 0.026873402316634602 -0.0016509844562611145 0 0.026817641585041564 -0.001528647683678641 0 0.026917168516924581 -0.0015019433551587632 0 0.027027924930016961 -0.0015652826819445083 0 0.026873402316634602 -0.0016509844562611145 0 0.026873402316634602 -0.0016509844562611145 0 0.026817641585041564 -0.001528647683678641 0 0.026774499432704525 -0.0016283691518947636 0 0.026817641585041564 -0.001528647683678641 0 0.026774499432704525 -0.0016283691518947636 0 0.026657658342987885 -0.0015784416810529804 0 0.026774499432704525 -0.0016283691518947636 0 0.026801099383747057 -0.0017554177789751017 0 0.026688777648323204 -0.0017129187753182906 0 0.026873402316634602 -0.0016509844562611145 0 0.026774499432704525 -0.0016283691518947636 0 0.026801099383747057 -0.0017554177789751017 0 0.026647719582634954 -0.0017484077561199607 0 0.02664914943272316 -0.0017471467578265671 0 0.026688777648323204 -0.0017129187753182906 0 0.02664914943272316 -0.0017471467578265671 0 0.026633267864044786 -0.0017579400218114649 0 0.026688777648323204 -0.0017129187753182906 0 0.026801099383747057 -0.0017554177789751017 0 0.026834540507206739 -0.0018658188095940021 0 0.026688777648323204 -0.0017129187753182906 0 0.024351687410606164 -0.0015685461240367352 0 0.026813660686365461 -0.0022403149914820009 0 0.024351687410606164 -0.0015685461240367352 0 0.021856074201442255 -0.00079573703400032591 0 0.02663611113586515 -0.0017563488854264162 0 0.026636833300577433 -0.0017515370802218826 0 0.026632062609485672 -0.0017619139732483111 0 0.026647719582634954 -0.0017484077561199607 0 0.02664914943272316 -0.0017471467578265671 0 0.026640621109092526 -0.0017529781236524542 0 0.026647719582634954 -0.0017484077561199607 0 0.026633296514037758 -0.0017577427342042478 0 0.026640621109092526 -0.0017529781236524542 0 0.026633296514037758 -0.0017577427342042478 0 0.026640621109092526 -0.0017529781236524542 0 0.02663611113586515 -0.0017563488854264162 0 0.026640621109092526 -0.0017529781236524542 0 0.02663611113586515 -0.0017563488854264162 0 0.026637221242195409 -0.0017534081132898609 0 0.02663611113586515 -0.0017563488854264162 0 0.026637221242195409 -0.0017534081132898609 0 0.026636833300577433 -0.0017515370802218826 0 0.024668856220989455 -0.0014418233188497249 0 0.024351687410606164 -0.0015685461240367352 0 0.02664914943272316 -0.0017471467578265671 0 0.026637221242195409 -0.0017534081132898609 0 0.026633267864044786 -0.0017579400218114649 0 0.02664914943272316 -0.0017471467578265671 0 0.026640621109092526 -0.0017529781236524542 0 0.026637221242195409 -0.0017534081132898609 0 0.022602827345151212 -0.00055855004729351892 0 0.022821295442813572 -0.00078452717125158087 0 0.022438303670085629 -0.0010131229200969144 0 0.022162598388141202 -0.0011869060472693425 0 0.022108065211949843 -0.0010502038128001254 0 0.02178933221217047 -0.0012372530246035878 0 0.022162598388141202 -0.0011869060472693425 0 0.02221291278831684 -0.0011537540043916232 0 0.022108065211949843 -0.0010502038128001254 0 0.024453135515898054 -0.0014738160011484392 0 0.024351687410606164 -0.0015685461240367352 0 0.024351687410606164 -0.0015685461240367352 0 0.020542009686318405 -0.00035706800278740186 0 0.026873402316634602 -0.0016509844562611145 0 0.026801099383747057 -0.0017554177789751017 0 0.026864272617018802 -0.0018433679521660897 0 0.026801099383747057 -0.0017554177789751017 0 0.026864272617018802 -0.0018433679521660897 0 0.026834540507206739 -0.0018658188095940021 0 0.023016587463869313 -0.0016176510285270901 0 0.024453135515898054 -0.0014738160011484392 0 0.022162598388141202 -0.0011869060472693425 0 0.02178933221217047 -0.0012372530246035878 0 0.021791446581390806 -0.0013448255601791225 0 0.021792780764782638 -0.0014370280731651355 0 0.022162598388141202 -0.0011869060472693425 0 0.021791446581390806 -0.0013448255601791225 0 0.020542009686318405 -0.00035706800278740186 0 0.019219333786830484 -0.00056420492643553431 0 0.019219333786830484 -0.00056420492643553431 0 0.016443664604753234 0.0011587689961432787 0 0.016264312398745252 0.00034316555136214082 0 0.0158845786683647 0.00073060730413117183 0 0.015940791683759548 0.001179618895718833 0 0.019219333786830484 -0.00056420492643553431 0 0.021305514387107184 -0.0012327258253792841 0 0.023016587463869313 -0.0016176510285270901 0 0.021305514387107184 -0.0012327258253792841 0 0.026289286877117072 -0.00024987826288074656 0 0.026315095235992011 -0.00037343158937150562 0 0.026235028631980583 -0.0003574909861043481 0 0.026584629151863513 -0.001416361179457632 0 0.026474350345561844 -0.0015657295285730199 0 0.026657658342987885 -0.0015784416810529804 0 0.026474350345561844 -0.0015657295285730199 0 0.026657658342987885 -0.0015784416810529804 0 0.026584878595072758 -0.0017097117642585317 0 0.026657658342987885 -0.0015784416810529804 0 0.026584878595072758 -0.0017097117642585317 0 0.026688777648323204 -0.0017129187753182906 0 0.026774499432704525 -0.0016283691518947636 0 0.026657658342987885 -0.0015784416810529804 0 0.026688777648323204 -0.0017129187753182906 0 0.026647719582634954 -0.0017484077561199607 0 0.026688777648323204 -0.0017129187753182906 0 0.026636244929034204 -0.0017507949707053546 0 0.026584878595072758 -0.0017097117642585317 0 0.026688777648323204 -0.0017129187753182906 0 0.026636244929034204 -0.0017507949707053546 0 0.026647719582634954 -0.0017484077561199607 0 0.026633296514037758 -0.0017577427342042478 0 0.026636244929034204 -0.0017507949707053546 0 0.026584878595072758 -0.0017097117642585317 0 0.026636244929034204 -0.0017507949707053546 0 0.026562620974988762 -0.0018144529995097575 0 0.026584878595072758 -0.0017097117642585317 0 0.026483326232109753 -0.001783848459066007 0 0.026562620974988762 -0.0018144529995097575 0 0.026289286877117072 -0.00024987826288074656 0 0.026212147830342463 -0.00012655251977604243 0 0.026373365565717947 -0.00017284242392562421 0 0.026474350345561844 -0.0015657295285730199 0 0.026584878595072758 -0.0017097117642585317 0 0.026483326232109753 -0.001783848459066007 0 0.026206149089711209 -0.00098931246142398735 0 0.026465354957758688 -0.00090465658107273799 0 0.026289286877117072 -0.00024987826288074656 0 0.026235028631980583 -0.0003574909861043481 0 0.026212147830342463 -0.00012655251977604243 0 0.026212147830342463 -0.00012655251977604243 0 0.026373365565717947 -0.00017284242392562421 0 0.026287473689649218 5.1776255481307142e-06 0 0.02758837624503873 -6.7381453478014902e-05 0 0.027081832565890428 -5.8754451313512875e-05 0 0.028845318566593982 -2.1366360163496678e-05 0 0.027803103983753248 -4.3477291842731091e-05 0 0.02835182549214307 -6.695648233672144e-07 0 0.027803103983753248 -4.3477291842731091e-05 0 0.02835182549214307 -6.695648233672144e-07 0 0.027811795327285567 3.340457418226288e-05 0 0.026289286877117072 -0.00024987826288074656 0 0.026315095235992011 -0.00037343158937150562 0 0.026373365565717947 -0.00017284242392562421 0 0.02835182549214307 -6.695648233672144e-07 0 0.028766268566163954 -3.3945803923606994e-08 0 0.028483003124113556 8.660727463002897e-06 0 0.028845318566593982 -2.1366360163496678e-05 0 0.02835182549214307 -6.695648233672144e-07 0 0.028766268566163954 -3.3945803923606994e-08 0 0.027811795327285567 3.340457418226288e-05 0 0.028091578819959009 4.6527655483898073e-05 0 0.028483003124113556 8.660727463002897e-06 0 0.02835182549214307 -6.695648233672144e-07 0 0.027811795327285567 3.340457418226288e-05 0 0.028483003124113556 8.660727463002897e-06 0 0.027803103983753248 -4.3477291842731091e-05 0 0.027811795327285567 3.340457418226288e-05 0 0.026955639987350961 5.4545823830078599e-05 0 0.027811795327285567 3.340457418226288e-05 0 0.027373810340751713 6.901163213442859e-05 0 0.026955639987350961 5.4545823830078599e-05 0 0.027373810340751713 6.901163213442859e-05 0 0.02623921347787013 0.00011132188069703667 0 0.026955639987350961 5.4545823830078599e-05 0 0.027373810340751713 6.901163213442859e-05 0 0.02705453181724023 3.4433451271948712e-08 0 0.02623921347787013 0.00011132188069703667 0 0.02705453181724023 3.4433451271948712e-08 0 0.028108037120580971 8.9531953181759089e-05 0 0.029029799199773589 9.6716890281317332e-07 0 0.027373810340751713 6.901163213442859e-05 0 0.02705453181724023 3.4433451271948712e-08 0 0.028108037120580971 8.9531953181759089e-05 0 0.027811795327285567 3.340457418226288e-05 0 0.027373810340751713 6.901163213442859e-05 0 0.028091578819959009 4.6527655483898073e-05 0 0.027373810340751713 6.901163213442859e-05 0 0.028108037120580971 8.9531953181759089e-05 0 0.028091578819959009 4.6527655483898073e-05 0 0.028108037120580971 8.9531953181759089e-05 0 0.028091578819959009 4.6527655483898073e-05 0 0.028609768755153066 -1.6983124260577722e-05 0 0.028108037120580971 8.9531953181759089e-05 0 0.028609768755153066 -1.6983124260577722e-05 0 0.029029799199773589 9.6716890281317332e-07 0 0.02915884528978031 -1.2629019285498087e-05 0 0.030999971620305444 -1.6034077225557032e-06 0 0.029029799199773589 9.6716890281317332e-07 0 0.02915884528978031 -1.2629019285498087e-05 0 0.028609768755153066 -1.6983124260577722e-05 0 0.029029799199773589 9.6716890281317332e-07 0 0.02915884528978031 -1.2629019285498087e-05 0 0.028609768755153066 -1.6983124260577722e-05 0 0.029587850169090272 -1.2238726724219942e-05 0 0.030019417712107033 5.3675427398373891e-05 0 0.029659065471296812 9.2444547334258223e-06 0 0.028609768755153066 -1.6983124260577722e-05 0 0.029587850169090272 -1.2238726724219942e-05 0 0.02907910227387081 -2.0339242179685515e-05 0 0.029587850169090272 -1.2238726724219942e-05 0 0.029826393087429771 -0.000298453291896967 0 0.029462864320106169 -9.295289825018101e-05 0 0.029601263448705183 -0.00018816006432165395 0 0.029826393087429771 -0.000298453291896967 0 0.029462864320106169 -9.295289825018101e-05 0 0.029601263448705183 -0.00018816006432165395 0 0.029285893866927388 -5.7875971590118029e-05 0 0.029462864320106169 -9.295289825018101e-05 0 0.029587850169090272 -1.2238726724219942e-05 0 0.029462864320106169 -9.295289825018101e-05 0 0.02907910227387081 -2.0339242179685515e-05 0 0.02907910227387081 -2.0339242179685515e-05 0 0.029118585662940306 -2.5730641774814016e-05 0 0.028766268566163954 -3.3945803923606994e-08 0 0.029285893866927388 -5.7875971590118029e-05 0 0.028845318566593982 -2.1366360163496678e-05 0 0.029118585662940306 -2.5730641774814016e-05 0 0.029462864320106169 -9.295289825018101e-05 0 0.02907910227387081 -2.0339242179685515e-05 0 0.029118585662940306 -2.5730641774814016e-05 0 0.029285893866927388 -5.7875971590118029e-05 0 0.029462864320106169 -9.295289825018101e-05 0 0.029118585662940306 -2.5730641774814016e-05 0 0.028845318566593982 -2.1366360163496678e-05 0 0.029118585662940306 -2.5730641774814016e-05 0 0.028766268566163954 -3.3945803923606994e-08 0 0.02907910227387081 -2.0339242179685515e-05 0 0.028766268566163954 -3.3945803923606994e-08 0 0.028483003124113556 8.660727463002897e-06 0 0.028609768755153066 -1.6983124260577722e-05 0 0.02907910227387081 -2.0339242179685515e-05 0 0.028483003124113556 8.660727463002897e-06 0 0.028091578819959009 4.6527655483898073e-05 0 0.028609768755153066 -1.6983124260577722e-05 0 0.028483003124113556 8.660727463002897e-06 0 0.018818460802494167 0.0029870922343315509 0 0.019392916638032689 0.0023412186700483861 0 0.020009526925990642 0.003755958304834607 0 0.018818460802494167 0.0029870922343315509 0 0.019392916638032689 0.0023412186700483861 0 0.018603680009337046 0.0020376801055248073 0 0.022302418215610784 0.0020808068296835468 0 0.021781516829679711 0.0014983479259862149 0 0.026868120038832446 0.0013951279307079145 0 0.026865281538043698 0.0014731491207106459 0 0.026086329098391071 0.00095489942140900539 0 0.026868120038832446 0.0013951279307079145 0 0.026088330852768581 0.0008010653411792526 0 0.026086329098391071 0.00095489942140900539 0 0.031424420490325719 0.00073654376496935109 0 0.030433849754020945 0.00027650120625424466 0 0.018818460802494167 0.0029870922343315509 0 0.01767801601217564 0.0021767255795178677 0 0.018603680009337046 0.0020376801055248073 0 0.034879361844314144 -8.9740615424021685e-05 0 0.034960044600527068 -0.0001955122665705441 0 0.03495424066254154 -2.9034586818758594e-05 0 0.034879361844314144 -8.9740615424021685e-05 0 0.034960044600527068 -0.0001955122665705441 0 0.034767869164550456 -0.00049405519359969809 0 0.026868120038832446 0.0013951279307079145 0 0.026865281538043698 0.0014731491207106459 0 0.027616588625523606 0.0020066635146694881 0 0.022302418215610784 0.0020808068296835468 0 0.027674286936031231 0.0019104897955011895 0 0.031424420490325719 0.00073654376496935109 0 0.027674286936031231 0.0019104897955011895 0 0.034960044600527068 -0.0001955122665705441 0 0.03495424066254154 -2.9034586818758594e-05 0 0.034967969065847759 -6.966119033214029e-05 0 0.03495424066254154 -2.9034586818758594e-05 0 0.034979309297734656 -1.9059141883934633e-05 0 0.034967969065847759 -6.966119033214029e-05 0 0.03495424066254154 -2.9034586818758594e-05 0 0.034982271194712693 -1.1199018459606308e-05 0 0.034979309297734656 -1.9059141883934633e-05 0 0.034982271194712693 -1.1199018459606308e-05 0 0.034999973975167999 -4.8063894536923576e-08 0 0.034999819394727238 5.4395597256703029e-08 0 0.034982271194712693 -1.1199018459606308e-05 0 0.034999973975167999 -4.8063894536923576e-08 0 0.034979309297734656 -1.9059141883934633e-05 0 0.03495424066254154 -2.9034586818758594e-05 0 0.034999819394727238 5.4395597256703029e-08 0 0.034905120363871153 5.4254075256254168e-06 0 0.03495424066254154 -2.9034586818758594e-05 0 0.034982271194712693 -1.1199018459606308e-05 0 0.034999819394727238 5.4395597256703029e-08 0 0.034879361844314144 -8.9740615424021685e-05 0 0.03495424066254154 -2.9034586818758594e-05 0 0.034905120363871153 5.4254075256254168e-06 0 0.034879361844314144 -8.9740615424021685e-05 0 0.03476485531954112 1.8038541679123962e-05 0 0.034905120363871153 5.4254075256254168e-06 0 0.03476485531954112 1.8038541679123962e-05 0 0.034905120363871153 5.4254075256254168e-06 0 0.034882866546588467 -1.8072334396732439e-06 0 0.034999819394727238 5.4395597256703029e-08 0 0.03499986478694965 7.7170925100091255e-09 0 0.034970341901694971 1.2177341650319198e-05 0 0.034999819394727238 5.4395597256703029e-08 0 0.034905120363871153 5.4254075256254168e-06 0 0.034970341901694971 1.2177341650319198e-05 0 0.034905120363871153 5.4254075256254168e-06 0 0.034970341901694971 1.2177341650319198e-05 0 0.034882866546588467 -1.8072334396732439e-06 0 0.034970341901694971 1.2177341650319198e-05 0 0.034860843734703023 -1.6169064965218467e-05 0 0.03480155018425643 5.043340644097776e-05 0 0.034970341901694971 1.2177341650319198e-05 0 0.034860843734703023 -1.6169064965218467e-05 0 0.034882866546588467 -1.8072334396732439e-06 0 0.035001267086341936 2.423524403767579e-05 0 0.034788437769230011 1.4660646566150616e-05 0 0.03499986478694965 7.7170925100091255e-09 0 0.034970341901694971 1.2177341650319198e-05 0 0.035005504184433454 1.8225765851102253e-06 0 0.03476485531954112 1.8038541679123962e-05 0 0.034860843734703023 -1.6169064965218467e-05 0 0.03483188351002145 -5.8859995907323108e-05 0 0.03476485531954112 1.8038541679123962e-05 0 0.034860843734703023 -1.6169064965218467e-05 0 0.034882866546588467 -1.8072334396732439e-06 0 0.034683327210939578 3.6306517788127757e-05 0 0.03411792809350999 -1.3235516823505209e-05 0 0.03476485531954112 1.8038541679123962e-05 0 0.034367246004456259 -0.00034949348004385155 0 0.033413272045842095 8.1267405175319612e-05 0 0.034367246004456259 -0.00034949348004385155 0 0.03349598098189667 -0.0010563505181917243 0 0.033413272045842095 8.1267405175319612e-05 0 0.034879361844314144 -8.9740615424021685e-05 0 0.034721699928812091 -0.00024804872419781463 0 0.034767869164550456 -0.00049405519359969809 0 0.034879361844314144 -8.9740615424021685e-05 0 0.03476485531954112 1.8038541679123962e-05 0 0.034721699928812091 -0.00024804872419781463 0 0.03476485531954112 1.8038541679123962e-05 0 0.034367246004456259 -0.00034949348004385155 0 0.034721699928812091 -0.00024804872419781463 0 0.034367246004456259 -0.00034949348004385155 0 0.034767869164550456 -0.00049405519359969809 0 0.034361027697252626 -0.00075009764880206397 0 0.026088330852768581 0.0008010653411792526 0 0.026086329098391071 0.00095489942140900539 0 0.025265866577540007 0.00045341095554246466 0 0.034367246004456259 -0.00034949348004385155 0 0.034721699928812091 -0.00024804872419781463 0 0.034767869164550456 -0.00049405519359969809 0 0.030433849754020945 0.00027650120625424466 0 0.029334780536693018 -0.00068279475665578482 0 0.03534043665056192 -0.00074251860193443031 0 0.029334780536693018 -0.00068279475665578482 0 0.034367246004456259 -0.00034949348004385155 0 0.03349598098189667 -0.0010563505181917243 0 0.034460748497236633 -0.0020255734996260742 0 0.03349598098189667 -0.0010563505181917243 0 0.032444213886451308 -0.0011518511761467254 0 0.033413272045842095 8.1267405175319612e-05 0 0.03349598098189667 -0.0010563505181917243 0 0.032444213886451308 -0.0011518511761467254 0 0.032849052712383482 -0.0019858113636916125 0 0.032444213886451308 -0.0011518511761467254 0 0.03173205125130401 -0.00032668150058407999 0 0.03122492033210306 -0.001567892612822771 0 0.032444213886451308 -0.0011518511761467254 0 0.03122492033210306 -0.001567892612822771 0 0.032040233107685154 -0.0018860434997278895 0 0.034679257509674009 -0.00015323294053450613 0 0.034667933782136853 -3.915407863355185e-05 0 0.034573762848544826 -6.4835989770961966e-05 0 0.034679257509674009 -0.00015323294053450613 0 0.034755005686642873 -1.9660868806786539e-05 0 0.034667933782136853 -3.915407863355185e-05 0 0.032444213886451308 -0.0011518511761467254 0 0.03173205125130401 -0.00032668150058407999 0 0.033413272045842095 8.1267405175319612e-05 0 0.034679257509674009 -0.00015323294053450613 0 0.03483188351002145 -5.8859995907323108e-05 0 0.034755005686642873 -1.9660868806786539e-05 0 0.033162944796302052 -0.00023420680863351067 0 0.03411792809350999 -1.3235516823505209e-05 0 0.03481349113923158 -1.4356251329049684e-05 0 0.03480155018425643 5.043340644097776e-05 0 0.034755005686642873 -1.9660868806786539e-05 0 0.034860843734703023 -1.6169064965218467e-05 0 0.03483188351002145 -5.8859995907323108e-05 0 0.03481349113923158 -1.4356251329049684e-05 0 0.03483188351002145 -5.8859995907323108e-05 0 0.03481349113923158 -1.4356251329049684e-05 0 0.034755005686642873 -1.9660868806786539e-05 0 0.034860843734703023 -1.6169064965218467e-05 0 0.03481349113923158 -1.4356251329049684e-05 0 0.03480155018425643 5.043340644097776e-05 0 0.03499986478694965 7.7170925100091255e-09 0 0.035005504184433454 1.8225765851102253e-06 0 0.035000090190526779 1.9977257125535578e-09 0 0.034788437769230011 1.4660646566150616e-05 0 0.035402342912873669 -9.0098132507243612e-05 0 0.035005504184433454 1.8225765851102253e-06 0 0.035000090190526779 1.9977257125535578e-09 0 0.035001474580252066 -2.5694358701352345e-06 0 0.035000012647859929 -1.0442491858003554e-07 0 0.035402342912873669 -9.0098132507243612e-05 0 0.034667416232274234 5.1370761189364413e-05 0 0.034755005686642873 -1.9660868806786539e-05 0 0.034667933782136853 -3.915407863355185e-05 0 0.03480155018425643 5.043340644097776e-05 0 0.034667416232274234 5.1370761189364413e-05 0 0.034755005686642873 -1.9660868806786539e-05 0 0.034667416232274234 5.1370761189364413e-05 0 0.034667933782136853 -3.915407863355185e-05 0 0.034573762848544826 -6.4835989770961966e-05 0 0.035000949939866549 -4.9383969327603261e-07 0 0.034994004814404962 -2.6793561633908047e-05 0 0.034956853472221217 -4.4534044262167944e-05 0 0.03694138800313336 8.786965563679626e-05 0 0.035564009490123685 -0.00022238737972114488 0 0.036469434764895288 -0.00087013739565330135 0 0.035402342912873669 -9.0098132507243612e-05 0 0.03574665014548107 -0.00034740740491375003 0 0.035402342912873669 -9.0098132507243612e-05 0 0.035365122505591748 -0.00012428342987523942 0 0.034998003305829979 8.8854472978883669e-07 0 0.035000949939866549 -4.9383969327603261e-07 0 0.034956853472221217 -4.4534044262167944e-05 0 0.035037747738136317 -0.0011216819111486967 0 0.035564009490123685 -0.00022238737972114488 0 0.036469434764895288 -0.00087013739565330135 0 0.035037747738136317 -0.0011216819111486967 0 0.036469434764895288 -0.00087013739565330135 0 0.035994445223243257 -0.0018908561990389459 0 0.033162944796302052 -0.00023420680863351067 0 0.032547082466901807 -0.00061810025536569409 0 0.034679257509674009 -0.00015323294053450613 0 0.034573762848544826 -6.4835989770961966e-05 0 0.034466747186369606 -0.00022840296115917758 0 0.03574665014548107 -0.00034740740491375003 0 0.032547082466901807 -0.00061810025536569409 0 0.03173205125130401 -0.00032668150058407999 0 0.03122492033210306 -0.001567892612822771 0 0.030169958242196575 -0.000760752573437259 0 0.03122492033210306 -0.001567892612822771 0 0.030169958242196575 -0.000760752573437259 0 0.030378381547931783 -0.0016745998129727023 0 0.030169958242196575 -0.000760752573437259 0 0.029607768084682094 -0.0018273016406542995 0 0.030378381547931783 -0.0016745998129727023 0 0.032547082466901807 -0.00061810025536569409 0 0.029394087822190315 -0.0015567222097137702 0 0.028270416761172361 -0.00038263281926922494 0 0.02992328296852334 8.8695979967837662e-05 0 0.029289245617700816 -0.0010875696143790167 0 0.031576842388267086 -0.0013760339582645485 0 0.032547082466901807 -0.00061810025536569409 0 0.035037747738136317 -0.0011216819111486967 0 0.034749171503099481 -0.0023412237358238852 0 0.035994445223243257 -0.0018908561990389459 0 0.029045234044380565 -0.0028907235077409725 0 0.029607768084682094 -0.0018273016406542995 0 0.030508904194806005 -0.0025393785404376709 0 0.027704991584868197 -0.0021918340836772749 0 0.029394087822190315 -0.0015567222097137702 0 0.029607768084682094 -0.0018273016406542995 0 0.030378381547931783 -0.0016745998129727023 0 0.030508904194806005 -0.0025393785404376709 0 0.03122492033210306 -0.001567892612822771 0 0.030508904194806005 -0.0025393785404376709 0 0.031631674483989715 -0.0028189563300533181 0 0.03122492033210306 -0.001567892612822771 0 0.030378381547931783 -0.0016745998129727023 0 0.030508904194806005 -0.0025393785404376709 0 0.02771966023204913 -0.0031795363777853631 0 0.031636910793472896 -0.0028757710967412778 0 0.030508904194806005 -0.0025393785404376709 0 0.030349220589969847 -0.0036806936121477536 0 0.031631674483989715 -0.0028189563300533181 0 0.029103351349183005 -0.0042467064984479368 0 0.029959853601100921 -0.0047602832212917138 0 0.031026085734649891 -0.003003120823426205 0 0.026341205098940418 -0.0025995940468831521 0 0.026214709189470838 -0.0025276394946576555 0 0.026263537987803336 -0.0024886652428905095 0 0.026355083520185753 -0.002566811318616369 0 0.026341205098940418 -0.0025995940468831521 0 0.026263537987803336 -0.0024886652428905095 0 0.029045234044380565 -0.0028907235077409725 0 0.030508904194806005 -0.0025393785404376709 0 0.030349220589969847 -0.0036806936121477536 0 0.027704991584868197 -0.0021918340836772749 0 0.02771966023204913 -0.0031795363777853631 0 0.026166869976107489 -0.0022261180278678712 0 0.023725854053595619 -0.002465238261137682 0 0.021199628524171114 -0.0013211493248428132 0 0.021196455407697906 -0.0013394000247393535 0 0.021310900093924827 -0.0012985909826734997 0 0.021199628524171114 -0.0013211493248428132 0 0.021285525161599563 -0.0012701473053973434 0 0.021310900093924827 -0.0012985909826734997 0 0.02771966023204913 -0.0031795363777853631 0 0.023725854053595619 -0.002465238261137682 0 0.02390622330497039 -0.0018041776861926219 0 0.023266650083944813 -0.0022358848020053446 0 0.023700154068435335 -0.0026488523199121481 0 0.023725854053595619 -0.002465238261137682 0 0.019616944097996976 -0.0013089825384822334 0 0.023016587463869313 -0.0016176510285270901 0 0.023725854053595619 -0.002465238261137682 0 0.021192937439889432 -0.0013606900133164824 0 0.021196455407697906 -0.0013394000247393535 0 0.021310900093924827 -0.0012985909826734997 0 0.016264312398745252 0.00034316555136214082 0 0.01533273655828938 -0.00020382810177559655 0 0.0158845786683647 0.00073060730413117183 0 0.015378529362686523 0.00060286356576596731 0 0.016151491649148773 -0.00020626578705201735 0 0.01533273655828938 -0.00020382810177559655 0 0.0158845786683647 0.00073060730413117183 0 0.015043880102773976 7.3389760070560146e-05 0 0.019219333786830484 -0.00056420492643553431 0 0.019616944097996976 -0.0013089825384822334 0 0.0158845786683647 0.00073060730413117183 0 0.014565762055482285 -0.00014738847977090492 0 0.015176425258221176 0.00093329349021832001 0 0.014489873870755003 0.00078668180244359954 0 0.014565762055482285 -0.00014738847977090492 0 0.015176425258221176 0.00093329349021832001 0 0.014489873870755003 0.00078668180244359954 0 0.014565762055482285 -0.00014738847977090492 0 0.013687532805771353 0.00073831470520193429 0 0.015008797897749636 -0.0001549363831825645 0 0.014206746071569177 5.1892837956779467e-06 0 0.01397868985385012 0.00075983800752680761 0 0.016151491649148773 -0.00020626578705201735 0 0.013655366605990893 0.00086347465807348441 0 0.015008797897749636 -0.0001549363831825645 0 0.014184396111873854 -0.00072116481705534433 0 0.014206746071569177 5.1892837956779467e-06 0 0.016151491649148773 -0.00020626578705201735 0 0.019063376182439692 -0.00011549789155873799 0 0.019829203446900541 -0.0011916895778976728 0 0.020077960315690254 -0.00049659997534395384 0 0.020486518847896314 -0.00074280609173112122 0 0.019473082817344681 -0.00085230090662039818 0 0.019829203446900541 -0.0011916895778976728 0 0.020077960315690254 -0.00049659997534395384 0 0.019616944097996976 -0.0013089825384822334 0 0.016151491649148773 -0.00020626578705201735 0 0.02771966023204913 -0.0031795363777853631 0 0.024780454497973815 -0.0022184860370703155 0 0.019616944097996976 -0.0013089825384822334 0 0.024780454497973815 -0.0022184860370703155 0 0.02390622330497039 -0.0018041776861926219 0 0.023700154068435335 -0.0026488523199121481 0 0.024516112315615304 -0.0021704815094215841 0 0.024780454497973815 -0.0022184860370703155 0 0.019063376182439692 -0.00011549789155873799 0 0.018727644076067581 0.000893628361303212 0 0.018409879978886705 0.0010863338618594307 0 0.018473285523747732 0.00098420297412486887 0 0.019063376182439692 -0.00011549789155873799 0 0.022000342527865913 -0.0003605394919768353 0 0.019063376182439692 -0.00011549789155873799 0 0.014612284295936681 0.00044691186405889109 0 0.018727644076067581 0.000893628361303212 0 0.018456137828619764 0.00089207549532372343 0 0.018397249930145666 0.00067214550883380189 0 0.022991765837168537 -0.0019924040069870508 0 0.023510328635902956 -0.0023068740504978663 0 0.024726357396031681 -0.00097944904072364328 0 0.018727644076067581 0.000893628361303212 0 0.018473285523747732 0.00098420297412486887 0 0.018456137828619764 0.00089207549532372343 0 0.014184396111873854 -0.00072116481705534433 0 0.014206746071569177 5.1892837956779467e-06 0 0.013657436728804042 0.0001283163470096201 0 0.014184396111873854 -0.00072116481705534433 0 0.013657436728804042 0.0001283163470096201 0 0.012884111869940066 5.6378946769185513e-05 0 0.014206746071569177 5.1892837956779467e-06 0 0.013657436728804042 0.0001283163470096201 0 0.01397868985385012 0.00075983800752680761 0 0.013657436728804042 0.0001283163470096201 0 0.013176249316463872 0.00034143603488351267 0 0.012884111869940066 5.6378946769185513e-05 0 0.013657436728804042 0.0001283163470096201 0 0.013249635432503824 0.00066956370252197232 0 0.01397868985385012 0.00075983800752680761 0 0.013657436728804042 0.0001283163470096201 0 0.013249635432503824 0.00066956370252197232 0 0.013176249316463872 0.00034143603488351267 0 0.014612284295936681 0.00044691186405889109 0 0.011440530045775372 0.00084589255643699782 0 0.012884111869940066 5.6378946769185513e-05 0 0.011836102066918581 0.00078981394133630816 0 0.012234155921069224 0.00069058052173292866 0 0.012674210589281148 0.00052524985447777108 0 0.012884111869940066 5.6378946769185513e-05 0 0.012234155921069224 0.00069058052173292866 0 0.012674210589281148 0.00052524985447777108 0 0.012234155921069224 0.00069058052173292866 0 0.012659555472133249 0.00084883620483683505 0 0.012674210589281148 0.00052524985447777108 0 0.012897661679887144 0.00048998891582386771 0 0.012659555472133249 0.00084883620483683505 0 0.013249635432503824 0.00066956370252197232 0 0.012897661679887144 0.00048998891582386771 0 0.012659555472133249 0.00084883620483683505 0 0.013249635432503824 0.00066956370252197232 0 0.013176249316463872 0.00034143603488351267 0 0.012897661679887144 0.00048998891582386771 0 0.012674210589281148 0.00052524985447777108 0 0.012897661679887144 0.00048998891582386771 0 0.012884111869940066 5.6378946769185513e-05 0 0.013176249316463872 0.00034143603488351267 0 0.012897661679887144 0.00048998891582386771 0 0.012884111869940066 5.6378946769185513e-05 0 0.01839013588929788 0.0010440637800593299 0 0.018409879978886705 0.0010863338618594307 0 0.018473285523747732 0.00098420297412486887 0 0.01839013588929788 0.0010440637800593299 0 0.018270431699762651 0.0010685083002872032 0 0.018378193444599417 0.000987081057333278 0 0.01839013588929788 0.0010440637800593299 0 0.018257957602338223 0.0011161026338526623 0 0.018270431699762651 0.0010685083002872032 0 0.01839013588929788 0.0010440637800593299 0 0.018409879978886705 0.0010863338618594307 0 0.018257957602338223 0.0011161026338526623 0 0.018270431699762651 0.0010685083002872032 0 0.018293682829511659 0.00099794771824250356 0 0.018172195205299179 0.0010677318060162292 0 0.018293682829511659 0.00099794771824250356 0 0.018315606410579562 0.00091055413765944639 0 0.018378193444599417 0.000987081057333278 0 0.018270431699762651 0.0010685083002872032 0 0.018293682829511659 0.00099794771824250356 0 0.018378193444599417 0.000987081057333278 0 0.018293682829511659 0.00099794771824250356 0 0.018315606410579562 0.00091055413765944639 0 0.018213087617775164 0.00097341569128904526 0 0.018315606410579562 0.00091055413765944639 0 0.018378193444599417 0.000987081057333278 0 0.018456137828619764 0.00089207549532372343 0 0.01839013588929788 0.0010440637800593299 0 0.018473285523747732 0.00098420297412486887 0 0.018378193444599417 0.000987081057333278 0 0.018473285523747732 0.00098420297412486887 0 0.018378193444599417 0.000987081057333278 0 0.018456137828619764 0.00089207549532372343 0 0.018315606410579562 0.00091055413765944639 0 0.018456137828619764 0.00089207549532372343 0 0.018397249930145666 0.00067214550883380189 0 0.018315606410579562 0.00091055413765944639 0 0.018397249930145666 0.00067214550883380189 0 0.018194740215251311 0.00088038301707525114 0 0.024726357396031681 -0.00097944904072364328 0 0.024985019048617947 -0.0013090095481505029 0 0.026426216495034884 -0.00033071376774494401 0 0.023510328635902956 -0.0023068740504978663 0 0.024726357396031681 -0.00097944904072364328 0 0.024985019048617947 -0.0013090095481505029 0 0.029959853601100921 -0.0047602832212917138 0 0.03249572413170479 -0.0032792471696398299 0 0.031026085734649891 -0.003003120823426205 0 0.024780454497973815 -0.0022184860370703155 0 0.029098662480069575 -0.0022639041605078919 0 0.03249572413170479 -0.0032792471696398299 0 0.031026085734649891 -0.003003120823426205 0 0.032849052712383482 -0.0019858113636916125 0 0.031636910793472896 -0.0028757710967412778 0 0.032619537265154146 -0.002089733148579769 0 0.031631674483989715 -0.0028189563300533181 0 0.032040233107685154 -0.0018860434997278895 0 0.032849052712383482 -0.0019858113636916125 0 0.03122492033210306 -0.001567892612822771 0 0.031631674483989715 -0.0028189563300533181 0 0.032040233107685154 -0.0018860434997278895 0 0.032444213886451308 -0.0011518511761467254 0 0.032040233107685154 -0.0018860434997278895 0 0.032849052712383482 -0.0019858113636916125 0 0.03249572413170479 -0.0032792471696398299 0 0.032849052712383482 -0.0019858113636916125 0 0.034460748497236633 -0.0020255734996260742 0 0.03349598098189667 -0.0010563505181917243 0 0.032849052712383482 -0.0019858113636916125 0 0.034460748497236633 -0.0020255734996260742 0 0.029098662480069575 -0.0022639041605078919 0 0.029334780536693018 -0.00068279475665578482 0 0.024726357396031681 -0.00097944904072364328 0 0.026426216495034884 -0.00033071376774494401 0 0.026421541052076641 1.2009454090418973e-05 0 0.022344773726574705 0.000400829540867061 0 0.029334780536693018 -0.00068279475665578482 0 0.01767801601217564 0.0021767255795178677 0 0.016643959526449242 0.0013681766663427599 0 0.017430748213285292 0.00079177197712341661 0 0.026088330852768581 0.0008010653411792526 0 0.025267325558294172 0.00022310002761744406 0 0.025265866577540007 0.00045341095554246466 0 0.021781516829679711 0.0014983479259862149 0 0.022344773726574705 0.000400829540867061 0 0.016643959526449242 0.0013681766663427599 0 0.017072213634244271 0.00040245288537561205 0 0.016963213981342928 8.7292908785275268e-06 0 0.016643959526449242 0.0013681766663427599 0 0.017430748213285292 0.00079177197712341661 0 0.017072213634244271 0.00040245288537561205 0 0.017430748213285292 0.00079177197712341661 0 0.017198171660819626 0.00032730000060538438 0 0.017072213634244271 0.00040245288537561205 0 0.017430748213285292 0.00079177197712341661 0 0.017198171660819626 0.00032730000060538438 0 0.017560523970897794 0.0002356886145019647 0 0.022344773726574705 0.000400829540867061 0 0.017259927889594472 0.00067848090989687331 0 0.018397249930145666 0.00067214550883380189 0 0.018099811981692256 0.00045380679819388459 0 0.018030410632049392 0.00083830681024853128 0 0.022000342527865913 -0.0003605394919768353 0 0.022344773726574705 0.000400829540867061 0 0.018397249930145666 0.00067214550883380189 0 0.018194740215251311 0.00088038301707525114 0 0.018030410632049392 0.00083830681024853128 0 0.018030410632049392 0.00083830681024853128 0 0.018085460399105725 0.00097246455281269669 0 0.017959714654915922 0.0012656876597097789 0 0.018194740215251311 0.00088038301707525114 0 0.018030410632049392 0.00083830681024853128 0 0.018085460399105725 0.00097246455281269669 0 0.018315606410579562 0.00091055413765944639 0 0.018194740215251311 0.00088038301707525114 0 0.018213087617775164 0.00097341569128904526 0 0.018194740215251311 0.00088038301707525114 0 0.018149101704820859 0.00095208483699475743 0 0.018213087617775164 0.00097341569128904526 0 0.018194740215251311 0.00088038301707525114 0 0.018085460399105725 0.00097246455281269669 0 0.018149101704820859 0.00095208483699475743 0 0.018149101704820859 0.00095208483699475743 0 0.018213087617775164 0.00097341569128904526 0 0.018120254314612297 0.0010351368316911995 0 0.018085460399105725 0.00097246455281269669 0 0.018149101704820859 0.00095208483699475743 0 0.018120254314612297 0.0010351368316911995 0 0.018213087617775164 0.00097341569128904526 0 0.018172195205299179 0.0010677318060162292 0 0.018120254314612297 0.0010351368316911995 0 0.018293682829511659 0.00099794771824250356 0 0.018213087617775164 0.00097341569128904526 0 0.018172195205299179 0.0010677318060162292 0 0.018270431699762651 0.0010685083002872032 0 0.018172195205299179 0.0010677318060162292 0 0.017959714654915922 0.0012656876597097789 0 0.018257957602338223 0.0011161026338526623 0 0.018270431699762651 0.0010685083002872032 0 0.017959714654915922 0.0012656876597097789 0 0.018085460399105725 0.00097246455281269669 0 0.018120254314612297 0.0010351368316911995 0 0.017959714654915922 0.0012656876597097789 0 0.017259927889594472 0.00067848090989687331 0 0.014744360244607908 0.0013982898585351482 0 0.018409879978886705 0.0010863338618594307 0 0.018257957602338223 0.0011161026338526623 0 0.017959714654915922 0.0012656876597097789 0 0.012977840308807647 7.1638393761274394e-05 0 0.011401754980344065 0.00073245624281085685 0 0.011836102066918581 0.00078981394133630816 0 0.014612284295936681 0.00044691186405889109 0 0.014744360244607908 0.0013982898585351482 0 0.018172195205299179 0.0010677318060162292 0 0.018120254314612297 0.0010351368316911995 0 0.017959714654915922 0.0012656876597097789 0 0.016963213981342928 8.7292908785275268e-06 0 0.017135560844490329 0.0021939779755827636 0 0.016531502982771867 0.001233432301009277 0 0.017135560844490329 0.0021939779755827636 0 0.015870131563757144 0.0019827450620525989 0 0.015643431948646275 0.0029360335109024456 0 0.017135560844490329 0.0021939779755827636 0 0.015870131563757144 0.0019827450620525989 0 0.016531502982771867 0.001233432301009277 0 0.016531502982771867 0.001233432301009277 0 0.015976053884512231 0.00076063218240593684 0 0.01533428224751369 0.0013037818384741839 0 0.015870131563757144 0.0019827450620525989 0 0.016531502982771867 0.001233432301009277 0 0.01533428224751369 0.0013037818384741839 0 0.015976053884512231 0.00076063218240593684 0 0.015129466509043659 0.00066886072186608922 0 0.01533428224751369 0.0013037818384741839 0 0.015976053884512231 0.00076063218240593684 0 0.016801344195990973 0.00010282201114355559 0 0.015129466509043659 0.00066886072186608922 0 0.016531502982771867 0.001233432301009277 0 0.015976053884512231 0.00076063218240593684 0 0.016640083596195402 0.00051366047278290591 0 0.016963213981342928 8.7292908785275268e-06 0 0.016531502982771867 0.001233432301009277 0 0.016640083596195402 0.00051366047278290591 0 0.015976053884512231 0.00076063218240593684 0 0.016640083596195402 0.00051366047278290591 0 0.016801344195990973 0.00010282201114355559 0 0.017198171660819626 0.00032730000060538438 0 0.017072213634244271 0.00040245288537561205 0 0.016801344195990973 0.00010282201114355559 0 0.017072213634244271 0.00040245288537561205 0 0.016963213981342928 8.7292908785275268e-06 0 0.016801344195990973 0.00010282201114355559 0 0.016963213981342928 8.7292908785275268e-06 0 0.016640083596195402 0.00051366047278290591 0 0.016801344195990973 0.00010282201114355559 0 0.017198171660819626 0.00032730000060538438 0 0.016801344195990973 0.00010282201114355559 0 0.017560523970897794 0.0002356886145019647 0 0.017560523970897794 0.0002356886145019647 0 0.018482436701119237 -0.0001495091252829859 0 0.018278325863391745 0.00024368377374282954 0 0.016801344195990973 0.00010282201114355559 0 0.017560523970897794 0.0002356886145019647 0 0.018482436701119237 -0.0001495091252829859 0 0.016920525417476743 6.9493439643702432e-05 0 0.015685825813252206 -4.3107044040261041e-05 0 0.016801344195990973 0.00010282201114355559 0 0.015129466509043659 0.00066886072186608922 0 0.013586052126688007 3.3389505204728083e-05 0 0.015129466509043659 0.00066886072186608922 0 0.013954923383447098 0.0011316896338291653 0 0.013586052126688007 3.3389505204728083e-05 0 0.015129466509043659 0.00066886072186608922 0 0.01533428224751369 0.0013037818384741839 0 0.013954923383447098 0.0011316896338291653 0 0.01533428224751369 0.0013037818384741839 0 0.013954923383447098 0.0011316896338291653 0 0.014657769232984395 0.0021952687394842397 0 0.013954923383447098 0.0011316896338291653 0 0.014657769232984395 0.0021952687394842397 0 0.013206819326202676 0.0020286023367970972 0 0.015870131563757144 0.0019827450620525989 0 0.014657769232984395 0.0021952687394842397 0 0.015643431948646275 0.0029360335109024456 0 0.015870131563757144 0.0019827450620525989 0 0.01533428224751369 0.0013037818384741839 0 0.014657769232984395 0.0021952687394842397 0 0.012752923601688282 0.0015111164750230253 0 0.01235861680415612 0.00049504064077991912 0 0.01153496982356492 0.001596861693020493 0 0.012752923601688282 0.0015111164750230253 0 0.012077046950505474 0.0021925107603731329 0 0.01153496982356492 0.001596861693020493 0 0.013954923383447098 0.0011316896338291653 0 0.013206819326202676 0.0020286023367970972 0 0.01235861680415612 0.00049504064077991912 0 0.013065531857476 0.0019134907076075753 0 0.012379745124902719 0.00059287344347868124 0 0.01235861680415612 0.00049504064077991912 0 0.013586052126688007 3.3389505204728083e-05 0 0.011012316104529549 0.00027451061617947506 0 0.018841304625479952 -2.9526906928430645e-05 0 0.018482436701119237 -0.0001495091252829859 0 0.018278325863391745 0.00024368377374282954 0 0.018841304625479952 -2.9526906928430645e-05 0 0.018482436701119237 -0.0001495091252829859 0 0.019307721543721592 -0.00012625868226523871 0 0.019615607711090742 -0.00016176049929092349 0 0.018196322219705473 0.00023965503193232755 0 0.015685825813252206 -4.3107044040261041e-05 0 0.016670089235609826 0.00019551731822978213 0 0.013954923383447098 0.0011316896338291653 0 0.01235861680415612 0.00049504064077991912 0 0.013586052126688007 3.3389505204728083e-05 0 0.019377926045696957 -6.0772391503542544e-05 0 0.019058151786662755 0.00071563004779603815 0 0.018278325863391745 0.00024368377374282954 0 0.019377926045696957 -6.0772391503542544e-05 0 0.019058151786662755 0.00071563004779603815 0 0.020079828540585199 0.00070674094055717021 0 0.019058151786662755 0.00071563004779603815 0 0.019266102105809993 0.0014999110975787179 0 0.020079828540585199 0.00070674094055717021 0 0.019058151786662755 0.00071563004779603815 0 0.018286697514635034 0.0011489537530064535 0 0.019266102105809993 0.0014999110975787179 0 0.018278325863391745 0.00024368377374282954 0 0.017862847708058828 0.00058862447887700852 0 0.018286697514635034 0.0011489537530064535 0 0.017560523970897794 0.0002356886145019647 0 0.018278325863391745 0.00024368377374282954 0 0.017862847708058828 0.00058862447887700852 0 0.017430748213285292 0.00079177197712341661 0 0.017560523970897794 0.0002356886145019647 0 0.017862847708058828 0.00058862447887700852 0 0.017430748213285292 0.00079177197712341661 0 0.017862847708058828 0.00058862447887700852 0 0.018286697514635034 0.0011489537530064535 0 0.019058151786662755 0.00071563004779603815 0 0.018278325863391745 0.00024368377374282954 0 0.018286697514635034 0.0011489537530064535 0 0.01767801601217564 0.0021767255795178677 0 0.018286697514635034 0.0011489537530064535 0 0.018603680009337046 0.0020376801055248073 0 0.01767801601217564 0.0021767255795178677 0 0.017430748213285292 0.00079177197712341661 0 0.018286697514635034 0.0011489537530064535 0 0.019392916638032689 0.0023412186700483861 0 0.018603680009337046 0.0020376801055248073 0 0.019266102105809993 0.0014999110975787179 0 0.018286697514635034 0.0011489537530064535 0 0.018603680009337046 0.0020376801055248073 0 0.019266102105809993 0.0014999110975787179 0 0.01013878635232475 0.0038293276001447455 0 0.010150573533352063 0.0042531202205549441 0 0.0098463736879645658 0.0041128858001672486 0 0.01013878635232475 0.0038293276001447455 0 0.010617954101407839 0.0040563891032505527 0 0.010543975823756067 0.0036589085309994304 0 0.01013878635232475 0.0038293276001447455 0 0.010617954101407839 0.0040563891032505527 0 0.010150573533352063 0.0042531202205549441 0 0.010617954101407839 0.0040563891032505527 0 0.010543975823756067 0.0036589085309994304 0 0.011064535371541452 0.0036125896773461573 0 0.010543975823756067 0.0036589085309994304 0 0.010274558200629216 0.0035218528065016699 0 0.010620491060125529 0.0034090775409648978 0 0.01013878635232475 0.0038293276001447455 0 0.010543975823756067 0.0036589085309994304 0 0.010274558200629216 0.0035218528065016699 0 0.01013878635232475 0.0038293276001447455 0 0.010274558200629216 0.0035218528065016699 0 0.010059286240337181 0.0035911699563328276 0 0.010274558200629216 0.0035218528065016699 0 0.010125812421387114 0.0033777823911694707 0 0.010059286240337181 0.0035911699563328276 0 0.010274558200629216 0.0035218528065016699 0 0.010418648688987397 0.0031818176769231065 0 0.010125812421387114 0.0033777823911694707 0 0.012097607931638932 0.0026690199582939658 0 0.010942799061439601 0.0032657703614976117 0 0.012752923601688282 0.0015111164750230253 0 0.012077046950505474 0.0021925107603731329 0 0.01332555977276067 0.0025649197636525077 0 0.012077046950505474 0.0021925107603731329 0 0.01332555977276067 0.0025649197636525077 0 0.01187361096877021 0.0031313007222916007 0 0.013065531857476 0.0019134907076075753 0 0.012097607931638932 0.0026690199582939658 0 0.010284338241440597 0.0019308151413674941 0 0.010683145938559646 0.0027073075614223786 0 0.010876120658628878 0.0016829009408047867 0 0.014657769232984395 0.0021952687394842397 0 0.014087136764840424 0.0035788077231125007 0 0.015643431948646275 0.0029360335109024456 0 0.012097607931638932 0.0026690199582939658 0 0.013174816671725119 0.0023210410980144991 0 0.014657769232984395 0.0021952687394842397 0 0.013206819326202676 0.0020286023367970972 0 0.014087136764840424 0.0035788077231125007 0 0.012097607931638932 0.0026690199582939658 0 0.010482140445017604 0.0029541941605551875 0 0.010274558200629216 0.0035218528065016699 0 0.010418648688987397 0.0031818176769231065 0 0.010620491060125529 0.0034090775409648978 0 0.010683145938559646 0.0027073075614223786 0 0.011427781478310027 0.00233710979500762 0 0.011367470471694539 0.0032597523667098559 0 0.010683145938559646 0.0027073075614223786 0 0.010876120658628878 0.0016829009408047867 0 0.011427781478310027 0.00233710979500762 0 0.011164143126662536 0.0021297055740685856 0 0.011403067272934666 0.0031883589355039825 0 0.011493449315154104 0.0014335202432595175 0 0.010876120658628878 0.0016829009408047867 0 0.011427781478310027 0.00233710979500762 0 0.014744360244607908 0.0013982898585351482 0 0.013174816671725119 0.0023210410980144991 0 0.014744360244607908 0.0013982898585351482 0 0.011164143126662536 0.0021297055740685856 0 0.011401754980344065 0.00073245624281085685 0 0.012129188350775784 0.0015997543915430834 0 0.011373665074306007 0.0019980979784123805 0 0.011836102066918581 0.00078981394133630816 0 0.012129188350775784 0.0015997543915430834 0 0.012276227314836326 0.0011065315535724997 0 0.011836102066918581 0.00078981394133630816 0 0.012234155921069224 0.00069058052173292866 0 0.012276227314836326 0.0011065315535724997 0 0.011401754980344065 0.00073245624281085685 0 0.011836102066918581 0.00078981394133630816 0 0.012129188350775784 0.0015997543915430834 0 0.012129188350775784 0.0015997543915430834 0 0.011373665074306007 0.0019980979784123805 0 0.012240677796873708 0.0024318840108225113 0 0.011373665074306007 0.0019980979784123805 0 0.011752802433461799 0.0027397153514094317 0 0.012240677796873708 0.0024318840108225113 0 0.011373665074306007 0.0019980979784123805 0 0.011752802433461799 0.0027397153514094317 0 0.011367470471694539 0.0032597523667098559 0 0.012007867363995109 0.0032407689160688044 0 0.011752802433461799 0.0027397153514094317 0 0.012240677796873708 0.0024318840108225113 0 0.012007867363995109 0.0032407689160688044 0 0.011752802433461799 0.0027397153514094317 0 0.011367470471694539 0.0032597523667098559 0 0.012007867363995109 0.0032407689160688044 0 0.011367470471694539 0.0032597523667098559 0 0.011500136061218696 0.0036105987149844931 0 0.010482140445017604 0.0029541941605551875 0 0.011083618085639171 0.0036596953784969041 0 0.010683145938559646 0.0027073075614223786 0 0.011367470471694539 0.0032597523667098559 0 0.011064535371541452 0.0036125896773461573 0 0.010543975823756067 0.0036589085309994304 0 0.010620491060125529 0.0034090775409648978 0 0.011064535371541452 0.0036125896773461573 0 0.011367470471694539 0.0032597523667098559 0 0.011064535371541452 0.0036125896773461573 0 0.011500136061218696 0.0036105987149844931 0 0.011064535371541452 0.0036125896773461573 0 0.011255675075616872 0.0040215032269622399 0 0.011500136061218696 0.0036105987149844931 0 0.010617954101407839 0.0040563891032505527 0 0.011064535371541452 0.0036125896773461573 0 0.011255675075616872 0.0040215032269622399 0 0.011255675075616872 0.0040215032269622399 0 0.011835643488087544 0.0038589122297514118 0 0.011652520100711947 0.0043284153640254647 0 0.011835643488087544 0.0038589122297514118 0 0.012169212647964561 0.0042025431463272294 0 0.011652520100711947 0.0043284153640254647 0 0.011835643488087544 0.0038589122297514118 0 0.012549901767766432 0.0036907960032790243 0 0.012169212647964561 0.0042025431463272294 0 0.012007867363995109 0.0032407689160688044 0 0.011835643488087544 0.0038589122297514118 0 0.012549901767766432 0.0036907960032790243 0 0.012007867363995109 0.0032407689160688044 0 0.011835643488087544 0.0038589122297514118 0 0.011500136061218696 0.0036105987149844931 0 0.011255675075616872 0.0040215032269622399 0 0.011835643488087544 0.0038589122297514118 0 0.011500136061218696 0.0036105987149844931 0 0.012549901767766432 0.0036907960032790243 0 0.012864896976929682 0.0044457778188174649 0 0.012169212647964561 0.0042025431463272294 0 0.012549901767766432 0.0036907960032790243 0 0.013264709884121189 0.0037558511290926096 0 0.012864896976929682 0.0044457778188174649 0 0.012549901767766432 0.0036907960032790243 0 0.013264709884121189 0.0037558511290926096 0 0.012890279452434589 0.0030256837944408477 0 0.013264709884121189 0.0037558511290926096 0 0.014117898274867082 0.0032771983871491077 0 0.013726444241154942 0.0045169931861009311 0 0.013264709884121189 0.0037558511290926096 0 0.013482226213166438 0.0031630388032720135 0 0.014117898274867082 0.0032771983871491077 0 0.013264709884121189 0.0037558511290926096 0 0.013482226213166438 0.0031630388032720135 0 0.012890279452434589 0.0030256837944408477 0 0.013482226213166438 0.0031630388032720135 0 0.013657445524866195 0.0025824893666599913 0 0.014117898274867082 0.0032771983871491077 0 0.012890279452434589 0.0030256837944408477 0 0.012956482451431543 0.0022984572382215708 0 0.013657445524866195 0.0025824893666599913 0 0.013482226213166438 0.0031630388032720135 0 0.012890279452434589 0.0030256837944408477 0 0.013657445524866195 0.0025824893666599913 0 0.012007867363995109 0.0032407689160688044 0 0.012890279452434589 0.0030256837944408477 0 0.012240677796873708 0.0024318840108225113 0 0.012007867363995109 0.0032407689160688044 0 0.012549901767766432 0.0036907960032790243 0 0.012890279452434589 0.0030256837944408477 0 0.012890279452434589 0.0030256837944408477 0 0.012240677796873708 0.0024318840108225113 0 0.012956482451431543 0.0022984572382215708 0 0.012129188350775784 0.0015997543915430834 0 0.012956482451431543 0.0022984572382215708 0 0.012949937780339755 0.0015564812166944106 0 0.012129188350775784 0.0015997543915430834 0 0.012240677796873708 0.0024318840108225113 0 0.012956482451431543 0.0022984572382215708 0 0.012129188350775784 0.0015997543915430834 0 0.012949937780339755 0.0015564812166944106 0 0.012276227314836326 0.0011065315535724997 0 0.013249635432503824 0.00066956370252197232 0 0.012949937780339755 0.0015564812166944106 0 0.012659555472133249 0.00084883620483683505 0 0.012949937780339755 0.0015564812166944106 0 0.012659555472133249 0.00084883620483683505 0 0.012276227314836326 0.0011065315535724997 0 0.012234155921069224 0.00069058052173292866 0 0.012659555472133249 0.00084883620483683505 0 0.012276227314836326 0.0011065315535724997 0 0.013687532805771353 0.00073831470520193429 0 0.012949937780339755 0.0015564812166944106 0 0.013647410343949513 0.0017569350373831268 0 0.013687532805771353 0.00073831470520193429 0 0.013647410343949513 0.0017569350373831268 0 0.014199078058617233 0.001328669670966832 0 0.013249635432503824 0.00066956370252197232 0 0.01397868985385012 0.00075983800752680761 0 0.012949937780339755 0.0015564812166944106 0 0.013655366605990893 0.00086347465807348441 0 0.013101973694860557 0.0014247673376385109 0 0.012956482451431543 0.0022984572382215708 0 0.012949937780339755 0.0015564812166944106 0 0.013647410343949513 0.0017569350373831268 0 0.012956482451431543 0.0022984572382215708 0 0.013647410343949513 0.0017569350373831268 0 0.013657445524866195 0.0025824893666599913 0 0.013657445524866195 0.0025824893666599913 0 0.014309250250374449 0.0025868734205804805 0 0.0144419431331585 0.002014644859813152 0 0.014309250250374449 0.0025868734205804805 0 0.0144419431331585 0.002014644859813152 0 0.0150173609545144 0.0024696216885650491 0 0.014587987511347543 0.00210203895596346 0 0.015123732196043677 0.0023036542353836644 0 0.0144419431331585 0.002014644859813152 0 0.014802925822270311 0.0014219949175438736 0 0.015084595302060688 0.0019690096991744725 0 0.013647410343949513 0.0017569350373831268 0 0.013657445524866195 0.0025824893666599913 0 0.0144419431331585 0.002014644859813152 0 0.013647410343949513 0.0017569350373831268 0 0.0144419431331585 0.002014644859813152 0 0.014199078058617233 0.001328669670966832 0 0.0144419431331585 0.002014644859813152 0 0.014199078058617233 0.001328669670966832 0 0.014802925822270311 0.0014219949175438736 0 0.014489873870755003 0.00078668180244359954 0 0.014199078058617233 0.001328669670966832 0 0.014802925822270311 0.0014219949175438736 0 0.014489873870755003 0.00078668180244359954 0 0.014802925822270311 0.0014219949175438736 0 0.015176425258221176 0.00093329349021832001 0 0.014489873870755003 0.00078668180244359954 0 0.013687532805771353 0.00073831470520193429 0 0.014199078058617233 0.001328669670966832 0 0.015916368657542566 0.0017735388881990851 0 0.016443664604753234 0.0011587689961432787 0 0.015355626693502867 0.0015866975779228263 0 0.01559494870335593 0.0022457326547028742 0 0.015940791683759548 0.001179618895718833 0 0.015176425258221176 0.00093329349021832001 0 0.015355626693502867 0.0015866975779228263 0 0.015940791683759548 0.001179618895718833 0 0.0158845786683647 0.00073060730413117183 0 0.015176425258221176 0.00093329349021832001 0 0.015940791683759548 0.001179618895718833 0 0.014802925822270311 0.0014219949175438736 0 0.015355626693502867 0.0015866975779228263 0 0.015084595302060688 0.0019690096991744725 0 0.014802925822270311 0.0014219949175438736 0 0.015176425258221176 0.00093329349021832001 0 0.015355626693502867 0.0015866975779228263 0 0.0144419431331585 0.002014644859813152 0 0.015084595302060688 0.0019690096991744725 0 0.015234134575213278 0.0026188840587640862 0 0.015355626693502867 0.0015866975779228263 0 0.01559494870335593 0.0022457326547028742 0 0.015084595302060688 0.0019690096991744725 0 0.01559494870335593 0.0022457326547028742 0 0.015084595302060688 0.0019690096991744725 0 0.015234134575213278 0.0026188840587640862 0 0.014808839307746702 0.0025581080372822766 0 0.014943335643517136 0.0026589948224788147 0 0.014851182741711566 0.0027661797554437814 0 0.015123732196043677 0.0023036542353836644 0 0.015422846987686135 0.0020711709891847148 0 0.015715174358974682 0.00092343120464714152 0 0.015632959622764519 0.0011760187903446457 0 0.015895954383242091 0.001060891405648999 0 0.015916368657542566 0.0017735388881990851 0 0.015422846987686135 0.0020711709891847148 0 0.015916368657542566 0.0017735388881990851 0 0.015123732196043677 0.0023036542353836644 0 0.015687816057788195 0.0019012319382022724 0 0.015459907753025432 0.0021329641216227949 0 0.015583675700052516 0.0022251672643582368 0 0.014943335643517136 0.0026589948224788147 0 0.014953688284833858 0.002859106597759474 0 0.015374476537787344 0.0029735084065721029 0 0.015422846987686135 0.0020711709891847148 0 0.01417796039092404 0.0012709693844002723 0 0.015632959622764519 0.0011760187903446457 0 0.015895954383242091 0.001060891405648999 0 0.015938967838462492 0.0014032502407289957 0 0.012025682004499766 0.0019588794816907803 0 0.01417796039092404 0.0012709693844002723 0 0.014953688284833858 0.002859106597759474 0 0.014867212165205836 0.0031368830451346478 0 0.015374476537787344 0.0029735084065721029 0 0.014867212165205836 0.0031368830451346478 0 0.014610278560083876 0.0037262490599508985 0 0.015374476537787344 0.0029735084065721029 0 0.014626930420649404 0.0032341884627791169 0 0.014867212165205836 0.0031368830451346478 0 0.014610278560083876 0.0037262490599508985 0 0.014626930420649404 0.0032341884627791169 0 0.014867212165205836 0.0031368830451346478 0 0.014702688022147505 0.0029736735001182893 0 0.014808839307746702 0.0025581080372822766 0 0.014702688022147505 0.0029736735001182893 0 0.014851182741711566 0.0027661797554437814 0 0.014953688284833858 0.002859106597759474 0 0.014702688022147505 0.0029736735001182893 0 0.014851182741711566 0.0027661797554437814 0 0.014953688284833858 0.002859106597759474 0 0.014867212165205836 0.0031368830451346478 0 0.014702688022147505 0.0029736735001182893 0 0.014943335643517136 0.0026589948224788147 0 0.014953688284833858 0.002859106597759474 0 0.014851182741711566 0.0027661797554437814 0 0.015123732196043677 0.0023036542353836644 0 0.014102592948574976 0.0033037479246884444 0 0.014309250250374449 0.0025868734205804805 0 0.0150173609545144 0.0024696216885650491 0 0.014117898274867082 0.0032771983871491077 0 0.014808839307746702 0.0025581080372822766 0 0.014702688022147505 0.0029736735001182893 0 0.014117898274867082 0.0032771983871491077 0 0.013657445524866195 0.0025824893666599913 0 0.014309250250374449 0.0025868734205804805 0 0.014117898274867082 0.0032771983871491077 0 0.014626930420649404 0.0032341884627791169 0 0.014702688022147505 0.0029736735001182893 0 0.014117898274867082 0.0032771983871491077 0 0.014117898274867082 0.0032771983871491077 0 0.014610278560083876 0.0037262490599508985 0 0.013726444241154942 0.0045169931861009311 0 0.012025682004499766 0.0019588794816907803 0 0.011211010448354325 0.0027981732220304471 0 0.014626930420649404 0.0032341884627791169 0 0.014117898274867082 0.0032771983871491077 0 0.014610278560083876 0.0037262490599508985 0 0.010548059182997116 -0.00010477952655964416 0 0.0097469211391634676 0.00012194146210496355 0 0.010226722570758648 0.00073534279116372182 0 0.010548059182997116 -0.00010477952655964416 0 0.0097469211391634676 0.00012194146210496355 0 0.010859843315414753 -0.00087714223285002412 0 0.010548059182997116 -0.00010477952655964416 0 0.010226722570758648 0.00073534279116372182 0 0.011137377523814588 0.00060335966400968614 0 0.010226722570758648 0.00073534279116372182 0 0.0095992174485906509 0.0011305502732013625 0 0.010174430444942048 0.0017694296669462704 0 0.0097469211391634676 0.00012194146210496355 0 0.010226722570758648 0.00073534279116372182 0 0.0095992174485906509 0.0011305502732013625 0 0.010048662072972055 0.0016012576106853172 0 0.012357223367086922 4.5620631651506775e-05 0 0.010226722570758648 0.00073534279116372182 0 0.010174430444942048 0.0017694296669462704 0 0.011137377523814588 0.00060335966400968614 0 0.0095992174485906509 0.0011305502732013625 0 0.0092087139042364326 0.0018916564647170184 0 0.010174430444942048 0.0017694296669462704 0 0.0097469211391634676 0.00012194146210496355 0 0.0095992174485906509 0.0011305502732013625 0 0.0086496101913332585 0.0011265685218265105 0 0.0095992174485906509 0.0011305502732013625 0 0.0092087139042364326 0.0018916564647170184 0 0.0086496101913332585 0.0011265685218265105 0 0.0092087139042364326 0.0018916564647170184 0 0.0091987613709997584 0.0028867742851534078 0 0.0085075933775477803 0.0023778034265548097 0 0.0092087139042364326 0.0018916564647170184 0 0.010174430444942048 0.0017694296669462704 0 0.0091987613709997584 0.0028867742851534078 0 0.0092087139042364326 0.0018916564647170184 0 0.0085075933775477803 0.0023778034265548097 0 0.0086496101913332585 0.0011265685218265105 0 0.010248185656766462 0.0012459494669463023 0 0.010183137726472849 0.0023071047090045984 0 0.0092148376608026834 0.0025964152829253337 0 0.010048662072972055 0.0016012576106853172 0 0.0092294923249224819 0.002720941062123612 0 0.010248185656766462 0.0012459494669463023 0 0.010183137726472849 0.0023071047090045984 0 0.011308103578591753 0.0022326196336126332 0 0.0089674333614005262 0.0024780230070356774 0 0.011780709690515959 0.00122245901707365 0 0.010183137726472849 0.0023071047090045984 0 0.010019538853543966 0.0032362980752042914 0 0.011308103578591753 0.0022326196336126332 0 0.010183137726472849 0.0023071047090045984 0 0.010019538853543966 0.0032362980752042914 0 0.0092148376608026834 0.0025964152829253337 0 0.0079750829722634135 0.00166806683839981 0 0.0093108686457291957 0.0022214288291126788 0 0.0079701356326413991 0.0032735122836281294 0 0.0087882127701351797 0.0041981978631182035 0 0.0092148376608026834 0.0025964152829253337 0 0.0082764081712397523 0.0038723681631961109 0 0.010019538853543966 0.0032362980752042914 0 0.0087882127701351797 0.0041981978631182035 0 0.0092148376608026834 0.0025964152829253337 0 0.0089674333614005262 0.0024780230070356774 0 0.0064031380316621027 0.0035257700027623599 0 0.0079750829722634135 0.00166806683839981 0 0.0066339888205489391 0.0027281465573892041 0 0.0079701356326413991 0.0032735122836281294 0 0.0092294923249224819 0.002720941062123612 0 0.0083392566399037582 0.0038036938000151062 0 0.0091987613709997584 0.0028867742851534078 0 0.0084580907800590049 0.0031806129663411379 0 0.0082764081712397523 0.0038723681631961109 0 0.0091987613709997584 0.0028867742851534078 0 0.0084580907800590049 0.0031806129663411379 0 0.0085075933775477803 0.0023778034265548097 0 0.0078216590273984688 0.0028552145978567498 0 0.0084580907800590049 0.0031806129663411379 0 0.0085075933775477803 0.0023778034265548097 0 0.0078216590273984688 0.0028552145978567498 0 0.0080463516574198497 0.0032919517562876826 0 0.0077445783953595118 0.003565401917620197 0 0.0078216590273984688 0.0028552145978567498 0 0.0080463516574198497 0.0032919517562876826 0 0.0084580907800590049 0.0031806129663411379 0 0.0080463516574198497 0.0032919517562876826 0 0.0084580907800590049 0.0031806129663411379 0 0.0080387690966277365 0.003552864173154082 0 0.0064031380316621027 0.0035257700027623599 0 0.0083286730743414722 0.0038941135053159465 0 0.0087882127701351797 0.0041981978631182035 0 0.007713055315733572 0.0036464254232200844 0 0.0082764081712397523 0.0038723681631961109 0 0.0084580907800590049 0.0031806129663411379 0 0.0080387690966277365 0.003552864173154082 0 0.0082764081712397523 0.0038723681631961109 0 0.0080387690966277365 0.003552864173154082 0 0.007713055315733572 0.0036464254232200844 0 0.0082764081712397523 0.0038723681631961109 0 0.0080463516574198497 0.0032919517562876826 0 0.0080387690966277365 0.003552864173154082 0 0.0077445783953595118 0.003565401917620197 0 0.0080387690966277365 0.003552864173154082 0 0.0077445783953595118 0.003565401917620197 0 0.007713055315733572 0.0036464254232200844 0 0.0077887754375758934 0.0036005516192897289 0 0.0079161651866905634 0.003540999923633568 0 0.0077929693056744184 0.0034710841313451112 0 0.007713055315733572 0.0036464254232200844 0 0.0077887754375758934 0.0036005516192897289 0 0.0077929693056744184 0.0034710841313451112 0 0.0077445783953595118 0.003565401917620197 0 0.007713055315733572 0.0036464254232200844 0 0.0077887754375758934 0.0036005516192897289 0 0.0077445783953595118 0.003565401917620197 0 0.0077887754375758934 0.0036005516192897289 0 0.0078782731772216626 0.0037491109740385069 0 0.0078216590273984688 0.0028552145978567498 0 0.0076065065934587048 0.0021049890066402537 0 0.0066336411440190883 0.0030379702333852609 0 0.0071148042090388103 0.0033187755719658041 0 0.0088338472269593044 0.0039269652876457416 0 0.010258040787445044 0.0037164131761140105 0 0.0088338472269593044 0.0039269652876457416 0 0.0078216590273984688 0.0028552145978567498 0 0.0077445783953595118 0.003565401917620197 0 0.0066336411440190883 0.0030379702333852609 0 0.012821630434416009 0.0052327816350230321 0 0.011967701469646576 0.004890062442016758 0 0.011995449396029442 0.0058990173179510608 0 0.0076065065934587048 0.0021049890066402537 0 0.0085075933775477803 0.0023778034265548097 0 0.0086496101913332585 0.0011265685218265105 0 0.0078216590273984688 0.0028552145978567498 0 0.0076065065934587048 0.0021049890066402537 0 0.0085075933775477803 0.0023778034265548097 0 0.010258040787445044 0.0037164131761140105 0 0.011211010448354325 0.0027981732220304471 0 0.013264709884121189 0.0037558511290926096 0 0.013726444241154942 0.0045169931861009311 0 0.012864896976929682 0.0044457778188174649 0 0.012821630434416009 0.0052327816350230321 0 0.013726444241154942 0.0045169931861009311 0 0.012864896976929682 0.0044457778188174649 0 0.012864896976929682 0.0044457778188174649 0 0.012169212647964561 0.0042025431463272294 0 0.011967701469646576 0.004890062442016758 0 0.012821630434416009 0.0052327816350230321 0 0.012864896976929682 0.0044457778188174649 0 0.011967701469646576 0.004890062442016758 0 0.011652520100711947 0.0043284153640254647 0 0.011184217686620486 0.0045681231971101723 0 0.011967701469646576 0.004890062442016758 0 0.012169212647964561 0.0042025431463272294 0 0.011652520100711947 0.0043284153640254647 0 0.011967701469646576 0.004890062442016758 0 0.010617954101407839 0.0040563891032505527 0 0.011255675075616872 0.0040215032269622399 0 0.011184217686620486 0.0045681231971101723 0 0.011255675075616872 0.0040215032269622399 0 0.011652520100711947 0.0043284153640254647 0 0.011184217686620486 0.0045681231971101723 0 0.010617954101407839 0.0040563891032505527 0 0.011184217686620486 0.0045681231971101723 0 0.010640482432491554 0.0045559745463637736 0 0.011184217686620486 0.0045681231971101723 0 0.011159428677208419 0.0054763600609837332 0 0.011967701469646576 0.004890062442016758 0 0.011184217686620486 0.0045681231971101723 0 0.011159428677208419 0.0054763600609837332 0 0.010640482432491554 0.0045559745463637736 0 0.011159428677208419 0.0054763600609837332 0 0.011967701469646576 0.004890062442016758 0 0.011995449396029442 0.0058990173179510608 0 0.0099463651279786368 0.0049626908053101342 0 0.0088338472269593044 0.0039269652876457416 0 0.008242444998540429 0.0041820153832472194 0 0.0077946856415014041 0.0039808031348713769 0 0.0081451586661856496 0.0036100765356555449 0 0.0078782731772216626 0.0037491109740385069 0 0.0079161651866905634 0.003540999923633568 0 0.0081451586661856496 0.0036100765356555449 0 0.0088338472269593044 0.0039269652876457416 0 0.0078446893784708399 0.0037171708014030773 0 0.0079161651866905634 0.003540999923633568 0 0.0081451586661856496 0.0036100765356555449 0 0.0079647612902658902 0.0033173006264215475 0 0.0077887754375758934 0.0036005516192897289 0 0.0078782731772216626 0.0037491109740385069 0 0.0079161651866905634 0.003540999923633568 0 0.008242444998540429 0.0041820153832472194 0 0.0081451586661856496 0.0036100765356555449 0 0.0086984610666998273 0.0038177458317551773 0 0.008242444998540429 0.0041820153832472194 0 0.0086984610666998273 0.0038177458317551773 0 0.008782349591768282 0.0043732691565997687 0 0.0081451586661856496 0.0036100765356555449 0 0.0086984610666998273 0.0038177458317551773 0 0.0083880038332147661 0.0034345777192480898 0 0.0086984610666998273 0.0038177458317551773 0 0.0087584486266325916 0.0034993956679470442 0 0.0083880038332147661 0.0034345777192480898 0 0.0086984610666998273 0.0038177458317551773 0 0.0087584486266325916 0.0034993956679470442 0 0.0092133315349769793 0.0037496245903726995 0 0.0086984610666998273 0.0038177458317551773 0 0.0093101873879114123 0.0041274725772649521 0 0.0092133315349769793 0.0037496245903726995 0 0.0086984610666998273 0.0038177458317551773 0 0.0093101873879114123 0.0041274725772649521 0 0.008782349591768282 0.0043732691565997687 0 0.0093101873879114123 0.0041274725772649521 0 0.008782349591768282 0.0043732691565997687 0 0.0096015108618394025 0.0044651359112872621 0 0.0095467097938036326 0.0046538976605455581 0 0.0095967124256859729 0.0045280460451574732 0 0.0099463651279786368 0.0049626908053101342 0 0.0095467097938036326 0.0046538976605455581 0 0.011159428677208419 0.0054763600609837332 0 0.010391179195360208 0.0050214828143073367 0 0.010640482432491554 0.0045559745463637736 0 0.010391179195360208 0.0050214828143073367 0 0.010640482432491554 0.0045559745463637736 0 0.010150573533352063 0.0042531202205549441 0 0.010617954101407839 0.0040563891032505527 0 0.010640482432491554 0.0045559745463637736 0 0.010150573533352063 0.0042531202205549441 0 0.010391179195360208 0.0050214828143073367 0 0.010150573533352063 0.0042531202205549441 0 0.0096015108618394025 0.0044651359112872621 0 0.010150573533352063 0.0042531202205549441 0 0.0096015108618394025 0.0044651359112872621 0 0.0098463736879645658 0.0041128858001672486 0 0.025667239360906462 -4.4957803819715776e-05 0 0.025990659825208255 -0.00012536897846242788 0 0.025367354921628955 -0.00033742567792216944 0 0.025667239360906462 -4.4957803819715776e-05 0 0.025990659825208255 -0.00012536897846242788 0 0.02611814726884408 0.00011208257662538618 0 0.025667239360906462 -4.4957803819715776e-05 0 0.025367354921628955 -0.00033742567792216944 0 0.024948466421243574 -5.1048067149602532e-05 0 0.025667239360906462 -4.4957803819715776e-05 0 0.024948466421243574 -5.1048067149602532e-05 0 0.025676652021183726 7.1567519091969009e-05 0 0.026247344913665059 -2.1541009715790797e-05 0 0.02611814726884408 0.00011208257662538618 0 0.02626784416880678 4.1986126474048879e-05 0 0.026799701168854839 -0.00023474973803409908 0 0.025904139014364985 0.00023206334755719344 0 0.026247344913665059 -2.1541009715790797e-05 0 0.02626784416880678 4.1986126474048879e-05 0 0.0262710833182048 4.6273424138747099e-06 0 0.026799701168854839 -0.00023474973803409908 0 0.021318124845483923 -0.0012452025427097146 0 0.025990659825208255 -0.00012536897846242788 0 0.025520361551930628 -0.0010358897737465019 0 0.026058348267454189 -0.0012453819500268606 0 0.025990659825208255 -0.00012536897846242788 0 0.026679663449315692 -0.0011453774198127934 0 0.026058348267454189 -0.0012453819500268606 0 0.025520361551930628 -0.0010358897737465019 0 0.025367354921628955 -0.00033742567792216944 0 0.024451385670919985 -0.00065777768851168269 0 0.025367354921628955 -0.00033742567792216944 0 0.024451385670919985 -0.00065777768851168269 0 0.024948466421243574 -5.1048067149602532e-05 0 0.025990659825208255 -0.00012536897846242788 0 0.025520361551930628 -0.0010358897737465019 0 0.025367354921628955 -0.00033742567792216944 0 0.024451385670919985 -0.00065777768851168269 0 0.023754748442894661 -0.00012499669618420205 0 0.024948466421243574 -5.1048067149602532e-05 0 0.024451385670919985 -0.00065777768851168269 0 0.023754748442894661 -0.00012499669618420205 0 0.022299505901448115 -0.00038940198469176627 0 0.023754748442894661 -0.00012499669618420205 0 0.022299505901448115 -0.00038940198469176627 0 0.023106147090111405 -3.6401360795711615e-07 0 0.022299505901448115 -0.00038940198469176627 0 0.023106147090111405 -3.6401360795711615e-07 0 0.021131517901805161 -8.163799061890859e-07 0 0.023106147090111405 -3.6401360795711615e-07 0 0.024343369656971238 4.4572754171833795e-05 0 0.025080829964870377 4.152514819394878e-07 0 0.023754748442894661 -0.00012499669618420205 0 0.023106147090111405 -3.6401360795711615e-07 0 0.024343369656971238 4.4572754171833795e-05 0 0.024343369656971238 4.4572754171833795e-05 0 0.024948466421243574 -5.1048067149602532e-05 0 0.025373047971590155 0.00010650578285801012 0 0.024948466421243574 -5.1048067149602532e-05 0 0.025373047971590155 0.00010650578285801012 0 0.025676652021183726 7.1567519091969009e-05 0 0.023754748442894661 -0.00012499669618420205 0 0.024343369656971238 4.4572754171833795e-05 0 0.024948466421243574 -5.1048067149602532e-05 0 0.025373047971590155 0.00010650578285801012 0 0.02623921347787013 0.00011132188069703667 0 0.026246549685063403 0.00010854144694685411 0 0.025373047971590155 0.00010650578285801012 0 0.026246549685063403 0.00010854144694685411 0 0.025676652021183726 7.1567519091969009e-05 0 0.024343369656971238 4.4572754171833795e-05 0 0.025373047971590155 0.00010650578285801012 0 0.025080829964870377 4.152514819394878e-07 0 0.025373047971590155 0.00010650578285801012 0 0.025080829964870377 4.152514819394878e-07 0 0.02623921347787013 0.00011132188069703667 0 0.02705453181724023 3.4433451271948712e-08 0 0.025080829964870377 4.152514819394878e-07 0 0.02623921347787013 0.00011132188069703667 0 0.02623921347787013 0.00011132188069703667 0 0.026955639987350961 5.4545823830078599e-05 0 0.026246549685063403 0.00010854144694685411 0 0.027803103983753248 -4.3477291842731091e-05 0 0.026955639987350961 5.4545823830078599e-05 0 0.026470675599591979 5.5419328796251889e-05 0 0.026955639987350961 5.4545823830078599e-05 0 0.026470675599591979 5.5419328796251889e-05 0 0.026246549685063403 0.00010854144694685411 0 0.026246549685063403 0.00010854144694685411 0 0.02611814726884408 0.00011208257662538618 0 0.025676652021183726 7.1567519091969009e-05 0 0.026470675599591979 5.5419328796251889e-05 0 0.02611814726884408 0.00011208257662538618 0 0.026279412015577666 0.00010847182645308485 0 0.026470675599591979 5.5419328796251889e-05 0 0.026246549685063403 0.00010854144694685411 0 0.02611814726884408 0.00011208257662538618 0 0.025667239360906462 -4.4957803819715776e-05 0 0.02611814726884408 0.00011208257662538618 0 0.025676652021183726 7.1567519091969009e-05 0 0.026273594392904963 5.8860712657457192e-05 0 0.02626784416880678 4.1986126474048879e-05 0 0.026266526573048472 4.775535504765817e-05 0 0.02626784416880678 4.1986126474048879e-05 0 0.026279412015577666 0.00010847182645308485 0 0.026283282150585851 7.5360407674417902e-05 0 0.026273594392904963 5.8860712657457192e-05 0 0.02626784416880678 4.1986126474048879e-05 0 0.026283282150585851 7.5360407674417902e-05 0 0.026273594392904963 5.8860712657457192e-05 0 0.026283282150585851 7.5360407674417902e-05 0 0.02627434601854399 6.4423370776062932e-05 0 0.02611814726884408 0.00011208257662538618 0 0.02626784416880678 4.1986126474048879e-05 0 0.026279412015577666 0.00010847182645308485 0 0.026470675599591979 5.5419328796251889e-05 0 0.026279412015577666 0.00010847182645308485 0 0.026325091257901095 6.7584247026128728e-05 0 0.026279412015577666 0.00010847182645308485 0 0.026297007272693681 7.3882128439882748e-05 0 0.026325091257901095 6.7584247026128728e-05 0 0.026297007272693681 7.3882128439882748e-05 0 0.026325091257901095 6.7584247026128728e-05 0 0.026283468601372498 5.3231823886847565e-05 0 0.026279412015577666 0.00010847182645308485 0 0.026297007272693681 7.3882128439882748e-05 0 0.026283282150585851 7.5360407674417902e-05 0 0.026297007272693681 7.3882128439882748e-05 0 0.026283282150585851 7.5360407674417902e-05 0 0.02627434601854399 6.4423370776062932e-05 0 0.026297007272693681 7.3882128439882748e-05 0 0.02627434601854399 6.4423370776062932e-05 0 0.026283468601372498 5.3231823886847565e-05 0 0.026325091257901095 6.7584247026128728e-05 0 0.026283468601372498 5.3231823886847565e-05 0 0.026287473689649218 5.1776255481307142e-06 0 0.026373365565717947 -0.00017284242392562421 0 0.026470675599591979 5.5419328796251889e-05 0 0.026287473689649218 5.1776255481307142e-06 0 0.027081832565890428 -5.8754451313512875e-05 0 0.026637311784358863 7.9637031529263165e-05 0 0.026470675599591979 5.5419328796251889e-05 0 0.026325091257901095 6.7584247026128728e-05 0 0.026287473689649218 5.1776255481307142e-06 0 0.026483326232109753 -0.001783848459066007 0 0.026562620974988762 -0.0018144529995097575 0 0.026468836093252183 -0.0019487204832784454 0 0.026212147830342463 -0.00012655251977604243 0 0.026287473689649218 5.1776255481307142e-06 0 0.026246494262483953 6.2319649938844562e-05 0 0.026465354957758688 -0.00090465658107273799 0 0.025170420867374241 -0.0011586347748540299 0 0.026283468601372498 5.3231823886847565e-05 0 0.026287473689649218 5.1776255481307142e-06 0 0.026263885563339473 5.6034599771066795e-05 0 0.018880812237610272 -0.00078310451306767685 0 0.021856074201442255 -0.00079573703400032591 0 0.026562620974988762 -0.0018144529995097575 0 0.026602214595814553 -0.0018801521782625145 0 0.026468836093252183 -0.0019487204832784454 0 0.026591827737933182 -0.0018613031110890136 0 0.024170382366901322 -0.0013667604399629951 0 0.026633296514037758 -0.0017577427342042478 0 0.026636244929034204 -0.0017507949707053546 0 0.026605600065407228 -0.0017728598979388425 0 0.026636244929034204 -0.0017507949707053546 0 0.026562620974988762 -0.0018144529995097575 0 0.026602214595814553 -0.0018801521782625145 0 0.024170382366901322 -0.0013667604399629951 0 0.025170420867374241 -0.0011586347748540299 0 0.021136153400646344 -0.00065257336656127541 0 0.021081872389744755 -0.0012751752826681705 0 0.021547474675567401 -0.00041272615574907285 0 0.024170382366901322 -0.0013667604399629951 0 0.021856074201442255 -0.00079573703400032591 0 0.022207994930817813 -0.0011815148856139078 0 0.022201795194103691 -0.00098190350571773582 0 0.022404175990573313 -0.0010626621790643003 0 0.024170382366901322 -0.0013667604399629951 0 0.018880812237610272 -0.00078310451306767685 0 0.022201795194103691 -0.00098190350571773582 0 0.022404175990573313 -0.0010626621790643003 0 0.022386198431082475 -0.00083351716142928659 0 0.026266526573048472 4.775535504765817e-05 0 0.026246494262483953 6.2319649938844562e-05 0 0.0262710833182048 4.6273424138747099e-06 0 0.025170420867374241 -0.0011586347748540299 0 0.024427723434047748 -0.00024955108367937775 0 0.026273594392904963 5.8860712657457192e-05 0 0.02627434601854399 6.4423370776062932e-05 0 0.026266526573048472 4.775535504765817e-05 0 0.02627434601854399 6.4423370776062932e-05 0 0.026266526573048472 4.775535504765817e-05 0 0.026263235564684354 5.8488791513608494e-05 0 0.026266526573048472 4.775535504765817e-05 0 0.026263235564684354 5.8488791513608494e-05 0 0.026246494262483953 6.2319649938844562e-05 0 0.026287473689649218 5.1776255481307142e-06 0 0.026263885563339473 5.6034599771066795e-05 0 0.026246494262483953 6.2319649938844562e-05 0 0.026263235564684354 5.8488791513608494e-05 0 0.026263885563339473 5.6034599771066795e-05 0 0.026246494262483953 6.2319649938844562e-05 0 0.02627434601854399 6.4423370776062932e-05 0 0.026263235564684354 5.8488791513608494e-05 0 0.026263885563339473 5.6034599771066795e-05 0 0.02627434601854399 6.4423370776062932e-05 0 0.026283468601372498 5.3231823886847565e-05 0 0.026263885563339473 5.6034599771066795e-05 0 0.017672118383436321 -0.00068484768774423747 0 0.017662040619992252 0.0010525037364597291 0 0.0171056243547099 0.00066857099580392711 0 0.019219333786830484 -0.00056420492643553431 0 0.017370997432129824 0.00056426231295264866 0 0.016645657884145494 0.0020765648245174269 0 0.017662040619992252 0.0010525037364597291 0 0.0171056243547099 0.00066857099580392711 0 0.019514676170795778 -0.00020532684582076524 0 0.018708312854891242 -0.00068315150045366972 0 0.018707789804856857 0.00061004127933659029 0 0.020542009686318405 -0.00035706800278740186 0 0.017370997432129824 0.00056426231295264866 0 0.017394721993521722 -4.3260347989375735e-05 0 0.017447030034682752 -0.00011437980855693295 0 0.017390931037605285 -0.00010309679479343348 0 0.017447030034682752 -0.00011437980855693295 0 0.017390931037605285 -0.00010309679479343348 0 0.017350710431271774 -0.0001556053973014137 0 0.017390931037605285 -0.00010309679479343348 0 0.017353866767963848 -6.3874052646329386e-05 0 0.017350710431271774 -0.0001556053973014137 0 0.017394721993521722 -4.3260347989375735e-05 0 0.017390931037605285 -0.00010309679479343348 0 0.017353866767963848 -6.3874052646329386e-05 0 0.020542009686318405 -0.00035706800278740186 0 0.021856074201442255 -0.00079573703400032591 0 0.026633296514037758 -0.0017577427342042478 0 0.026605600065407228 -0.0017728598979388425 0 0.026632062609485672 -0.0017619139732483111 0 0.026633296514037758 -0.0017577427342042478 0 0.02663611113586515 -0.0017563488854264162 0 0.026632062609485672 -0.0017619139732483111 0 0.017243939202870227 -0.00021081478172125273 0 0.017353866767963848 -6.3874052646329386e-05 0 0.017350710431271774 -0.0001556053973014137 0 0.017243939202870227 -0.00021081478172125273 0 0.017338518328266009 -0.00021554464995406455 0 0.017305080603170504 -0.00026335742559448764 0 0.017243939202870227 -0.00021081478172125273 0 0.017338518328266009 -0.00021554464995406455 0 0.017350710431271774 -0.0001556053973014137 0 0.017338518328266009 -0.00021554464995406455 0 0.017350710431271774 -0.0001556053973014137 0 0.017396990698843602 -0.00022101717050021662 0 0.017338518328266009 -0.00021554464995406455 0 0.017396990698843602 -0.00022101717050021662 0 0.017350067669021953 -0.00025347045929246994 0 0.017447030034682752 -0.00011437980855693295 0 0.017350710431271774 -0.0001556053973014137 0 0.017396990698843602 -0.00022101717050021662 0 0.016102690213855436 0.00053679042590758209 0 0.015895954383242091 0.001060891405648999 0 0.016091568289509889 0.0012629325107439838 0 0.015715174358974682 0.00092343120464714152 0 0.016102690213855436 0.00053679042590758209 0 0.015895954383242091 0.001060891405648999 0 0.017370997432129824 0.00056426231295264866 0 0.015975549814302884 0.00023572137217143534 0 0.017447030034682752 -0.00011437980855693295 0 0.017396990698843602 -0.00022101717050021662 0 0.017423981523236487 -0.00025067926157301099 0 0.015916368657542566 0.0017735388881990851 0 0.017370997432129824 0.00056426231295264866 0 0.010548059182997116 -0.00010477952655964416 0 0.011153181973146908 -0.00065721511015967658 0 0.010859843315414753 -0.00087714223285002412 0 0.014344684391941236 -3.022357410527958e-05 0 0.01417796039092404 0.0012709693844002723 0 0.015020766227514618 0.00061838952711127033 0 0.015053169694544538 0.00064369355102755039 0 0.015025288656237723 0.0006716640000453102 0 0.014344684391941236 -3.022357410527958e-05 0 0.015975549814302884 0.00023572137217143534 0 0.015895954383242091 0.001060891405648999 0 0.015938967838462492 0.0014032502407289957 0 0.016091568289509889 0.0012629325107439838 0 0.01417796039092404 0.0012709693844002723 0 0.015975549814302884 0.00023572137217143534 0 0.017396990698843602 -0.00022101717050021662 0 0.017421981220478246 -0.00025615630295708336 0 0.017378424990570983 -0.00027411041109028837 0 0.017396990698843602 -0.00022101717050021662 0 0.017378424990570983 -0.00027411041109028837 0 0.017350067669021953 -0.00025347045929246994 0 0.017416669854990286 -0.00030762118703979728 0 0.017421981220478246 -0.00025615630295708336 0 0.017378424990570983 -0.00027411041109028837 0 0.017068436995052567 -0.00042011326090452824 0 0.015975549814302884 0.00023572137217143534 0 0.017416669854990286 -0.00030762118703979728 0 0.017378424990570983 -0.00027411041109028837 0 0.017361902309321872 -0.00031266186748561572 0 0.014344684391941236 -3.022357410527958e-05 0 0.01565769012159644 -0.00055034311463616093 0 0.017416669854990286 -0.00030762118703979728 0 0.017361902309321872 -0.00031266186748561572 0 0.017355227578013038 -0.00035826539274030195 0 0.017342485688412609 -0.00033778055240214755 0 0.017329867073165701 -0.00029405362592350992 0 0.017288037505470977 -0.00034854099522475319 0 0.017342485688412609 -0.00033778055240214755 0 0.017361902309321872 -0.00031266186748561572 0 0.017355227578013038 -0.00035826539274030195 0 0.017342485688412609 -0.00033778055240214755 0 0.017329867073165701 -0.00029405362592350992 0 0.017361902309321872 -0.00031266186748561572 0 0.017378424990570983 -0.00027411041109028837 0 0.017329867073165701 -0.00029405362592350992 0 0.017361902309321872 -0.00031266186748561572 0 0.017378424990570983 -0.00027411041109028837 0 0.017329867073165701 -0.00029405362592350992 0 0.017350067669021953 -0.00025347045929246994 0 0.017338518328266009 -0.00021554464995406455 0 0.017350067669021953 -0.00025347045929246994 0 0.017305080603170504 -0.00026335742559448764 0 0.017329867073165701 -0.00029405362592350992 0 0.017350067669021953 -0.00025347045929246994 0 0.017305080603170504 -0.00026335742559448764 0 0.017329867073165701 -0.00029405362592350992 0 0.017305080603170504 -0.00026335742559448764 0 0.017288037505470977 -0.00034854099522475319 0 0.017305080603170504 -0.00026335742559448764 0 0.017288037505470977 -0.00034854099522475319 0 0.017207168376028609 -0.00034626408577221018 0 0.017288037505470977 -0.00034854099522475319 0 0.017359506525944746 -0.00036322913634660709 0 0.017185372686112598 -0.0004920149117404166 0 0.01421615782398915 -0.0014663873840743892 0 0.015623810036133858 -0.00042231659735508651 0 0.01488081389990664 -0.00056689737625213309 0 0.01565769012159644 -0.00055034311463616093 0 0.016210646643634422 -0.00039763861890959622 0 0.01421615782398915 -0.0014663873840743892 0 0.014367938990290586 -0.00054426234993485464 0 0.01488081389990664 -0.00056689737625213309 0 0.017342485688412609 -0.00033778055240214755 0 0.017288037505470977 -0.00034854099522475319 0 0.017359506525944746 -0.00036322913634660709 0 0.016107400411949777 -0.00074351887174552264 0 0.01565769012159644 -0.00055034311463616093 0 0.014344684391941236 -3.022357410527958e-05 0 0.012357223367086922 4.5620631651506775e-05 0 0.010548059182997116 -0.00010477952655964416 0 0.011153181973146908 -0.00065721511015967658 0 0.011137377523814588 0.00060335966400968614 0 0.013867568572031894 -0.00041077258833953297 0 0.014159945528290955 -0.00019402035923997491 0 0.013860446432254018 0.00017676773519918255 0 0.01421615782398915 -0.0014663873840743892 0 0.013607705881045857 -0.0007110547447536661 0 0.014367938990290586 -0.00054426234993485464 0 0.01565769012159644 -0.00055034311463616093 0 0.012357223367086922 4.5620631651506775e-05 0 0.02626784416880678 4.1986126474048879e-05 0 0.026266526573048472 4.775535504765817e-05 0 0.0262710833182048 4.6273424138747099e-06 0 0.017243939202870227 -0.00021081478172125273 0 0.017305080603170504 -0.00026335742559448764 0 0.017207168376028609 -0.00034626408577221018 0 0.018880812237610272 -0.00078310451306767685 0 0.019112398799350755 -0.00092209808681226657 0 0.022201795194103691 -0.00098190350571773582 0 0.022386198431082475 -0.00083351716142928659 0 0.022286094423259874 -0.00079477035133258388 0 0.015982395718403271 -0.0010937655405731472 0 0.015934729285940665 -0.00074396467254309452 0 0.016081642412398785 -0.0008188144727925156 0 0.018880812237610272 -0.00078310451306767685 0 0.016478611474693206 -0.00051934723542596255 0 0.015934729285940665 -0.00074396467254309452 0 0.016081642412398785 -0.0008188144727925156 0 0.016088507854254478 -0.00060236610777217705 0 0.017288037505470977 -0.00034854099522475319 0 0.017207168376028609 -0.00034626408577221018 0 0.017185372686112598 -0.0004920149117404166 0 0.015934729285940665 -0.00074396467254309452 0 0.016062362263378639 -0.00039019014418108239 0 0.015862979283839274 -0.00021445354899066638 0 0.016478611474693206 -0.00051934723542596255 0 0.016210646643634422 -0.00039763861890959622 0 0.015934729285940665 -0.00074396467254309452 0 0.016088507854254478 -0.00060236610777217705 0 0.016062362263378639 -0.00039019014418108239 0 0.026247344913665059 -2.1541009715790797e-05 0 0.026220877795283228 -5.0047632615297959e-05 0 0.026208986875294639 -5.7272144251704538e-05 0 0.026247344913665059 -2.1541009715790797e-05 0 0.0262710833182048 4.6273424138747099e-06 0 0.026220877795283228 -5.0047632615297959e-05 0 0.016062362263378639 -0.00039019014418108239 0 0.016299019134473049 -0.00044764980571019268 0 0.016331460010534905 -0.00022104793663849976 0 0.016088507854254478 -0.00060236610777217705 0 0.016062362263378639 -0.00039019014418108239 0 0.016299019134473049 -0.00044764980571019268 0 0.024427723434047748 -0.00024955108367937775 0 0.020857601338251174 -0.00055177303481392375 0 0.016081642412398785 -0.0008188144727925156 0 0.016088507854254478 -0.00060236610777217705 0 0.016299019134473049 -0.00044764980571019268 0 0.022386198431082475 -0.00083351716142928659 0 0.022286094423259874 -0.00079477035133258388 0 0.022364649389640404 -0.00060981028678712304 0 0.019112398799350755 -0.00092209808681226657 0 0.020857601338251174 -0.00055177303481392375 0 0.020857601338251174 -0.00055177303481392375 0 0.021318124845483923 -0.0012452025427097146 0 0.015007936400580716 -0.0014192873631409498 0 0.014935594303869829 -0.0013234309388317654 0 0.015168972527509754 -0.0010138440706121711 0 0.019441146383514598 -0.00057061015970707616 0 0.01927207516979999 -0.00088975846409890898 0 0.019422270761370007 -0.0011408419215664586 0 0.015987855338277911 -3.3540385120378256e-05 0 0.016331460010534905 -0.00022104793663849976 0 0.015674931525114313 0.00048433015925202101 0 0.021318124845483923 -0.0012452025427097146 0 0.017593987238315383 -0.00056210279089108676 0 0.021318124845483923 -0.0012452025427097146 0 0.020684612455400403 -0.0015776084446482309 0 0.020857601338251174 -0.00055177303481392375 0 0.017593987238315383 -0.00056210279089108676 0 0.016062362263378639 -0.00039019014418108239 0 0.015987855338277911 -3.3540385120378256e-05 0 0.016331460010534905 -0.00022104793663849976 0 0.016062362263378639 -0.00039019014418108239 0 0.015987855338277911 -3.3540385120378256e-05 0 0.015862979283839274 -0.00021445354899066638 0 0.016210646643634422 -0.00039763861890959622 0 0.015694641922264409 0.0003990532228401481 0 0.015987855338277911 -3.3540385120378256e-05 0 0.015691928874964244 -0.00025844007099945883 0 0.015674931525114313 0.00048433015925202101 0 0.015623810036133858 -0.00042231659735508651 0 0.015469922023892503 -0.00024840325863611991 0 0.015674931525114313 0.00048433015925202101 0 0.016058763250198383 -0.00027036746509943236 0 0.016210646643634422 -0.00039763861890959622 0 0.015623810036133858 -0.00042231659735508651 0 0.015469922023892503 -0.00024840325863611991 0 0.01488081389990664 -0.00056689737625213309 0 0.015469922023892503 -0.00024840325863611991 0 0.015674931525114313 0.00048433015925202101 0 0.015230110055746758 0.00028941645895219235 0 0.016331460010534905 -0.00022104793663849976 0 0.015674931525114313 0.00048433015925202101 0 0.01558599693760356 0.00082440482597369031 0 0.015143019005367261 0.00055292456647937068 0 0.01558599693760356 0.00082440482597369031 0 0.014699157253154734 0.0011107076455391933 0 0.015674931525114313 0.00048433015925202101 0 0.015143019005367261 0.00055292456647937068 0 0.015230110055746758 0.00028941645895219235 0 0.015674931525114313 0.00048433015925202101 0 0.015143019005367261 0.00055292456647937068 0 0.01558599693760356 0.00082440482597369031 0 0.017593987238315383 -0.00056210279089108676 0 0.014424385655379115 -0.001061714142402768 0 0.014865114180435356 -0.0013881141463731501 0 0.014366369928359293 -0.00065329949233853082 0 0.01484018850035561 -0.00069932560216064989 0 0.014935594303869829 -0.0013234309388317654 0 0.01484018850035561 -0.00069932560216064989 0 0.015168972527509754 -0.0010138440706121711 0 0.017593987238315383 -0.00056210279089108676 0 0.014579125677975669 0.00016510582114987143 0 0.010248185656766462 0.0012459494669463023 0 0.011312215306802287 -0.00010595926527499256 0 0.011310060475197451 0.001066540439311231 0 0.013607705881045857 -0.0007110547447536661 0 0.013597119496129514 0.00027074554803941227 0 0.014189028800824382 -4.4044920361555794e-05 0 0.012357223367086922 4.5620631651506775e-05 0 0.01243569238711973 0.00068224276224337097 0 0.013607705881045857 -0.0007110547447536661 0 0.014189028800824382 -4.4044920361555794e-05 0 0.014367938990290586 -0.00054426234993485464 0 0.013597119496129514 0.00027074554803941227 0 0.014189028800824382 -4.4044920361555794e-05 0 0.014543746916430268 0.00051656965603765165 0 0.014189028800824382 -4.4044920361555794e-05 0 0.014722534080280189 -0.00015627599817825085 0 0.014543746916430268 0.00051656965603765165 0 0.014189028800824382 -4.4044920361555794e-05 0 0.014367938990290586 -0.00054426234993485464 0 0.014722534080280189 -0.00015627599817825085 0 0.014367938990290586 -0.00054426234993485464 0 0.01488081389990664 -0.00056689737625213309 0 0.014722534080280189 -0.00015627599817825085 0 0.015469922023892503 -0.00024840325863611991 0 0.01488081389990664 -0.00056689737625213309 0 0.014722534080280189 -0.00015627599817825085 0 0.015469922023892503 -0.00024840325863611991 0 0.015230110055746758 0.00028941645895219235 0 0.014636848112015998 0.0003683633299607192 0 0.015469922023892503 -0.00024840325863611991 0 0.014722534080280189 -0.00015627599817825085 0 0.014543746916430268 0.00051656965603765165 0 0.01529320938224941 -0.00011435143538682053 0 0.014863484163074699 0.0002759916648369128 0 0.014636848112015998 0.0003683633299607192 0 0.013788534952207988 0.0010042874022115399 0 0.014699157253154734 0.0011107076455391933 0 0.015143019005367261 0.00055292456647937068 0 0.015230110055746758 0.00028941645895219235 0 0.014636848112015998 0.0003683633299607192 0 0.015143019005367261 0.00055292456647937068 0 0.014636848112015998 0.0003683633299607192 0 0.014699157253154734 0.0011107076455391933 0 0.010248185656766462 0.0012459494669463023 0 0.011310060475197451 0.001066540439311231 0 0.011308103578591753 0.0022326196336126332 0 0.013597119496129514 0.00027074554803941227 0 0.014543746916430268 0.00051656965603765165 0 0.013589943741738962 0.0012714363949409722 0 0.01243569238711973 0.00068224276224337097 0 0.011780709690515959 0.00122245901707365 0 0.014863484163074699 0.0002759916648369128 0 0.011780709690515959 0.00122245901707365 0 0.011780709690515959 0.00122245901707365 0 0.011742506298027198 0.0022965722767407572 0 0.013788534952207988 0.0010042874022115399 0 0.014248282764582164 0.001587023814761478 0 0.013774265881007225 0.0021401980801650281 0 0.0079750829722634135 0.00166806683839981 0 0.0093264773108409204 0.00061229817646582974 0 0.0093108686457291957 0.0022214288291126788 0 0.013788534952207988 0.0010042874022115399 0 0.014248282764582164 0.001587023814761478 0 0.014699157253154734 0.0011107076455391933 0 0.014248282764582164 0.001587023814761478 0 0.014699157253154734 0.0011107076455391933 0 0.014730862921751015 0.0020882996366077635 0 0.01558599693760356 0.00082440482597369031 0 0.014699157253154734 0.0011107076455391933 0 0.014730862921751015 0.0020882996366077635 0 0.014248282764582164 0.001587023814761478 0 0.014730862921751015 0.0020882996366077635 0 0.013774265881007225 0.0021401980801650281 0 0.014068628687066178 -7.3942822550739928e-05 0 0.01424318176077966 -9.5133865441709598e-06 0 0.014117375255465957 7.3853669789890887e-06 0 0.014730862921751015 0.0020882996366077635 0 0.013774265881007225 0.0021401980801650281 0 0.01388467586482359 0.0033119535009424024 0 0.01484018850035561 -0.00069932560216064989 0 0.01482961590171575 -0.00023108191707425679 0 0.015384948355854161 -0.00057801538371551235 0 0.01484018850035561 -0.00069932560216064989 0 0.01482961590171575 -0.00023108191707425679 0 0.01439551968233858 -0.00029743516681537041 0 0.014366369928359293 -0.00065329949233853082 0 0.01484018850035561 -0.00069932560216064989 0 0.01439551968233858 -0.00029743516681537041 0 0.014579125677975669 0.00016510582114987143 0 0.015070508613255072 0.00088038962318440596 0 0.014366369928359293 -0.00065329949233853082 0 0.014068628687066178 -7.3942822550739928e-05 0 0.01439551968233858 -0.00029743516681537041 0 0.01482961590171575 -0.00023108191707425679 0 0.01439551968233858 -0.00029743516681537041 0 0.01424318176077966 -9.5133865441709598e-06 0 0.01424318176077966 -9.5133865441709598e-06 0 0.014156814081057179 -1.7700292003004477e-06 0 0.014175240947870895 -1.035956577134146e-05 0 0.014068628687066178 -7.3942822550739928e-05 0 0.01439551968233858 -0.00029743516681537041 0 0.01424318176077966 -9.5133865441709598e-06 0 0.013792151601853691 0.00025740831431336249 0 0.014529305020014854 -0.00017969455921736961 0 0.014163821432123589 3.5511359863390957e-05 0 0.01424318176077966 -9.5133865441709598e-06 0 0.014156814081057179 -1.7700292003004477e-06 0 0.014163821432123589 3.5511359863390957e-05 0 0.014156814081057179 -1.7700292003004477e-06 0 0.014150616059742686 2.5877477585586631e-05 0 0.014156814081057179 -1.7700292003004477e-06 0 0.014126469141668542 2.5045014190378536e-06 0 0.014150616059742686 2.5877477585586631e-05 0 0.014156814081057179 -1.7700292003004477e-06 0 0.014126469141668542 2.5045014190378536e-06 0 0.014114826683288012 -1.4300899632879079e-05 0 0.014126469141668542 2.5045014190378536e-06 0 0.014144064908563949 2.4805772894793055e-05 0 0.014150616059742686 2.5877477585586631e-05 0 0.014126469141668542 2.5045014190378536e-06 0 0.014123778354270936 3.6617884853390964e-06 0 0.014144064908563949 2.4805772894793055e-05 0 0.020205697115565663 0.00050379067170278579 0 0.020115364415154581 0.00029475167326782788 0 0.020442582969458733 0.00021983061739408932 0 0.016816096483029522 0.00011329665531868 0 0.017176604138713903 0.00012792220351987504 0 0.020115364415154581 0.00029475167326782788 0 0.020265509260287553 0.00013155555810870866 0 0.020442582969458733 0.00021983061739408932 0 0.020115364415154581 0.00029475167326782788 0 0.020265509260287553 0.00013155555810870866 0 0.020038003205117179 0.00011554261229516991 0 0.014163821432123589 3.5511359863390957e-05 0 0.014150616059742686 2.5877477585586631e-05 0 0.014175020283387707 3.489529470317103e-05 0 0.013792151601853691 0.00025740831431336249 0 0.019287917729642192 -0.00066467113190301838 0 0.014144064908563949 2.4805772894793055e-05 0 0.014150616059742686 2.5877477585586631e-05 0 0.014175020283387707 3.489529470317103e-05 0 0.017176604138713903 0.00012792220351987504 0 0.019287917729642192 -0.00066467113190301838 0 0.01484018850035561 -0.00069932560216064989 0 0.015384948355854161 -0.00057801538371551235 0 0.015168972527509754 -0.0010138440706121711 0 0.019287917729642192 -0.00066467113190301838 0 0.020684612455400403 -0.0015776084446482309 0 0.025873723583383735 -0.0027884998706194574 0 0.02630057222132718 -0.0019875461852387586 0 0.025707355682457245 -0.0018450798650629929 0 0.019287917729642192 -0.00066467113190301838 0 0.023254672940872086 -0.0013303187470828062 0 0.025873723583383735 -0.0027884998706194574 0 0.025707355682457245 -0.0018450798650629929 0 0.024713212062631912 -0.0020798364268793451 0 0.020265509260287553 0.00013155555810870866 0 0.020038003205117179 0.00011554261229516991 0 0.020273379176181949 -0.00010669480071513929 0 0.025520361551930628 -0.0010358897737465019 0 0.025707355682457245 -0.0018450798650629929 0 0.024713212062631912 -0.0020798364268793451 0 0.025520361551930628 -0.0010358897737465019 0 0.024451385670919985 -0.00065777768851168269 0 0.024713212062631912 -0.0020798364268793451 0 0.025520361551930628 -0.0010358897737465019 0 0.026058348267454189 -0.0012453819500268606 0 0.025707355682457245 -0.0018450798650629929 0 0.026679663449315692 -0.0011453774198127934 0 0.02630057222132718 -0.0019875461852387586 0 0.026058348267454189 -0.0012453819500268606 0 0.02630057222132718 -0.0019875461852387586 0 0.026058348267454189 -0.0012453819500268606 0 0.025707355682457245 -0.0018450798650629929 0 0.022299505901448115 -0.00038940198469176627 0 0.020956842273116814 -5.0836970009242989e-07 0 0.021131517901805161 -8.163799061890859e-07 0 0.022299505901448115 -0.00038940198469176627 0 0.020956842273116814 -5.0836970009242989e-07 0 0.020273379176181949 -0.00010669480071513929 0 0.024451385670919985 -0.00065777768851168269 0 0.022299505901448115 -0.00038940198469176627 0 0.024713212062631912 -0.0020798364268793451 0 0.021922165288387713 -0.00028100734029003817 0 0.023254672940872086 -0.0013303187470828062 0 0.020265509260287553 0.00013155555810870866 0 0.020273379176181949 -0.00010669480071513929 0 0.020466785632542759 0.00010409339444118031 0 0.020956842273116814 -5.0836970009242989e-07 0 0.020273379176181949 -0.00010669480071513929 0 0.020466785632542759 0.00010409339444118031 0 0.020466785632542759 0.00010409339444118031 0 0.020353257344381943 -7.9692726578099053e-06 0 0.020442582969458733 0.00021983061739408932 0 0.020956842273116814 -5.0836970009242989e-07 0 0.020466785632542759 0.00010409339444118031 0 0.020353257344381943 -7.9692726578099053e-06 0 0.021131517901805161 -8.163799061890859e-07 0 0.020353257344381943 -7.9692726578099053e-06 0 0.01915681987799334 5.8935409436790902e-07 0 0.020956842273116814 -5.0836970009242989e-07 0 0.021131517901805161 -8.163799061890859e-07 0 0.020353257344381943 -7.9692726578099053e-06 0 0.020353257344381943 -7.9692726578099053e-06 0 0.01915681987799334 5.8935409436790902e-07 0 0.018912907066131867 0.00012228009774118567 0 0.01915681987799334 5.8935409436790902e-07 0 0.018912907066131867 0.00012228009774118567 0 0.018589582683476005 6.688477916907627e-05 0 0.020077934466247505 0.00012736790893122133 0 0.020094479282512016 4.5303464628931022e-05 0 0.020265509260287553 0.00013155555810870866 0 0.020466785632542759 0.00010409339444118031 0 0.020442582969458733 0.00021983061739408932 0 0.019067395129859187 -0.00011130844952522751 0 0.018589582683476005 6.688477916907627e-05 0 0.018537126742382386 -0.00035010642809261288 0 0.016816096483029522 0.00011329665531868 0 0.020094479282512016 4.5303464628931022e-05 0 0.019067395129859187 -0.00011130844952522751 0 0.018912907066131867 0.00012228009774118567 0 0.018589582683476005 6.688477916907627e-05 0 0.01915681987799334 5.8935409436790902e-07 0 0.018589582683476005 6.688477916907627e-05 0 0.017842063991682446 -3.1567712858717779e-05 0 0.01915681987799334 5.8935409436790902e-07 0 0.017842063991682446 -3.1567712858717779e-05 0 0.017182581279471636 -6.0297966644201358e-07 0 0.018589582683476005 6.688477916907627e-05 0 0.017842063991682446 -3.1567712858717779e-05 0 0.018537126742382386 -0.00035010642809261288 0 0.017580155659769874 5.4704117555339937e-05 0 0.017206934180108033 -0.00042402096720114702 0 0.017842063991682446 -3.1567712858717779e-05 0 0.018537126742382386 -0.00035010642809261288 0 0.018149711841547476 -0.00090319157496995687 0 0.017842063991682446 -3.1567712858717779e-05 0 0.017182581279471636 -6.0297966644201358e-07 0 0.015936231963850737 7.1470619520438125e-06 0 0.018537126742382386 -0.00035010642809261288 0 0.018751544712975871 -0.00085757656602484871 0 0.018149711841547476 -0.00090319157496995687 0 0.019067395129859187 -0.00011130844952522751 0 0.018537126742382386 -0.00035010642809261288 0 0.018751544712975871 -0.00085757656602484871 0 0.018751544712975871 -0.00085757656602484871 0 0.018149711841547476 -0.00090319157496995687 0 0.018300566289555859 -0.0016579541565947581 0 0.013254958809121859 3.0094562685231004e-05 0 0.013306501036507708 -0.00030392835302844287 0 0.012984411706169652 -0.00044831024414240702 0 0.015994046051682986 -0.00046586600963363309 0 0.015033919822052743 -0.00068983079169597397 0 0.017182581279471636 -6.0297966644201358e-07 0 0.015936231963850737 7.1470619520438125e-06 0 0.015206991535701745 6.0109854323269971e-07 0 0.017206934180108033 -0.00042402096720114702 0 0.015033919822052743 -0.00068983079169597397 0 0.015936231963850737 7.1470619520438125e-06 0 0.015206991535701745 6.0109854323269971e-07 0 0.014949968917105516 -1.0502460018965541e-05 0 0.014126469141668542 2.5045014190378536e-06 0 0.014123778354270936 3.6617884853390964e-06 0 0.014091543153689526 -1.9448349887362909e-05 0 0.014126469141668542 2.5045014190378536e-06 0 0.014114826683288012 -1.4300899632879079e-05 0 0.014091543153689526 -1.9448349887362909e-05 0 0.014114826683288012 -1.4300899632879079e-05 0 0.014091543153689526 -1.9448349887362909e-05 0 0.014087520093921268 -3.4749408338337131e-05 0 0.013516089333572524 0.00047614675001999131 0 0.013733154404402996 0.00015727906965502979 0 0.013511649245813519 2.4649054507059094e-05 0 0.013516089333572524 0.00047614675001999131 0 0.013254958809121859 3.0094562685231004e-05 0 0.013511649245813519 2.4649054507059094e-05 0 0.016816096483029522 0.00011329665531868 0 0.015994046051682986 -0.00046586600963363309 0 0.016816096483029522 0.00011329665531868 0 0.013628853623021769 0.00030593329770575402 0 0.013511649245813519 2.4649054507059094e-05 0 0.013703013383828537 -0.00014297381652399627 0 0.013306501036507708 -0.00030392835302844287 0 0.013254958809121859 3.0094562685231004e-05 0 0.013511649245813519 2.4649054507059094e-05 0 0.013306501036507708 -0.00030392835302844287 0 0.013733154404402996 0.00015727906965502979 0 0.013511649245813519 2.4649054507059094e-05 0 0.013703013383828537 -0.00014297381652399627 0 0.013703013383828537 -0.00014297381652399627 0 0.014001894434967261 -0.00011099277076669798 0 0.01410560423720204 -0.00016461988001552886 0 0.015065407263578605 -0.00043555974856262028 0 0.0099064517243428914 -0.00082532528095044717 0 0.013733154404402996 0.00015727906965502979 0 0.013703013383828537 -0.00014297381652399627 0 0.014001894434967261 -0.00011099277076669798 0 0.013628853623021769 0.00030593329770575402 0 0.014092333218108216 -0.00020403484343560523 0 0.014091543153689526 -1.9448349887362909e-05 0 0.014001894434967261 -0.00011099277076669798 0 0.014087520093921268 -3.4749408338337131e-05 0 0.013703013383828537 -0.00014297381652399627 0 0.013569970080652381 -0.00049337320206677441 0 0.013990435169162976 -0.00026998753821852949 0 0.0062171321460750117 -0.0043523123429814008 0 0.003907742089373098 -0.0030880160754365544 0 0.0041881841569111743 -0.0049166048048120354 0 0.0096679775566052787 -0.002658754300670045 0 0.0099064517243428914 -0.00082532528095044717 0 0.013703013383828537 -0.00014297381652399627 0 0.013569970080652381 -0.00049337320206677441 0 0.013306501036507708 -0.00030392835302844287 0 0.0062171321460750117 -0.0043523123429814008 0 0.008669532183031509 -0.0035917491768708604 0 0.0070494968857439059 -0.0024067731463236568 0 0.0062171321460750117 -0.0043523123429814008 0 0.0070494968857439059 -0.0024067731463236568 0 0.0054232066583993696 -0.0022855077021348025 0 0.0062171321460750117 -0.0043523123429814008 0 0.0054232066583993696 -0.0022855077021348025 0 0.003907742089373098 -0.0030880160754365544 0 0.015206991535701745 6.0109854323269971e-07 0 0.014949968917105516 -1.0502460018965541e-05 0 0.013895894361293157 -2.1288083543908055e-05 0 0.013569970080652381 -0.00049337320206677441 0 0.013306501036507708 -0.00030392835302844287 0 0.013039819663982604 -0.00074161078662780312 0 0.013306501036507708 -0.00030392835302844287 0 0.012984411706169652 -0.00044831024414240702 0 0.013039819663982604 -0.00074161078662780312 0 0.015033919822052743 -0.00068983079169597397 0 0.01098362132668647 -0.0022729274912869938 0 0.0096679775566052787 -0.002658754300670045 0 0.01098362132668647 -0.0022729274912869938 0 0.015206991535701745 6.0109854323269971e-07 0 0.013895894361293157 -2.1288083543908055e-05 0 0.013235318221705998 -7.5446256894724795e-07 0 0.013141628411204268 -0.0010552974326118916 0 0.013240347662759302 -0.0015043127048356283 0 0.012815217463462581 -0.001679929260465595 0 0.015033919822052743 -0.00068983079169597397 0 0.0126375263231767 -0.0010614581596058927 0 0.0093978635367381047 -0.0034465857358453003 0 0.011053287742945129 -0.0029397699062940195 0 0.010152956018904495 -0.0013536060849088593 0 0.01098362132668647 -0.0022729274912869938 0 0.0126375263231767 -0.0010614581596058927 0 0.0126375263231767 -0.0010614581596058927 0 0.013233491668372347 -7.2313105199510902e-07 0 0.0126375263231767 -0.0010614581596058927 0 0.012468994874267446 -7.2774937243054461e-07 0 0.013431331420435554 -3.6941254077145967e-06 0 0.013231569982992849 -2.1413728038988101e-08 0 0.012470495847860898 1.3186432417622175e-08 0 0.011053287742945129 -0.0029397699062940195 0 0.010152956018904495 -0.0013536060849088593 0 0.012465500378951002 -5.5918002638282426e-06 0 0.010152956018904495 -0.0013536060849088593 0 0.012465500378951002 -5.5918002638282426e-06 0 0.0099307581542531168 -0.00014111825568667442 0 0.012465500378951002 -5.5918002638282426e-06 0 0.0099307581542531168 -0.00014111825568667442 0 0.010768723724045613 1.9180945901655064e-06 0 0.0099307581542531168 -0.00014111825568667442 0 0.0078430594630086621 0.00016390912423588724 0 0.0095493383982941382 0.00030008337973983033 0 0.0099307581542531168 -0.00014111825568667442 0 0.0078430594630086621 0.00016390912423588724 0 0.0082710415053904827 -0.00092480558404948695 0 0.0078430594630086621 0.00016390912423588724 0 0.0082710415053904827 -0.00092480558404948695 0 0.006678079172437879 -0.00091110606637366098 0 0.01098362132668647 -0.0022729274912869938 0 0.0079184732743267129 -0.0014320541298471334 0 0.008669532183031509 -0.0035917491768708604 0 0.0082710415053904827 -0.00092480558404948695 0 0.0070494968857439059 -0.0024067731463236568 0 0.0093978635367381047 -0.0034465857358453003 0 0.010152956018904495 -0.0013536060849088593 0 0.0082710415053904827 -0.00092480558404948695 0 0.010152956018904495 -0.0013536060849088593 0 0.0099307581542531168 -0.00014111825568667442 0 0.0082710415053904827 -0.00092480558404948695 0 0.0082710415053904827 -0.00092480558404948695 0 0.0070494968857439059 -0.0024067731463236568 0 0.006678079172437879 -0.00091110606637366098 0 0.0070494968857439059 -0.0024067731463236568 0 0.0054232066583993696 -0.0022855077021348025 0 0.006678079172437879 -0.00091110606637366098 0 0.0054232066583993696 -0.0022855077021348025 0 0.0054942627350944365 -0.00053211878360084604 0 0.006678079172437879 -0.00091110606637366098 0 0.0054232066583993696 -0.0022855077021348025 0 0.0054942627350944365 -0.00053211878360084604 0 0.0032849247348849353 -0.00092852751944178793 0 0.0054942627350944365 -0.00053211878360084604 0 0.006678079172437879 -0.00091110606637366098 0 0.0062572202620939463 0.00014788195161757106 0 0.0078430594630086621 0.00016390912423588724 0 0.006678079172437879 -0.00091110606637366098 0 0.0062572202620939463 0.00014788195161757106 0 0.0078430594630086621 0.00016390912423588724 0 0.0061589916971619557 0.0005479690426677357 0 0.0062572202620939463 0.00014788195161757106 0 0.0061589916971619557 0.0005479690426677357 0 0.0062572202620939463 0.00014788195161757106 0 0.0054881584864176821 0.00075818924464135528 0 0.0054942627350944365 -0.00053211878360084604 0 0.0062572202620939463 0.00014788195161757106 0 0.0054881584864176821 0.00075818924464135528 0 0.0054942627350944365 -0.00053211878360084604 0 0.0054881584864176821 0.00075818924464135528 0 0.0032849247348849353 -0.00092852751944178793 0 0.0038921571544347625 -0.00023102496411424103 0 0.0041009048422404153 -0.00059323978137293756 0 0.0023525048491906757 -0.00098134486463464675 0 0.0023791839075390283 -0.0013174646426836077 0 0.0021431686022539936 -0.0010819934212328436 0 0.0061589916971619557 0.0005479690426677357 0 0.0054881584864176821 0.00075818924464135528 0 0.005873278115187737 -1.871200799586385e-06 0 0.0061589916971619557 0.0005479690426677357 0 0.0055487392990675498 0.00017707417982872496 0 0.005873278115187737 -1.871200799586385e-06 0 0.0052810577941839638 0.00039586235339971701 0 0.0055487392990675498 0.00017707417982872496 0 0.0048255319761964415 -0.00041791839657906828 0 0.0061589916971619557 0.0005479690426677357 0 0.0052810577941839638 0.00039586235339971701 0 0.0055487392990675498 0.00017707417982872496 0 0.0092933441834553189 0.00033117322737774194 0 0.0090690989242457644 6.1292614182069165e-07 0 0.0095493383982941382 0.00030008337973983033 0 0.0090690989242457644 6.1292614182069165e-07 0 0.010768723724045613 1.9180945901655064e-06 0 0.0095493383982941382 0.00030008337973983033 0 0.0099307581542531168 -0.00014111825568667442 0 0.010768723724045613 1.9180945901655064e-06 0 0.0095493383982941382 0.00030008337973983033 0 0.0078430594630086621 0.00016390912423588724 0 0.0061589916971619557 0.0005479690426677357 0 0.0052810577941839638 0.00039586235339971701 0 0.0078430594630086621 0.00016390912423588724 0 0.0092933441834553189 0.00033117322737774194 0 0.0095493383982941382 0.00030008337973983033 0 0.0076920032230187764 1.1863505505064904e-05 0 0.007227173663093567 0.00024561762087907326 0 0.0014283397068174121 -0.001022262386620728 0 0.0016150347292659194 -0.00048063912810924483 0 0.0020813456849613152 -0.00080258953732394893 0 0.0014283397068174121 -0.001022262386620728 0 0.0020813456849613152 -0.00080258953732394893 0 0.0020340761712751747 -0.001302555290821388 0 0.0015163632398663618 -0.00020612323122582506 0 0.001587731684239764 -0.00049129896485232741 0 0.0015739422718285107 0.00053321661023324326 0 0.0016150347292659194 -0.00048063912810924483 0 0.0022321340162760367 -9.3645773936876082e-05 0 0.0016150347292659194 -0.00048063912810924483 0 0.0020813456849613152 -0.00080258953732394893 0 0.0017918505412129592 -0.0007019016020224434 0 0.0023002897198146324 -0.0008968863634764364 0 0.0020813456849613152 -0.00080258953732394893 0 0.0017918505412129592 -0.0007019016020224434 0 0.0023525048491906757 -0.00098134486463464675 0 0.0023002897198146324 -0.0008968863634764364 0 0.0021431686022539936 -0.0010819934212328436 0 0.0023525048491906757 -0.00098134486463464675 0 0.0023002897198146324 -0.0008968863634764364 0 0.0032849247348849353 -0.00092852751944178793 0 0.0038921571544347625 -0.00023102496411424103 0 0.0032811756050075734 -0.00093221256225382734 0 0.0020813456849613152 -0.00080258953732394893 0 0.0032849247348849353 -0.00092852751944178793 0 0.0020340761712751747 -0.001302555290821388 0 0.0023002897198146324 -0.0008968863634764364 0 0.0020813456849613152 -0.00080258953732394893 0 0.0032849247348849353 -0.00092852751944178793 0 0.0032849247348849353 -0.00092852751944178793 0 0.0024098957493443414 -0.0022082219238902432 0 0.0020340761712751747 -0.001302555290821388 0 0.0054232066583993696 -0.0022855077021348025 0 0.0032849247348849353 -0.00092852751944178793 0 0.003907742089373098 -0.0030880160754365544 0 0.0032849247348849353 -0.00092852751944178793 0 0.0024098957493443414 -0.0022082219238902432 0 0.003907742089373098 -0.0030880160754365544 0 0.0024098957493443414 -0.0022082219238902432 0 0.0020340761712751747 -0.001302555290821388 0 0.0011261178442277862 -0.0019885906383705896 0 0.0024098957493443414 -0.0022082219238902432 0 0.0011261178442277862 -0.0019885906383705896 0 0.0016744874812047895 -0.0027733349503837336 0 0.0014283397068174121 -0.001022262386620728 0 0.0020340761712751747 -0.001302555290821388 0 0.0011261178442277862 -0.0019885906383705896 0 0.0015163632398663618 -0.00020612323122582506 0 0.0011917446220087525 -0.00056586566823961092 0 0.0011261178442277862 -0.0019885906383705896 0 0.00096612536907967662 -0.0033488776200579487 0 0.0016744874812047895 -0.0027733349503837336 0 0.0011917446220087525 -0.00056586566823961092 0 0.0032163094991295095 0.00084835963786672084 0 0.00096612536907967662 -0.0033488776200579487 0 0.0016744874812047895 -0.0027733349503837336 0 0.002391611625514056 -0.0040541072991864833 0 0.0024098957493443414 -0.0022082219238902432 0 0.0016744874812047895 -0.0027733349503837336 0 0.002391611625514056 -0.0040541072991864833 0 0.0032163094991295095 0.00084835963786672084 0 0.0046835280161851116 -0.0016966108435245734 0 0.0065689628716179777 0.0016932624040748331 0 0.0065884452906726058 0.0008907859959056629 0 0.0078571392500927113 0.0012603974605279189 0 0.0065884452906726058 0.0008907859959056629 0 0.0078571392500927113 0.0012603974605279189 0 0.0071489474928866301 0.00049221918372478117 0 0.0032163094991295095 0.00084835963786672084 0 0.0043205774735625996 0.0019698079450245435 0 0.001993493743959936 0.0023983667906043926 0 0.0020119235646277375 0.0028923698993406615 0 0.0022739598492712691 0.0028447572876753118 0 0.0020119235646277375 0.0028923698993406615 0 0.00217453653180709 0.0031426964568117602 0 0.0022739598492712691 0.0028447572876753118 0 0.0024098957493443414 -0.0022082219238902432 0 0.003907742089373098 -0.0030880160754365544 0 0.002391611625514056 -0.0040541072991864833 0 0.0078571392500927113 0.0012603974605279189 0 0.0091544040150558243 0.00081065192452618577 0 0.0079414458467584222 0.00034122872230813253 0 0.0046835280161851116 -0.0016966108435245734 0 0.0099064517243428914 -0.00082532528095044717 0 0.003907742089373098 -0.0030880160754365544 0 0.002391611625514056 -0.0040541072991864833 0 0.0041881841569111743 -0.0049166048048120354 0 0.01410560423720204 -0.00016461988001552886 0 0.014127208763740346 -4.9351923500727803e-05 0 0.014145255706675852 1.2181477992506653e-06 0 0.014001894434967261 -0.00011099277076669798 0 0.014127208763740346 -4.9351923500727803e-05 0 0.014087520093921268 -3.4749408338337131e-05 0 0.014001894434967261 -0.00011099277076669798 0 0.01410560423720204 -0.00016461988001552886 0 0.014127208763740346 -4.9351923500727803e-05 0 0.014127208763740346 -4.9351923500727803e-05 0 0.014145255706675852 1.2181477992506653e-06 0 0.014175240947870895 -1.035956577134146e-05 0 0.0099064517243428914 -0.00082532528095044717 0 0.011457309258906935 0.00021869466591496883 0 0.014145255706675852 1.2181477992506653e-06 0 0.014175240947870895 -1.035956577134146e-05 0 0.014117375255465957 7.3853669789890887e-06 0 0.01424318176077966 -9.5133865441709598e-06 0 0.014175240947870895 -1.035956577134146e-05 0 0.014117375255465957 7.3853669789890887e-06 0 0.014127208763740346 -4.9351923500727803e-05 0 0.014175240947870895 -1.035956577134146e-05 0 0.014136225054240167 -1.7695102111111524e-05 0 0.014156814081057179 -1.7700292003004477e-06 0 0.014175240947870895 -1.035956577134146e-05 0 0.014136225054240167 -1.7695102111111524e-05 0 0.014156814081057179 -1.7700292003004477e-06 0 0.014114826683288012 -1.4300899632879079e-05 0 0.014136225054240167 -1.7695102111111524e-05 0 0.014127208763740346 -4.9351923500727803e-05 0 0.014136225054240167 -1.7695102111111524e-05 0 0.014087520093921268 -3.4749408338337131e-05 0 0.014114826683288012 -1.4300899632879079e-05 0 0.014136225054240167 -1.7695102111111524e-05 0 0.014087520093921268 -3.4749408338337131e-05 0 0.0020119235646277375 0.0028923698993406615 0 0.0020569524089462808 0.003373455834607813 0 0.00217453653180709 0.0031426964568117602 0 0.0065884452906726058 0.0008907859959056629 0 0.0066119193479601442 0.00010447906246614681 0 0.0071489474928866301 0.00049221918372478117 0 0.0043205774735625996 0.0019698079450245435 0 0.0060337613907476993 0.0024239557278043595 0 0.0066119193479601442 0.00010447906246614681 0 0.0071489474928866301 0.00049221918372478117 0 0.006756891201337609 -0.00011785718295596581 0 0.0020407783811160997 0.0033968023779068907 0 0.00217453653180709 0.0031426964568117602 0 0.0023943397369969015 0.003440704192076803 0 0.0060337613907476993 0.0024239557278043595 0 0.0031580507563647863 0.0040228093208388074 0 0.011457309258906935 0.00021869466591496883 0 0.0099272517450332658 0.0012984799062073892 0 0.0079414458467584222 0.00034122872230813253 0 0.0071489474928866301 0.00049221918372478117 0 0.006756891201337609 -0.00011785718295596581 0 0.0078571392500927113 0.0012603974605279189 0 0.0079414458467584222 0.00034122872230813253 0 0.0071489474928866301 0.00049221918372478117 0 0.014145255706675852 1.2181477992506653e-06 0 0.014117375255465957 7.3853669789890887e-06 0 0.014023723395463516 4.1701030645973965e-05 0 0.014068628687066178 -7.3942822550739928e-05 0 0.014117375255465957 7.3853669789890887e-06 0 0.014023723395463516 4.1701030645973965e-05 0 0.015070508613255072 0.00088038962318440596 0 0.0099272517450332658 0.0012984799062073892 0 0.013774265881007225 0.0021401980801650281 0 0.01388467586482359 0.0033119535009424024 0 0.013735659194870681 0.003250193640806402 0 0.011742506298027198 0.0022965722767407572 0 0.0082521323271931863 0.0025316865890918699 0 0.0093108686457291957 0.0022214288291126788 0 0.0092972261540432873 0.0038127468250860829 0 0.0079701356326413991 0.0032735122836281294 0 0.0072726240034418138 0.0018789378884061987 0 0.0071207396353437265 0.0021322378632066662 0 0.0072802908198505668 0.0021996896948090761 0 0.0060337613907476993 0.0024239557278043595 0 0.0099272517450332658 0.0012984799062073892 0 0.0099272517450332658 0.0012984799062073892 0 0.0082521323271931863 0.0025316865890918699 0 0.0020407783811160997 0.0033968023779068907 0 0.0020496291004018031 0.0035740814982111709 0 0.0023943397369969015 0.003440704192076803 0 0.0060337613907476993 0.0024239557278043595 0 0.0082521323271931863 0.0025316865890918699 0 0.0025880159493641844 0.003824245151045937 0 0.0023943397369969015 0.003440704192076803 0 0.0029750594797038048 0.0035649138267509076 0 0.0082521323271931863 0.0025316865890918699 0 0.0046823964822380309 0.0033925516532931489 0 0.0020496291004018031 0.0035740814982111709 0 0.0025880159493641844 0.003824245151045937 0 0.0023943397369969015 0.003440704192076803 0 0.00217453653180709 0.0031426964568117602 0 0.0023943397369969015 0.003440704192076803 0 0.0025855848264336643 0.00312990074293846 0 0.0023943397369969015 0.003440704192076803 0 0.0025855848264336643 0.00312990074293846 0 0.0029750594797038048 0.0035649138267509076 0 0.00217453653180709 0.0031426964568117602 0 0.0025855848264336643 0.00312990074293846 0 0.0022739598492712691 0.0028447572876753118 0 0.0025855848264336643 0.00312990074293846 0 0.0030912333953309261 0.0030721412502840214 0 0.0029750594797038048 0.0035649138267509076 0 0.0064031380316621027 0.0035257700027623599 0 0.0046823964822380309 0.0033925516532931489 0 0.0031524498129376966 0.0040701402485496616 0 0.0025880159493641844 0.003824245151045937 0 0.0029750594797038048 0.0035649138267509076 0 0.0074104080660481421 0.0035346557284825506 0 0.007713055315733572 0.0036464254232200844 0 0.0076709861175260239 0.003275063142214962 0 0.0031524498129376966 0.0040701402485496616 0 0.0029750594797038048 0.0035649138267509076 0 0.0038234155955910133 0.0035755169343012127 0 0.0064031380316621027 0.0035257700027623599 0 0.0055302061659655505 0.0035202335210439513 0 0.007713055315733572 0.0036464254232200844 0 0.0076709861175260239 0.003275063142214962 0 0.0077929693056744184 0.0034710841313451112 0 0.0076709861175260239 0.003275063142214962 0 0.0077929693056744184 0.0034710841313451112 0 0.0079647612902658902 0.0033173006264215475 0 0.0038234155955910133 0.0035755169343012127 0 0.0037280504410531672 0.0028064398661175635 0 0.0045796217912366889 0.0030915321100183227 0 0.0055302061659655505 0.0035202335210439513 0 0.0062867643589715584 0.002990591235630407 0 0.0030912333953309261 0.0030721412502840214 0 0.0029750594797038048 0.0035649138267509076 0 0.0038234155955910133 0.0035755169343012127 0 0.0030912333953309261 0.0030721412502840214 0 0.0038234155955910133 0.0035755169343012127 0 0.0037280504410531672 0.0028064398661175635 0 0.0030912333953309261 0.0030721412502840214 0 0.0037280504410531672 0.0028064398661175635 0 0.0032059710235565536 0.0023964066202353533 0 0.0037280504410531672 0.0028064398661175635 0 0.0039190366876982038 0.0020644135955503588 0 0.0045796217912366889 0.0030915321100183227 0 0.0037280504410531672 0.0028064398661175635 0 0.0039190366876982038 0.0020644135955503588 0 0.0032059710235565536 0.0023964066202353533 0 0.0039190366876982038 0.0020644135955503588 0 0.0032059710235565536 0.0023964066202353533 0 0.0032214923336454796 0.0015839737257945564 0 0.0032059710235565536 0.0023964066202353533 0 0.0027289562261795493 0.0020613780090351975 0 0.0026158484298141869 0.0026759126842736958 0 0.0032059710235565536 0.0023964066202353533 0 0.0027289562261795493 0.0020613780090351975 0 0.0032214923336454796 0.0015839737257945564 0 0.001993493743959936 0.0023983667906043926 0 0.0027289562261795493 0.0020613780090351975 0 0.0026158484298141869 0.0026759126842736958 0 0.0015954403807912937 0.0014577614804368642 0 0.0016194722134402718 0.0024051908917795714 0 0.0027289562261795493 0.0020613780090351975 0 0.0032163094991295095 0.00084835963786672084 0 0.0020294579859518945 0.002594540223158187 0 0.001993493743959936 0.0023983667906043926 0 0.0026158484298141869 0.0026759126842736958 0 0.0022739598492712691 0.0028447572876753118 0 0.0025855848264336643 0.00312990074293846 0 0.0026158484298141869 0.0026759126842736958 0 0.0022739598492712691 0.0028447572876753118 0 0.0025855848264336643 0.00312990074293846 0 0.0030912333953309261 0.0030721412502840214 0 0.0026158484298141869 0.0026759126842736958 0 0.0030912333953309261 0.0030721412502840214 0 0.0032059710235565536 0.0023964066202353533 0 0.0026158484298141869 0.0026759126842736958 0 0.0085222418050463697 0.003179701210763605 0 0.008414839273908124 0.0027224715183173293 0 0.0089518348726524335 0.0031733245175047287 0 0.0087584486266325916 0.0034993956679470442 0 0.0085222418050463697 0.003179701210763605 0 0.0089518348726524335 0.0031733245175047287 0 0.0087584486266325916 0.0034993956679470442 0 0.0083880038332147661 0.0034345777192480898 0 0.0085222418050463697 0.003179701210763605 0 0.0083880038332147661 0.0034345777192480898 0 0.0085222418050463697 0.003179701210763605 0 0.0081722910505941763 0.0030482408638933473 0 0.0085222418050463697 0.003179701210763605 0 0.0081722910505941763 0.0030482408638933473 0 0.008414839273908124 0.0027224715183173293 0 0.0083880038332147661 0.0034345777192480898 0 0.0081722910505941763 0.0030482408638933473 0 0.0079647612902658902 0.0033173006264215475 0 0.0081451586661856496 0.0036100765356555449 0 0.0083880038332147661 0.0034345777192480898 0 0.0079647612902658902 0.0033173006264215475 0 0.0079161651866905634 0.003540999923633568 0 0.0077929693056744184 0.0034710841313451112 0 0.0079647612902658902 0.0033173006264215475 0 0.0081722910505941763 0.0030482408638933473 0 0.0079647612902658902 0.0033173006264215475 0 0.007882276253304293 0.002962054190892547 0 0.0076709861175260239 0.003275063142214962 0 0.0079647612902658902 0.0033173006264215475 0 0.007882276253304293 0.002962054190892547 0 0.0045796217912366889 0.0030915321100183227 0 0.0054282061303165081 0.0025778852453265115 0 0.004791056592644124 0.0019187584570420284 0 0.0039190366876982038 0.0020644135955503588 0 0.0045796217912366889 0.0030915321100183227 0 0.004791056592644124 0.0019187584570420284 0 0.0054282061303165081 0.0025778852453265115 0 0.0055146571956705762 0.001698551460791361 0 0.004791056592644124 0.0019187584570420284 0 0.0081722910505941763 0.0030482408638933473 0 0.007882276253304293 0.002962054190892547 0 0.0080796034874564791 0.0025834927976274022 0 0.0062867643589715584 0.002990591235630407 0 0.0067567341513947703 0.0025782086154467823 0 0.0081722910505941763 0.0030482408638933473 0 0.0080796034874564791 0.0025834927976274022 0 0.008414839273908124 0.0027224715183173293 0 0.0080796034874564791 0.0025834927976274022 0 0.008414839273908124 0.0027224715183173293 0 0.0081605098698084959 0.0020834662454262726 0 0.0067567341513947703 0.0025782086154467823 0 0.0073494399680496597 0.0020279385890694256 0 0.0054282061303165081 0.0025778852453265115 0 0.0064665263692622321 0.0020769632714861719 0 0.0055146571956705762 0.001698551460791361 0 0.008414839273908124 0.0027224715183173293 0 0.0081605098698084959 0.0020834662454262726 0 0.0086018984127984172 0.0024306894854217798 0 0.0064665263692622321 0.0020769632714861719 0 0.0068953123670559167 0.00044530054093117489 0 0.0079714271369224869 0.0012936449250269301 0 0.0064665263692622321 0.0020769632714861719 0 0.0058297569285576389 0.00083038745359971771 0 0.0068953123670559167 0.00044530054093117489 0 0.0073494399680496597 0.0020279385890694256 0 0.0079920161638382184 0.001327031536569312 0 0.0064665263692622321 0.0020769632714861719 0 0.0058297569285576389 0.00083038745359971771 0 0.0055146571956705762 0.001698551460791361 0 0.0058297569285576389 0.00083038745359971771 0 0.0055146571956705762 0.001698551460791361 0 0.0047367525525113313 0.00099736790424120544 0 0.0055146571956705762 0.001698551460791361 0 0.004791056592644124 0.0019187584570420284 0 0.0047367525525113313 0.00099736790424120544 0 0.004791056592644124 0.0019187584570420284 0 0.0047367525525113313 0.00099736790424120544 0 0.0037661796406916049 0.001024719097408613 0 0.0047367525525113313 0.00099736790424120544 0 0.0043991493832113565 -0.00019628370855259697 0 0.0037661796406916049 0.001024719097408613 0 0.0043991493832113565 -0.00019628370855259697 0 0.0053169572916454393 9.612936232997989e-05 0 0.0053849328888959692 -0.00076871479973558438 0 0.0047367525525113313 0.00099736790424120544 0 0.0043991493832113565 -0.00019628370855259697 0 0.0053169572916454393 9.612936232997989e-05 0 0.0058297569285576389 0.00083038745359971771 0 0.0047367525525113313 0.00099736790424120544 0 0.0053169572916454393 9.612936232997989e-05 0 0.0058297569285576389 0.00083038745359971771 0 0.0053169572916454393 9.612936232997989e-05 0 0.0063186546822706895 -0.00034746742386440539 0 0.0053169572916454393 9.612936232997989e-05 0 0.0063186546822706895 -0.00034746742386440539 0 0.0053849328888959692 -0.00076871479973558438 0 0.0063186546822706895 -0.00034746742386440539 0 0.0070824956744341581 -0.00096333224154550941 0 0.0072777498620391666 -0.00040038184417086472 0 0.0063186546822706895 -0.00034746742386440539 0 0.0068953123670559167 0.00044530054093117489 0 0.0072777498620391666 -0.00040038184417086472 0 0.0058297569285576389 0.00083038745359971771 0 0.0063186546822706895 -0.00034746742386440539 0 0.0068953123670559167 0.00044530054093117489 0 0.0015739422718285107 0.00053321661023324326 0 0.0015954403807912937 0.0014577614804368642 0 0.0026408071585775641 0.00090751885902001393 0 0.0015954403807912937 0.0014577614804368642 0 0.0027289562261795493 0.0020613780090351975 0 0.0026408071585775641 0.00090751885902001393 0 0.0027289562261795493 0.0020613780090351975 0 0.0026408071585775641 0.00090751885902001393 0 0.0032214923336454796 0.0015839737257945564 0 0.0039190366876982038 0.0020644135955503588 0 0.0032214923336454796 0.0015839737257945564 0 0.0037661796406916049 0.001024719097408613 0 0.0039190366876982038 0.0020644135955503588 0 0.004791056592644124 0.0019187584570420284 0 0.0037661796406916049 0.001024719097408613 0 0.0026408071585775641 0.00090751885902001393 0 0.0032214923336454796 0.0015839737257945564 0 0.0037661796406916049 0.001024719097408613 0 0.0043991493832113565 -0.00019628370855259697 0 0.0037661796406916049 0.001024719097408613 0 0.0031825386602299575 3.5432027420878016e-05 0 0.0043991493832113565 -0.00019628370855259697 0 0.0031825386602299575 3.5432027420878016e-05 0 0.0034035714388785882 -0.00090835175132839149 0 0.0026408071585775641 0.00090751885902001393 0 0.0037661796406916049 0.001024719097408613 0 0.0031825386602299575 3.5432027420878016e-05 0 0.0031825386602299575 3.5432027420878016e-05 0 0.0022321340162760367 -9.3645773936876082e-05 0 0.0025798092710286715 -0.00058655399519181239 0 0.0026408071585775641 0.00090751885902001393 0 0.0031825386602299575 3.5432027420878016e-05 0 0.0022321340162760367 -9.3645773936876082e-05 0 0.0015739422718285107 0.00053321661023324326 0 0.0026408071585775641 0.00090751885902001393 0 0.0022321340162760367 -9.3645773936876082e-05 0 0.0016150347292659194 -0.00048063912810924483 0 0.0022321340162760367 -9.3645773936876082e-05 0 0.0019059362120591133 -0.00065396590029731679 0 0.0022321340162760367 -9.3645773936876082e-05 0 0.0019059362120591133 -0.00065396590029731679 0 0.0025798092710286715 -0.00058655399519181239 0 0.0019059362120591133 -0.00065396590029731679 0 0.0021613996959186582 -0.00099048432964077542 0 0.0025798092710286715 -0.00058655399519181239 0 0.0019059362120591133 -0.00065396590029731679 0 0.0021613996959186582 -0.00099048432964077542 0 0.0016095924821156399 -0.00087023555889664047 0 0.0021613996959186582 -0.00099048432964077542 0 0.0019945882125252693 -0.0013181334815400905 0 0.0016095924821156399 -0.00087023555889664047 0 0.0021613996959186582 -0.00099048432964077542 0 0.0019945882125252693 -0.0013181334815400905 0 0.0023948877947358488 -0.0014057864451781066 0 0.0021613996959186582 -0.00099048432964077542 0 0.0026867088836017208 -0.0010692302395236045 0 0.0025798092710286715 -0.00058655399519181239 0 0.0026867088836017208 -0.0010692302395236045 0 0.0029783223549151496 -0.0014011588777035132 0 0.0023948877947358488 -0.0014057864451781066 0 0.0021613996959186582 -0.00099048432964077542 0 0.0026867088836017208 -0.0010692302395236045 0 0.0023948877947358488 -0.0014057864451781066 0 0.0026867088836017208 -0.0010692302395236045 0 0.0025798092710286715 -0.00058655399519181239 0 0.0034035714388785882 -0.00090835175132839149 0 0.0031825386602299575 3.5432027420878016e-05 0 0.0025798092710286715 -0.00058655399519181239 0 0.0034035714388785882 -0.00090835175132839149 0 0.0034035714388785882 -0.00090835175132839149 0 0.0035939711954303386 -0.0016343790791406721 0 0.0045495161004789324 -0.0012730290753241692 0 0.0034035714388785882 -0.00090835175132839149 0 0.0029783223549151496 -0.0014011588777035132 0 0.0035939711954303386 -0.0016343790791406721 0 0.0026867088836017208 -0.0010692302395236045 0 0.0034035714388785882 -0.00090835175132839149 0 0.0029783223549151496 -0.0014011588777035132 0 0.0029783223549151496 -0.0014011588777035132 0 0.0035939711954303386 -0.0016343790791406721 0 0.0030232545172811155 -0.0018075311162851046 0 0.0035939711954303386 -0.0016343790791406721 0 0.0032195594583037581 -0.0020903139206597567 0 0.0040738971900713735 -0.0019055952646988539 0 0.0032195594583037581 -0.0020903139206597567 0 0.0030232545172811155 -0.0018075311162851046 0 0.0027543772369215853 -0.0022408185188025867 0 0.0035939711954303386 -0.0016343790791406721 0 0.0032195594583037581 -0.0020903139206597567 0 0.0030232545172811155 -0.0018075311162851046 0 0.0030232545172811155 -0.0018075311162851046 0 0.0025595617661473545 -0.0019131391234214119 0 0.0027543772369215853 -0.0022408185188025867 0 0.0025595617661473545 -0.0019131391234214119 0 0.0021410612720553545 -0.0017588751135892734 0 0.0020426987563387242 -0.0022039498981543978 0 0.0025595617661473545 -0.0019131391234214119 0 0.0021410612720553545 -0.0017588751135892734 0 0.0023948877947358488 -0.0014057864451781066 0 0.0021410612720553545 -0.0017588751135892734 0 0.0019945882125252693 -0.0013181334815400905 0 0.0023948877947358488 -0.0014057864451781066 0 0.0029783223549151496 -0.0014011588777035132 0 0.0025595617661473545 -0.0019131391234214119 0 0.0023948877947358488 -0.0014057864451781066 0 0.0029783223549151496 -0.0014011588777035132 0 0.0030232545172811155 -0.0018075311162851046 0 0.0025595617661473545 -0.0019131391234214119 0 0.0063393421259593189 -0.0012153457669675245 0 0.0064909599249634124 -0.0017179087094963373 0 0.0071630731156946421 -0.0013995728718316116 0 0.0063393421259593189 -0.0012153457669675245 0 0.0064909599249634124 -0.0017179087094963373 0 0.0055689174128510984 -0.0017477552087375881 0 0.0063186546822706895 -0.00034746742386440539 0 0.0063393421259593189 -0.0012153457669675245 0 0.0070824956744341581 -0.00096333224154550941 0 0.0063186546822706895 -0.00034746742386440539 0 0.0063393421259593189 -0.0012153457669675245 0 0.0053849328888959692 -0.00076871479973558438 0 0.0063393421259593189 -0.0012153457669675245 0 0.0053849328888959692 -0.00076871479973558438 0 0.0055689174128510984 -0.0017477552087375881 0 0.0043991493832113565 -0.00019628370855259697 0 0.0034035714388785882 -0.00090835175132839149 0 0.0045495161004789324 -0.0012730290753241692 0 0.0053849328888959692 -0.00076871479973558438 0 0.0045495161004789324 -0.0012730290753241692 0 0.0055689174128510984 -0.0017477552087375881 0 0.0043991493832113565 -0.00019628370855259697 0 0.0053849328888959692 -0.00076871479973558438 0 0.0045495161004789324 -0.0012730290753241692 0 0.0035939711954303386 -0.0016343790791406721 0 0.0045495161004789324 -0.0012730290753241692 0 0.0040738971900713735 -0.0019055952646988539 0 0.004518623916425624 -0.0012880450952752838 0 0.0043559664426785797 -0.0020683432972689211 0 0.0046224703344314062 -0.002297275093757517 0 0.0055465329697523174 -0.002383221480045764 0 0.0050476948686558575 -0.0027920103477597213 0 0.0045495161004789324 -0.0012730290753241692 0 0.0046224703344314062 -0.002297275093757517 0 0.0055689174128510984 -0.0017477552087375881 0 0.0055689174128510984 -0.0017477552087375881 0 0.0055465329697523174 -0.002383221480045764 0 0.0061051574354074158 -0.0021008469501950732 0 0.0046224703344314062 -0.002297275093757517 0 0.0055689174128510984 -0.0017477552087375881 0 0.0055465329697523174 -0.002383221480045764 0 0.0055465329697523174 -0.002383221480045764 0 0.0062279110044360462 -0.0024742776556866608 0 0.0061051574354074158 -0.0021008469501950732 0 0.0064909599249634124 -0.0017179087094963373 0 0.0055689174128510984 -0.0017477552087375881 0 0.0061051574354074158 -0.0021008469501950732 0 0.0064909599249634124 -0.0017179087094963373 0 0.0061051574354074158 -0.0021008469501950732 0 0.0068721930194646577 -0.0021501592913027627 0 0.0055886328491759878 -0.003155336743667326 0 0.0058304262600721831 -0.0034775588609173734 0 0.0060434617774423049 -0.0031239798360387511 0 0.0055886328491759878 -0.003155336743667326 0 0.0051696862034233777 -0.0030870950799474165 0 0.0052318257692105016 -0.0032981048936786468 0 0.0055886328491759878 -0.003155336743667326 0 0.0057344557410057622 -0.0028190303342225265 0 0.0051696862034233777 -0.0030870950799474165 0 0.0055886328491759878 -0.003155336743667326 0 0.0057344557410057622 -0.0028190303342225265 0 0.0060434617774423049 -0.0031239798360387511 0 0.0057344557410057622 -0.0028190303342225265 0 0.0063813990193520853 -0.0028296807238792779 0 0.0060434617774423049 -0.0031239798360387511 0 0.0055465329697523174 -0.002383221480045764 0 0.0062279110044360462 -0.0024742776556866608 0 0.0057344557410057622 -0.0028190303342225265 0 0.0062279110044360462 -0.0024742776556866608 0 0.0057344557410057622 -0.0028190303342225265 0 0.0063813990193520853 -0.0028296807238792779 0 0.0055465329697523174 -0.002383221480045764 0 0.0057344557410057622 -0.0028190303342225265 0 0.0050476948686558575 -0.0027920103477597213 0 0.0050476948686558575 -0.0027920103477597213 0 0.0051696862034233777 -0.0030870950799474165 0 0.0046357973680000849 -0.003118570034302564 0 0.0057344557410057622 -0.0028190303342225265 0 0.0050476948686558575 -0.0027920103477597213 0 0.0051696862034233777 -0.0030870950799474165 0 0.0050476948686558575 -0.0027920103477597213 0 0.0044923515732903391 -0.0029244540471530761 0 0.0046357973680000849 -0.003118570034302564 0 0.0046224703344314062 -0.002297275093757517 0 0.0050476948686558575 -0.0027920103477597213 0 0.0044923515732903391 -0.0029244540471530761 0 0.0043559664426785797 -0.0020683432972689211 0 0.0041561644727572166 -0.0027058096260978498 0 0.0040738971900713735 -0.0019055952646988539 0 0.0038454199277969535 -0.0024436375212637464 0 0.0035164766425756257 -0.0023092902523321368 0 0.0038454199277969535 -0.0024436375212637464 0 0.0035164766425756257 -0.0023092902523321368 0 0.0033830356641588238 -0.0027282360775804904 0 0.003911411515897697 -0.0032339729123806449 0 0.0033830356641588238 -0.0027282360775804904 0 0.0032389546162569388 -0.0032478383509880649 0 0.0038454199277969535 -0.0024436375212637464 0 0.003911411515897697 -0.0032339729123806449 0 0.0033830356641588238 -0.0027282360775804904 0 0.0041561644727572166 -0.0027058096260978498 0 0.0039521808946694882 -0.0032416129725691832 0 0.003911411515897697 -0.0032339729123806449 0 0.0032389546162569388 -0.0032478383509880649 0 0.0035965712415177552 -0.0036028559380921811 0 0.003911411515897697 -0.0032339729123806449 0 0.0035965712415177552 -0.0036028559380921811 0 0.0040762178754305579 -0.0036088485962574635 0 0.003911411515897697 -0.0032339729123806449 0 0.0044305121051869496 -0.0033551006192269993 0 0.0040762178754305579 -0.0036088485962574635 0 0.0044305121051869496 -0.0033551006192269993 0 0.0045205446897003954 -0.0035355444624048634 0 0.0040762178754305579 -0.0036088485962574635 0 0.003911411515897697 -0.0032339729123806449 0 0.0044305121051869496 -0.0033551006192269993 0 0.0046357973680000849 -0.003118570034302564 0 0.0044923515732903391 -0.0029244540471530761 0 0.003911411515897697 -0.0032339729123806449 0 0.0046357973680000849 -0.003118570034302564 0 0.0044305121051869496 -0.0033551006192269993 0 0.0046357973680000849 -0.003118570034302564 0 0.004824241225044424 -0.0032863154129898512 0 0.0051696862034233777 -0.0030870950799474165 0 0.0046357973680000849 -0.003118570034302564 0 0.004824241225044424 -0.0032863154129898512 0 0.0051696862034233777 -0.0030870950799474165 0 0.004824241225044424 -0.0032863154129898512 0 0.0052318257692105016 -0.0032981048936786468 0 0.004824241225044424 -0.0032863154129898512 0 0.0048729336051506061 -0.0034218176965796856 0 0.0052318257692105016 -0.0032981048936786468 0 0.004824241225044424 -0.0032863154129898512 0 0.0046637028992304909 -0.0034110200270336369 0 0.0048729336051506061 -0.0034218176965796856 0 0.0044305121051869496 -0.0033551006192269993 0 0.004824241225044424 -0.0032863154129898512 0 0.0046637028992304909 -0.0034110200270336369 0 0.0044305121051869496 -0.0033551006192269993 0 0.0046637028992304909 -0.0034110200270336369 0 0.0045205446897003954 -0.0035355444624048634 0 0.0045205446897003954 -0.0035355444624048634 0 0.0047307528717146219 -0.0034761817063898889 0 0.0046384178887222422 -0.0036239989248022142 0 0.0045205446897003954 -0.0035355444624048634 0 0.0047064202940307843 -0.0034822489826914133 0 0.0047307528717146219 -0.0034761817063898889 0 0.0046637028992304909 -0.0034110200270336369 0 0.0045205446897003954 -0.0035355444624048634 0 0.0047064202940307843 -0.0034822489826914133 0 0.0046637028992304909 -0.0034110200270336369 0 0.0047064202940307843 -0.0034822489826914133 0 0.0048729336051506061 -0.0034218176965796856 0 0.0047064202940307843 -0.0034822489826914133 0 0.0048729336051506061 -0.0034218176965796856 0 0.0053439952255666442 -0.0034964638357782817 0 0.0045942166410077364 -0.0034953591358994835 0 0.0057439019085443943 -0.0030222776317904445 0 0.0047064202940307843 -0.0034822489826914133 0 0.0048486779953106889 -0.0033719752115278522 0 0.0048800308575453078 -0.0031959036568323922 0 0.0047064202940307843 -0.0034822489826914133 0 0.0047307528717146219 -0.0034761817063898889 0 0.0048486779953106889 -0.0033719752115278522 0 0.0047307528717146219 -0.0034761817063898889 0 0.0048486779953106889 -0.0033719752115278522 0 0.0046384178887222422 -0.0036239989248022142 0 0.0048486779953106889 -0.0033719752115278522 0 0.0048800308575453078 -0.0031959036568323922 0 0.0050931939966601912 -0.0030437587629988105 0 0.0050075314969111216 -0.0034209819062253435 0 0.0056637324594111449 -0.0031534376161802382 0 0.0048729336051506061 -0.0034218176965796856 0 0.0052318257692105016 -0.0032981048936786468 0 0.0058304262600721831 -0.0034775588609173734 0 0.0048729336051506061 -0.0034218176965796856 0 0.0053439952255666442 -0.0034964638357782817 0 0.0054616386573469967 -0.0029063419833831321 0 0.0055886328491759878 -0.003155336743667326 0 0.0052318257692105016 -0.0032981048936786468 0 0.0058304262600721831 -0.0034775588609173734 0 0.002545147257406565 -0.0025522182375849974 0 0.0022950912185022241 -0.0026695179429318278 0 0.0024388241589978375 -0.0023338561088565306 0 0.002545147257406565 -0.0025522182375849974 0 0.0022039046300490681 -0.0026275890913283412 0 0.0025660384562700873 -0.0027865782747678348 0 0.0025569131942406523 -0.0024460691338090744 0 0.0015453633583017629 -0.0016783521973058708 0 0.0015453633583017629 -0.0016783521973058708 0 0.0016222658817433208 -0.0018593671370261515 0 0.0011428040094819119 -0.0013510509398030064 0 0.0011033720591339875 -0.0012475021847541119 0 0.0010536340575995906 -0.0012627500896659671 0 0.0025595617661473545 -0.0019131391234214119 0 0.0020426987563387242 -0.0022039498981543978 0 0.0024388241589978375 -0.0023338561088565306 0 0.0022950912185022241 -0.0026695179429318278 0 0.0020426987563387242 -0.0022039498981543978 0 0.0024388241589978375 -0.0023338561088565306 0 0.002545147257406565 -0.0025522182375849974 0 0.0027543772369215853 -0.0022408185188025867 0 0.0024388241589978375 -0.0023338561088565306 0 0.0025595617661473545 -0.0019131391234214119 0 0.0027543772369215853 -0.0022408185188025867 0 0.0024388241589978375 -0.0023338561088565306 0 0.0032195594583037581 -0.0020903139206597567 0 0.0027543772369215853 -0.0022408185188025867 0 0.0029872901399197959 -0.0025161744136322126 0 0.0032195594583037581 -0.0020903139206597567 0 0.0040738971900713735 -0.0019055952646988539 0 0.0035164766425756257 -0.0023092902523321368 0 0.0032195594583037581 -0.0020903139206597567 0 0.0035164766425756257 -0.0023092902523321368 0 0.0029872901399197959 -0.0025161744136322126 0 0.0029872901399197959 -0.0025161744136322126 0 0.0033830356641588238 -0.0027282360775804904 0 0.0029477978190211186 -0.002873381001228512 0 0.0035164766425756257 -0.0023092902523321368 0 0.0029872901399197959 -0.0025161744136322126 0 0.0033830356641588238 -0.0027282360775804904 0 0.002545147257406565 -0.0025522182375849974 0 0.0029872901399197959 -0.0025161744136322126 0 0.0025660384562700873 -0.0027865782747678348 0 0.002545147257406565 -0.0025522182375849974 0 0.0027543772369215853 -0.0022408185188025867 0 0.0029872901399197959 -0.0025161744136322126 0 0.0029872901399197959 -0.0025161744136322126 0 0.0025660384562700873 -0.0027865782747678348 0 0.0029477978190211186 -0.002873381001228512 0 0.0025660384562700873 -0.0027865782747678348 0 0.0029477978190211186 -0.002873381001228512 0 0.002555091147802108 -0.0030762524613364242 0 0.0033830356641588238 -0.0027282360775804904 0 0.0029477978190211186 -0.002873381001228512 0 0.0032389546162569388 -0.0032478383509880649 0 0.0029477978190211186 -0.002873381001228512 0 0.0032389546162569388 -0.0032478383509880649 0 0.002555091147802108 -0.0030762524613364242 0 0.0032389546162569388 -0.0032478383509880649 0 0.002555091147802108 -0.0030762524613364242 0 0.0028367633481047876 -0.0035327507939434876 0 0.0020888114390993561 -0.0030294818886993677 0 0.0015683702057408305 -0.0013021555890020157 0 0.00045981718352928379 -0.0025342385839546579 0 0.0021157399805622908 -0.0029300695355701433 0 0.0018650376037274137 -0.0020555411252994754 0 0.002555091147802108 -0.0030762524613364242 0 0.0020888114390993561 -0.0030294818886993677 0 0.0022498424499429229 -0.0028955968894027861 0 0.0025660384562700873 -0.0027865782747678348 0 0.002555091147802108 -0.0030762524613364242 0 0.0022498424499429229 -0.0028955968894027861 0 0.0022039046300490681 -0.0026275890913283412 0 0.0025660384562700873 -0.0027865782747678348 0 0.0022498424499429229 -0.0028955968894027861 0 0.0015453633583017629 -0.0016783521973058708 0 0.0018650376037274137 -0.0020555411252994754 0 0.00096280821448205191 0.00023065147642926064 0 0.00011879230724684052 -0.0011707941161305446 0 -0.001194091015841634 -0.00050038150008016005 0 0.0015453633583017629 -0.0016783521973058708 0 -8.7416432438859709e-05 -0.00089695782608506123 0 0.00096280821448205191 0.00023065147642926064 0 0.0015683702057408305 -0.0013021555890020157 0 0.00011879230724684052 -0.0011707941161305446 0 0.0015683702057408305 -0.0013021555890020157 0 0.00011879230724684052 -0.0011707941161305446 0 0.00045981718352928379 -0.0025342385839546579 0 0.00045981718352928379 -0.0025342385839546579 0 -0.00077284220857643633 -0.0026708400739000795 0 -0.0012849625745684949 -0.0016202113579191167 0 0.00011879230724684052 -0.0011707941161305446 0 0.00045981718352928379 -0.0025342385839546579 0 -0.0012849625745684949 -0.0016202113579191167 0 -0.00077284220857643633 -0.0026708400739000795 0 -0.0021914371320451548 -0.0017980328749443977 0 -0.0012470206640962883 -0.0037854000364220233 0 -0.00077284220857643633 -0.0026708400739000795 0 -0.0012849625745684949 -0.0016202113579191167 0 -0.0021914371320451548 -0.0017980328749443977 0 -0.0021914371320451548 -0.0017980328749443977 0 -0.0034333732739957453 -0.0016917249018191536 0 -0.0012470206640962883 -0.0037854000364220233 0 -0.0021914371320451548 -0.0017980328749443977 0 -0.0032785774244873276 -0.0014272847207061428 0 -0.0034333732739957453 -0.0016917249018191536 0 0.00034901616689818527 -0.0012726312912311776 0 0.00051022984259653059 -0.00087776220221186317 0 0.00088174744318612289 -0.00091986701730593652 0 -0.001414221121659879 -0.0012855260779333947 0 -8.7416432438859709e-05 -0.00089695782608506123 0 -0.0021914371320451548 -0.0017980328749443977 0 -0.0032785774244873276 -0.0014272847207061428 0 -0.0013152410096652248 -0.00041924695732262787 0 0.00034901616689818527 -0.0012726312912311776 0 0.00051022984259653059 -0.00087776220221186317 0 0.00012229857549864336 -0.000712212189689708 0 0.00011879230724684052 -0.0011707941161305446 0 -0.0012849625745684949 -0.0016202113579191167 0 -0.001194091015841634 -0.00050038150008016005 0 -0.0012849625745684949 -0.0016202113579191167 0 -0.0021914371320451548 -0.0017980328749443977 0 -0.0013152410096652248 -0.00041924695732262787 0 -0.001021324733428022 -0.0013437991627546508 0 -8.7416432438859709e-05 -0.00089695782608506123 0 -8.7416432438859709e-05 -0.00089695782608506123 0 0.0011061662803523956 -0.00086990010123283446 0 0.0011428040094819119 -0.0013510509398030064 0 0.0010389792690991267 -0.0013818908005174583 0 0.0010536340575995906 -0.0012627500896659671 0 0.00088174744318612289 -0.00091986701730593652 0 0.00053527186334456547 -0.00058560360655448857 0 0.00090962993066551938 -0.00043585363889970434 0 0.00051022984259653059 -0.00087776220221186317 0 0.00088174744318612289 -0.00091986701730593652 0 0.00053527186334456547 -0.00058560360655448857 0 0.00051022984259653059 -0.00087776220221186317 0 0.00053527186334456547 -0.00058560360655448857 0 0.00012229857549864336 -0.000712212189689708 0 0.00090962993066551938 -0.00043585363889970434 0 0.00079401358215043397 -0.00044736763589605787 0 0.0010551865832367584 -0.00051831548283262185 0 0.00053527186334456547 -0.00058560360655448857 0 0.00090962993066551938 -0.00043585363889970434 0 0.00079401358215043397 -0.00044736763589605787 0 0.000144687571832085 -0.00050232507506431639 0 0.00069157468356259913 -0.00040304003988988015 0 0.0011209534381173105 -0.00048947026889535898 0 0.00053527186334456547 -0.00058560360655448857 0 0.00079401358215043397 -0.00044736763589605787 0 0.000144687571832085 -0.00050232507506431639 0 0.00079401358215043397 -0.00044736763589605787 0 0.000144687571832085 -0.00050232507506431639 0 0.0011209534381173105 -0.00048947026889535898 0 0.00053527186334456547 -0.00058560360655448857 0 0.000144687571832085 -0.00050232507506431639 0 0.00012229857549864336 -0.000712212189689708 0 0.000144687571832085 -0.00050232507506431639 0 0.00012229857549864336 -0.000712212189689708 0 -0.00058326618359772224 -0.0008748029425650431 0 0.000144687571832085 -0.00050232507506431639 0 -0.00079700803415022061 -0.00087046833536703937 0 -7.1436962467243272e-05 -0.00060762676028540451 0 0.000144687571832085 -0.00050232507506431639 0 -7.1436962467243272e-05 -0.00060762676028540451 0 0.00069157468356259913 -0.00040304003988988015 0 0.000144687571832085 -0.00050232507506431639 0 -0.00079700803415022061 -0.00087046833536703937 0 -0.00058326618359772224 -0.0008748029425650431 0 -0.00079700803415022061 -0.00087046833536703937 0 -0.0018493938455349491 -0.0014694232859249663 0 -0.0012967082272147237 -0.0009541138932750476 0 -0.00079700803415022061 -0.00087046833536703937 0 -0.00058326618359772224 -0.0008748029425650431 0 -0.0018493938455349491 -0.0014694232859249663 0 0.00034901616689818527 -0.0012726312912311776 0 -0.00058326618359772224 -0.0008748029425650431 0 -0.0018493938455349491 -0.0014694232859249663 0 0.00034901616689818527 -0.0012726312912311776 0 0.00012229857549864336 -0.000712212189689708 0 -0.00058326618359772224 -0.0008748029425650431 0 -0.0034333732739957453 -0.0016917249018191536 0 -0.0018493938455349491 -0.0014694232859249663 0 -0.0033654771169087791 -0.00097245992655193431 0 -0.001414221121659879 -0.0012855260779333947 0 -0.0017478224362195453 -0.0014420128117968365 0 -0.0032785774244873276 -0.0014272847207061428 0 -0.0034333732739957453 -0.0016917249018191536 0 -0.0018493938455349491 -0.0014694232859249663 0 -0.0034333732739957453 -0.0016917249018191536 0 -0.0043686570827101735 -0.0010810796580417244 0 -0.0033654771169087791 -0.00097245992655193431 0 -0.0018493938455349491 -0.0014694232859249663 0 -0.0012967082272147237 -0.0009541138932750476 0 -0.0024570672812565292 -0.00096372701247665626 0 -0.0018493938455349491 -0.0014694232859249663 0 -0.0033654771169087791 -0.00097245992655193431 0 -0.0024570672812565292 -0.00096372701247665626 0 -0.0012967082272147237 -0.0009541138932750476 0 -0.00105652590369093 -0.00074592070910554302 0 -0.00019853086514290335 -0.00059361121103090387 0 -0.0012967082272147237 -0.0009541138932750476 0 -0.00105652590369093 -0.00074592070910554302 0 -0.002198109496212298 -0.00070120167441112247 0 -0.0012967082272147237 -0.0009541138932750476 0 -0.0024570672812565292 -0.00096372701247665626 0 -0.002198109496212298 -0.00070120167441112247 0 -0.00105652590369093 -0.00074592070910554302 0 -0.00025919920181796192 -0.00055895933984270989 0 -0.0013596235096005609 -0.00050465459124208187 0 -0.00105652590369093 -0.00074592070910554302 0 -0.00019853086514290335 -0.00059361121103090387 0 -0.00025919920181796192 -0.00055895933984270989 0 -0.00019853086514290335 -0.00059361121103090387 0 -0.00025919920181796192 -0.00055895933984270989 0 0.0012780085660994468 -0.00012509791625190379 0 -0.00079700803415022061 -0.00087046833536703937 0 -0.00019853086514290335 -0.00059361121103090387 0 -7.1436962467243272e-05 -0.00060762676028540451 0 -0.00079700803415022061 -0.00087046833536703937 0 -0.0012967082272147237 -0.0009541138932750476 0 -0.00019853086514290335 -0.00059361121103090387 0 -5.6932730503977746e-05 7.79510916753412e-05 0 0.0015060783406536519 -1.4139297891142566e-07 0 -0.00057436036943323769 5.0897821949684729e-07 0 -0.00010060908508290525 -0.00023111265786094202 0 0.0009917159893239819 -0.00020604941800051387 0 -5.6932730503977746e-05 7.79510916753412e-05 0 0.0015060783406536519 -1.4139297891142566e-07 0 0.0012780085660994468 -0.00012509791625190379 0 0.0015060783406536519 -1.4139297891142566e-07 0 0.0012780085660994468 -0.00012509791625190379 0 0.00358847753421688 6.2051023451323186e-07 0 0.0027369838443163166 -0.00010384076128501666 0 0.0012277724973206246 -0.00025500270682569514 0 0.0019189203412572843 -0.00031320198383368876 0 0.0012780085660994468 -0.00012509791625190379 0 0.0027369838443163166 -0.00010384076128501666 0 0.0012277724973206246 -0.00025500270682569514 0 0.0012780085660994468 -0.00012509791625190379 0 0.0027369838443163166 -0.00010384076128501666 0 0.00358847753421688 6.2051023451323186e-07 0 -0.00019853086514290335 -0.00059361121103090387 0 -7.1436962467243272e-05 -0.00060762676028540451 0 0.00069157468356259913 -0.00040304003988988015 0 -0.00019853086514290335 -0.00059361121103090387 0 0.0012780085660994468 -0.00012509791625190379 0 0.0012277724973206246 -0.00025500270682569514 0 -0.00019853086514290335 -0.00059361121103090387 0 0.0012277724973206246 -0.00025500270682569514 0 0.00069157468356259913 -0.00040304003988988015 0 0.0012277724973206246 -0.00025500270682569514 0 0.00069157468356259913 -0.00040304003988988015 0 0.0019189203412572843 -0.00031320198383368876 0 0.00069157468356259913 -0.00040304003988988015 0 0.0013602770939332004 -0.00044870992719758275 0 0.0019189203412572843 -0.00031320198383368876 0 0.00069157468356259913 -0.00040304003988988015 0 0.0013602770939332004 -0.00044870992719758275 0 0.0011209534381173105 -0.00048947026889535898 0 0.0013602770939332004 -0.00044870992719758275 0 0.0020489564031964782 -0.00058383599375245001 0 0.0011209534381173105 -0.00048947026889535898 0 0.0013602770939332004 -0.00044870992719758275 0 0.0019189203412572843 -0.00031320198383368876 0 0.0020489564031964782 -0.00058383599375245001 0 0.0019189203412572843 -0.00031320198383368876 0 0.0020489564031964782 -0.00058383599375245001 0 0.0032872750667649144 -0.00042064188962494432 0 0.0020489564031964782 -0.00058383599375245001 0 0.0018049619723513827 -0.00086805102465394187 0 0.0011209534381173105 -0.00048947026889535898 0 0.0027369838443163166 -0.00010384076128501666 0 0.0032872750667649144 -0.00042064188962494432 0 0.0056643055798878458 -2.6838700753529682e-06 0 0.0027369838443163166 -0.00010384076128501666 0 0.00358847753421688 6.2051023451323186e-07 0 0.0056643055798878458 -2.6838700753529682e-06 0 0.0027369838443163166 -0.00010384076128501666 0 0.0019189203412572843 -0.00031320198383368876 0 0.0032872750667649144 -0.00042064188962494432 0 0.0020489564031964782 -0.00058383599375245001 0 0.0032872750667649144 -0.00042064188962494432 0 0.0037580331168695722 -0.001046634208581781 0 0.0032872750667649144 -0.00042064188962494432 0 0.0041524920521835325 -0.00073815368267521417 0 0.0037580331168695722 -0.001046634208581781 0 0.0056643055798878458 -2.6838700753529682e-06 0 0.0041524920521835325 -0.00073815368267521417 0 0.0042084474271059285 -0.0010916668893710595 0 0.0032872750667649144 -0.00042064188962494432 0 0.0056643055798878458 -2.6838700753529682e-06 0 0.0041524920521835325 -0.00073815368267521417 0 0.0056700310514156138 3.0045461545513079e-07 0 0.0061163977928680819 -0.00037791859792203495 0 0.0056702998047754947 -2.0466248542869298e-07 0 0.0073702277715522674 -1.2227044047956078e-07 0 0.0078345849623566999 -5.0087895184945721e-06 0 0.0041524920521835325 -0.00073815368267521417 0 0.0042084474271059285 -0.0010916668893710595 0 0.0037580331168695722 -0.001046634208581781 0 0.0042084474271059285 -0.0010916668893710595 0 0.0037580331168695722 -0.001046634208581781 0 0.0048255319761964415 -0.00041791839657906828 0 0.0037580331168695722 -0.001046634208581781 0 0.0048255319761964415 -0.00041791839657906828 0 0.005873278115187737 -1.871200799586385e-06 0 0.0052810577941839638 0.00039586235339971701 0 0.0042084474271059285 -0.0010916668893710595 0 0.0048255319761964415 -0.00041791839657906828 0 0.0092933441834553189 0.00033117322737774194 0 0.0090690989242457644 6.1292614182069165e-07 0 0.0078345849623566999 -5.0087895184945721e-06 0 0.0090690989242457644 6.1292614182069165e-07 0 0.0073702277715522674 -1.2227044047956078e-07 0 0.0078345849623566999 -5.0087895184945721e-06 0 0.007227173663093567 0.00024561762087907326 0 0.0061163977928680819 -0.00037791859792203495 0 0.0018049619723513827 -0.00086805102465394187 0 0.0022715193100148871 -0.0010564596750993792 0 0.0021431686022539936 -0.0010819934212328436 0 0.0020489564031964782 -0.00058383599375245001 0 0.0018049619723513827 -0.00086805102465394187 0 0.0022715193100148871 -0.0010564596750993792 0 0.0020489564031964782 -0.00058383599375245001 0 0.0037580331168695722 -0.001046634208581781 0 0.0022715193100148871 -0.0010564596750993792 0 0.0038687836117317059 -0.00093691113827187053 0 0.0041009048422404153 -0.00059323978137293756 0 0.0037580331168695722 -0.001046634208581781 0 0.0022715193100148871 -0.0010564596750993792 0 0.0023791839075390283 -0.0013174646426836077 0 0.0055487392990675498 0.00017707417982872496 0 0.0048255319761964415 -0.00041791839657906828 0 0.005873278115187737 -1.871200799586385e-06 0 0.0022715193100148871 -0.0010564596750993792 0 0.0023791839075390283 -0.0013174646426836077 0 0.0021431686022539936 -0.0010819934212328436 0 0.0023002897198146324 -0.0008968863634764364 0 0.0021431686022539936 -0.0010819934212328436 0 0.0018506352036304532 -0.00083213285787334644 0 0.0018049619723513827 -0.00086805102465394187 0 0.0021431686022539936 -0.0010819934212328436 0 0.0018506352036304532 -0.00083213285787334644 0 0.0018049619723513827 -0.00086805102465394187 0 0.0015235070838603786 -0.00074545755408649363 0 0.0018506352036304532 -0.00083213285787334644 0 0.0015235070838603786 -0.00074545755408649363 0 0.0018506352036304532 -0.00083213285787334644 0 0.0015871818836661975 -0.00075626904836879828 0 0.0015235070838603786 -0.00074545755408649363 0 0.0015871818836661975 -0.00075626904836879828 0 0.0013838619451521767 -0.0007183245127696321 0 0.0018506352036304532 -0.00083213285787334644 0 0.0017918505412129592 -0.0007019016020224434 0 0.0015871818836661975 -0.00075626904836879828 0 0.0023002897198146324 -0.0008968863634764364 0 0.0018506352036304532 -0.00083213285787334644 0 0.0017918505412129592 -0.0007019016020224434 0 0.0016150347292659194 -0.00048063912810924483 0 0.0017918505412129592 -0.0007019016020224434 0 0.0015980489913147464 -0.00069435659021006358 0 0.0017918505412129592 -0.0007019016020224434 0 0.0015980489913147464 -0.00069435659021006358 0 0.0015871818836661975 -0.00075626904836879828 0 0.0016150347292659194 -0.00048063912810924483 0 0.0019059362120591133 -0.00065396590029731679 0 0.0015980489913147464 -0.00069435659021006358 0 0.0019059362120591133 -0.00065396590029731679 0 0.0015980489913147464 -0.00069435659021006358 0 0.0016095924821156399 -0.00087023555889664047 0 0.0016095924821156399 -0.00087023555889664047 0 0.0013975794445459323 -0.00078984457766853502 0 0.0012822961105775402 -0.00075248509225470995 0 0.0015980489913147464 -0.00069435659021006358 0 0.0016095924821156399 -0.00087023555889664047 0 0.0014943604837523482 -0.00078203730999383103 0 0.0016095924821156399 -0.00087023555889664047 0 0.0013975794445459323 -0.00078984457766853502 0 0.0014943604837523482 -0.00078203730999383103 0 0.0015980489913147464 -0.00069435659021006358 0 0.0015871818836661975 -0.00075626904836879828 0 0.0014943604837523482 -0.00078203730999383103 0 0.0013975794445459323 -0.00078984457766853502 0 0.0014943604837523482 -0.00078203730999383103 0 0.0013838619451521767 -0.0007183245127696321 0 0.0015871818836661975 -0.00075626904836879828 0 0.0014943604837523482 -0.00078203730999383103 0 0.0013838619451521767 -0.0007183245127696321 0 0.0013838619451521767 -0.0007183245127696321 0 0.0012416801606740075 -0.0006437498375000643 0 0.001175081002695902 -0.00057865301639603182 0 0.0013975794445459323 -0.00078984457766853502 0 0.0013838619451521767 -0.0007183245127696321 0 0.0012416801606740075 -0.0006437498375000643 0 0.0012416801606740075 -0.0006437498375000643 0 0.0011248467707720214 -0.00061342675577415998 0 0.0010551865832367584 -0.00051831548283262185 0 0.0012416801606740075 -0.0006437498375000643 0 0.0010551865832367584 -0.00051831548283262185 0 0.001175081002695902 -0.00057865301639603182 0 0.0015876900937024949 -0.00090657679920516383 0 0.0012931999995190154 -0.0010269886283816123 0 0.0019945882125252693 -0.0013181334815400905 0 0.0016095924821156399 -0.00087023555889664047 0 0.0016634879178494661 -0.0015733376270241279 0 0.0012734553128898056 -0.00072536110337362975 0 0.0012931999995190154 -0.0010269886283816123 0 0.0013975794445459323 -0.00078984457766853502 0 0.0012416801606740075 -0.0006437498375000643 0 0.0011248467707720214 -0.00061342675577415998 0 0.0021410612720553545 -0.0017588751135892734 0 0.0019945882125252693 -0.0013181334815400905 0 0.0016634879178494661 -0.0015733376270241279 0 0.0021410612720553545 -0.0017588751135892734 0 0.0020426987563387242 -0.0022039498981543978 0 0.0016634879178494661 -0.0015733376270241279 0 0.0011033720591339875 -0.0012475021847541119 0 0.0010536340575995906 -0.0012627500896659671 0 0.0010652654951596684 -0.0011424813382500309 0 0.0011061662803523956 -0.00086990010123283446 0 0.0012931999995190154 -0.0010269886283816123 0 0.00090962993066551938 -0.00043585363889970434 0 0.0011248467707720214 -0.00061342675577415998 0 0.0010551865832367584 -0.00051831548283262185 0 0.0016222658817433208 -0.0018593671370261515 0 0.0012931999995190154 -0.0010269886283816123 0 0.00079401358215043397 -0.00044736763589605787 0 0.0010551865832367584 -0.00051831548283262185 0 0.001175081002695902 -0.00057865301639603182 0 0.00079401358215043397 -0.00044736763589605787 0 0.0011209534381173105 -0.00048947026889535898 0 0.001175081002695902 -0.00057865301639603182 0 0.0018049619723513827 -0.00086805102465394187 0 0.0015235070838603786 -0.00074545755408649363 0 0.0011209534381173105 -0.00048947026889535898 0 0.0015235070838603786 -0.00074545755408649363 0 0.0011209534381173105 -0.00048947026889535898 0 0.001175081002695902 -0.00057865301639603182 0 0.0015235070838603786 -0.00074545755408649363 0 0.0013838619451521767 -0.0007183245127696321 0 0.001175081002695902 -0.00057865301639603182 0 0.0023012522889842924 -0.0029406725263000145 0 0.0020463789434474258 -0.0028399441631172875 0 0.0031090209306346575 -0.0025372303889267208 0 0.0023012522889842924 -0.0029406725263000145 0 0.0028087350235352381 -0.0028666856331281804 0 0.0031090209306346575 -0.0025372303889267208 0 0.0027860738048115382 -0.0025477263398326218 0 0.0031807581796528704 -0.0024933109242112335 0 0.0035685740756711171 -0.0026969436092168252 0 0.0028087350235352381 -0.0028666856331281804 0 0.0037262413623569066 -0.003363864188477385 0 0.0035685740756711171 -0.0026969436092168252 0 0.0028087350235352381 -0.0028666856331281804 0 0.0031090209306346575 -0.0025372303889267208 0 0.0019991268040689498 -0.00310203835356392 0 0.00029638749137904407 -0.0031612194186327307 0 0.00080002094144770585 -0.0023491741763869479 0 0.0028087350235352381 -0.0028666856331281804 0 0.0019991268040689498 -0.00310203835356392 0 0.0037262413623569066 -0.003363864188477385 0 0.0020108311673573032 -0.0031353468315535133 0 0.002173414458706275 -0.0032375305519628575 0 0.0023012522889842924 -0.0029406725263000145 0 0.0028087350235352381 -0.0028666856331281804 0 0.0019991268040689498 -0.00310203835356392 0 0.0023012522889842924 -0.0029406725263000145 0 0.0019991268040689498 -0.00310203835356392 0 0.0020187198573286148 -0.0027421453377926529 0 0.0019991268040689498 -0.00310203835356392 0 0.0020187198573286148 -0.0027421453377926529 0 0.0016494772244395933 -0.0023607792547971976 0 0.0020187198573286148 -0.0027421453377926529 0 0.0022163494852276392 -0.0027184566407842375 0 0.0021794102073563475 -0.0024266535823033275 0 0.0020187198573286148 -0.0027421453377926529 0 0.0021234140357005039 -0.0028429167588544003 0 0.0022163494852276392 -0.0027184566407842375 0 0.0021234140357005039 -0.0028429167588544003 0 0.0022163494852276392 -0.0027184566407842375 0 0.0020463789434474258 -0.0028399441631172875 0 0.0023012522889842924 -0.0029406725263000145 0 0.0020187198573286148 -0.0027421453377926529 0 0.0021234140357005039 -0.0028429167588544003 0 0.0022163494852276392 -0.0027184566407842375 0 0.0024086546632108457 -0.0027433101394560341 0 0.0020463789434474258 -0.0028399441631172875 0 0.0023951336037449072 -0.002583020803483947 0 0.0022163494852276392 -0.0027184566407842375 0 0.0024086546632108457 -0.0027433101394560341 0 0.0023951336037449072 -0.002583020803483947 0 0.0022163494852276392 -0.0027184566407842375 0 0.0021794102073563475 -0.0024266535823033275 0 0.0042516185165312435 -0.0023025796579787482 0 0.0039052724436013258 -0.0021150700729326874 0 0.0047558334453007634 -0.0017803225748001775 0 0.0027860738048115382 -0.0025477263398326218 0 0.0046020154593431617 -0.0021060772320092291 0 0.0024086546632108457 -0.0027433101394560341 0 0.0020463789434474258 -0.0028399441631172875 0 0.0025811486343824191 -0.0028305703207655219 0 0.0042516185165312435 -0.0023025796579787482 0 0.0047558334453007634 -0.0017803225748001775 0 0.0045488712357042568 -0.0023746626952311383 0 0.0023012522889842924 -0.0029406725263000145 0 0.0021234140357005039 -0.0028429167588544003 0 0.0020463789434474258 -0.0028399441631172875 0 0.0039052724436013258 -0.0021150700729326874 0 0.0040275367080480516 -0.0025081674916452249 0 0.0034997457633762709 -0.002523883548743474 0 0.0040275367080480516 -0.0025081674916452249 0 0.0042528971580672991 -0.0029396598615931378 0 0.0034997457633762709 -0.002523883548743474 0 0.0035517877337578408 -0.0025105027043689828 0 0.0035201724212869665 -0.0025210430663681208 0 0.0034997457633762709 -0.002523883548743474 0 0.004645842806436852 -0.0021424788007956886 0 0.0032750405943732649 -0.0026527495907970608 0 0.0042803784443479166 -0.0026287540098750934 0 0.0043402077289744568 -0.0029873727646068347 0 0.0045488712357042568 -0.0023746626952311383 0 0.0073549193422261568 -0.0022906911320721567 0 0.0059674902729164488 -0.0023149734075926954 0 0.0042516185165312435 -0.0023025796579787482 0 0.0042803784443479166 -0.0026287540098750934 0 0.0045488712357042568 -0.0023746626952311383 0 0.0042516185165312435 -0.0023025796579787482 0 0.0039052724436013258 -0.0021150700729326874 0 0.0040275367080480516 -0.0025081674916452249 0 0.0042516185165312435 -0.0023025796579787482 0 0.0040275367080480516 -0.0025081674916452249 0 0.0042803784443479166 -0.0026287540098750934 0 0.0040275367080480516 -0.0025081674916452249 0 0.0042803784443479166 -0.0026287540098750934 0 0.0042528971580672991 -0.0029396598615931378 0 0.0042803784443479166 -0.0026287540098750934 0 0.0043402077289744568 -0.0029873727646068347 0 0.0042528971580672991 -0.0029396598615931378 0 0.0073549193422261568 -0.0022906911320721567 0 0.004645842806436852 -0.0021424788007956886 0 0.0034775998980970577 -0.0024837444371568857 0 0.0034808092731553426 -0.0024891791245237765 0 0.0034836228491274797 -0.0024516372695383157 0 0.0034808092731553426 -0.0024891791245237765 0 0.0035078717393880474 -0.0024654591288978222 0 0.0034836228491274797 -0.0024516372695383157 0 0.0073549193422261568 -0.0022906911320721567 0 0.0082575933928768237 -0.0022491053363815103 0 0.010779822931322134 -0.0014791227042430378 0 0.010782454931330693 -0.0014957962953369404 0 0.010786967468950857 -0.0014938915086714427 0 0.0034808092731553426 -0.0024891791245237765 0 0.0035201724212869665 -0.0025210430663681208 0 0.0035078717393880474 -0.0024654591288978222 0 0.004645842806436852 -0.0021424788007956886 0 0.0032423098138516294 -0.0023970372826054502 0 0.0035201724212869665 -0.0025210430663681208 0 0.0035078717393880474 -0.0024654591288978222 0 0.0035422011412339699 -0.0024883596481126299 0 0.0035201724212869665 -0.0025210430663681208 0 0.0035422011412339699 -0.0024883596481126299 0 0.0034802843964457423 -0.0025658805814928404 0 0.0035422011412339699 -0.0024883596481126299 0 0.0036069480250861779 -0.0025044386325304806 0 0.0037070257721474706 -0.0024098735964471715 0 0.0036069480250861779 -0.0025044386325304806 0 0.0034802843964457423 -0.0025658805814928404 0 0.0035961329249744136 -0.0025203078879381243 0 0.0035422011412339699 -0.0024883596481126299 0 0.0036069480250861779 -0.0025044386325304806 0 0.0034802843964457423 -0.0025658805814928404 0 0.0039052724436013258 -0.0021150700729326874 0 0.0034997457633762709 -0.002523883548743474 0 0.0031090209306346575 -0.0025372303889267208 0 0.0035201724212869665 -0.0025210430663681208 0 0.0034802843964457423 -0.0025658805814928404 0 0.0034997457633762709 -0.002523883548743474 0 0.0034802843964457423 -0.0025658805814928404 0 0.0031090209306346575 -0.0025372303889267208 0 0.0035961329249744136 -0.0025203078879381243 0 0.0034802843964457423 -0.0025658805814928404 0 0.0034997457633762709 -0.002523883548743474 0 0.0031090209306346575 -0.0025372303889267208 0 0.0035685740756711171 -0.0026969436092168252 0 0.0031090209306346575 -0.0025372303889267208 0 0.0038026080204065084 -0.0025288301926379188 0 0.0031090209306346575 -0.0025372303889267208 0 0.0038026080204065084 -0.0025288301926379188 0 0.0035961329249744136 -0.0025203078879381243 0 0.0038026080204065084 -0.0025288301926379188 0 0.0035961329249744136 -0.0025203078879381243 0 0.0039381085380788307 -0.0024523304793071079 0 0.0036069480250861779 -0.0025044386325304806 0 0.0035961329249744136 -0.0025203078879381243 0 0.0039381085380788307 -0.0024523304793071079 0 0.0036069480250861779 -0.0025044386325304806 0 0.0039381085380788307 -0.0024523304793071079 0 0.0037070257721474706 -0.0024098735964471715 0 0.0038026080204065084 -0.0025288301926379188 0 0.0039381085380788307 -0.0024523304793071079 0 0.0043138871816517915 -0.0024501780144497521 0 0.0043138871816517915 -0.0024501780144497521 0 0.0046303031179988673 -0.0023842158082514205 0 0.0041081007409859514 -0.0025481181863419391 0 0.0038026080204065084 -0.0025288301926379188 0 0.0043138871816517915 -0.0024501780144497521 0 0.0041081007409859514 -0.0025481181863419391 0 0.0043138871816517915 -0.0024501780144497521 0 0.0046303031179988673 -0.0023842158082514205 0 0.0049367607948232785 -0.0023494219571517897 0 0.0046303031179988673 -0.0023842158082514205 0 0.0044710796687066441 -0.0025262483291330091 0 0.0047084866972401341 -0.0024211954963614152 0 0.0046303031179988673 -0.0023842158082514205 0 0.0047084866972401341 -0.0024211954963614152 0 0.0047077114342179271 -0.0023510189907437963 0 0.0046303031179988673 -0.0023842158082514205 0 0.0044710796687066441 -0.0025262483291330091 0 0.0041081007409859514 -0.0025481181863419391 0 0.0044710796687066441 -0.0025262483291330091 0 0.0047343399273273015 -0.0027720017904432881 0 0.0044757775223329722 -0.0028092242237737455 0 0.0044710796687066441 -0.0025262483291330091 0 0.0041439922757226626 -0.0028443281989679707 0 0.0044757775223329722 -0.0028092242237737455 0 0.0035685740756711171 -0.0026969436092168252 0 0.0041081007409859514 -0.0025481181863419391 0 0.0041439922757226626 -0.0028443281989679707 0 0.0044710796687066441 -0.0025262483291330091 0 0.0041081007409859514 -0.0025481181863419391 0 0.0041439922757226626 -0.0028443281989679707 0 0.0035685740756711171 -0.0026969436092168252 0 0.0038026080204065084 -0.0025288301926379188 0 0.0041081007409859514 -0.0025481181863419391 0 0.0063706315585385278 -0.0018495157969306791 0 0.0060908852535619994 -0.0023003590757875877 0 0.0066454885469478878 -0.0022527277712889437 0 0.0094247547243187253 -0.0027312196860895255 0 0.004395399072326305 -0.0024001634485305554 0 0.0044710796687066441 -0.0025262483291330091 0 0.0047084866972401341 -0.0024211954963614152 0 0.0048616549324846884 -0.0025514667724583794 0 0.0049551742755711324 -0.002382794840807351 0 0.0047084866972401341 -0.0024211954963614152 0 0.0048616549324846884 -0.0025514667724583794 0 0.0044710796687066441 -0.0025262483291330091 0 0.0048150579884596685 -0.002579578745807826 0 0.0048729120044329636 -0.0025213890702689727 0 0.0046898937264813357 -0.002554823926694524 0 0.004395399072326305 -0.0024001634485305554 0 0.0044710796687066441 -0.0025262483291330091 0 0.0047343399273273015 -0.0027720017904432881 0 0.0048150579884596685 -0.002579578745807826 0 0.0029619875067394552 -0.0020081623203727084 0 0.004395399072326305 -0.0024001634485305554 0 0.0010976293496298046 -0.0013867863612624335 0 0.001486504177715789 -0.00068163264349099741 0 0.0015457966096487402 -0.001291201627319554 0 0.0047343399273273015 -0.0027720017904432881 0 0.0048150579884596685 -0.002579578745807826 0 0.0048751856813136572 -0.0025121180427189736 0 0.0045539466679305066 -0.0023816963053934475 0 0.004395399072326305 -0.0024001634485305554 0 0.004395399072326305 -0.0024001634485305554 0 0.0040314248989161703 -0.0014194280569559329 0 0.001486504177715789 -0.00068163264349099741 0 0.0019793720892378438 -0.0012177635071792814 0 0.002350794748901321 -0.0005684725640001067 0 0.001486504177715789 -0.00068163264349099741 0 0.0015457966096487402 -0.001291201627319554 0 0.0019793720892378438 -0.0012177635071792814 0 0.0019793720892378438 -0.0012177635071792814 0 0.0016185863294935331 -0.0018685345347453591 0 0.002538298872855854 -0.0017147536304263442 0 0.0011602947783495026 -0.0019531239259988631 0 0.002511080158336676 -0.0017104347331051521 0 0.001076459360751524 -0.0019808801105304381 0 0.0016072524413388079 -0.0031610006752240956 0 0.002538298872855854 -0.0017147536304263442 0 0.0015457966096487402 -0.001291201627319554 0 0.0019793720892378438 -0.0012177635071792814 0 0.0016185863294935331 -0.0018685345347453591 0 0.001076459360751524 -0.0019808801105304381 0 0.00029052409254710319 -0.0025817390422560984 0 -0.00025748177313388189 -0.0023697313018993145 0 0.0010976293496298046 -0.0013867863612624335 0 0.0016185863294935331 -0.0018685345347453591 0 0.00071506460380297871 -0.002061767342913226 0 0.0011602947783495026 -0.0019531239259988631 0 0.0013508808172744639 -0.0024180744665719431 0 0.0010976293496298046 -0.0013867863612624335 0 0.0015457966096487402 -0.001291201627319554 0 0.0016185863294935331 -0.0018685345347453591 0 0.0029619875067394552 -0.0020081623203727084 0 0.0013508808172744639 -0.0024180744665719431 0 0.00029052409254710319 -0.0025817390422560984 0 0.0016072524413388079 -0.0031610006752240956 0 -0.00041865149764029521 -0.002810688482220517 0 -0.0013431606355649697 -0.002304155624638335 0 -0.00041865149764029521 -0.002810688482220517 0 -0.00072793330526938491 -0.0023723299614447145 0 0.00013631057022596663 -0.0027371401482227209 0 -0.00036445591840685964 -0.0027953675051149833 0 0.001076459360751524 -0.0019808801105304381 0 0.00029052409254710319 -0.0025817390422560984 0 0.0016072524413388079 -0.0031610006752240956 0 0.0035685740756711171 -0.0026969436092168252 0 0.0041439922757226626 -0.0028443281989679707 0 0.0037262413623569066 -0.003363864188477385 0 0.0041439922757226626 -0.0028443281989679707 0 0.0045566851934582464 -0.0031996793146217227 0 0.0037262413623569066 -0.003363864188477385 0 0.0041439922757226626 -0.0028443281989679707 0 0.0044757775223329722 -0.0028092242237737455 0 0.0045566851934582464 -0.0031996793146217227 0 0.0047343399273273015 -0.0027720017904432881 0 0.0044757775223329722 -0.0028092242237737455 0 0.0045566851934582464 -0.0031996793146217227 0 0.0013508808172744639 -0.0024180744665719431 0 0.002173414458706275 -0.0032375305519628575 0 -8.7012020678847984e-05 -0.0028494853259643229 0 -0.00040892256800671489 -0.0027486468521478735 0 -0.00041865149764029521 -0.002810688482220517 0 -0.00049652658343153394 -0.0028373200726937234 0 -8.7012020678847984e-05 -0.0028494853259643229 0 0.00029638749137904407 -0.0031612194186327307 0 -0.00049652658343153394 -0.0028373200726937234 0 -8.7012020678847984e-05 -0.0028494853259643229 0 -0.00040892256800671489 -0.0027486468521478735 0 0.00029052409254710319 -0.0025817390422560984 0 -0.00040892256800671489 -0.0027486468521478735 0 -0.00041865149764029521 -0.002810688482220517 0 0.00029052409254710319 -0.0025817390422560984 0 -0.00025748177313388189 -0.0023697313018993145 0 -0.00040892256800671489 -0.0027486468521478735 0 0.0013508808172744639 -0.0024180744665719431 0 0.00075278183139677185 -0.0028534902469545143 0 -0.00041865149764029521 -0.002810688482220517 0 -0.00032153190168461533 -0.0025681050301596064 0 -0.00072793330526938491 -0.0023723299614447145 0 -8.7012020678847984e-05 -0.0028494853259643229 0 -0.00041865149764029521 -0.002810688482220517 0 -0.00032153190168461533 -0.0025681050301596064 0 -8.7012020678847984e-05 -0.0028494853259643229 0 -0.00032153190168461533 -0.0025681050301596064 0 3.8680170947709953e-06 -0.0024548080212565713 0 -8.7012020678847984e-05 -0.0028494853259643229 0 0.00029638749137904407 -0.0031612194186327307 0 3.8680170947709953e-06 -0.0024548080212565713 0 0.00029638749137904407 -0.0031612194186327307 0 3.8680170947709953e-06 -0.0024548080212565713 0 0.00080002094144770585 -0.0023491741763869479 0 3.8680170947709953e-06 -0.0024548080212565713 0 0.00017266247866063518 -0.0018756777790679671 0 0.00080002094144770585 -0.0023491741763869479 0 3.8680170947709953e-06 -0.0024548080212565713 0 -0.00026527642521048851 -0.0020504476194826132 0 0.00017266247866063518 -0.0018756777790679671 0 3.8680170947709953e-06 -0.0024548080212565713 0 -0.00038777867451980142 -0.0023058898515607596 0 -0.00026527642521048851 -0.0020504476194826132 0 -0.00032153190168461533 -0.0025681050301596064 0 3.8680170947709953e-06 -0.0024548080212565713 0 -0.00038777867451980142 -0.0023058898515607596 0 -0.00032153190168461533 -0.0025681050301596064 0 -0.00038777867451980142 -0.0023058898515607596 0 -0.00072793330526938491 -0.0023723299614447145 0 -0.00038777867451980142 -0.0023058898515607596 0 -0.00058795340941592575 -0.0019361620070163621 0 -0.00026527642521048851 -0.0020504476194826132 0 -0.00038777867451980142 -0.0023058898515607596 0 -0.00058795340941592575 -0.0019361620070163621 0 -0.00072592007653251764 -0.0021019536826308977 0 -0.00026527642521048851 -0.0020504476194826132 0 -0.00050103057526333888 -0.001644256731515288 0 0.00017266247866063518 -0.0018756777790679671 0 -0.00058795340941592575 -0.0019361620070163621 0 -0.00050103057526333888 -0.001644256731515288 0 -0.00090269004070768835 -0.0017257397155498698 0 -0.00058795340941592575 -0.0019361620070163621 0 -0.00026527642521048851 -0.0020504476194826132 0 -0.00050103057526333888 -0.001644256731515288 0 -0.00050103057526333888 -0.001644256731515288 0 -0.00078464694745090165 -0.0014548210226840938 0 -0.00065572157067364674 -0.0011865092345651571 0 -0.00050103057526333888 -0.001644256731515288 0 0.00017266247866063518 -0.0018756777790679671 0 -5.8173033551047777e-05 -0.0013581611860125737 0 0.00017266247866063518 -0.0018756777790679671 0 -5.8173033551047777e-05 -0.0013581611860125737 0 0.00053288146448246022 -0.0013571675202020269 0 -0.0013431606355649697 -0.002304155624638335 0 -0.0011489300676949456 -0.0020256604229998156 0 -0.00072793330526938491 -0.0023723299614447145 0 -0.0013431606355649697 -0.002304155624638335 0 -0.0011489300676949456 -0.0020256604229998156 0 -0.0015076569616954056 -0.0016971156781793837 0 -0.0011489300676949456 -0.0020256604229998156 0 -0.00072592007653251764 -0.0021019536826308977 0 -0.00090269004070768835 -0.0017257397155498698 0 -0.0011489300676949456 -0.0020256604229998156 0 -0.00072793330526938491 -0.0023723299614447145 0 -0.00072592007653251764 -0.0021019536826308977 0 -0.00038777867451980142 -0.0023058898515607596 0 -0.00072793330526938491 -0.0023723299614447145 0 -0.00072592007653251764 -0.0021019536826308977 0 -0.00058795340941592575 -0.0019361620070163621 0 -0.00072592007653251764 -0.0021019536826308977 0 -0.00090269004070768835 -0.0017257397155498698 0 -0.00090269004070768835 -0.0017257397155498698 0 -0.00078464694745090165 -0.0014548210226840938 0 -0.0010585439340617027 -0.0012748190718809016 0 -0.00090269004070768835 -0.0017257397155498698 0 -0.0012073647388733189 -0.0015625772941425305 0 -0.0010585439340617027 -0.0012748190718809016 0 -0.0011489300676949456 -0.0020256604229998156 0 -0.00090269004070768835 -0.0017257397155498698 0 -0.0012073647388733189 -0.0015625772941425305 0 -0.00050103057526333888 -0.001644256731515288 0 -0.00090269004070768835 -0.0017257397155498698 0 -0.00078464694745090165 -0.0014548210226840938 0 -0.0011489300676949456 -0.0020256604229998156 0 -0.0012073647388733189 -0.0015625772941425305 0 -0.0015076569616954056 -0.0016971156781793837 0 -0.0012073647388733189 -0.0015625772941425305 0 -0.0013683166990238495 -0.0011420497108621023 0 -0.0015076569616954056 -0.0016971156781793837 0 -0.0012073647388733189 -0.0015625772941425305 0 -0.0013683166990238495 -0.0011420497108621023 0 -0.0010585439340617027 -0.0012748190718809016 0 -0.0013683166990238495 -0.0011420497108621023 0 -0.0010585439340617027 -0.0012748190718809016 0 -0.0012363148092659341 -0.0009920627945956969 0 -0.0010585439340617027 -0.0012748190718809016 0 -0.0011162474711073926 -0.00089582890164605587 0 -0.0012363148092659341 -0.0009920627945956969 0 -0.00078464694745090165 -0.0014548210226840938 0 -0.0010585439340617027 -0.0012748190718809016 0 -0.00065572157067364674 -0.0011865092345651571 0 -0.0010585439340617027 -0.0012748190718809016 0 -0.0011162474711073926 -0.00089582890164605587 0 -0.00065572157067364674 -0.0011865092345651571 0 -0.0011162474711073926 -0.00089582890164605587 0 -0.00065572157067364674 -0.0011865092345651571 0 -0.00074534686593908154 -0.00057292099516129721 0 -0.0011162474711073926 -0.00089582890164605587 0 -0.00074534686593908154 -0.00057292099516129721 0 -0.0011623016506312066 -0.00045744173612551043 0 -0.0011162474711073926 -0.00089582890164605587 0 -0.0015523573465338698 -0.00048988672133586954 0 -0.0011623016506312066 -0.00045744173612551043 0 -0.0013066823300431842 -0.00080287157588432431 0 -0.0016716914396199003 -0.0011742862075781871 0 -0.001340807132915146 -0.00072275895484896877 0 -0.0013683166990238495 -0.0011420497108621023 0 -0.0013066823300431842 -0.00080287157588432431 0 -0.0016716914396199003 -0.0011742862075781871 0 -0.0013683166990238495 -0.0011420497108621023 0 -0.0012363148092659341 -0.0009920627945956969 0 -0.0013066823300431842 -0.00080287157588432431 0 -0.0011162474711073926 -0.00089582890164605587 0 -0.0012363148092659341 -0.0009920627945956969 0 -0.0013066823300431842 -0.00080287157588432431 0 -0.0011162474711073926 -0.00089582890164605587 0 -0.0013066823300431842 -0.00080287157588432431 0 -0.0013067759227621055 -0.00077769778842725896 0 -0.0011338217788728698 -0.00091856809522742624 0 -0.0019690522329802707 -0.00095472828049878507 0 -0.0019376630284719564 -0.00092129923961047858 0 -0.0019690522329802707 -0.00095472828049878507 0 -5.8173033551047777e-05 -0.0013581611860125737 0 0.00014743996391814568 -0.00087192378786687594 0 0.00053288146448246022 -0.0013571675202020269 0 -5.8173033551047777e-05 -0.0013581611860125737 0 -0.00032499694712271487 -0.00087216554483480232 0 0.00014743996391814568 -0.00087192378786687594 0 -5.8173033551047777e-05 -0.0013581611860125737 0 -0.00065572157067364674 -0.0011865092345651571 0 -0.00032499694712271487 -0.00087216554483480232 0 -0.00050103057526333888 -0.001644256731515288 0 -5.8173033551047777e-05 -0.0013581611860125737 0 -0.00065572157067364674 -0.0011865092345651571 0 -0.00074534686593908154 -0.00057292099516129721 0 -0.00029356260698097615 -0.00041717471084280939 0 -0.00032499694712271487 -0.00087216554483480232 0 -0.00065572157067364674 -0.0011865092345651571 0 -0.00074534686593908154 -0.00057292099516129721 0 -0.00032499694712271487 -0.00087216554483480232 0 -0.00029356260698097615 -0.00041717471084280939 0 -0.00032499694712271487 -0.00087216554483480232 0 0.00014743996391814568 -0.00087192378786687594 0 -0.00029356260698097615 -0.00041717471084280939 0 0.00014743996391814568 -0.00087192378786687594 0 0.0001956647825648157 -0.00019898020289432899 0 0.00014743996391814568 -0.00087192378786687594 0 0.00083427798667896826 -0.001043874948278966 0 0.0001956647825648157 -0.00019898020289432899 0 0.00082034726704790725 -0.00041826080892128472 0 0.00083427798667896826 -0.001043874948278966 0 0.0001956647825648157 -0.00019898020289432899 0 0.00083427798667896826 -0.001043874948278966 0 0.0012720895042756363 -0.0017138287475093248 0 0.0015442624858701334 -0.0013982193572939124 0 0.00083427798667896826 -0.001043874948278966 0 0.00053288146448246022 -0.0013571675202020269 0 0.0012720895042756363 -0.0017138287475093248 0 0.00082034726704790725 -0.00041826080892128472 0 0.00083427798667896826 -0.001043874948278966 0 0.0015442624858701334 -0.0013982193572939124 0 0.00014743996391814568 -0.00087192378786687594 0 0.00083427798667896826 -0.001043874948278966 0 0.00053288146448246022 -0.0013571675202020269 0 0.00017266247866063518 -0.0018756777790679671 0 0.00053288146448246022 -0.0013571675202020269 0 0.00092451442418252719 -0.0019017706898787447 0 0.00053288146448246022 -0.0013571675202020269 0 0.00092451442418252719 -0.0019017706898787447 0 0.0012720895042756363 -0.0017138287475093248 0 0.00092451442418252719 -0.0019017706898787447 0 0.0012720895042756363 -0.0017138287475093248 0 0.0016494772244395933 -0.0023607792547971976 0 0.0012720895042756363 -0.0017138287475093248 0 0.0016494772244395933 -0.0023607792547971976 0 0.0018321935429283878 -0.0021372468018709834 0 0.0020187198573286148 -0.0027421453377926529 0 0.0016494772244395933 -0.0023607792547971976 0 0.0018321935429283878 -0.0021372468018709834 0 0.0019991268040689498 -0.00310203835356392 0 0.0016494772244395933 -0.0023607792547971976 0 0.00080002094144770585 -0.0023491741763869479 0 0.00092451442418252719 -0.0019017706898787447 0 0.0016494772244395933 -0.0023607792547971976 0 0.00080002094144770585 -0.0023491741763869479 0 0.00017266247866063518 -0.0018756777790679671 0 0.00092451442418252719 -0.0019017706898787447 0 0.00080002094144770585 -0.0023491741763869479 0 0.0021794102073563475 -0.0024266535823033275 0 0.0020920111258322517 -0.0019658953384453881 0 0.0025318969504126289 -0.002296750828330231 0 0.0023951336037449072 -0.002583020803483947 0 0.0021794102073563475 -0.0024266535823033275 0 0.0025318969504126289 -0.002296750828330231 0 0.0020187198573286148 -0.0027421453377926529 0 0.0021794102073563475 -0.0024266535823033275 0 0.0018321935429283878 -0.0021372468018709834 0 0.0021794102073563475 -0.0024266535823033275 0 0.0018321935429283878 -0.0021372468018709834 0 0.0020920111258322517 -0.0019658953384453881 0 0.0018321935429283878 -0.0021372468018709834 0 0.0020920111258322517 -0.0019658953384453881 0 0.0015442624858701334 -0.0013982193572939124 0 0.0012720895042756363 -0.0017138287475093248 0 0.0018321935429283878 -0.0021372468018709834 0 0.0015442624858701334 -0.0013982193572939124 0 0.0012728990382981948 -0.00067043378098404481 0 0.0010348683336286865 -0.0011760160609273927 0 0.0020920111258322517 -0.0019658953384453881 0 0.0022534738801000508 -0.0014265982806511291 0 0.0025318969504126289 -0.002296750828330231 0 0.0020920111258322517 -0.0019658953384453881 0 0.0022534738801000508 -0.0014265982806511291 0 0.0015442624858701334 -0.0013982193572939124 0 0.00021308574330046085 0.00019300419839033225 0 0.00028534670647363942 -0.0003096935798706993 0 0.00043141303008939995 4.4921124318923278e-05 0 0.0022534738801000508 -0.0014265982806511291 0 0.0015442624858701334 -0.0013982193572939124 0 0.0015730873000363837 -0.0004352173049500658 0 0.0012728990382981948 -0.00067043378098404481 0 0.00088572671716719215 1.4177166607436079e-05 0 0.00082034726704790725 -0.00041826080892128472 0 0.0015442624858701334 -0.0013982193572939124 0 0.0015730873000363837 -0.0004352173049500658 0 0.00021308574330046085 0.00019300419839033225 0 0.00024699388951078815 0.00052921647392868774 0 0.00036382900938736201 0.00046807440086303842 0 0.00013469182599022984 0.00011366664784485452 0 0.00030026138982816613 -5.6818219993541874e-05 0 0.00031280574307335441 9.1828084723769506e-05 0 0.00013469182599022984 0.00011366664784485452 0 0.00030026138982816613 -5.6818219993541874e-05 0 0.0002663373868097759 -0.0001805237355095906 0 0.00024798227511133974 0.00028920618708853273 0 0.00034392506316669727 -6.7725625883783311e-05 0 0.00021308574330046085 0.00019300419839033225 0 0.00036382900938736201 0.00046807440086303842 0 0.00043141303008939995 4.4921124318923278e-05 0 0.00030026138982816613 -5.6818219993541874e-05 0 0.00043996187421563163 -3.8695426636683394e-05 0 0.00045026346409910323 -0.00032424272176885018 0 0.00030026138982816613 -5.6818219993541874e-05 0 0.00043996187421563163 -3.8695426636683394e-05 0 0.00031280574307335441 9.1828084723769506e-05 0 0.00043996187421563163 -3.8695426636683394e-05 0 0.00052589150532703923 0.0003035344610524073 0 0.00035914217344923453 0.00024543808066963092 0 0.00013469182599022984 0.00011366664784485452 0 0.00031280574307335441 9.1828084723769506e-05 0 0.00035914217344923453 0.00024543808066963092 0 0.00043996187421563163 -3.8695426636683394e-05 0 0.00031280574307335441 9.1828084723769506e-05 0 0.00035914217344923453 0.00024543808066963092 0 0.0076446832009764215 -0.0028944224381416074 0 0.007374531918955967 -0.0032468851939822995 0 0.0077291587917154674 -0.0034462470160748571 0 0.0077201783455013908 -0.0028756851995554119 0 0.0047590968979336016 -0.0017388290544749416 0 0.007661445154956802 -0.0021911724445766775 0 0.0075958827808004321 -0.0022317974343485829 0 0.0075811752346669368 -0.0022830743783898398 0 0.0039822681442692473 -0.00098427751640162067 0 0.0047590968979336016 -0.0017388290544749416 0 0.0076446832009764215 -0.0028944224381416074 0 0.0070636120114166805 -0.0029034604729012551 0 0.007374531918955967 -0.0032468851939822995 0 0.0070636120114166805 -0.0029034604729012551 0 0.007374531918955967 -0.0032468851939822995 0 0.00689619219452315 -0.0034298002456224956 0 0.0070636120114166805 -0.0029034604729012551 0 0.0075684513467138117 -0.0022421569559686687 0 0.0065934168670934842 -0.0023273561935746082 0 0.0076446832009764215 -0.0028944224381416074 0 0.0070636120114166805 -0.0029034604729012551 0 0.0075684513467138117 -0.0022421569559686687 0 0.0075684513467138117 -0.0022421569559686687 0 0.0075826551699076407 -0.002047335485354834 0 0.0065934168670934842 -0.0023273561935746082 0 0.0077201783455013908 -0.0028756851995554119 0 0.0075273031136705191 -0.0021619146135270842 0 0.0075958827808004321 -0.0022317974343485829 0 0.0076175675359098083 -0.0022087292360387363 0 0.0075684513467138117 -0.0022421569559686687 0 0.007661445154956802 -0.0021911724445766775 0 0.0075958827808004321 -0.0022317974343485829 0 0.0076175675359098083 -0.0022087292360387363 0 0.0076175675359098083 -0.0022087292360387363 0 0.0075684513467138117 -0.0022421569559686687 0 0.007634463915356801 -0.0021303998791173465 0 0.007661445154956802 -0.0021911724445766775 0 0.0076175675359098083 -0.0022087292360387363 0 0.007634463915356801 -0.0021303998791173465 0 0.007661445154956802 -0.0021911724445766775 0 0.007634463915356801 -0.0021303998791173465 0 0.0076608848733368783 -0.0020694054874735002 0 0.007634463915356801 -0.0021303998791173465 0 0.0076388418876374847 -0.0020379013514557243 0 0.0076608848733368783 -0.0020694054874735002 0 0.007634463915356801 -0.0021303998791173465 0 0.0076388418876374847 -0.0020379013514557243 0 0.0075826551699076407 -0.002047335485354834 0 0.0075684513467138117 -0.0022421569559686687 0 0.007634463915356801 -0.0021303998791173465 0 0.0075826551699076407 -0.002047335485354834 0 0.0076388418876374847 -0.0020379013514557243 0 0.0076608848733368783 -0.0020694054874735002 0 0.0076639363073808808 -0.0020328063111235061 0 0.0075826551699076407 -0.002047335485354834 0 0.0076691322755728193 -0.0020452346813572583 0 0.0077238302112015754 -0.0020607909795245598 0 0.0075534873544498352 -0.0020637124059726094 0 0.0071625857669526689 -0.0022189228558492985 0 0.0075826551699076407 -0.002047335485354834 0 0.0077252925257284425 -0.0021011284649957657 0 0.0077238302112015754 -0.0020607909795245598 0 0.0076388418876374847 -0.0020379013514557243 0 0.0075826551699076407 -0.002047335485354834 0 0.0076691322755728193 -0.0020452346813572583 0 0.0076388418876374847 -0.0020379013514557243 0 0.0076691322755728193 -0.0020452346813572583 0 0.0076880204055722262 -0.0020326824287373838 0 0.0077486369885753584 -0.0020349935546433735 0 0.0077182717594013409 -0.0020377258780728586 0 0.0077238302112015754 -0.0020607909795245598 0 0.0076691322755728193 -0.0020452346813572583 0 0.0077182717594013409 -0.0020377258780728586 0 0.0077238302112015754 -0.0020607909795245598 0 0.0077486369885753584 -0.0020349935546433735 0 0.0077182717594013409 -0.0020377258780728586 0 0.0077543783423997571 -0.002025394984927857 0 0.0076880204055722262 -0.0020326824287373838 0 0.0077292328371019754 -0.0020238676144281468 0 0.0076884386657022578 -0.002022003581787397 0 0.0077182717594013409 -0.0020377258780728586 0 0.0076880204055722262 -0.0020326824287373838 0 0.0077292328371019754 -0.0020238676144281468 0 0.0076691322755728193 -0.0020452346813572583 0 0.0077182717594013409 -0.0020377258780728586 0 0.0076880204055722262 -0.0020326824287373838 0 0.0077348496240456201 -0.0020168001597874637 0 0.0077292328371019754 -0.0020238676144281468 0 0.0077892379838620769 -0.0020138423650874907 0 0.0077348496240456201 -0.0020168001597874637 0 0.0077292328371019754 -0.0020238676144281468 0 0.0076884386657022578 -0.002022003581787397 0 0.0077292328371019754 -0.0020238676144281468 0 0.0077543783423997571 -0.002025394984927857 0 0.0077892379838620769 -0.0020138423650874907 0 0.0077182717594013409 -0.0020377258780728586 0 0.0077292328371019754 -0.0020238676144281468 0 0.0077543783423997571 -0.002025394984927857 0 0.0077543783423997571 -0.002025394984927857 0 0.0077828529219896572 -0.002019508803050689 0 0.0077892379838620769 -0.0020138423650874907 0 0.0077486369885753584 -0.0020349935546433735 0 0.0077543783423997571 -0.002025394984927857 0 0.0077828529219896572 -0.002019508803050689 0 0.0076639363073808808 -0.0020328063111235061 0 0.0076884386657022578 -0.002022003581787397 0 0.0076733955942045297 -0.0020147860199275069 0 0.0076608848733368783 -0.0020694054874735002 0 0.0076639363073808808 -0.0020328063111235061 0 0.0076733955942045297 -0.0020147860199275069 0 0.0076388418876374847 -0.0020379013514557243 0 0.0076639363073808808 -0.0020328063111235061 0 0.0076884386657022578 -0.002022003581787397 0 0.0076388418876374847 -0.0020379013514557243 0 0.0076880204055722262 -0.0020326824287373838 0 0.0076884386657022578 -0.002022003581787397 0 0.0077348496240456201 -0.0020168001597874637 0 0.0076884386657022578 -0.002022003581787397 0 0.0077064284065516036 -0.0020129115242639405 0 0.0076884386657022578 -0.002022003581787397 0 0.0076733955942045297 -0.0020147860199275069 0 0.0077064284065516036 -0.0020129115242639405 0 0.0076733955942045297 -0.0020147860199275069 0 0.0076571678052142463 -0.002016203029033888 0 0.0076516294864623488 -0.0020162764717425868 0 0.0076608848733368783 -0.0020694054874735002 0 0.0076733955942045297 -0.0020147860199275069 0 0.0076807463451090815 -0.0020222103652154559 0 0.0076733955942045297 -0.0020147860199275069 0 0.0076807463451090815 -0.0020222103652154559 0 0.0076571678052142463 -0.002016203029033888 0 0.0076807463451090815 -0.0020222103652154559 0 0.0076571678052142463 -0.002016203029033888 0 0.0076166670248083842 -0.0020148098810047303 0 0.0039725645739997961 -0.0011429227431092115 0 0.0047865862642055695 -0.0017773200336577662 0 0.00045026346409910323 -0.00032424272176885018 0 0.00039045257273242763 -0.00047552903314337745 0 0.0002663373868097759 -0.0001805237355095906 0 0.00039045257273242763 -0.00047552903314337745 0 0.00028534670647363942 -0.0003096935798706993 0 0.00043141303008939995 4.4921124318923278e-05 0 0.00039045257273242763 -0.00047552903314337745 0 0.00028534670647363942 -0.0003096935798706993 0 0.00045313794568751804 -0.00069221286865360032 0 0.00045026346409910323 -0.00032424272176885018 0 0.00039045257273242763 -0.00047552903314337745 0 0.00045313794568751804 -0.00069221286865360032 0 0.00038490499628652408 -0.00044142930610137127 0 0.00034392506316669727 -6.7725625883783311e-05 0 0.00030026138982816613 -5.6818219993541874e-05 0 0.00045026346409910323 -0.00032424272176885018 0 0.0002663373868097759 -0.0001805237355095906 0 0.0039822681442692473 -0.00098427751640162067 0 0.0039725645739997961 -0.0011429227431092115 0 0.007661445154956802 -0.0021911724445766775 0 0.0076608848733368783 -0.0020694054874735002 0 0.0076807463451090815 -0.0020222103652154559 0 0.0071124463352366784 -0.0024130770802662125 0 0.0072509097971586401 -0.0023788246092344189 0 0.0073821098628456972 -0.002134409937050448 0 0.0057439019085443943 -0.0030222776317904445 0 0.0067852787416341799 -0.0023430830603160713 0 0.0053439952255666442 -0.0034964638357782817 0 0.0054616386573469967 -0.0029063419833831321 0 0.0060816421725204415 -0.0026778981883528031 0 0.0057439019085443943 -0.0030222776317904445 0 0.0061956542029636798 -0.0027361544709535866 0 0.0048486779953106889 -0.0033719752115278522 0 0.0050931939966601912 -0.0030437587629988105 0 0.0051766879672536046 -0.0034025131678751962 0 0.0050931939966601912 -0.0030437587629988105 0 0.0051766879672536046 -0.0034025131678751962 0 0.005407479724252642 -0.0031196347878747277 0 0.0050931939966601912 -0.0030437587629988105 0 0.005407479724252642 -0.0031196347878747277 0 0.0057870291639608362 -0.0026713508654861474 0 0.005407479724252642 -0.0031196347878747277 0 0.0055924005034269164 -0.0033430165662511014 0 0.0057870291639608362 -0.0026713508654861474 0 0.0051766879672536046 -0.0034025131678751962 0 0.005407479724252642 -0.0031196347878747277 0 0.0055924005034269164 -0.0033430165662511014 0 0.0075683812562062991 -0.0022483050878984059 0 0.007549716051631376 -0.0021044572611410473 0 0.0073821098628456972 -0.002134409937050448 0 0.0061956542029636798 -0.0027361544709535866 0 0.0066774116146177242 -0.0024559412286149205 0 0.0072509097971586401 -0.0023788246092344189 0 0.0075683812562062991 -0.0022483050878984059 0 0.0073821098628456972 -0.002134409937050448 0 0.0057870291639608362 -0.0026713508654861474 0 0.0062363263930834282 -0.0031818200580086648 0 0.0065934168670934842 -0.0023273561935746082 0 0.0075683812562062991 -0.0022483050878984059 0 0.0077252925257284425 -0.0021011284649957657 0 0.0076505017339880289 -0.0020801454356786206 0 0.0066774116146177242 -0.0024559412286149205 0 0.0071625857669526689 -0.0022189228558492985 0 0.0055924005034269164 -0.0033430165662511014 0 0.0057870291639608362 -0.0026713508654861474 0 0.0062363263930834282 -0.0031818200580086648 0 0.0070636120114166805 -0.0029034604729012551 0 0.0062363263930834282 -0.0031818200580086648 0 0.0065934168670934842 -0.0023273561935746082 0 0.0070636120114166805 -0.0029034604729012551 0 0.0062363263930834282 -0.0031818200580086648 0 0.00689619219452315 -0.0034298002456224956 0 0.0077252925257284425 -0.0021011284649957657 0 0.0077238302112015754 -0.0020607909795245598 0 0.0077143882208812325 -0.0020480401883811949 0 0.0077238302112015754 -0.0020607909795245598 0 0.0077522330380786954 -0.0020323816079122776 0 0.0077143882208812325 -0.0020480401883811949 0 0.0077486369885753584 -0.0020349935546433735 0 0.0077238302112015754 -0.0020607909795245598 0 0.0077522330380786954 -0.0020323816079122776 0 0.0077486369885753584 -0.0020349935546433735 0 0.0077522330380786954 -0.0020323816079122776 0 0.0077828529219896572 -0.002019508803050689 0 0.0077522330380786954 -0.0020323816079122776 0 0.0077942349064300098 -0.0020136405960633412 0 0.0077828529219896572 -0.002019508803050689 0 0.0077417224410137146 -0.0020214495685596501 0 0.0077120004379282493 -0.0019808012132199199 0 0.0077778012772587082 -0.0020065803935439808 0 0.0077942349064300098 -0.0020136405960633412 0 0.0077417224410137146 -0.0020214495685596501 0 0.0077778012772587082 -0.0020065803935439808 0 0.0077522330380786954 -0.0020323816079122776 0 0.0077942349064300098 -0.0020136405960633412 0 0.0077417224410137146 -0.0020214495685596501 0 0.0077522330380786954 -0.0020323816079122776 0 0.0077417224410137146 -0.0020214495685596501 0 0.0077143882208812325 -0.0020480401883811949 0 0.0077417224410137146 -0.0020214495685596501 0 0.0077143882208812325 -0.0020480401883811949 0 0.0076847333197350926 -0.0020227849859538833 0 0.007461852449243832 -0.0028943623699381701 0 0.0076648431647398279 -0.0023578673879070542 0 0.0078962472273311768 -0.0025021314419418957 0 0.0077143882208812325 -0.0020480401883811949 0 0.0076847333197350926 -0.0020227849859538833 0 0.0076505017339880289 -0.0020801454356786206 0 0.0077417224410137146 -0.0020214495685596501 0 0.0076847333197350926 -0.0020227849859538833 0 0.0077120004379282493 -0.0019808012132199199 0 0.0076847333197350926 -0.0020227849859538833 0 0.0075983118933564938 -0.0020010106804570884 0 0.0077120004379282493 -0.0019808012132199199 0 0.007470191955839982 -0.0021532825442311452 0 0.0080110205568917365 -0.0021839792988222954 0 0.0082309026302893815 -0.001855534079171738 0 0.0081472942065258687 -0.0019088118236692019 0 0.0081760880457102322 -0.0019164089428141636 0 0.007470191955839982 -0.0021532825442311452 0 0.0079897241875805068 -0.0019045083473305587 0 0.0076847333197350926 -0.0020227849859538833 0 0.0076505017339880289 -0.0020801454356786206 0 0.0075983118933564938 -0.0020010106804570884 0 0.0077252925257284425 -0.0021011284649957657 0 0.0077143882208812325 -0.0020480401883811949 0 0.0076505017339880289 -0.0020801454356786206 0 0.0075683812562062991 -0.0022483050878984059 0 0.0076505017339880289 -0.0020801454356786206 0 0.007549716051631376 -0.0021044572611410473 0 0.0076505017339880289 -0.0020801454356786206 0 0.007549716051631376 -0.0021044572611410473 0 0.0075983118933564938 -0.0020010106804570884 0 0.007549716051631376 -0.0021044572611410473 0 0.0075983118933564938 -0.0020010106804570884 0 0.0073821098628456972 -0.002134409937050448 0 0.007470191955839982 -0.0021532825442311452 0 0.0067852787416341799 -0.0023430830603160713 0 0.0068633028840127041 -0.0018324934672858985 0 0.0060816421725204415 -0.0026778981883528031 0 0.0061462855246996661 -0.0023735410133805422 0 0.007470191955839982 -0.0021532825442311452 0 0.0063733793179317107 -0.0028390544223533473 0 0.007461852449243832 -0.0028943623699381701 0 0.0069334750435024349 -0.002808222063007309 0 0.0072552509399086019 -0.0023827012146860962 0 0.007461852449243832 -0.0028943623699381701 0 0.0069334750435024349 -0.002808222063007309 0 0.0066978833875876546 -0.0032540297838257711 0 0.0069334750435024349 -0.002808222063007309 0 0.0067715572258809885 -0.0025686840786056614 0 0.0072552509399086019 -0.0023827012146860962 0 0.0069334750435024349 -0.002808222063007309 0 0.0063813990193520853 -0.0028296807238792779 0 0.0066978833875876546 -0.0032540297838257711 0 0.0069334750435024349 -0.002808222063007309 0 0.0067715572258809885 -0.0025686840786056614 0 0.0063813990193520853 -0.0028296807238792779 0 0.0062279110044360462 -0.0024742776556866608 0 0.0067715572258809885 -0.0025686840786056614 0 0.0063813990193520853 -0.0028296807238792779 0 0.0058304262600721831 -0.0034775588609173734 0 0.0060434617774423049 -0.0031239798360387511 0 0.0066978833875876546 -0.0032540297838257711 0 0.0054616386573469967 -0.0029063419833831321 0 0.0060816421725204415 -0.0026778981883528031 0 0.0061462855246996661 -0.0023735410133805422 0 0.0056637324594111449 -0.0031534376161802382 0 0.0063733793179317107 -0.0028390544223533473 0 0.0063813990193520853 -0.0028296807238792779 0 0.0060434617774423049 -0.0031239798360387511 0 0.0066978833875876546 -0.0032540297838257711 0 0.0068721930194646577 -0.0021501592913027627 0 0.0073445599591152478 -0.0019665370799079752 0 0.0071130155424643984 -0.0017433910878454277 0 0.0064909599249634124 -0.0017179087094963373 0 0.0068721930194646577 -0.0021501592913027627 0 0.0071130155424643984 -0.0017433910878454277 0 0.0067715572258809885 -0.0025686840786056614 0 0.0068721930194646577 -0.0021501592913027627 0 0.0072552509399086019 -0.0023827012146860962 0 0.0062279110044360462 -0.0024742776556866608 0 0.0067715572258809885 -0.0025686840786056614 0 0.0068721930194646577 -0.0021501592913027627 0 0.0062279110044360462 -0.0024742776556866608 0 0.0061051574354074158 -0.0021008469501950732 0 0.0068721930194646577 -0.0021501592913027627 0 0.007461852449243832 -0.0028943623699381701 0 0.0072552509399086019 -0.0023827012146860962 0 0.0076648431647398279 -0.0023578673879070542 0 0.0068721930194646577 -0.0021501592913027627 0 0.0072552509399086019 -0.0023827012146860962 0 0.0073445599591152478 -0.0019665370799079752 0 0.0072552509399086019 -0.0023827012146860962 0 0.0077138991119944404 -0.0020588747886274112 0 0.0076648431647398279 -0.0023578673879070542 0 0.0077138991119944404 -0.0020588747886274112 0 0.0073445599591152478 -0.0019665370799079752 0 0.0077172201569590416 -0.0016867156227599654 0 0.0077138991119944404 -0.0020588747886274112 0 0.007985299439647672 -0.0019012468814391438 0 0.0077172201569590416 -0.0016867156227599654 0 0.0072552509399086019 -0.0023827012146860962 0 0.0077138991119944404 -0.0020588747886274112 0 0.0073445599591152478 -0.0019665370799079752 0 0.0073445599591152478 -0.0019665370799079752 0 0.0077172201569590416 -0.0016867156227599654 0 0.0071130155424643984 -0.0017433910878454277 0 0.0077138991119944404 -0.0020588747886274112 0 0.007985299439647672 -0.0019012468814391438 0 0.0080808798210495209 -0.0020335552359339003 0 0.007985299439647672 -0.0019012468814391438 0 0.0080808798210495209 -0.0020335552359339003 0 0.0082876188802052265 -0.0019733695251960377 0 0.0080808798210495209 -0.0020335552359339003 0 0.0079100437126709989 -0.0021709702426693372 0 0.0080617273450777644 -0.0020757432352600616 0 0.0077138991119944404 -0.0020588747886274112 0 0.0080808798210495209 -0.0020335552359339003 0 0.0079100437126709989 -0.0021709702426693372 0 0.0077138991119944404 -0.0020588747886274112 0 0.0076648431647398279 -0.0023578673879070542 0 0.0079100437126709989 -0.0021709702426693372 0 0.0076648431647398279 -0.0023578673879070542 0 0.0079059129003185916 -0.0022756250182029859 0 0.0079100437126709989 -0.0021709702426693372 0 0.0076648431647398279 -0.0023578673879070542 0 0.0078962472273311768 -0.0025021314419418957 0 0.0079059129003185916 -0.0022756250182029859 0 0.0081472942065258687 -0.0019088118236692019 0 0.0081760880457102322 -0.0019164089428141636 0 0.0080617273450777644 -0.0020757432352600616 0 0.0078962472273311768 -0.0025021314419418957 0 0.0079059129003185916 -0.0022756250182029859 0 0.0080617273450777644 -0.0020757432352600616 0 0.0079059129003185916 -0.0022756250182029859 0 0.0079100437126709989 -0.0021709702426693372 0 0.0080617273450777644 -0.0020757432352600616 0 0.0080110205568917365 -0.0021839792988222954 0 0.0080569012927740428 -0.0021170756182185115 0 0.0081472942065258687 -0.0019088118236692019 0 0.0080617273450777644 -0.0020757432352600616 0 0.0079296124171684915 -0.0020219635476690025 0 0.0079897241875805068 -0.0019045083473305587 0 0.0078862893835899787 -0.0020316272148690885 0 0.0077120004379282493 -0.0019808012132199199 0 0.0078306140518705943 -0.002008229917157725 0 0.0079296124171684915 -0.0020219635476690025 0 0.0077120004379282493 -0.0019808012132199199 0 0.0078306140518705943 -0.002008229917157725 0 0.0077778012772587082 -0.0020065803935439808 0 0.0077942349064300098 -0.0020136405960633412 0 0.0078306140518705943 -0.002008229917157725 0 0.0077778012772587082 -0.0020065803935439808 0 0.0077942349064300098 -0.0020136405960633412 0 0.0077828529219896572 -0.002019508803050689 0 0.0078400886568171478 -0.0020086611818732488 0 0.0077942349064300098 -0.0020136405960633412 0 0.0078306140518705943 -0.002008229917157725 0 0.0078400886568171478 -0.0020086611818732488 0 0.0078306140518705943 -0.002008229917157725 0 0.0078400886568171478 -0.0020086611818732488 0 0.0079296124171684915 -0.0020219635476690025 0 0.0078400886568171478 -0.0020086611818732488 0 0.0079296124171684915 -0.0020219635476690025 0 0.0078504833532817529 -0.0020198690413654563 0 0.0080617273450777644 -0.0020757432352600616 0 0.0079296124171684915 -0.0020219635476690025 0 0.0080689540155349272 -0.0020308385181746985 0 0.0079296124171684915 -0.0020219635476690025 0 0.0080689540155349272 -0.0020308385181746985 0 0.007936406467720581 -0.0020294213879162889 0 0.0080808798210495209 -0.0020335552359339003 0 0.0080617273450777644 -0.0020757432352600616 0 0.0080689540155349272 -0.0020308385181746985 0 0.0080808798210495209 -0.0020335552359339003 0 0.0080689540155349272 -0.0020308385181746985 0 0.0082876188802052265 -0.0019733695251960377 0 0.0080689540155349272 -0.0020308385181746985 0 0.0080016731252568543 -0.002101019324322482 0 0.0082876188802052265 -0.0019733695251960377 0 0.0083671009302808859 -0.001949556155616719 0 0.0084952288324900965 -0.0018801997618518643 0 0.0082876188802052265 -0.0019733695251960377 0 0.0091504087738645493 -0.0014093908220939708 0 0.0086171845985009033 -0.0014133638165651581 0 0.0080016731252568543 -0.002101019324322482 0 0.0082876188802052265 -0.0019733695251960377 0 0.0080125728238206097 -0.0023192850265504922 0 0.0091504087738645493 -0.0014093908220939708 0 0.0090908456164522956 -0.0011564775177971207 0 0.0088894521442739426 -0.0011592673249921682 0 0.0090908456164522956 -0.0011564775177971207 0 0.0088894521442739426 -0.0011592673249921682 0 0.0090738883248225183 -0.001042513851216711 0 0.0091504087738645493 -0.0014093908220939708 0 0.0088894521442739426 -0.0011592673249921682 0 0.0086171845985009033 -0.0014133638165651581 0 0.0088894521442739426 -0.0011592673249921682 0 0.0086171845985009033 -0.0014133638165651581 0 0.0085906741331152076 -0.0012351839115998442 0 0.0086171845985009033 -0.0014133638165651581 0 0.0085906741331152076 -0.0012351839115998442 0 0.0082045393195524941 -0.0014764317461705178 0 0.0088894521442739426 -0.0011592673249921682 0 0.0085906741331152076 -0.0012351839115998442 0 0.0088177643564750861 -0.0010593710651647318 0 0.0085906741331152076 -0.0012351839115998442 0 0.0083728513414003131 -0.0010938311193350377 0 0.0088177643564750861 -0.0010593710651647318 0 0.0085906741331152076 -0.0012351839115998442 0 0.0083728513414003131 -0.0010938311193350377 0 0.0082045393195524941 -0.0014764317461705178 0 0.007985299439647672 -0.0019012468814391438 0 0.0082876188802052265 -0.0019733695251960377 0 0.0082045393195524941 -0.0014764317461705178 0 0.007985299439647672 -0.0019012468814391438 0 0.0082045393195524941 -0.0014764317461705178 0 0.0077172201569590416 -0.0016867156227599654 0 0.0082876188802052265 -0.0019733695251960377 0 0.0086171845985009033 -0.0014133638165651581 0 0.0082045393195524941 -0.0014764317461705178 0 0.0077172201569590416 -0.0016867156227599654 0 0.0077972740139113927 -0.0012321641927246099 0 0.0071630731156946421 -0.0013995728718316116 0 0.0077172201569590416 -0.0016867156227599654 0 0.0071630731156946421 -0.0013995728718316116 0 0.0071130155424643984 -0.0017433910878454277 0 0.0082045393195524941 -0.0014764317461705178 0 0.0077172201569590416 -0.0016867156227599654 0 0.0077972740139113927 -0.0012321641927246099 0 0.0077972740139113927 -0.0012321641927246099 0 0.0070824956744341581 -0.00096333224154550941 0 0.0080278395561783102 -0.00066461030804055817 0 0.0083728513414003131 -0.0010938311193350377 0 0.0082045393195524941 -0.0014764317461705178 0 0.0077972740139113927 -0.0012321641927246099 0 0.0083728513414003131 -0.0010938311193350377 0 0.0077972740139113927 -0.0012321641927246099 0 0.0080278395561783102 -0.00066461030804055817 0 0.0063393421259593189 -0.0012153457669675245 0 0.0070824956744341581 -0.00096333224154550941 0 0.0071630731156946421 -0.0013995728718316116 0 0.0077972740139113927 -0.0012321641927246099 0 0.0070824956744341581 -0.00096333224154550941 0 0.0071630731156946421 -0.0013995728718316116 0 0.0064909599249634124 -0.0017179087094963373 0 0.0071630731156946421 -0.0013995728718316116 0 0.0071130155424643984 -0.0017433910878454277 0 0.0076381056437592265 -0.0021116414243264959 0 0.0077402910906932869 -0.0021472787617312634 0 0.0075908054012916318 -0.0022140507343498981 0 0.0076381056437592265 -0.0021116414243264959 0 0.0075269110733826384 -0.0020917390889122777 0 0.0075908054012916318 -0.0022140507343498981 0 0.0076064731920493659 -0.0020613286778034647 0 0.0076381056437592265 -0.0021116414243264959 0 0.0075269110733826384 -0.0020917390889122777 0 0.0076064731920493659 -0.0020613286778034647 0 0.0076381056437592265 -0.0021116414243264959 0 0.0077080922064153359 -0.0020525232400119809 0 0.0075269110733826384 -0.0020917390889122777 0 0.0075908054012916318 -0.0022140507343498981 0 0.0074406909191140616 -0.002188639121019948 0 0.0046020154593431617 -0.0021060772320092291 0 0.0059674902729164488 -0.0023149734075926954 0 0.0075269110733826384 -0.0020917390889122777 0 0.0074888408528414139 -0.0020345664000834124 0 0.0074406909191140616 -0.002188639121019948 0 0.0076064731920493659 -0.0020613286778034647 0 0.0075269110733826384 -0.0020917390889122777 0 0.0075061138619837778 -0.00202582673456279 0 0.0075269110733826384 -0.0020917390889122777 0 0.0074908482602485523 -0.0020207119562155908 0 0.0074888408528414139 -0.0020345664000834124 0 0.0064182706655604507 -0.0024661084223895602 0 0.0047865862642055695 -0.0017773200336577662 0 0.0023951336037449072 -0.002583020803483947 0 0.0025318969504126289 -0.002296750828330231 0 0.0025955677481083466 -0.002799392442691946 0 0.0010348683336286865 -0.0011760160609273927 0 0.0047865862642055695 -0.0017773200336577662 0 0.0047865862642055695 -0.0017773200336577662 0 0.0046020154593431617 -0.0021060772320092291 0 0.0024086546632108457 -0.0027433101394560341 0 0.0025955677481083466 -0.002799392442691946 0 0.0025811486343824191 -0.0028305703207655219 0 0.0023951336037449072 -0.002583020803483947 0 0.0024086546632108457 -0.0027433101394560341 0 0.0025955677481083466 -0.002799392442691946 0 0.0076733955942045297 -0.0020147860199275069 0 0.0076516294864623488 -0.0020162764717425868 0 0.0077064284065516036 -0.0020129115242639405 0 0.0076571678052142463 -0.002016203029033888 0 0.0076166670248083842 -0.0020148098810047303 0 0.0076516294864623488 -0.0020162764717425868 0 0.0076064731920493659 -0.0020613286778034647 0 0.0075061138619837778 -0.00202582673456279 0 0.0076516294864623488 -0.0020162764717425868 0 0.0047865862642055695 -0.0017773200336577662 0 0.0083962410485759493 -0.0017299285638275232 0 0.0076064731920493659 -0.0020613286778034647 0 0.0076516294864623488 -0.0020162764717425868 0 0.0077080922064153359 -0.0020525232400119809 0 0.0077348496240456201 -0.0020168001597874637 0 0.0077064284065516036 -0.0020129115242639405 0 0.0077642959835936007 -0.0020199939550944171 0 0.0077064284065516036 -0.0020129115242639405 0 0.0077642959835936007 -0.0020199939550944171 0 0.0077080922064153359 -0.0020525232400119809 0 0.0077642959835936007 -0.0020199939550944171 0 0.0077930274897805739 -0.0020451849302606188 0 0.0077080922064153359 -0.0020525232400119809 0 0.0076516294864623488 -0.0020162764717425868 0 0.0077064284065516036 -0.0020129115242639405 0 0.0077080922064153359 -0.0020525232400119809 0 0.0077828529219896572 -0.002019508803050689 0 0.0078400886568171478 -0.0020086611818732488 0 0.0077892379838620769 -0.0020138423650874907 0 0.0078400886568171478 -0.0020086611818732488 0 0.0077892379838620769 -0.0020138423650874907 0 0.0078504833532817529 -0.0020198690413654563 0 0.0077348496240456201 -0.0020168001597874637 0 0.0077642959835936007 -0.0020199939550944171 0 0.0077892379838620769 -0.0020138423650874907 0 0.0077642959835936007 -0.0020199939550944171 0 0.0077892379838620769 -0.0020138423650874907 0 0.0078504833532817529 -0.0020198690413654563 0 0.0077642959835936007 -0.0020199939550944171 0 0.0078504833532817529 -0.0020198690413654563 0 0.0077930274897805739 -0.0020451849302606188 0 0.0079296124171684915 -0.0020219635476690025 0 0.0078504833532817529 -0.0020198690413654563 0 0.007936406467720581 -0.0020294213879162889 0 0.0078771773894746495 -0.0020752541207924467 0 0.0077402910906932869 -0.0021472787617312634 0 0.0078812599666911402 -0.0021736758148407326 0 0.0078504833532817529 -0.0020198690413654563 0 0.007936406467720581 -0.0020294213879162889 0 0.0078771773894746495 -0.0020752541207924467 0 0.0080689540155349272 -0.0020308385181746985 0 0.007936406467720581 -0.0020294213879162889 0 0.0078771773894746495 -0.0020752541207924467 0 0.0078504833532817529 -0.0020198690413654563 0 0.0077930274897805739 -0.0020451849302606188 0 0.0078771773894746495 -0.0020752541207924467 0 0.0080689540155349272 -0.0020308385181746985 0 0.0080016731252568543 -0.002101019324322482 0 0.0078771773894746495 -0.0020752541207924467 0 0.0077930274897805739 -0.0020451849302606188 0 0.0078771773894746495 -0.0020752541207924467 0 0.0077402910906932869 -0.0021472787617312634 0 0.0077930274897805739 -0.0020451849302606188 0 0.0077080922064153359 -0.0020525232400119809 0 0.0077402910906932869 -0.0021472787617312634 0 0.0076381056437592265 -0.0021116414243264959 0 0.0077080922064153359 -0.0020525232400119809 0 0.0077402910906932869 -0.0021472787617312634 0 0.0077402910906932869 -0.0021472787617312634 0 0.0078226556147660536 -0.0022748083703573434 0 0.0078812599666911402 -0.0021736758148407326 0 0.0077402910906932869 -0.0021472787617312634 0 0.0078226556147660536 -0.0022748083703573434 0 0.0076905255606810564 -0.0022740662856253727 0 0.0080125728238206097 -0.0023192850265504922 0 0.0078226556147660536 -0.0022748083703573434 0 0.0078812599666911402 -0.0021736758148407326 0 0.0080016731252568543 -0.002101019324322482 0 0.0078771773894746495 -0.0020752541207924467 0 0.0078812599666911402 -0.0021736758148407326 0 0.0080016731252568543 -0.002101019324322482 0 0.0080125728238206097 -0.0023192850265504922 0 0.0078812599666911402 -0.0021736758148407326 0 0.0084952288324900965 -0.0018801997618518643 0 0.0092214475296805501 -0.0018394402223917909 0 0.0091504087738645493 -0.0014093908220939708 0 0.0090908456164522956 -0.0011564775177971207 0 0.0094211110629535549 -0.0010665299322340598 0 0.0080125728238206097 -0.0023192850265504922 0 0.0078226556147660536 -0.0022748083703573434 0 0.0078704942126838866 -0.0024536800266922029 0 0.0083835862557718552 -0.0020909544378085107 0 0.0092214475296805501 -0.0018394402223917909 0 0.0076184143573240423 -0.0023919580198738404 0 0.0076905255606810564 -0.0022740662856253727 0 0.0078704942126838866 -0.0024536800266922029 0 0.0078226556147660536 -0.0022748083703573434 0 0.0076905255606810564 -0.0022740662856253727 0 0.0078704942126838866 -0.0024536800266922029 0 0.0076184143573240423 -0.0023919580198738404 0 0.0075908054012916318 -0.0022140507343498981 0 0.0075085153514781091 -0.0022840562656295045 0 0.0076184143573240423 -0.0023919580198738404 0 0.0075908054012916318 -0.0022140507343498981 0 0.0076905255606810564 -0.0022740662856253727 0 0.0077402910906932869 -0.0021472787617312634 0 0.0075908054012916318 -0.0022140507343498981 0 0.0076905255606810564 -0.0022740662856253727 0 0.0075908054012916318 -0.0022140507343498981 0 0.0075085153514781091 -0.0022840562656295045 0 0.0074406909191140616 -0.002188639121019948 0 0.0073842231178886646 -0.0023506862384010466 0 0.0075085153514781091 -0.0022840562656295045 0 0.0074406909191140616 -0.002188639121019948 0 0.010779822931322134 -0.0014791227042430378 0 0.01084014521690219 -0.0014868510702964791 0 0.010786967468950857 -0.0014938915086714427 0 0.0073549193422261568 -0.0022906911320721567 0 0.010143358926289484 -0.0017767252171105739 0 0.0073549193422261568 -0.0022906911320721567 0 0.0083835862557718552 -0.0020909544378085107 0 0.0073842231178886646 -0.0023506862384010466 0 0.0076184143573240423 -0.0023919580198738404 0 0.0075085153514781091 -0.0022840562656295045 0 0.0081860305151181256 -0.0016159796463296669 0 0.0090883056436920785 -0.0017668341165578789 0 0.0088909743222888374 -0.0020094520919351831 0 0.01084014521690219 -0.0014868510702964791 0 0.010818261651669265 -0.0015004690218545255 0 0.010786967468950857 -0.0014938915086714427 0 0.01084014521690219 -0.0014868510702964791 0 0.010818261651669265 -0.0015004690218545255 0 0.010841043985610064 -0.0015046037558984508 0 0.010818261651669265 -0.0015004690218545255 0 0.010841043985610064 -0.0015046037558984508 0 0.010818735223153336 -0.0015063123517860206 0 0.010841043985610064 -0.0015046037558984508 0 0.010875388818314857 -0.0015082488529697224 0 0.010847449325769271 -0.0015110582483059372 0 0.010841043985610064 -0.0015046037558984508 0 0.010847449325769271 -0.0015110582483059372 0 0.010818735223153336 -0.0015063123517860206 0 0.01084014521690219 -0.0014868510702964791 0 0.010841043985610064 -0.0015046037558984508 0 0.010875388818314857 -0.0015082488529697224 0 0.01084014521690219 -0.0014868510702964791 0 0.010875388818314857 -0.0015082488529697224 0 0.010884664442834674 -0.0014969663063829149 0 0.0090883056436920785 -0.0017668341165578789 0 0.0088909743222888374 -0.0020094520919351831 0 0.0095675911435220869 -0.0023886727830234444 0 0.010143358926289484 -0.0017767252171105739 0 0.010750377297935739 -0.0015202873827980545 0 0.0090883056436920785 -0.0017668341165578789 0 0.0099375921710258934 -0.0019450471761997788 0 0.0095675911435220869 -0.0023886727830234444 0 0.010462059620994979 -0.0018439666628482572 0 0.010968324488214028 -0.0012556899332844067 0 0.010783634115088743 -0.0011467900768095522 0 0.0092214475296805501 -0.0018394402223917909 0 0.010750377297935739 -0.0015202873827980545 0 0.012067607023629945 -0.0012822213294063941 0 0.0097453464295225393 -0.0013695624742160149 0 0.010462059620994979 -0.0018439666628482572 0 0.010783634115088743 -0.0011467900768095522 0 0.0097011550836577816 -0.0016801352760870034 0 0.0092214475296805501 -0.0018394402223917909 0 0.0097453464295225393 -0.0013695624742160149 0 0.0090908456164522956 -0.0011564775177971207 0 0.0094211110629535549 -0.0010665299322340598 0 0.0090927052883131611 -0.0010148669537908891 0 0.011660301355816345 -0.0003205374780026465 0 0.012828845550049026 -0.00077956424618730237 0 0.010308989117423398 -0.0016180308106668755 0 0.012828845550049026 -0.00077956424618730237 0 0.01323736887152026 -0.001045869947151249 0 0.010308989117423398 -0.0016180308106668755 0 0.011660301355816345 -0.0003205374780026465 0 0.012828845550049026 -0.00077956424618730237 0 0.012962706059644585 -1.1259349174511703e-05 0 0.011660301355816345 -0.0003205374780026465 0 0.011131701861169385 0.0008453560717504307 0 0.010681697074716279 -0.00010005859703503493 0 0.012896415810716388 -0.0010922182068438383 0 0.010750377297935739 -0.0015202873827980545 0 0.012407298936352531 -0.00092923810602363061 0 0.011788136908340406 -0.001655667678507552 0 0.01140177042601305 -0.0014294230061007902 0 0.012896415810716388 -0.0010922182068438383 0 0.012067607023629945 -0.0012822213294063941 0 0.010750377297935739 -0.0015202873827980545 0 0.012067607023629945 -0.0012822213294063941 0 0.012419213443474342 -0.0013031821675503759 0 0.012067607023629945 -0.0012822213294063941 0 0.012828845550049026 -0.00077956424618730237 0 0.013260878550754546 -0.0010228964137103424 0 0.013513252369563708 -0.00044172493733989261 0 0.012828845550049026 -0.00077956424618730237 0 0.013513252369563708 -0.00044172493733989261 0 0.012962706059644585 -1.1259349174511703e-05 0 0.014175757536255903 -0.0006011175659171008 0 0.013260878550754546 -0.0010228964137103424 0 0.013513252369563708 -0.00044172493733989261 0 0.014175757536255903 -0.0006011175659171008 0 0.013513252369563708 -0.00044172493733989261 0 0.014108748151985361 -7.4558265657861459e-05 0 0.014108748151985361 -7.4558265657861459e-05 0 0.012962706059644585 -1.1259349174511703e-05 0 0.014294938411774318 0.00024199688162370592 0 0.013513252369563708 -0.00044172493733989261 0 0.014108748151985361 -7.4558265657861459e-05 0 0.012962706059644585 -1.1259349174511703e-05 0 0.012989606608197471 -6.2397954176447888e-05 0 0.012874015695476417 0.0010758629248166451 0 0.012962706059644585 -1.1259349174511703e-05 0 0.011131701861169385 0.0008453560717504307 0 0.011497201969466244 0.0020515237728325965 0 0.011660301355816345 -0.0003205374780026465 0 0.012962706059644585 -1.1259349174511703e-05 0 0.011131701861169385 0.0008453560717504307 0 0.011131701861169385 0.0008453560717504307 0 0.011497201969466244 0.0020515237728325965 0 0.01039261266028549 0.0016650456318069973 0 0.012962706059644585 -1.1259349174511703e-05 0 0.014249834743445024 0.00032476972557470165 0 0.014294938411774318 0.00024199688162370592 0 0.014249834743445024 0.00032476972557470165 0 0.014294938411774318 0.00024199688162370592 0 0.014639726999350894 0.00043532251214787124 0 0.014703456278352655 9.2520005000310416e-05 0 0.015342018683716352 -2.5718488453104959e-05 0 0.014828088521756265 0.00029708342958018128 0 0.014294938411774318 0.00024199688162370592 0 0.014703456278352655 9.2520005000310416e-05 0 0.014828088521756265 0.00029708342958018128 0 0.015342018683716352 -2.5718488453104959e-05 0 0.015312466337288685 -0.00071170418633383623 0 0.015715092366324533 -8.9274502794534509e-05 0 0.014703456278352655 9.2520005000310416e-05 0 0.015342018683716352 -2.5718488453104959e-05 0 0.01482760906588663 -0.00013372336145354459 0 0.015229815176835949 -6.8882434223377302e-05 0 0.014964152276228939 -0.00024802656030574721 0 0.015342018683716352 -2.5718488453104959e-05 0 0.015312466337288685 -0.00071170418633383623 0 0.014771402032810054 -0.00060878730444078222 0 0.012896415810716388 -0.0010922182068438383 0 0.012843893020700327 -0.0009954313393401794 0 0.014186138225697333 -0.0012858664979750693 0 0.015312466337288685 -0.00071170418633383623 0 0.014771402032810054 -0.00060878730444078222 0 0.014175757536255903 -0.0006011175659171008 0 0.014108748151985361 -7.4558265657861459e-05 0 0.01482760906588663 -0.00013372336145354459 0 0.012896415810716388 -0.0010922182068438383 0 0.014964152276228939 -0.00024802656030574721 0 0.014108748151985361 -7.4558265657861459e-05 0 0.014703456278352655 9.2520005000310416e-05 0 0.01482760906588663 -0.00013372336145354459 0 0.014108748151985361 -7.4558265657861459e-05 0 0.014294938411774318 0.00024199688162370592 0 0.014703456278352655 9.2520005000310416e-05 0 0.0068953123670559167 0.00044530054093117489 0 0.00772674797471913 0.0002384728513821041 0 0.0072777498620391666 -0.00040038184417086472 0 0.0070824956744341581 -0.00096333224154550941 0 0.0072777498620391666 -0.00040038184417086472 0 0.0080278395561783102 -0.00066461030804055817 0 0.00772674797471913 0.0002384728513821041 0 0.0072777498620391666 -0.00040038184417086472 0 0.0080278395561783102 -0.00066461030804055817 0 0.0083728513414003131 -0.0010938311193350377 0 0.0080278395561783102 -0.00066461030804055817 0 0.0086626446422598345 -0.00091590777402571211 0 0.0080278395561783102 -0.00066461030804055817 0 0.0085007945402325331 -3.1803750336529421e-05 0 0.0087960035325858506 -0.00058049758334379321 0 0.00772674797471913 0.0002384728513821041 0 0.0080278395561783102 -0.00066461030804055817 0 0.0085007945402325331 -3.1803750336529421e-05 0 0.00772674797471913 0.0002384728513821041 0 0.0085007945402325331 -3.1803750336529421e-05 0 0.0088257957283327439 0.0010959936106984219 0 0.0085007945402325331 -3.1803750336529421e-05 0 0.0093871047188322908 -5.3803606249739266e-05 0 0.0088257957283327439 0.0010959936106984219 0 0.0093871047188322908 -5.3803606249739266e-05 0 0.0087960035325858506 -0.00058049758334379321 0 0.0092993747129871511 -0.00069357476937777001 0 0.0093871047188322908 -5.3803606249739266e-05 0 0.0092993747129871511 -0.00069357476937777001 0 0.009897945939458622 -0.00063416475141757779 0 0.0085007945402325331 -3.1803750336529421e-05 0 0.0093871047188322908 -5.3803606249739266e-05 0 0.0087960035325858506 -0.00058049758334379321 0 0.0080278395561783102 -0.00066461030804055817 0 0.0087960035325858506 -0.00058049758334379321 0 0.0086626446422598345 -0.00091590777402571211 0 0.0087960035325858506 -0.00058049758334379321 0 0.0086626446422598345 -0.00091590777402571211 0 0.009020618438424638 -0.00095605688038860441 0 0.0083728513414003131 -0.0010938311193350377 0 0.0086626446422598345 -0.00091590777402571211 0 0.0088177643564750861 -0.0010593710651647318 0 0.0088894521442739426 -0.0011592673249921682 0 0.009050868487196443 -0.0010622979681155589 0 0.0088177643564750861 -0.0010593710651647318 0 0.0086626446422598345 -0.00091590777402571211 0 0.0088177643564750861 -0.0010593710651647318 0 0.009020618438424638 -0.00095605688038860441 0 0.009050868487196443 -0.0010622979681155589 0 0.0088177643564750861 -0.0010593710651647318 0 0.009020618438424638 -0.00095605688038860441 0 0.009050868487196443 -0.0010622979681155589 0 0.009020618438424638 -0.00095605688038860441 0 0.0093349628146235375 -0.0011824930701708131 0 0.0087960035325858506 -0.00058049758334379321 0 0.009020618438424638 -0.00095605688038860441 0 0.0092993747129871511 -0.00069357476937777001 0 0.009020618438424638 -0.00095605688038860441 0 0.0092993747129871511 -0.00069357476937777001 0 0.0093349628146235375 -0.0011824930701708131 0 0.0092993747129871511 -0.00069357476937777001 0 0.0093349628146235375 -0.0011824930701708131 0 0.009897945939458622 -0.00063416475141757779 0 0.0093349628146235375 -0.0011824930701708131 0 0.010308989117423398 -0.0016180308106668755 0 0.009897945939458622 -0.00063416475141757779 0 0.009050868487196443 -0.0010622979681155589 0 0.0093349628146235375 -0.0011824930701708131 0 0.0090738883248225183 -0.001042513851216711 0 0.0093349628146235375 -0.0011824930701708131 0 0.0090738883248225183 -0.001042513851216711 0 0.0088025935708265796 -0.001180077732192695 0 0.0094393651927177306 -0.0012850298340849815 0 0.0097453464295225393 -0.0013695624742160149 0 0.0093387955219850598 -0.0013774010296511304 0 0.0097453464295225393 -0.0013695624742160149 0 0.0088894521442739426 -0.0011592673249921682 0 0.009050868487196443 -0.0010622979681155589 0 0.0090738883248225183 -0.001042513851216711 0 0.0090908456164522956 -0.0011564775177971207 0 0.0090738883248225183 -0.001042513851216711 0 0.0090927052883131611 -0.0010148669537908891 0 0.010308989117423398 -0.0016180308106668755 0 0.009897945939458622 -0.00063416475141757779 0 0.010681697074716279 -0.00010005859703503493 0 0.0093871047188322908 -5.3803606249739266e-05 0 0.010681697074716279 -0.00010005859703503493 0 0.0099365843796891725 0.00096792880566710449 0 0.0093871047188322908 -5.3803606249739266e-05 0 0.009897945939458622 -0.00063416475141757779 0 0.010681697074716279 -0.00010005859703503493 0 0.011660301355816345 -0.0003205374780026465 0 0.010308989117423398 -0.0016180308106668755 0 0.010681697074716279 -0.00010005859703503493 0 0.011131701861169385 0.0008453560717504307 0 0.010681697074716279 -0.00010005859703503493 0 0.0099365843796891725 0.00096792880566710449 0 0.011131701861169385 0.0008453560717504307 0 0.0099365843796891725 0.00096792880566710449 0 0.01039261266028549 0.0016650456318069973 0 0.01039261266028549 0.0016650456318069973 0 0.0095460481185863574 0.0016909901364319535 0 0.010014955602664483 0.0024643164602417018 0 0.011497201969466244 0.0020515237728325965 0 0.01039261266028549 0.0016650456318069973 0 0.010014955602664483 0.0024643164602417018 0 0.0099365843796891725 0.00096792880566710449 0 0.01039261266028549 0.0016650456318069973 0 0.0095460481185863574 0.0016909901364319535 0 0.0095460481185863574 0.0016909901364319535 0 0.0088257957283327439 0.0010959936106984219 0 0.0091121250619127254 0.0021764912763334405 0 0.0099365843796891725 0.00096792880566710449 0 0.0095460481185863574 0.0016909901364319535 0 0.0088257957283327439 0.0010959936106984219 0 0.0093871047188322908 -5.3803606249739266e-05 0 0.0099365843796891725 0.00096792880566710449 0 0.0088257957283327439 0.0010959936106984219 0 0.0079714271369224869 0.0012936449250269301 0 0.0086018984127984172 0.0024306894854217798 0 0.0091121250619127254 0.0021764912763334405 0 0.0081605098698084959 0.0020834662454262726 0 0.0079714271369224869 0.0012936449250269301 0 0.0086018984127984172 0.0024306894854217798 0 0.00772674797471913 0.0002384728513821041 0 0.0088257957283327439 0.0010959936106984219 0 0.0079714271369224869 0.0012936449250269301 0 0.0088257957283327439 0.0010959936106984219 0 0.0079714271369224869 0.0012936449250269301 0 0.0091121250619127254 0.0021764912763334405 0 0.0068953123670559167 0.00044530054093117489 0 0.00772674797471913 0.0002384728513821041 0 0.0079714271369224869 0.0012936449250269301 0 0.0086018984127984172 0.0024306894854217798 0 0.0091376140305287987 0.0027978837558069541 0 0.0089518348726524335 0.0031733245175047287 0 0.008414839273908124 0.0027224715183173293 0 0.0086018984127984172 0.0024306894854217798 0 0.0089518348726524335 0.0031733245175047287 0 0.0086018984127984172 0.0024306894854217798 0 0.0091121250619127254 0.0021764912763334405 0 0.0091376140305287987 0.0027978837558069541 0 0.0091121250619127254 0.0021764912763334405 0 0.0091376140305287987 0.0027978837558069541 0 0.0096522958632516889 0.0028324842656769055 0 0.0091376140305287987 0.0027978837558069541 0 0.0096522958632516889 0.0028324842656769055 0 0.0094850462633137983 0.0032088025146194722 0 0.0096522958632516889 0.0028324842656769055 0 0.010014955602664483 0.0024643164602417018 0 0.01016832626908205 0.0029318793842864066 0 0.0096522958632516889 0.0028324842656769055 0 0.01016832626908205 0.0029318793842864066 0 0.0099583549058723606 0.0032056801452681168 0 0.0091121250619127254 0.0021764912763334405 0 0.0096522958632516889 0.0028324842656769055 0 0.010014955602664483 0.0024643164602417018 0 0.0095460481185863574 0.0016909901364319535 0 0.0091121250619127254 0.0021764912763334405 0 0.010014955602664483 0.0024643164602417018 0 0.01016832626908205 0.0029318793842864066 0 0.01033782058422832 0.0032105981253898576 0 0.010869965836577632 0.0029150255710253029 0 0.010014955602664483 0.0024643164602417018 0 0.01016832626908205 0.0029318793842864066 0 0.010869965836577632 0.0029150255710253029 0 0.01016832626908205 0.0029318793842864066 0 0.01033782058422832 0.0032105981253898576 0 0.0099583549058723606 0.0032056801452681168 0 0.01033782058422832 0.0032105981253898576 0 0.010123882650620482 0.0034479790175332022 0 0.0099583549058723606 0.0032056801452681168 0 0.01033782058422832 0.0032105981253898576 0 0.010123882650620482 0.0034479790175332022 0 0.010497735298492187 0.0035314105569748187 0 0.010123882650620482 0.0034479790175332022 0 0.010497735298492187 0.0035314105569748187 0 0.010013886672096206 0.0037740831575184463 0 0.010123882650620482 0.0034479790175332022 0 0.0097981462384458869 0.0035072952702038421 0 0.010013886672096206 0.0037740831575184463 0 0.0097981462384458869 0.0035072952702038421 0 0.0097676377265780833 0.0037511132089801088 0 0.010013886672096206 0.0037740831575184463 0 0.0097981462384458869 0.0035072952702038421 0 0.0094745095449199485 0.0035692941055340491 0 0.0097676377265780833 0.0037511132089801088 0 0.0097981462384458869 0.0035072952702038421 0 0.0099583549058723606 0.0032056801452681168 0 0.0094850462633137983 0.0032088025146194722 0 0.0096522958632516889 0.0028324842656769055 0 0.0099583549058723606 0.0032056801452681168 0 0.0094850462633137983 0.0032088025146194722 0 0.010123882650620482 0.0034479790175332022 0 0.0097981462384458869 0.0035072952702038421 0 0.0099583549058723606 0.0032056801452681168 0 0.0091376140305287987 0.0027978837558069541 0 0.0094850462633137983 0.0032088025146194722 0 0.0089518348726524335 0.0031733245175047287 0 0.0094850462633137983 0.0032088025146194722 0 0.0094745095449199485 0.0035692941055340491 0 0.0089518348726524335 0.0031733245175047287 0 0.0097981462384458869 0.0035072952702038421 0 0.0094850462633137983 0.0032088025146194722 0 0.0094745095449199485 0.0035692941055340491 0 0.0094745095449199485 0.0035692941055340491 0 0.0089518348726524335 0.0031733245175047287 0 0.0092133315349769793 0.0037496245903726995 0 0.0087584486266325916 0.0034993956679470442 0 0.0089518348726524335 0.0031733245175047287 0 0.0092133315349769793 0.0037496245903726995 0 0.014982924856739476 0.00053633735117979457 0 0.015310388293525224 0.00064115059078470843 0 0.015339130270484573 0.00042421406563342899 0 0.014982924856739476 0.00053633735117979457 0 0.015310388293525224 0.00064115059078470843 0 0.015192919417071907 0.00074995937239424502 0 0.015310388293525224 0.00064115059078470843 0 0.015630670620316488 0.00065117464618520107 0 0.015339130270484573 0.00042421406563342899 0 0.015630670620316488 0.00065117464618520107 0 0.015339130270484573 0.00042421406563342899 0 0.015830871383743526 0.00049126414906827827 0 0.015342018683716352 -2.5718488453104959e-05 0 0.015339130270484573 0.00042421406563342899 0 0.015742962947536417 0.00024374977674147574 0 0.015342018683716352 -2.5718488453104959e-05 0 0.015339130270484573 0.00042421406563342899 0 0.014828088521756265 0.00029708342958018128 0 0.015339130270484573 0.00042421406563342899 0 0.015830871383743526 0.00049126414906827827 0 0.015742962947536417 0.00024374977674147574 0 0.014982924856739476 0.00053633735117979457 0 0.014828088521756265 0.00029708342958018128 0 0.014639726999350894 0.00043532251214787124 0 0.014982924856739476 0.00053633735117979457 0 0.015339130270484573 0.00042421406563342899 0 0.014828088521756265 0.00029708342958018128 0 0.014294938411774318 0.00024199688162370592 0 0.014828088521756265 0.00029708342958018128 0 0.014639726999350894 0.00043532251214787124 0 0.011497201969466244 0.0020515237728325965 0 0.010014955602664483 0.0024643164602417018 0 0.010869965836577632 0.0029150255710253029 0 0.012874015695476417 0.0010758629248166451 0 0.012790768767903629 0.0017468138515758834 0 0.014249834743445024 0.00032476972557470165 0 0.014639726999350894 0.00043532251214787124 0 0.014649054427665505 0.00056484528561777381 0 0.014639726999350894 0.00043532251214787124 0 0.014649054427665505 0.00056484528561777381 0 0.014927252793890707 0.00065531218915733272 0 0.014982924856739476 0.00053633735117979457 0 0.014639726999350894 0.00043532251214787124 0 0.014927252793890707 0.00065531218915733272 0 0.014982924856739476 0.00053633735117979457 0 0.014927252793890707 0.00065531218915733272 0 0.015192919417071907 0.00074995937239424502 0 0.014927252793890707 0.00065531218915733272 0 0.015144433161442858 0.00090715749924846062 0 0.014864496175664068 0.0010022348318486493 0 0.014927252793890707 0.00065531218915733272 0 0.015144433161442858 0.00090715749924846062 0 0.015192919417071907 0.00074995937239424502 0 0.014649054427665505 0.00056484528561777381 0 0.014864496175664068 0.0010022348318486493 0 0.014638036226215028 0.0012045045892354826 0 0.01033782058422832 0.0032105981253898576 0 0.010869965836577632 0.0029150255710253029 0 0.010497735298492187 0.0035314105569748187 0 0.014649054427665505 0.00056484528561777381 0 0.014927252793890707 0.00065531218915733272 0 0.014864496175664068 0.0010022348318486493 0 0.012790768767903629 0.0017468138515758834 0 0.012313098988365283 0.0022494559924532793 0 0.014922656903633253 0.0010329249867669804 0 0.015454711452776587 0.0020299610378732317 0 0.014864496175664068 0.0010022348318486493 0 0.014638036226215028 0.0012045045892354826 0 0.015407833056131292 0.0022553196890851709 0 0.015144433161442858 0.00090715749924846062 0 0.015460048358598174 0.0013300070836459522 0 0.016243287791621881 0.0015454694925254901 0 0.014864496175664068 0.0010022348318486493 0 0.015460048358598174 0.0013300070836459522 0 0.015475448640831634 0.0018092416950280022 0 0.015238901467050215 0.00094563575167392602 0 0.015767420174375019 0.001434792698145744 0 0.015144433161442858 0.00090715749924846062 0 0.014864496175664068 0.0010022348318486493 0 0.015460048358598174 0.0013300070836459522 0 0.015144433161442858 0.00090715749924846062 0 0.015429468938193211 0.0008905847179944583 0 0.015304596091027035 0.0012611259519874369 0 0.015429468938193211 0.0008905847179944583 0 0.015817813291726081 0.0011440564120497826 0 0.015304596091027035 0.0012611259519874369 0 0.015310388293525224 0.00064115059078470843 0 0.015429468938193211 0.0008905847179944583 0 0.015192919417071907 0.00074995937239424502 0 0.015144433161442858 0.00090715749924846062 0 0.015429468938193211 0.0008905847179944583 0 0.015192919417071907 0.00074995937239424502 0 0.015310388293525224 0.00064115059078470843 0 0.015630670620316488 0.00065117464618520107 0 0.015429468938193211 0.0008905847179944583 0 0.015630670620316488 0.00065117464618520107 0 0.015429468938193211 0.0008905847179944583 0 0.015839949179178244 0.00085235236219993943 0 0.015429468938193211 0.0008905847179944583 0 0.015839949179178244 0.00085235236219993943 0 0.015817813291726081 0.0011440564120497826 0 0.015817813291726081 0.0011440564120497826 0 0.016192731392813312 0.00094160987571360606 0 0.01640341119322811 0.0012370906027126375 0 0.015839949179178244 0.00085235236219993943 0 0.015817813291726081 0.0011440564120497826 0 0.016192731392813312 0.00094160987571360606 0 0.016192731392813312 0.00094160987571360606 0 0.016618955996624087 0.00094682407203471465 0 0.01640341119322811 0.0012370906027126375 0 0.016618955996624087 0.00094682407203471465 0 0.016883111529433854 0.00092594110169759891 0 0.016836068979143241 0.0011153790426373673 0 0.016883111529433854 0.00092594110169759891 0 0.017147329381263607 0.0010310530185876079 0 0.016836068979143241 0.0011153790426373673 0 0.016618955996624087 0.00094682407203471465 0 0.016883111529433854 0.00092594110169759891 0 0.016714723507701708 0.00084069698810996032 0 0.016714723507701708 0.00084069698810996032 0 0.016417271835086577 0.0008168122739708641 0 0.01663098390949426 0.00072306002361843585 0 0.016883111529433854 0.00092594110169759891 0 0.016714723507701708 0.00084069698810996032 0 0.016989321473077672 0.00080927094418757281 0 0.016714723507701708 0.00084069698810996032 0 0.01663098390949426 0.00072306002361843585 0 0.016989321473077672 0.00080927094418757281 0 0.016618955996624087 0.00094682407203471465 0 0.016714723507701708 0.00084069698810996032 0 0.016417271835086577 0.0008168122739708641 0 0.016192731392813312 0.00094160987571360606 0 0.016618955996624087 0.00094682407203471465 0 0.016417271835086577 0.0008168122739708641 0 0.016417271835086577 0.0008168122739708641 0 0.01663098390949426 0.00072306002361843585 0 0.016162066840602181 0.00066830515492263896 0 0.01663098390949426 0.00072306002361843585 0 0.016162066840602181 0.00066830515492263896 0 0.01657383794787028 0.00054095247926911618 0 0.016192731392813312 0.00094160987571360606 0 0.016417271835086577 0.0008168122739708641 0 0.016162066840602181 0.00066830515492263896 0 0.015630670620316488 0.00065117464618520107 0 0.015839949179178244 0.00085235236219993943 0 0.016162066840602181 0.00066830515492263896 0 0.015839949179178244 0.00085235236219993943 0 0.016192731392813312 0.00094160987571360606 0 0.016162066840602181 0.00066830515492263896 0 0.020653592961667841 -0.0023125643852933545 0 0.021272315590072102 -0.0029333157011140728 0 0.021386175023324461 -0.002200590964833775 0 0.020653592961667841 -0.0023125643852933545 0 0.021386175023324461 -0.002200590964833775 0 0.020784879570004213 -0.0018858289751327491 0 0.020653592961667841 -0.0023125643852933545 0 0.020298086320919499 -0.002119882031295628 0 0.020784879570004213 -0.0018858289751327491 0 0.020653592961667841 -0.0023125643852933545 0 0.020298086320919499 -0.002119882031295628 0 0.020195569674572894 -0.0026718433979626894 0 0.020653592961667841 -0.0023125643852933545 0 0.020195569674572894 -0.0026718433979626894 0 0.021272315590072102 -0.0029333157011140728 0 0.018859779436463865 -0.0018224404862821793 0 0.019333155633070809 -0.002583945618351922 0 0.018384541270747765 0.00078967842080846396 0 0.019215699323430036 -0.0025686458490315933 0 0.019392520043124851 -0.00053459965895564902 0 0.020298086320919499 -0.002119882031295628 0 0.019333155633070809 -0.002583945618351922 0 0.02037894009087176 -0.001617984703520398 0 0.020298086320919499 -0.002119882031295628 0 0.020195569674572894 -0.0026718433979626894 0 0.019333155633070809 -0.002583945618351922 0 0.016989321473077672 0.00080927094418757281 0 0.017370251350718399 0.0010593911669697688 0 0.017147329381263607 0.0010310530185876079 0 0.016883111529433854 0.00092594110169759891 0 0.016989321473077672 0.00080927094418757281 0 0.017147329381263607 0.0010310530185876079 0 0.01663098390949426 0.00072306002361843585 0 0.016989321473077672 0.00080927094418757281 0 0.01657383794787028 0.00054095247926911618 0 0.019333155633070809 -0.002583945618351922 0 0.01949574398489104 -0.0039633352450310069 0 0.018875163042896638 -0.0040234439726605812 0 0.019333155633070809 -0.002583945618351922 0 0.020056400062179906 -0.0032533235774217907 0 0.01949574398489104 -0.0039633352450310069 0 0.017924236189102487 -0.00036805090715079451 0 0.017699121063746825 -0.0016970410117349282 0 0.018859779436463865 -0.0018224404862821793 0 0.019333155633070809 -0.002583945618351922 0 0.018875163042896638 -0.0040234439726605812 0 0.020195569674572894 -0.0026718433979626894 0 0.019333155633070809 -0.002583945618351922 0 0.020056400062179906 -0.0032533235774217907 0 0.020753239380161988 -0.0034247864712831479 0 0.021509501727058313 -0.0040850600204984369 0 0.021272315590072102 -0.0029333157011140728 0 0.020195569674572894 -0.0026718433979626894 0 0.020056400062179906 -0.0032533235774217907 0 0.020753239380161988 -0.0034247864712831479 0 0.020056400062179906 -0.0032533235774217907 0 0.020753239380161988 -0.0034247864712831479 0 0.020592347671782495 -0.0040627359989565438 0 0.020195569674572894 -0.0026718433979626894 0 0.020753239380161988 -0.0034247864712831479 0 0.021272315590072102 -0.0029333157011140728 0 0.013157137890232646 0.0020624296875669406 0 0.012992172494065726 0.0021313496694383223 0 0.013011369645069673 0.0020538803076145412 0 0.020353891140661655 -0.003983918717792345 0 0.018547778573395145 -0.0033313937624663628 0 0.020592347671782495 -0.0040627359989565438 0 0.020183065576034869 -0.0049082546407038727 0 0.021509501727058313 -0.0040850600204984369 0 0.020056400062179906 -0.0032533235774217907 0 0.020592347671782495 -0.0040627359989565438 0 0.020183065576034869 -0.0049082546407038727 0 0.018547778573395145 -0.0033313937624663628 0 0.01677806053612069 -0.00080144178826889456 0 0.020753239380161988 -0.0034247864712831479 0 0.020592347671782495 -0.0040627359989565438 0 0.021509501727058313 -0.0040850600204984369 0 0.020056400062179906 -0.0032533235774217907 0 0.01949574398489104 -0.0039633352450310069 0 0.019814331558780613 -0.0048892226787309893 0 0.01949574398489104 -0.0039633352450310069 0 0.019227967224414885 -0.0046046046192756099 0 0.019814331558780613 -0.0048892226787309893 0 0.01949574398489104 -0.0039633352450310069 0 0.019227967224414885 -0.0046046046192756099 0 0.018875163042896638 -0.0040234439726605812 0 0.019358846160903439 -0.0050191146543758502 0 0.018678913494285413 -0.0050742260727318928 0 0.019021329909933032 -0.0056433719666569397 0 0.019358846160903439 -0.0050191146543758502 0 0.019606404870900922 -0.0053475645022671775 0 0.019021329909933032 -0.0056433719666569397 0 0.019227967224414885 -0.0046046046192756099 0 0.019358846160903439 -0.0050191146543758502 0 0.018678913494285413 -0.0050742260727318928 0 0.019227967224414885 -0.0046046046192756099 0 0.019358846160903439 -0.0050191146543758502 0 0.019814331558780613 -0.0048892226787309893 0 0.019358846160903439 -0.0050191146543758502 0 0.019599534243414353 -0.0048649718062184939 0 0.019606404870900922 -0.0053475645022671775 0 0.018991426977831408 -0.0041011493529836207 0 0.018547778573395145 -0.0033313937624663628 0 0.013157137890232646 0.0020624296875669406 0 0.013147210115750254 0.0021304355807321316 0 0.012992172494065726 0.0021313496694383223 0 0.0099363131144280734 0.00095098885114575159 0 0.010559223475830982 0.00088247292509826885 0 0.010879460013668844 0.0015865183655244814 0 0.012845878682874444 -0.00051896561136165697 0 0.011797960720470723 0.0020446605191624719 0 0.018547778573395145 -0.0033313937624663628 0 0.012845878682874444 -0.00051896561136165697 0 0.016162066840602181 0.00066830515492263896 0 0.015830871383743526 0.00049126414906827827 0 0.016130573337753151 0.00041652846004585275 0 0.015630670620316488 0.00065117464618520107 0 0.016162066840602181 0.00066830515492263896 0 0.015830871383743526 0.00049126414906827827 0 0.015830871383743526 0.00049126414906827827 0 0.016130573337753151 0.00041652846004585275 0 0.015742962947536417 0.00024374977674147574 0 0.017699121063746825 -0.0016970410117349282 0 0.017712482521595074 -0.0024825569396710024 0 0.019227967224414885 -0.0046046046192756099 0 0.018875163042896638 -0.0040234439726605812 0 0.018678913494285413 -0.0050742260727318928 0 0.01657383794787028 0.00054095247926911618 0 0.016130573337753151 0.00041652846004585275 0 0.016293559098452117 0.00021733359962767279 0 0.016162066840602181 0.00066830515492263896 0 0.01657383794787028 0.00054095247926911618 0 0.016130573337753151 0.00041652846004585275 0 0.016130573337753151 0.00041652846004585275 0 0.016293559098452117 0.00021733359962767279 0 0.015999085581509243 6.3018954543712951e-05 0 0.016130573337753151 0.00041652846004585275 0 0.015999085581509243 6.3018954543712951e-05 0 0.015742962947536417 0.00024374977674147574 0 0.015999085581509243 6.3018954543712951e-05 0 0.015742962947536417 0.00024374977674147574 0 0.015715092366324533 -8.9274502794534509e-05 0 0.015342018683716352 -2.5718488453104959e-05 0 0.015742962947536417 0.00024374977674147574 0 0.015715092366324533 -8.9274502794534509e-05 0 0.015312466337288685 -0.00071170418633383623 0 0.015715092366324533 -8.9274502794534509e-05 0 0.016144006353787852 -0.00027025874095575742 0 0.015999085581509243 6.3018954543712951e-05 0 0.015715092366324533 -8.9274502794534509e-05 0 0.016144006353787852 -0.00027025874095575742 0 0.010847449325769271 -0.0015110582483059372 0 0.010847856993969528 -0.001504782919686026 0 0.010862457706275558 -0.0015033049500040182 0 0.010847449325769271 -0.0015110582483059372 0 0.010847856993969528 -0.001504782919686026 0 0.010834294111054332 -0.0015071089270503402 0 0.012843893020700327 -0.0009954313393401794 0 0.014523215751556375 -0.0023517574625052527 0 0.010831846881013822 -0.0015036039495537861 0 0.010843831406210272 -0.00150028326210367 0 0.010827119312015717 -0.0015024458008100821 0 0.010831846881013822 -0.0015036039495537861 0 0.010847856993969528 -0.001504782919686026 0 0.010843831406210272 -0.00150028326210367 0 0.010831846881013822 -0.0015036039495537861 0 0.010847856993969528 -0.001504782919686026 0 0.010834294111054332 -0.0015071089270503402 0 0.010847856993969528 -0.001504782919686026 0 0.010843831406210272 -0.00150028326210367 0 0.010856447543393639 -0.0015010525169616346 0 0.012378624468202336 -0.0019289550996950745 0 0.014523215751556375 -0.0023517574625052527 0 0.016293559098452117 0.00021733359962767279 0 0.015999085581509243 6.3018954543712951e-05 0 0.016144006353787852 -0.00027025874095575742 0 0.017712482521595074 -0.0024825569396710024 0 0.014523215751556375 -0.0023517574625052527 0 0.010843831406210272 -0.00150028326210367 0 0.010856447543393639 -0.0015010525169616346 0 0.010862074267585498 -0.0014903581207034769 0 0.018678913494285413 -0.0050742260727318928 0 0.018418888675301684 -0.0058997182249675914 0 0.019021329909933032 -0.0056433719666569397 0 0.014523215751556375 -0.0023517574625052527 0 0.014940303429783076 -0.0034310045793432315 0 0.010843831406210272 -0.00150028326210367 0 0.010862074267585498 -0.0014903581207034769 0 0.010842407939611659 -0.0014950795078634588 0 0.010878708625594192 -0.001476372127906642 0 0.010862074267585498 -0.0014903581207034769 0 0.010842407939611659 -0.0014950795078634588 0 0.012845878682874444 -0.00051896561136165697 0 0.014940303429783076 -0.0034310045793432315 0 0.012845878682874444 -0.00051896561136165697 0 0.010491472997862496 -0.00056759156838925699 0 0.0099363131144280734 0.00095098885114575159 0 0.01042690750192685 0.00045531093525861172 0 0.010051777848762657 8.28792491472932e-05 0 0.0099363131144280734 0.00095098885114575159 0 0.01042690750192685 0.00045531093525861172 0 0.010559223475830982 0.00088247292509826885 0 0.01042690750192685 0.00045531093525861172 0 0.010051777848762657 8.28792491472932e-05 0 0.01062290111005037 1.608339890116912e-05 0 0.010051777848762657 8.28792491472932e-05 0 0.010403237899066947 -0.00021870119013714986 0 0.01062290111005037 1.608339890116912e-05 0 0.010843831406210272 -0.00150028326210367 0 0.010842407939611659 -0.0014950795078634588 0 0.010827119312015717 -0.0015024458008100821 0 0.010827119312015717 -0.0015024458008100821 0 0.010814860972900931 -0.0015054970795187769 0 0.010802802199169861 -0.0015055400679485755 0 0.010842407939611659 -0.0014950795078634588 0 0.010827119312015717 -0.0015024458008100821 0 0.010802802199169861 -0.0015055400679485755 0 0.010814860972900931 -0.0015054970795187769 0 0.010802802199169861 -0.0015055400679485755 0 0.010798814228204079 -0.0015092374705670351 0 0.0036575769244745378 -0.0019268396036543187 0 0.0047530974848936942 -0.0021490380771970723 0 0.0055255643963423653 -0.0010021832869150408 0 0.010051777848762657 8.28792491472932e-05 0 0.010403237899066947 -0.00021870119013714986 0 0.010088631405628455 -0.00067771545561245961 0 0.010491472997862496 -0.00056759156838925699 0 0.007406974267766436 -0.001500124533695302 0 0.007406974267766436 -0.001500124533695302 0 0.0081550763914116104 -0.00071366390080969866 0 0.010403237899066947 -0.00021870119013714986 0 0.010088631405628455 -0.00067771545561245961 0 0.010813186086679166 -0.00029666168949033271 0 0.0042116089485200485 -0.0022564860723375047 0 0.0041032003958485028 -0.0023950879766840975 0 0.0046243489364488546 -0.0023641058993523791 0 0.0036575769244745378 -0.0019268396036543187 0 0.0042116089485200485 -0.0022564860723375047 0 0.0047530974848936942 -0.0021490380771970723 0 0.0042116089485200485 -0.0022564860723375047 0 0.0046243489364488546 -0.0023641058993523791 0 0.0047530974848936942 -0.0021490380771970723 0 0.0042116089485200485 -0.0022564860723375047 0 0.003854688858962146 -0.0022794679122799559 0 0.0041032003958485028 -0.0023950879766840975 0 0.0036575769244745378 -0.0019268396036543187 0 0.0042116089485200485 -0.0022564860723375047 0 0.003854688858962146 -0.0022794679122799559 0 0.007406974267766436 -0.001500124533695302 0 0.0059904510655348813 -0.0020175356492848971 0 0.0039381085380788307 -0.0024523304793071079 0 0.0041032003958485028 -0.0023950879766840975 0 0.0037070257721474706 -0.0024098735964471715 0 0.003854688858962146 -0.0022794679122799559 0 0.0041032003958485028 -0.0023950879766840975 0 0.0037070257721474706 -0.0024098735964471715 0 0.0043138871816517915 -0.0024501780144497521 0 0.0041032003958485028 -0.0023950879766840975 0 0.0046243489364488546 -0.0023641058993523791 0 0.0039381085380788307 -0.0024523304793071079 0 0.0043138871816517915 -0.0024501780144497521 0 0.0041032003958485028 -0.0023950879766840975 0 0.003854688858962146 -0.0022794679122799559 0 0.0037070257721474706 -0.0024098735964471715 0 0.0035395895206440206 -0.0023490082665627819 0 0.0038617518415785261 -0.0021600392762361159 0 0.003854688858962146 -0.0022794679122799559 0 0.0035395895206440206 -0.0023490082665627819 0 0.007406974267766436 -0.001500124533695302 0 0.0069626495510115034 -0.0019851153164393456 0 0.0035422011412339699 -0.0024883596481126299 0 0.0037070257721474706 -0.0024098735964471715 0 0.0035395895206440206 -0.0023490082665627819 0 0.0069626495510115034 -0.0019851153164393456 0 0.0082575933928768237 -0.0022491053363815103 0 0.010798814228204079 -0.0015092374705670351 0 0.010806357480611024 -0.0015061097005063591 0 0.010794192214664447 -0.0015058539802454325 0 0.010798814228204079 -0.0015092374705670351 0 0.010784926476585851 -0.0015131704450464249 0 0.010794192214664447 -0.0015058539802454325 0 0.0035078717393880474 -0.0024654591288978222 0 0.0035395895206440206 -0.0023490082665627819 0 0.0034836228491274797 -0.0024516372695383157 0 0.0035078717393880474 -0.0024654591288978222 0 0.0035422011412339699 -0.0024883596481126299 0 0.0035395895206440206 -0.0023490082665627819 0 0.010786268297459829 -0.0014953741907252458 0 0.010786967468950857 -0.0014938915086714427 0 0.010798571109078264 -0.0015006601274616732 0 0.0082575933928768237 -0.0022491053363815103 0 0.0085762616627753953 -0.0021261583037201115 0 0.0082575933928768237 -0.0022491053363815103 0 0.0093834099532000333 -0.0013017351450984938 0 0.010786268297459829 -0.0014953741907252458 0 0.010794192214664447 -0.0015058539802454325 0 0.010798571109078264 -0.0015006601274616732 0 0.010818261651669265 -0.0015004690218545255 0 0.010786967468950857 -0.0014938915086714427 0 0.010798571109078264 -0.0015006601274616732 0 0.010818261651669265 -0.0015004690218545255 0 0.010798571109078264 -0.0015006601274616732 0 0.010818735223153336 -0.0015063123517860206 0 0.010806357480611024 -0.0015061097005063591 0 0.010794192214664447 -0.0015058539802454325 0 0.010818735223153336 -0.0015063123517860206 0 0.010794192214664447 -0.0015058539802454325 0 0.010798571109078264 -0.0015006601274616732 0 0.010818735223153336 -0.0015063123517860206 0 0.010806357480611024 -0.0015061097005063591 0 0.010818735223153336 -0.0015063123517860206 0 0.010818747798822024 -0.0015053073870011308 0 0.010847449325769271 -0.0015110582483059372 0 0.010818735223153336 -0.0015063123517860206 0 0.010834294111054332 -0.0015071089270503402 0 0.010818735223153336 -0.0015063123517860206 0 0.010834294111054332 -0.0015071089270503402 0 0.010818747798822024 -0.0015053073870011308 0 0.010831846881013822 -0.0015036039495537861 0 0.010834294111054332 -0.0015071089270503402 0 0.010818747798822024 -0.0015053073870011308 0 0.010831846881013822 -0.0015036039495537861 0 0.010827119312015717 -0.0015024458008100821 0 0.010814860972900931 -0.0015054970795187769 0 0.010831846881013822 -0.0015036039495537861 0 0.010814860972900931 -0.0015054970795187769 0 0.010818747798822024 -0.0015053073870011308 0 0.010814860972900931 -0.0015054970795187769 0 0.010798814228204079 -0.0015092374705670351 0 0.010818747798822024 -0.0015053073870011308 0 0.010798814228204079 -0.0015092374705670351 0 0.010806357480611024 -0.0015061097005063591 0 0.010818747798822024 -0.0015053073870011308 0 0.01291788650011997 -0.0023823406063000316 0 0.010501965290084434 -0.0042370821941942576 0 0.0090730916029340084 -0.0018146035215433748 0 0.01291788650011997 -0.0023823406063000316 0 0.0090730916029340084 -0.0018146035215433748 0 0.010927666121691075 -0.00013611469833583456 0 0.01291788650011997 -0.0023823406063000316 0 0.013217944007514559 -0.00025391427943287928 0 0.01416097305034608 -0.00121338983867967 0 0.01291788650011997 -0.0023823406063000316 0 0.01416097305034608 -0.00121338983867967 0 0.014721145763407439 -0.0025685648866023056 0 0.01291788650011997 -0.0023823406063000316 0 0.014043093578652769 -0.0041115305837249464 0 0.014721145763407439 -0.0025685648866023056 0 0.013502684609316177 -0.0051746876425608551 0 0.01291788650011997 -0.0023823406063000316 0 0.014043093578652769 -0.0041115305837249464 0 0.0094247547243187253 -0.0027312196860895255 0 0.012194064968044888 -0.0026258349797340097 0 0.0094247547243187253 -0.0027312196860895255 0 0.007552783706241786 -0.0033623247050809232 0 0.0049551742755711324 -0.002382794840807351 0 0.0047084866972401341 -0.0024211954963614152 0 0.0047077114342179271 -0.0023510189907437963 0 0.013502684609316177 -0.0051746876425608551 0 0.01291788650011997 -0.0023823406063000316 0 0.010501965290084434 -0.0042370821941942576 0 0.007552783706241786 -0.0033623247050809232 0 0.0056456889835043572 -0.0023941993770145785 0 0.0046303031179988673 -0.0023842158082514205 0 0.0047077114342179271 -0.0023510189907437963 0 0.0049367607948232785 -0.0023494219571517897 0 0.0047077114342179271 -0.0023510189907437963 0 0.0049367607948232785 -0.0023494219571517897 0 0.0055510915283741849 -0.002367368102082087 0 0.0043138871816517915 -0.0024501780144497521 0 0.0049367607948232785 -0.0023494219571517897 0 0.0046243489364488546 -0.0023641058993523791 0 0.0049367607948232785 -0.0023494219571517897 0 0.0050035097692756082 -0.002338958104227476 0 0.0055510915283741849 -0.002367368102082087 0 0.0049367607948232785 -0.0023494219571517897 0 0.0050035097692756082 -0.002338958104227476 0 0.0046243489364488546 -0.0023641058993523791 0 0.0050035097692756082 -0.002338958104227476 0 0.0046243489364488546 -0.0023641058993523791 0 0.0047530974848936942 -0.0021490380771970723 0 0.0047530974848936942 -0.0021490380771970723 0 0.0055510915283741849 -0.002367368102082087 0 0.0055255643963423653 -0.0010021832869150408 0 0.0050035097692756082 -0.002338958104227476 0 0.0047530974848936942 -0.0021490380771970723 0 0.0055510915283741849 -0.002367368102082087 0 0.0055510915283741849 -0.002367368102082087 0 0.0055255643963423653 -0.0010021832869150408 0 0.0090730916029340084 -0.0018146035215433748 0 0.0055255643963423653 -0.0010021832869150408 0 0.0090730916029340084 -0.0018146035215433748 0 0.010927666121691075 -0.00013611469833583456 0 0.010501965290084434 -0.0042370821941942576 0 0.0055510915283741849 -0.002367368102082087 0 0.0090730916029340084 -0.0018146035215433748 0 0.0081550763914116104 -0.00071366390080969866 0 0.010626954041967472 -0.00011219774961219912 0 0.010813186086679166 -0.00029666168949033271 0 0.010927666121691075 -0.00013611469833583456 0 0.010969734166867674 1.6129097241555531e-05 0 0.010927666121691075 -0.00013611469833583456 0 0.011437697919006253 0.00041256746354770133 0 0.012283020236489564 0.00050462408014896099 0 0.010927666121691075 -0.00013611469833583456 0 0.010969734166867674 1.6129097241555531e-05 0 0.011437697919006253 0.00041256746354770133 0 0.010403237899066947 -0.00021870119013714986 0 0.010813186086679166 -0.00029666168949033271 0 0.01062290111005037 1.608339890116912e-05 0 0.010813186086679166 -0.00029666168949033271 0 0.010969734166867674 1.6129097241555531e-05 0 0.01062290111005037 1.608339890116912e-05 0 0.010969734166867674 1.6129097241555531e-05 0 0.01062290111005037 1.608339890116912e-05 0 0.010949737454282566 0.00039613302396848037 0 0.01042690750192685 0.00045531093525861172 0 0.01062290111005037 1.608339890116912e-05 0 0.010949737454282566 0.00039613302396848037 0 0.010949737454282566 0.00039613302396848037 0 0.010559223475830982 0.00088247292509826885 0 0.011240925131547539 0.00093565614329342117 0 0.01042690750192685 0.00045531093525861172 0 0.010949737454282566 0.00039613302396848037 0 0.010559223475830982 0.00088247292509826885 0 0.010969734166867674 1.6129097241555531e-05 0 0.010949737454282566 0.00039613302396848037 0 0.011437697919006253 0.00041256746354770133 0 0.010949737454282566 0.00039613302396848037 0 0.011437697919006253 0.00041256746354770133 0 0.011240925131547539 0.00093565614329342117 0 0.011437697919006253 0.00041256746354770133 0 0.011240925131547539 0.00093565614329342117 0 0.012084232975035705 0.0011618931195104668 0 0.011437697919006253 0.00041256746354770133 0 0.012283020236489564 0.00050462408014896099 0 0.012084232975035705 0.0011618931195104668 0 0.012283020236489564 0.00050462408014896099 0 0.013695050684110515 0.00081989820523898358 0 0.013159441537052403 0.0015219845926574989 0 0.010927666121691075 -0.00013611469833583456 0 0.012283020236489564 0.00050462408014896099 0 0.013217944007514559 -0.00025391427943287928 0 0.01291788650011997 -0.0023823406063000316 0 0.010927666121691075 -0.00013611469833583456 0 0.013217944007514559 -0.00025391427943287928 0 0.013217944007514559 -0.00025391427943287928 0 0.01416097305034608 -0.00121338983867967 0 0.014587342031089254 -9.856422592856919e-08 0 0.013217944007514559 -0.00025391427943287928 0 0.013695050684110515 0.00081989820523898358 0 0.014587342031089254 -9.856422592856919e-08 0 0.012283020236489564 0.00050462408014896099 0 0.013217944007514559 -0.00025391427943287928 0 0.013695050684110515 0.00081989820523898358 0 0.013695050684110515 0.00081989820523898358 0 0.014188081969827512 0.0016622694506219136 0 0.013159441537052403 0.0015219845926574989 0 0.013159441537052403 0.0015219845926574989 0 0.012084232975035705 0.0011618931195104668 0 0.012793657866804148 0.0021104359640396098 0 0.012283020236489564 0.00050462408014896099 0 0.013159441537052403 0.0015219845926574989 0 0.012084232975035705 0.0011618931195104668 0 0.013159441537052403 0.0015219845926574989 0 0.012793657866804148 0.0021104359640396098 0 0.013854673614168299 0.0023839381541529039 0 0.014188081969827512 0.0016622694506219136 0 0.013159441537052403 0.0015219845926574989 0 0.013854673614168299 0.0023839381541529039 0 0.010559223475830982 0.00088247292509826885 0 0.011240925131547539 0.00093565614329342117 0 0.010879460013668844 0.0015865183655244814 0 0.011240925131547539 0.00093565614329342117 0 0.010879460013668844 0.0015865183655244814 0 0.011756221291692581 0.0014362222501613702 0 0.011756221291692581 0.0014362222501613702 0 0.012084232975035705 0.0011618931195104668 0 0.012793657866804148 0.0021104359640396098 0 0.011240925131547539 0.00093565614329342117 0 0.011756221291692581 0.0014362222501613702 0 0.012084232975035705 0.0011618931195104668 0 0.011797960720470723 0.0020446605191624719 0 0.012742611848910998 0.0020662886194680384 0 0.010879460013668844 0.0015865183655244814 0 0.011756221291692581 0.0014362222501613702 0 0.012793657866804148 0.0021104359640396098 0 0.012793657866804148 0.0021104359640396098 0 0.013011369645069673 0.0020538803076145412 0 0.013012835003541333 0.0021950529358280286 0 0.012992172494065726 0.0021313496694383223 0 0.012793657866804148 0.0021104359640396098 0 0.013011369645069673 0.0020538803076145412 0 0.021509501727058313 -0.0040850600204984369 0 0.021272315590072102 -0.0029333157011140728 0 0.0226407475654225 -0.0033759338101253819 0 0.022649626448536193 -0.0034084153550773023 0 0.019656579053774017 -0.0019857379244889546 0 0.01677806053612069 -0.00080144178826889456 0 0.019656579053774017 -0.0019857379244889546 0 0.022792028823348961 -0.0031429712157096754 0 0.022959112958815982 -0.0025347960879923601 0 0.022271575717352717 -0.0024626114027241366 0 0.022959112958815982 -0.0025347960879923601 0 0.023351862963130306 -0.0021735914349228207 0 0.022779464835041265 -0.0021371940172642406 0 0.022959112958815982 -0.0025347960879923601 0 0.022271575717352717 -0.0024626114027241366 0 0.022779464835041265 -0.0021371940172642406 0 0.021272315590072102 -0.0029333157011140728 0 0.022792028823348961 -0.0031429712157096754 0 0.022271575717352717 -0.0024626114027241366 0 0.022271575717352717 -0.0024626114027241366 0 0.021386175023324461 -0.002200590964833775 0 0.022196962226658908 -0.0019038273133403856 0 0.021272315590072102 -0.0029333157011140728 0 0.022271575717352717 -0.0024626114027241366 0 0.021386175023324461 -0.002200590964833775 0 0.023250916477710958 -0.0028437105509104203 0 0.023241397799401767 -0.0024161886027904275 0 0.023924481978655678 -0.0024796160280426216 0 0.019656579053774017 -0.0019857379244889546 0 0.023803606351967779 -0.0023951548355686642 0 0.012793657866804148 0.0021104359640396098 0 0.013012835003541333 0.0021950529358280286 0 0.013854673614168299 0.0023839381541529039 0 0.019656579053774017 -0.0019857379244889546 0 0.017926988028725607 8.7609404958782769e-05 0 0.021518971600126644 -0.0026599365628644273 0 0.023250916477710958 -0.0028437105509104203 0 0.023241397799401767 -0.0024161886027904275 0 0.023241397799401767 -0.0024161886027904275 0 0.023847025848122531 -0.0023285704666552785 0 0.023351862963130306 -0.0021735914349228207 0 0.022959112958815982 -0.0025347960879923601 0 0.023241397799401767 -0.0024161886027904275 0 0.023351862963130306 -0.0021735914349228207 0 0.022792028823348961 -0.0031429712157096754 0 0.022959112958815982 -0.0025347960879923601 0 0.023241397799401767 -0.0024161886027904275 0 0.023241397799401767 -0.0024161886027904275 0 0.023847025848122531 -0.0023285704666552785 0 0.023924481978655678 -0.0024796160280426216 0 0.023847025848122531 -0.0023285704666552785 0 0.023929806880794036 -0.0016564814467357363 0 0.024476159405669124 -0.0024387083545874717 0 0.023847025848122531 -0.0023285704666552785 0 0.023351862963130306 -0.0021735914349228207 0 0.023929806880794036 -0.0016564814467357363 0 0.023351862963130306 -0.0021735914349228207 0 0.023929806880794036 -0.0016564814467357363 0 0.023059248593626402 -0.0017235517240796598 0 0.023929806880794036 -0.0016564814467357363 0 0.023302218719791306 -0.0012744572613799441 0 0.023059248593626402 -0.0017235517240796598 0 0.023929806880794036 -0.0016564814467357363 0 0.024476159405669124 -0.0024387083545874717 0 0.025045116540933592 -0.0012719374240625512 0 0.023929806880794036 -0.0016564814467357363 0 0.024437652515714219 -0.0010031062596956004 0 0.025045116540933592 -0.0012719374240625512 0 0.023929806880794036 -0.0016564814467357363 0 0.023830483357253716 -0.0011046785967653797 0 0.023302218719791306 -0.0012744572613799441 0 0.023929806880794036 -0.0016564814467357363 0 0.023830483357253716 -0.0011046785967653797 0 0.024437652515714219 -0.0010031062596956004 0 0.024437652515714219 -0.0010031062596956004 0 0.025007123956337717 -0.00046161820011691464 0 0.024117663639581677 -0.00056503239237294211 0 0.023830483357253716 -0.0011046785967653797 0 0.024437652515714219 -0.0010031062596956004 0 0.024117663639581677 -0.00056503239237294211 0 0.024437652515714219 -0.0010031062596956004 0 0.025055757699865105 -0.00080263293076355624 0 0.025045116540933592 -0.0012719374240625512 0 0.024437652515714219 -0.0010031062596956004 0 0.025055757699865105 -0.00080263293076355624 0 0.025007123956337717 -0.00046161820011691464 0 0.022333651286508771 0.001654348944939486 0 0.022947915518652984 0.00030212541537023515 0 0.02176193328813715 0.00035206360397884541 0 0.022333651286508771 0.001654348944939486 0 0.02176193328813715 0.00035206360397884541 0 0.021233048995243548 0.0013456743496965474 0 0.02534013835076691 0.00025477040591757736 0 0.025807999810078818 -0.00083267880099823052 0 0.026245941450181085 0.00035471819153648103 0 0.023902535332808294 -0.00053079859140054005 0 0.025232554910869762 -0.00019356931719300154 0 0.024104357540068021 0.0007282377794971571 0 0.023902535332808294 -0.00053079859140054005 0 0.023830483357253716 -0.0011046785967653797 0 0.023510156473281862 -0.0010775885353444823 0 0.024117663639581677 -0.00056503239237294211 0 0.023902535332808294 -0.00053079859140054005 0 0.02346373319193629 -0.0012067119286711192 0 0.023830483357253716 -0.0011046785967653797 0 0.023510156473281862 -0.0010775885353444823 0 0.023302218719791306 -0.0012744572613799441 0 0.022947915518652984 0.00030212541537023515 0 0.02176193328813715 0.00035206360397884541 0 0.021710899333555467 -0.00050963725518461244 0 0.021710899333555467 -0.00050963725518461244 0 0.02236856422078471 -0.0013982242040157542 0 0.02095409618910404 -0.001115622343661693 0 0.022947915518652984 0.00030212541537023515 0 0.021710899333555467 -0.00050963725518461244 0 0.02236856422078471 -0.0013982242040157542 0 0.023103723007993335 -0.00076044702155362903 0 0.02236856422078471 -0.0013982242040157542 0 0.023302218719791306 -0.0012744572613799441 0 0.023902535332808294 -0.00053079859140054005 0 0.022242802592562453 -0.0013135827085968546 0 0.02236856422078471 -0.0013982242040157542 0 0.023302218719791306 -0.0012744572613799441 0 0.023059248593626402 -0.0017235517240796598 0 0.02236856422078471 -0.0013982242040157542 0 0.023059248593626402 -0.0017235517240796598 0 0.022196962226658908 -0.0019038273133403856 0 0.022271575717352717 -0.0024626114027241366 0 0.022779464835041265 -0.0021371940172642406 0 0.022196962226658908 -0.0019038273133403856 0 0.023059248593626402 -0.0017235517240796598 0 0.022779464835041265 -0.0021371940172642406 0 0.022196962226658908 -0.0019038273133403856 0 0.023351862963130306 -0.0021735914349228207 0 0.023059248593626402 -0.0017235517240796598 0 0.022779464835041265 -0.0021371940172642406 0 0.02236856422078471 -0.0013982242040157542 0 0.021398594115950985 -0.0017186986159482499 0 0.02095409618910404 -0.001115622343661693 0 0.02236856422078471 -0.0013982242040157542 0 0.021398594115950985 -0.0017186986159482499 0 0.022196962226658908 -0.0019038273133403856 0 0.021386175023324461 -0.002200590964833775 0 0.021398594115950985 -0.0017186986159482499 0 0.022196962226658908 -0.0019038273133403856 0 0.021386175023324461 -0.002200590964833775 0 0.021398594115950985 -0.0017186986159482499 0 0.020784879570004213 -0.0018858289751327491 0 0.021398594115950985 -0.0017186986159482499 0 0.020787248069809569 -0.0016255985741007704 0 0.020784879570004213 -0.0018858289751327491 0 0.021398594115950985 -0.0017186986159482499 0 0.020787248069809569 -0.0016255985741007704 0 0.02095409618910404 -0.001115622343661693 0 0.020787248069809569 -0.0016255985741007704 0 0.02037894009087176 -0.001617984703520398 0 0.02095409618910404 -0.001115622343661693 0 0.020298086320919499 -0.002119882031295628 0 0.020562428675663047 -0.0018096155170941282 0 0.02037894009087176 -0.001617984703520398 0 0.020787248069809569 -0.0016255985741007704 0 0.020562428675663047 -0.0018096155170941282 0 0.02037894009087176 -0.001617984703520398 0 0.020787248069809569 -0.0016255985741007704 0 0.020562428675663047 -0.0018096155170941282 0 0.020784879570004213 -0.0018858289751327491 0 0.020298086320919499 -0.002119882031295628 0 0.020562428675663047 -0.0018096155170941282 0 0.020784879570004213 -0.0018858289751327491 0 0.016989321473077672 0.00080927094418757281 0 0.017370251350718399 0.0010593911669697688 0 0.017962407521563788 0.0011928554518864801 0 0.017924236189102487 -0.00036805090715079451 0 0.018064840927330093 0.0011928845044904611 0 0.018859779436463865 -0.0018224404862821793 0 0.017962407521563788 0.0011928554518864801 0 0.018384541270747765 0.00078967842080846396 0 0.017370251350718399 0.0010593911669697688 0 0.017147329381263607 0.0010310530185876079 0 0.017314931728846 0.0012794614543745898 0 0.017147329381263607 0.0010310530185876079 0 0.017314931728846 0.0012794614543745898 0 0.016836068979143241 0.0011153790426373673 0 0.017314931728846 0.0012794614543745898 0 0.017962407521563788 0.0011928554518864801 0 0.017472807553073511 0.0017038976802032544 0 0.017314931728846 0.0012794614543745898 0 0.017472807553073511 0.0017038976802032544 0 0.016881310272558379 0.0014196532951594679 0 0.017370251350718399 0.0010593911669697688 0 0.017314931728846 0.0012794614543745898 0 0.017962407521563788 0.0011928554518864801 0 0.017962407521563788 0.0011928554518864801 0 0.018384541270747765 0.00078967842080846396 0 0.017905433912886699 0.0018786663567800443 0 0.017905433912886699 0.0018786663567800443 0 0.017472807553073511 0.0017038976802032544 0 0.017446996681350455 0.0026541859868893531 0 0.017962407521563788 0.0011928554518864801 0 0.017905433912886699 0.0018786663567800443 0 0.017472807553073511 0.0017038976802032544 0 0.017905433912886699 0.0018786663567800443 0 0.018472617803919223 0.0026508551185079848 0 0.017446996681350455 0.0026541859868893531 0 0.017472807553073511 0.0017038976802032544 0 0.016881310272558379 0.0014196532951594679 0 0.017446996681350455 0.0026541859868893531 0 0.019392520043124851 -0.00053459965895564902 0 0.019638492367261225 0.0011378205184512772 0 0.02037894009087176 -0.001617984703520398 0 0.02095409618910404 -0.001115622343661693 0 0.02078042878571703 -0.00031916895345101751 0 0.018384541270747765 0.00078967842080846396 0 0.017905433912886699 0.0018786663567800443 0 0.018472617803919223 0.0026508551185079848 0 0.021710899333555467 -0.00050963725518461244 0 0.02095409618910404 -0.001115622343661693 0 0.02078042878571703 -0.00031916895345101751 0 0.015817813291726081 0.0011440564120497826 0 0.01606906105663063 0.0015395858471394784 0 0.01640341119322811 0.0012370906027126375 0 0.01606906105663063 0.0015395858471394784 0 0.01640341119322811 0.0012370906027126375 0 0.016524986443496939 0.001654345288877474 0 0.01640341119322811 0.0012370906027126375 0 0.016881310272558379 0.0014196532951594679 0 0.016524986443496939 0.001654345288877474 0 0.01640341119322811 0.0012370906027126375 0 0.016836068979143241 0.0011153790426373673 0 0.016881310272558379 0.0014196532951594679 0 0.016618955996624087 0.00094682407203471465 0 0.01640341119322811 0.0012370906027126375 0 0.016836068979143241 0.0011153790426373673 0 0.017314931728846 0.0012794614543745898 0 0.016836068979143241 0.0011153790426373673 0 0.016881310272558379 0.0014196532951594679 0 0.016881310272558379 0.0014196532951594679 0 0.016524986443496939 0.001654345288877474 0 0.017321673624718561 0.0021112954081085578 0 0.016936394134141879 0.001485372617578082 0 0.017379489563477103 0.0023697549578061009 0 0.016524986443496939 0.001654345288877474 0 0.016438854614292057 0.0021085027438552859 0 0.017321673624718561 0.0021112954081085578 0 0.01606906105663063 0.0015395858471394784 0 0.016524986443496939 0.001654345288877474 0 0.016438854614292057 0.0021085027438552859 0 0.016438854614292057 0.0021085027438552859 0 0.017070787086694884 0.0026566580363541121 0 0.016550723502096156 0.0025766823819450106 0 0.016438854614292057 0.0021085027438552859 0 0.016550723502096156 0.0025766823819450106 0 0.016030097641001918 0.0025780322945730041 0 0.016438854614292057 0.0021085027438552859 0 0.017070787086694884 0.0026566580363541121 0 0.017321673624718561 0.0021112954081085578 0 0.017070787086694884 0.0026566580363541121 0 0.016856350800375421 0.0029346536288890278 0 0.017241112915777405 0.0032128689320023627 0 0.017070787086694884 0.0026566580363541121 0 0.016856350800375421 0.0029346536288890278 0 0.016550723502096156 0.0025766823819450106 0 0.017907936570086876 0.0036214372895845069 0 0.0176135261834892 0.003472647215038691 0 0.017661575028389019 0.0031519381180279372 0 0.016551312160766041 0.0030520687144238506 0 0.016509108753970127 0.0033763352889092119 0 0.016030097641001918 0.0025780322945730041 0 0.016858835164639083 0.0035076337439900345 0 0.016884699161644222 0.0028781051157561548 0 0.016856350800375421 0.0029346536288890278 0 0.016550723502096156 0.0025766823819450106 0 0.016551312160766041 0.0030520687144238506 0 0.016856350800375421 0.0029346536288890278 0 0.016551312160766041 0.0030520687144238506 0 0.016844566274880783 0.003227186481418916 0 0.016550723502096156 0.0025766823819450106 0 0.016551312160766041 0.0030520687144238506 0 0.016030097641001918 0.0025780322945730041 0 0.02176193328813715 0.00035206360397884541 0 0.02078042878571703 -0.00031916895345101751 0 0.021233048995243548 0.0013456743496965474 0 0.019638492367261225 0.0011378205184512772 0 0.019922875551568697 0.0026586899332993724 0 0.02176193328813715 0.00035206360397884541 0 0.021710899333555467 -0.00050963725518461244 0 0.02078042878571703 -0.00031916895345101751 0 0.018472617803919223 0.0026508551185079848 0 0.017446996681350455 0.0026541859868893531 0 0.017973958820055695 0.0036770563105595509 0 0.017070787086694884 0.0026566580363541121 0 0.017321673624718561 0.0021112954081085578 0 0.017784476832497093 0.0028486794359564157 0 0.017379489563477103 0.0023697549578061009 0 0.017875983703179429 0.0032602560278983585 0 0.017070787086694884 0.0026566580363541121 0 0.017784476832497093 0.0028486794359564157 0 0.017241112915777405 0.0032128689320023627 0 0.018472617803919223 0.0026508551185079848 0 0.017973958820055695 0.0036770563105595509 0 0.018708295105817323 0.0036990404614825009 0 0.018708295105817323 0.0036990404614825009 0 0.018353157284705442 0.0044686655718005168 0 0.018953943263999046 0.0045792994975306532 0 0.017973958820055695 0.0036770563105595509 0 0.018708295105817323 0.0036990404614825009 0 0.018353157284705442 0.0044686655718005168 0 0.017875983703179429 0.0032602560278983585 0 0.018315361561222033 0.0041037336669197313 0 0.017784476832497093 0.0028486794359564157 0 0.018270900148959608 0.003653016881011311 0 0.017699576352206151 0.0035022522516740743 0 0.017784476832497093 0.0028486794359564157 0 0.017699576352206151 0.0035022522516740743 0 0.017241112915777405 0.0032128689320023627 0 0.017699576352206151 0.0035022522516740743 0 0.017241112915777405 0.0032128689320023627 0 0.017368556892235296 0.0037830345445521514 0 0.018270900148959608 0.003653016881011311 0 0.017699576352206151 0.0035022522516740743 0 0.017834892277463751 0.0040367519435855507 0 0.018270900148959608 0.003653016881011311 0 0.017834892277463751 0.0040367519435855507 0 0.01830874569341159 0.0041659454024342481 0 0.017699576352206151 0.0035022522516740743 0 0.017834892277463751 0.0040367519435855507 0 0.017368556892235296 0.0037830345445521514 0 0.017834892277463751 0.0040367519435855507 0 0.017307947160489907 0.0043705203805839248 0 0.017970336448357709 0.0044148723871704756 0 0.017834892277463751 0.0040367519435855507 0 0.017368556892235296 0.0037830345445521514 0 0.017307947160489907 0.0043705203805839248 0 0.017834892277463751 0.0040367519435855507 0 0.01830874569341159 0.0041659454024342481 0 0.017970336448357709 0.0044148723871704756 0 0.018315361561222033 0.0041037336669197313 0 0.018682927175427303 0.0046756740118067816 0 0.018353157284705442 0.0044686655718005168 0 0.018660873927434395 0.0052232677434046896 0 0.018953943263999046 0.0045792994975306532 0 0.018270900148959608 0.003653016881011311 0 0.01830874569341159 0.0041659454024342481 0 0.018702304005262991 0.0044949889049009885 0 0.017907936570086876 0.0036214372895845069 0 0.017862319998674228 0.0038833271117372681 0 0.017680550675563022 0.0036904671740249292 0 0.016551312160766041 0.0030520687144238506 0 0.016530719959961724 0.0033746135396048637 0 0.016844566274880783 0.003227186481418916 0 0.016715623783435777 0.0031769912632291781 0 0.016858835164639083 0.0035076337439900345 0 0.016530719959961724 0.0033746135396048637 0 0.016994088479254495 0.0035306549034788341 0 0.016970946350809063 0.0040375347631081866 0 0.016530719959961724 0.0033746135396048637 0 0.016994088479254495 0.0035306549034788341 0 0.016844566274880783 0.003227186481418916 0 0.016994088479254495 0.0035306549034788341 0 0.016844566274880783 0.003227186481418916 0 0.017241112915777405 0.0032128689320023627 0 0.016856350800375421 0.0029346536288890278 0 0.016844566274880783 0.003227186481418916 0 0.017241112915777405 0.0032128689320023627 0 0.016994088479254495 0.0035306549034788341 0 0.017241112915777405 0.0032128689320023627 0 0.017368556892235296 0.0037830345445521514 0 0.016970946350809063 0.0040375347631081866 0 0.016461247362551185 0.0040547763998195945 0 0.017307947160489907 0.0043705203805839248 0 0.017368556892235296 0.0037830345445521514 0 0.016970946350809063 0.0040375347631081866 0 0.017307947160489907 0.0043705203805839248 0 0.016994088479254495 0.0035306549034788341 0 0.017368556892235296 0.0037830345445521514 0 0.016970946350809063 0.0040375347631081866 0 0.016858835164639083 0.0035076337439900345 0 0.016859721876215185 0.0038898080751768216 0 0.016578892509456038 0.0033104102483394043 0 0.016970946350809063 0.0040375347631081866 0 0.016461247362551185 0.0040547763998195945 0 0.016858835164639083 0.0035076337439900345 0 0.017828240458355536 0.0035969878096735026 0 0.017828240458355536 0.0035969878096735026 0 0.017623957239269138 0.0036446128299815958 0 0.020245340406053507 0.0032055304535597833 0 0.019639832913585294 0.0025444259912510187 0 0.020396276666700162 0.0023496261067822298 0 0.017828240458355536 0.0035969878096735026 0 0.022183187397724544 0.0012861194701677273 0 0.017828240458355536 0.0035969878096735026 0 0.020151098227867027 0.0033431856223274455 0 0.016461247362551185 0.0040547763998195945 0 0.017307947160489907 0.0043705203805839248 0 0.017308454121725863 0.0049646053468546262 0 0.024673948988658986 0.00042724115212354068 0 0.024588920591089306 0.00071179104208588288 0 0.025035548202277508 0.00050352580847735191 0 0.024673948988658986 0.00042724115212354068 0 0.024588920591089306 0.00071179104208588288 0 0.024256056764941358 0.00040555346877855125 0 0.020151098227867027 0.0033431856223274455 0 0.022183187397724544 0.0012861194701677273 0 0.024673948988658986 0.00042724115212354068 0 0.025035548202277508 0.00050352580847735191 0 0.024922151753243891 0.00027045352655456816 0 0.018505253789742323 0.0046094545244619667 0 0.018702304005262991 0.0044949889049009885 0 0.018644739639130974 0.0047555925601740472 0 0.018917546715169604 0.0041064425657643244 0 0.019133966069683289 0.0046989455798849347 0 0.019220614595702512 0.0043314786976392863 0 0.018682927175427303 0.0046756740118067816 0 0.018965981971957611 0.0045389917273067314 0 0.018907734989262022 0.0041364802147272868 0 0.018644739639130974 0.0047555925601740472 0 0.019133966069683289 0.0046989455798849347 0 0.018682927175427303 0.0046756740118067816 0 0.018704690340434132 0.004601616677747211 0 0.01830874569341159 0.0041659454024342481 0 0.018702304005262991 0.0044949889049009885 0 0.018414161105254099 0.0044100878722218287 0 0.01830874569341159 0.0041659454024342481 0 0.018414161105254099 0.0044100878722218287 0 0.017970336448357709 0.0044148723871704756 0 0.018505253789742323 0.0046094545244619667 0 0.018414161105254099 0.0044100878722218287 0 0.017970336448357709 0.0044148723871704756 0 0.018505253789742323 0.0046094545244619667 0 0.018702304005262991 0.0044949889049009885 0 0.018414161105254099 0.0044100878722218287 0 0.017308454121725863 0.0049646053468546262 0 0.018505253789742323 0.0046094545244619667 0 0.017970336448357709 0.0044148723871704756 0 0.020151098227867027 0.0033431856223274455 0 0.017363294812710098 0.005096960089500298 0 0.017307947160489907 0.0043705203805839248 0 0.017308454121725863 0.0049646053468546262 0 0.017970336448357709 0.0044148723871704756 0 0.017980986191292826 0.0047406949037448508 0 0.018490891805091926 0.0048934539246935473 0 0.018310951434076645 0.0051824895641612205 0 0.017980986191292826 0.0047406949037448508 0 0.018505253789742323 0.0046094545244619667 0 0.018490891805091926 0.0048934539246935473 0 0.020151098227867027 0.0033431856223274455 0 0.021257693768625414 0.0028780452758302871 0 0.018490891805091926 0.0048934539246935473 0 0.018863188768250674 0.0052897302110360839 0 0.018310951434076645 0.0051824895641612205 0 0.018490891805091926 0.0048934539246935473 0 0.018910600370163785 0.0049820636943473844 0 0.018863188768250674 0.0052897302110360839 0 0.018490891805091926 0.0048934539246935473 0 0.018644739639130974 0.0047555925601740472 0 0.018910600370163785 0.0049820636943473844 0 0.018505253789742323 0.0046094545244619667 0 0.018490891805091926 0.0048934539246935473 0 0.018644739639130974 0.0047555925601740472 0 0.018644739639130974 0.0047555925601740472 0 0.018910600370163785 0.0049820636943473844 0 0.019133966069683289 0.0046989455798849347 0 0.018910600370163785 0.0049820636943473844 0 0.019443328408194595 0.0052362726984214927 0 0.018863188768250674 0.0052897302110360839 0 0.02679464317743404 0.0029450611504906214 0 0.031530945621125628 0.0030058400630443814 0 0.023693521972188242 0.0049207687419394385 0 0.02679464317743404 0.0029450611504906214 0 0.018910600370163785 0.0049820636943473844 0 0.019443328408194595 0.0052362726984214927 0 0.019133966069683289 0.0046989455798849347 0 0.028524120436776972 0.0033421069683155797 0 0.028648731278905968 0.0026739249741985572 0 0.028909821556477665 0.0034254974011636223 0 0.019443328408194595 0.0052362726984214927 0 0.019402170297272682 0.004616346744148867 0 0.019695844525383546 0.0044698826261904013 0 0.019443328408194595 0.0052362726984214927 0 0.019402170297272682 0.004616346744148867 0 0.019133966069683289 0.0046989455798849347 0 0.019220614595702512 0.0043314786976392863 0 0.019592219671571886 0.0044029938846228576 0 0.01936536592642641 0.003150917442755267 0 0.019592219671571886 0.0044029938846228576 0 0.01969762846031485 0.0043920769000142168 0 0.01936536592642641 0.003150917442755267 0 0.018917546715169604 0.0041064425657643244 0 0.019220614595702512 0.0043314786976392863 0 0.01936536592642641 0.003150917442755267 0 0.019402170297272682 0.004616346744148867 0 0.019133966069683289 0.0046989455798849347 0 0.019220614595702512 0.0043314786976392863 0 0.019402170297272682 0.004616346744148867 0 0.019220614595702512 0.0043314786976392863 0 0.019592219671571886 0.0044029938846228576 0 0.025374206218262155 0.0026805587027516294 0 0.025351333097269068 0.0026056645792309876 0 0.025708713066906964 0.0022548759249071911 0 0.019402170297272682 0.004616346744148867 0 0.019695844525383546 0.0044698826261904013 0 0.019592219671571886 0.0044029938846228576 0 0.02679464317743404 0.0029450611504906214 0 0.025445247372846497 0.0025971393573929816 0 0.019726250188264093 0.0044680982280096062 0 0.019592219671571886 0.0044029938846228576 0 0.01969762846031485 0.0043920769000142168 0 0.02679464317743404 0.0029450611504906214 0 0.025630771642722261 0.002774417540764483 0 0.025630771642722261 0.002774417540764483 0 0.025445735924397354 0.0018643244130270194 0 0.025351333097269068 0.0026056645792309876 0 0.025708713066906964 0.0022548759249071911 0 0.025472591852244687 0.0018029591412400052 0 0.025374206218262155 0.0026805587027516294 0 0.026213252295706081 0.0023418246717444632 0 0.025708713066906964 0.0022548759249071911 0 0.025374206218262155 0.0026805587027516294 0 0.026213252295706081 0.0023418246717444632 0 0.026445375531417157 0.003223062146249474 0 0.026213252295706081 0.0023418246717444632 0 0.025708713066906964 0.0022548759249071911 0 0.025973804416869157 0.0015558074813635887 0 0.03370252507249781 0.0025872524867299488 0 0.03362216905552274 0.0025425912982719517 0 0.033753909737489526 0.0024360429761281382 0 0.02679464317743404 0.0029450611504906214 0 0.030691477633880054 0.0031176069249784621 0 0.030691477633880054 0.0031176069249784621 0 0.029432284260531252 0.0023388089824622951 0 0.026445375531417157 0.003223062146249474 0 0.027094148203913187 0.0026341014802773264 0 0.02752057848359846 0.0037578835351878962 0 0.025723825327073978 0.00020487069805992587 0 0.026284750570593967 0.00082850306494548342 0 0.027173847999560279 0.00026732496123872917 0 0.026141827367354705 0.0012943794412468514 0 0.029432284260531252 0.0023388089824622951 0 0.025723825327073978 0.00020487069805992587 0 0.026405323833308878 0.00025293667470857963 0 0.027173847999560279 0.00026732496123872917 0 0.025723825327073978 0.00020487069805992587 0 0.025632004346020816 -6.5883895902013809e-05 0 0.026405323833308878 0.00025293667470857963 0 0.026213252295706081 0.0023418246717444632 0 0.027094148203913187 0.0026341014802773264 0 0.026670095799142174 0.0015153355817043761 0 0.026213252295706081 0.0023418246717444632 0 0.026445375531417157 0.003223062146249474 0 0.027094148203913187 0.0026341014802773264 0 0.026141827367354705 0.0012943794412468514 0 0.025810415263499868 0.0007289555824996415 0 0.025723825327073978 0.00020487069805992587 0 0.024917581819908555 -5.1450252217370575e-05 0 0.025632004346020816 -6.5883895902013809e-05 0 0.024917581819908555 -5.1450252217370575e-05 0 0.025632004346020816 -6.5883895902013809e-05 0 0.025007123956337717 -0.00046161820011691464 0 0.025632004346020816 -6.5883895902013809e-05 0 0.025007123956337717 -0.00046161820011691464 0 0.025595014024692699 -0.00037789199417607913 0 0.025055757699865105 -0.00080263293076355624 0 0.025007123956337717 -0.00046161820011691464 0 0.025595014024692699 -0.00037789199417607913 0 0.024917581819908555 -5.1450252217370575e-05 0 0.025007123956337717 -0.00046161820011691464 0 0.024117663639581677 -0.00056503239237294211 0 0.025810415263499868 0.0007289555824996415 0 0.025232554910869762 -0.00019356931719300154 0 0.02534013835076691 0.00025477040591757736 0 0.026245941450181085 0.00035471819153648103 0 0.025565003410130425 0.00099882721046004185 0 0.026670095799142174 0.0015153355817043761 0 0.026245941450181085 0.00035471819153648103 0 0.025973804416869157 0.0015558074813635887 0 0.026245941450181085 0.00035471819153648103 0 0.025565003410130425 0.00099882721046004185 0 0.025973804416869157 0.0015558074813635887 0 0.02534013835076691 0.00025477040591757736 0 0.025565003410130425 0.00099882721046004185 0 0.024790086903748766 0.0014137797676904366 0 0.019922875551568697 0.0026586899332993724 0 0.020952978197869728 0.0030400290848989694 0 0.024104357540068021 0.0007282377794971571 0 0.020952978197869728 0.0030400290848989694 0 0.022333651286508771 0.001654348944939486 0 0.021233048995243548 0.0013456743496965474 0 0.021717836778705563 0.003021720250952536 0 0.025565003410130425 0.00099882721046004185 0 0.024790086903748766 0.0014137797676904366 0 0.025393834000511834 0.0019516626521613786 0 0.018682927175427303 0.0046756740118067816 0 0.020952978197869728 0.0030400290848989694 0 0.025216957812210547 0.0029085176426955927 0 0.024790086903748766 0.0014137797676904366 0 0.025393834000511834 0.0019516626521613786 0 0.025630771642722261 0.002774417540764483 0 0.020952978197869728 0.0030400290848989694 0 0.025554179569889098 0.0011172560148463605 0 0.025445735924397354 0.0018643244130270194 0 0.026213252295706081 0.0023418246717444632 0 0.026670095799142174 0.0015153355817043761 0 0.025973804416869157 0.0015558074813635887 0 0.025708713066906964 0.0022548759249071911 0 0.025472591852244687 0.0018029591412400052 0 0.025973804416869157 0.0015558074813635887 0 0.025565003410130425 0.00099882721046004185 0 0.025472591852244687 0.0018029591412400052 0 0.025973804416869157 0.0015558074813635887 0 0.0096015108618394025 0.0044651359112872621 0 0.0096863835610722978 0.0042209891309590176 0 0.0098463736879645658 0.0041128858001672486 0 0.0096015108618394025 0.0044651359112872621 0 0.0096863835610722978 0.0042209891309590176 0 0.0095890947283305845 0.0042715583619647697 0 0.0096863835610722978 0.0042209891309590176 0 0.0096611217425847887 0.0042185299986905516 0 0.0096544106706944154 0.0042283327845889854 0 0.0096863835610722978 0.0042209891309590176 0 0.0096544106706944154 0.0042283327845889854 0 0.0097217781321813062 0.0040534349111531458 0 0.0096863835610722978 0.0042209891309590176 0 0.0096611217425847887 0.0042185299986905516 0 0.0095890947283305845 0.0042715583619647697 0 0.0096611217425847887 0.0042185299986905516 0 0.0095638044259502477 0.0040863939399348771 0 0.009858341976438709 0.0040818835835195744 0 0.0096611217425847887 0.0042185299986905516 0 0.0095890947283305845 0.0042715583619647697 0 0.0095638044259502477 0.0040863939399348771 0 0.0093101873879114123 0.0041274725772649521 0 0.0095890947283305845 0.0042715583619647697 0 0.0095638044259502477 0.0040863939399348771 0 0.0093101873879114123 0.0041274725772649521 0 0.0096015108618394025 0.0044651359112872621 0 0.0095890947283305845 0.0042715583619647697 0 0.0093101873879114123 0.0041274725772649521 0 0.0092133315349769793 0.0037496245903726995 0 0.0095638044259502477 0.0040863939399348771 0 0.0094745095449199485 0.0035692941055340491 0 0.0092133315349769793 0.0037496245903726995 0 0.0096487963402344633 0.0038910985822089104 0 0.0094745095449199485 0.0035692941055340491 0 0.0096487963402344633 0.0038910985822089104 0 0.0097676377265780833 0.0037511132089801088 0 0.0096487963402344633 0.0038910985822089104 0 0.0095638044259502477 0.0040863939399348771 0 0.009858341976438709 0.0040818835835195744 0 0.0092133315349769793 0.0037496245903726995 0 0.0096487963402344633 0.0038910985822089104 0 0.0095638044259502477 0.0040863939399348771 0 0.0096487963402344633 0.0038910985822089104 0 0.009858341976438709 0.0040818835835195744 0 0.0098787867933361282 0.0039256170326407193 0 0.0096487963402344633 0.0038910985822089104 0 0.0098787867933361282 0.0039256170326407193 0 0.0097676377265780833 0.0037511132089801088 0 0.0098787867933361282 0.0039256170326407193 0 0.0097676377265780833 0.0037511132089801088 0 0.010013886672096206 0.0037740831575184463 0 0.0098787867933361282 0.0039256170326407193 0 0.010013886672096206 0.0037740831575184463 0 0.0099909936037251099 0.0039802439543708303 0 0.0091521391881582825 0.0032526717469620885 0 0.014421360548343788 0.0041455173393026724 0 0.010497735298492187 0.0035314105569748187 0 0.010013886672096206 0.0037740831575184463 0 0.010389495399737872 0.0042462089622309568 0 0.009858341976438709 0.0040818835835195744 0 0.0099909936037251099 0.0039802439543708303 0 0.0098070260754147768 0.0040082012351468251 0 0.014421360548343788 0.0041455173393026724 0 0.015841889460671197 0.0049262397608000382 0 0.009858341976438709 0.0040818835835195744 0 0.0098787867933361282 0.0039256170326407193 0 0.0099909936037251099 0.0039802439543708303 0 0.0098597014322777937 0.0040636877271022645 0 0.0098642731423632512 0.0039752107514274462 0 0.009858341976438709 0.0040818835835195744 0 0.0098070260754147768 0.0040082012351468251 0 0.010069345838869311 0.0037693900541273407 0 0.0096611217425847887 0.0042185299986905516 0 0.009858341976438709 0.0040818835835195744 0 0.0096544106706944154 0.0042283327845889854 0 0.0098070260754147768 0.0040082012351468251 0 0.010069345838869311 0.0037693900541273407 0 0.0097215873760878573 0.0035204024699042832 0 0.015841889460671197 0.0049262397608000382 0 0.015856703500500526 0.0038954633383808911 0 0.02161866781405308 0.0055033892341594653 0 0.021228825672468164 0.0052008285959530432 0 0.022011525922781126 0.004407205029002742 0 0.021228825672468164 0.0052008285959530432 0 0.021080762200313904 0.0047100709617182122 0 0.022011525922781126 0.004407205029002742 0 0.021228825672468164 0.0052008285959530432 0 0.020762621762452728 0.0050753055713537946 0 0.020858433545412981 0.005596910933655933 0 0.021228825672468164 0.0052008285959530432 0 0.021080762200313904 0.0047100709617182122 0 0.020762621762452728 0.0050753055713537946 0 0.021080762200313904 0.0047100709617182122 0 0.020634125331579607 0.0046975515610203937 0 0.020762621762452728 0.0050753055713537946 0 0.020634125331579607 0.0046975515610203937 0 0.02007461272586326 0.0046934734890412208 0 0.020762621762452728 0.0050753055713537946 0 0.018090661190484941 0.0044791416224192792 0 0.018690472557006562 0.0051431028861386105 0 0.018090661190484941 0.0044791416224192792 0 0.015865703722985493 0.0032383632319715866 0 0.01690321108314588 0.0035373601748349606 0 0.016216526898964776 0.0027999324467484822 0 0.017028202774596417 0.0032777915345462102 0 0.02007461272586326 0.0046934734890412208 0 0.020762621762452728 0.0050753055713537946 0 0.020858433545412981 0.005596910933655933 0 0.016374941169028958 0.0054121180111631681 0 0.015902636646490966 0.0037988842611084233 0 0.01534770316065039 0.0040364960657275446 0 0.015902636646490966 0.0037988842611084233 0 0.01534770316065039 0.0040364960657275446 0 0.015263469454620012 0.0031280610948306513 0 0.02161866781405308 0.0055033892341594653 0 0.021228825672468164 0.0052008285959530432 0 0.020858433545412981 0.005596910933655933 0 0.021371530151436422 0.0063603585956952379 0 0.02161866781405308 0.0055033892341594653 0 0.020858433545412981 0.005596910933655933 0 0.014421360548343788 0.0041455173393026724 0 0.018690472557006562 0.0051431028861386105 0 0.014406741616985529 0.0027020075789374698 0 0.01534770316065039 0.0040364960657275446 0 0.015263469454620012 0.0031280610948306513 0 0.014406741616985529 0.0027020075789374698 0 0.015263469454620012 0.0031280610948306513 0 0.015407833056131292 0.0022553196890851709 0 0.012313098988365283 0.0022494559924532793 0 0.014421360548343788 0.0041455173393026724 0 0.014638036226215028 0.0012045045892354826 0 0.014406741616985529 0.0027020075789374698 0 0.015407833056131292 0.0022553196890851709 0 0.015475448640831634 0.0018092416950280022 0 0.016277741722734732 0.0022006910082363182 0 0.016243287791621881 0.0015454694925254901 0 0.015460048358598174 0.0013300070836459522 0 0.015475448640831634 0.0018092416950280022 0 0.016243287791621881 0.0015454694925254901 0 0.016216526898964776 0.0027999324467484822 0 0.015475448640831634 0.0018092416950280022 0 0.016277741722734732 0.0022006910082363182 0 0.015902636646490966 0.0037988842611084233 0 0.015263469454620012 0.0031280610948306513 0 0.015407833056131292 0.0022553196890851709 0 0.016216526898964776 0.0027999324467484822 0 0.016277741722734732 0.0022006910082363182 0 0.016651430311221568 0.0026067891751952884 0 0.015865703722985493 0.0032383632319715866 0 0.015454711452776587 0.0020299610378732317 0 0.016277741722734732 0.0022006910082363182 0 0.016651430311221568 0.0026067891751952884 0 0.017098853580855628 0.0023973423272879444 0 0.016277741722734732 0.0022006910082363182 0 0.016243287791621881 0.0015454694925254901 0 0.017098853580855628 0.0023973423272879444 0 0.015304596091027035 0.0012611259519874369 0 0.015694886351525824 0.0014402976529614268 0 0.01560381674630257 0.0018587916599733022 0 0.015767420174375019 0.001434792698145744 0 0.016346152707785763 0.0021357633327508648 0 0.015817813291726081 0.0011440564120497826 0 0.01606906105663063 0.0015395858471394784 0 0.015694886351525824 0.0014402976529614268 0 0.015817813291726081 0.0011440564120497826 0 0.015304596091027035 0.0012611259519874369 0 0.015694886351525824 0.0014402976529614268 0 0.01606906105663063 0.0015395858471394784 0 0.016438854614292057 0.0021085027438552859 0 0.01560381674630257 0.0018587916599733022 0 0.01606906105663063 0.0015395858471394784 0 0.015694886351525824 0.0014402976529614268 0 0.01560381674630257 0.0018587916599733022 0 0.017098853580855628 0.0023973423272879444 0 0.017023305683030971 0.0029915222226827602 0 0.017661575028389019 0.0031519381180279372 0 0.016438854614292057 0.0021085027438552859 0 0.01560381674630257 0.0018587916599733022 0 0.016030097641001918 0.0025780322945730041 0 0.016346152707785763 0.0021357633327508648 0 0.016884699161644222 0.0028781051157561548 0 0.016216526898964776 0.0027999324467484822 0 0.017023305683030971 0.0029915222226827602 0 0.017028202774596417 0.0032777915345462102 0 0.016216526898964776 0.0027999324467484822 0 0.016651430311221568 0.0026067891751952884 0 0.017023305683030971 0.0029915222226827602 0 0.016651430311221568 0.0026067891751952884 0 0.017098853580855628 0.0023973423272879444 0 0.017023305683030971 0.0029915222226827602 0 0.017023305683030971 0.0029915222226827602 0 0.017028202774596417 0.0032777915345462102 0 0.017356820868503944 0.003306062272968039 0 0.01690321108314588 0.0035373601748349606 0 0.017028202774596417 0.0032777915345462102 0 0.017418399599166148 0.0035353771179487564 0 0.017028202774596417 0.0032777915345462102 0 0.017356820868503944 0.003306062272968039 0 0.017418399599166148 0.0035353771179487564 0 0.017023305683030971 0.0029915222226827602 0 0.017661575028389019 0.0031519381180279372 0 0.017356820868503944 0.003306062272968039 0 0.0176135261834892 0.003472647215038691 0 0.017356820868503944 0.003306062272968039 0 0.017418399599166148 0.0035353771179487564 0 0.0176135261834892 0.003472647215038691 0 0.017661575028389019 0.0031519381180279372 0 0.017356820868503944 0.003306062272968039 0 0.017680550675563022 0.0036904671740249292 0 0.017418399599166148 0.0035353771179487564 0 0.017597869057343063 0.0036811370049599956 0 0.017907936570086876 0.0036214372895845069 0 0.0176135261834892 0.003472647215038691 0 0.017680550675563022 0.0036904671740249292 0 0.0176135261834892 0.003472647215038691 0 0.017680550675563022 0.0036904671740249292 0 0.017418399599166148 0.0035353771179487564 0 0.020059641727848462 0.0048093695240301474 0 0.019853067196980278 0.0042148862717586132 0 0.019297530547631021 0.0040204563659152906 0 0.018090661190484941 0.0044791416224192792 0 0.018406500022111756 0.0037465809319630122 0 0.01690321108314588 0.0035373601748349606 0 0.017418399599166148 0.0035353771179487564 0 0.017597869057343063 0.0036811370049599956 0 0.018090661190484941 0.0044791416224192792 0 0.019428057258406198 0.0045829793703017329 0 0.019853067196980278 0.0042148862717586132 0 0.01976335760052449 0.003782222766330702 0 0.020317094007201573 0.0038343847280837553 0 0.019853067196980278 0.0042148862717586132 0 0.019297530547631021 0.0040204563659152906 0 0.01976335760052449 0.003782222766330702 0 0.019297530547631021 0.0040204563659152906 0 0.019351669459417846 0.0034030290041122853 0 0.018155077926408553 0.0030912443503928878 0 0.019297530547631021 0.0040204563659152906 0 0.01976335760052449 0.003782222766330702 0 0.019351669459417846 0.0034030290041122853 0 0.019351669459417846 0.0034030290041122853 0 0.019428458053869481 0.0027068476430510734 0 0.019998539316355833 0.0032904296806335045 0 0.01976335760052449 0.003782222766330702 0 0.019351669459417846 0.0034030290041122853 0 0.019998539316355833 0.0032904296806335045 0 0.019351669459417846 0.0034030290041122853 0 0.018155077926408553 0.0030912443503928878 0 0.019428458053869481 0.0027068476430510734 0 0.017680550675563022 0.0036904671740249292 0 0.017597869057343063 0.0036811370049599956 0 0.018155077926408553 0.0030912443503928878 0 0.01729859107862201 0.0033323890578876385 0 0.017680550675563022 0.0036904671740249292 0 0.018155077926408553 0.0030912443503928878 0 0.018406500022111756 0.0037465809319630122 0 0.018110823540400264 0.0031304415944562415 0 0.01729859107862201 0.0033323890578876385 0 0.017513824403012159 0.0015481354640187084 0 0.018155077926408553 0.0030912443503928878 0 0.017513824403012159 0.0015481354640187084 0 0.018155077926408553 0.0030912443503928878 0 0.018758788236861172 0.002050505072908825 0 0.024439897432321299 0.00061803022199080388 0 0.023788229557556835 0.00064684095865694667 0 0.024009374506359843 0.0011422855075756745 0 0.022183187397724544 0.0012861194701677273 0 0.021321731575361574 0.000878092183606985 0 0.017513824403012159 0.0015481354640187084 0 0.018758788236861172 0.002050505072908825 0 0.019431476421540649 0.0010286874293999478 0 0.018758788236861172 0.002050505072908825 0 0.019431476421540649 0.0010286874293999478 0 0.019918042296350164 0.0020180022158464398 0 0.019918042296350164 0.0020180022158464398 0 0.019428458053869481 0.0027068476430510734 0 0.020506238350501468 0.0026629859058100408 0 0.018758788236861172 0.002050505072908825 0 0.019918042296350164 0.0020180022158464398 0 0.019428458053869481 0.0027068476430510734 0 0.018155077926408553 0.0030912443503928878 0 0.018758788236861172 0.002050505072908825 0 0.019428458053869481 0.0027068476430510734 0 0.019428458053869481 0.0027068476430510734 0 0.020506238350501468 0.0026629859058100408 0 0.019998539316355833 0.0032904296806335045 0 0.020506238350501468 0.0026629859058100408 0 0.021281212572486854 0.0028618862465003025 0 0.020662852363449391 0.0032730421783796117 0 0.020506238350501468 0.0026629859058100408 0 0.021148130549687227 0.0023267287334997277 0 0.021281212572486854 0.0028618862465003025 0 0.020506238350501468 0.0026629859058100408 0 0.02109071769275548 0.0017747970510870754 0 0.021148130549687227 0.0023267287334997277 0 0.019918042296350164 0.0020180022158464398 0 0.020506238350501468 0.0026629859058100408 0 0.02109071769275548 0.0017747970510870754 0 0.021321731575361574 0.000878092183606985 0 0.021858662320660884 0.00090846631874108867 0 0.019431476421540649 0.0010286874293999478 0 0.019918042296350164 0.0020180022158464398 0 0.02109071769275548 0.0017747970510870754 0 0.019431476421540649 0.0010286874293999478 0 0.02109071769275548 0.0017747970510870754 0 0.021799460320251825 0.00094468002000448064 0 0.02109071769275548 0.0017747970510870754 0 0.021845741172748907 0.0013688495670246537 0 0.021647262794230463 0.0020576876125314677 0 0.02109071769275548 0.0017747970510870754 0 0.021845741172748907 0.0013688495670246537 0 0.021799460320251825 0.00094468002000448064 0 0.02109071769275548 0.0017747970510870754 0 0.021647262794230463 0.0020576876125314677 0 0.021148130549687227 0.0023267287334997277 0 0.021647262794230463 0.0020576876125314677 0 0.021148130549687227 0.0023267287334997277 0 0.021281212572486854 0.0028618862465003025 0 0.021647262794230463 0.0020576876125314677 0 0.021281212572486854 0.0028618862465003025 0 0.021861250513738356 0.0026103311221010602 0 0.021281212572486854 0.0028618862465003025 0 0.021662013788918133 0.0034734576886009238 0 0.021861250513738356 0.0026103311221010602 0 0.021662013788918133 0.0034734576886009238 0 0.021040835784611286 0.0036697556505441886 0 0.021282059185014739 0.0041206727415182233 0 0.021281212572486854 0.0028618862465003025 0 0.021040835784611286 0.0036697556505441886 0 0.020662852363449391 0.0032730421783796117 0 0.021281212572486854 0.0028618862465003025 0 0.021662013788918133 0.0034734576886009238 0 0.021040835784611286 0.0036697556505441886 0 0.020506238350501468 0.0026629859058100408 0 0.020662852363449391 0.0032730421783796117 0 0.019998539316355833 0.0032904296806335045 0 0.01976335760052449 0.003782222766330702 0 0.019998539316355833 0.0032904296806335045 0 0.020317094007201573 0.0038343847280837553 0 0.020662852363449391 0.0032730421783796117 0 0.019998539316355833 0.0032904296806335045 0 0.020317094007201573 0.0038343847280837553 0 0.021040835784611286 0.0036697556505441886 0 0.020662852363449391 0.0032730421783796117 0 0.020317094007201573 0.0038343847280837553 0 0.021040835784611286 0.0036697556505441886 0 0.020317094007201573 0.0038343847280837553 0 0.020613846887077281 0.0043069555064116118 0 0.019853067196980278 0.0042148862717586132 0 0.020317094007201573 0.0038343847280837553 0 0.020613846887077281 0.0043069555064116118 0 0.02007461272586326 0.0046934734890412208 0 0.019853067196980278 0.0042148862717586132 0 0.020613846887077281 0.0043069555064116118 0 0.020634125331579607 0.0046975515610203937 0 0.02007461272586326 0.0046934734890412208 0 0.020613846887077281 0.0043069555064116118 0 0.021080762200313904 0.0047100709617182122 0 0.020634125331579607 0.0046975515610203937 0 0.020613846887077281 0.0043069555064116118 0 0.021080762200313904 0.0047100709617182122 0 0.020613846887077281 0.0043069555064116118 0 0.021282059185014739 0.0041206727415182233 0 0.021080762200313904 0.0047100709617182122 0 0.021282059185014739 0.0041206727415182233 0 0.022011525922781126 0.004407205029002742 0 0.021040835784611286 0.0036697556505441886 0 0.020613846887077281 0.0043069555064116118 0 0.021282059185014739 0.0041206727415182233 0 0.021662013788918133 0.0034734576886009238 0 0.021282059185014739 0.0041206727415182233 0 0.022011525922781126 0.004407205029002742 0 0.0096544106706944154 0.0042283327845889854 0 0.0096041301100039146 0.0039197668293247381 0 0.0097217781321813062 0.0040534349111531458 0 0.0098642731423632512 0.0039752107514274462 0 0.0099105286417363325 0.0034991526157062505 0 0.010069345838869311 0.0037693900541273407 0 0.0097215873760878573 0.0035204024699042832 0 0.010220291209927946 0.00308422582989561 0 0.010220291209927946 0.00308422582989561 0 0.0097034620878348968 0.0027565845507870768 0 0.010293884162181592 0.0022187343417384184 0 0.0097215873760878573 0.0035204024699042832 0 0.010220291209927946 0.00308422582989561 0 0.0097034620878348968 0.0027565845507870768 0 0.015856703500500526 0.0038954633383808911 0 0.016041095810100141 0.0029026847256876068 0 0.021662013788918133 0.0034734576886009238 0 0.022011525922781126 0.004407205029002742 0 0.022362504004665024 0.0030091339893265606 0 0.021662013788918133 0.0034734576886009238 0 0.022362504004665024 0.0030091339893265606 0 0.021861250513738356 0.0026103311221010602 0 0.016041095810100141 0.0029026847256876068 0 0.015860993127670909 0.0017088428153698378 0 0.022362504004665024 0.0030091339893265606 0 0.021861250513738356 0.0026103311221010602 0 0.02241211745897332 0.0017124616997110027 0 0.021647262794230463 0.0020576876125314677 0 0.021861250513738356 0.0026103311221010602 0 0.02241211745897332 0.0017124616997110027 0 0.021845741172748907 0.0013688495670246537 0 0.021647262794230463 0.0020576876125314677 0 0.02241211745897332 0.0017124616997110027 0 0.021845741172748907 0.0013688495670246537 0 0.02241211745897332 0.0017124616997110027 0 0.02206626078085034 0.0013221005465974284 0 0.0097137349667257081 0.001891406409877057 0 0.010293884162181592 0.0022187343417384184 0 0.0099452188973041394 0.0015024636610379779 0 0.0099105286417363325 0.0034991526157062505 0 0.010016013630512181 0.0026710784123251943 0 0.0097034620878348968 0.0027565845507870768 0 0.0097137349667257081 0.001891406409877057 0 0.010293884162181592 0.0022187343417384184 0 0.010102444811199505 0.0035135214323248972 0 0.0097088819782322928 0.0031615429136992602 0 0.010976946946901999 0.0025564804864169027 0 0.0096041301100039146 0.0039197668293247381 0 0.010102444811199505 0.0035135214323248972 0 0.0097088819782322928 0.0031615429136992602 0 0.010016013630512181 0.0026710784123251943 0 0.010243507041393148 0.0014726924431562648 0 0.0097088819782322928 0.0031615429136992602 0 0.010692410690142257 0.0019227997998780154 0 0.010976946946901999 0.0025564804864169027 0 0.0097088819782322928 0.0031615429136992602 0 0.010692410690142257 0.0019227997998780154 0 0.010275553356546282 0.0013633873922823845 0 0.010293884162181592 0.0022187343417384184 0 0.010275553356546282 0.0013633873922823845 0 0.0099452188973041394 0.0015024636610379779 0 0.012077046950505474 0.0021925107603731329 0 0.010976946946901999 0.0025564804864169027 0 0.01153496982356492 0.001596861693020493 0 0.010692410690142257 0.0019227997998780154 0 0.010976946946901999 0.0025564804864169027 0 0.01153496982356492 0.001596861693020493 0 0.012077046950505474 0.0021925107603731329 0 0.010976946946901999 0.0025564804864169027 0 0.01187361096877021 0.0031313007222916007 0 0.010102444811199505 0.0035135214323248972 0 0.010976946946901999 0.0025564804864169027 0 0.01187361096877021 0.0031313007222916007 0 0.010233203147666502 0.0034887678726883693 0 0.010942799061439601 0.0032657703614976117 0 0.010102444811199505 0.0035135214323248972 0 0.010125812421387114 0.0033777823911694707 0 0.010059286240337181 0.0035911699563328276 0 0.01013878635232475 0.0038293276001447455 0 0.010059286240337181 0.0035911699563328276 0 0.0098671153314181144 0.0039346553863270359 0 0.010102444811199505 0.0035135214323248972 0 0.010059286240337181 0.0035911699563328276 0 0.0098733060850046388 0.0038191019361402639 0 0.010059286240337181 0.0035911699563328276 0 0.0098733060850046388 0.0038191019361402639 0 0.0098671153314181144 0.0039346553863270359 0 0.0096041301100039146 0.0039197668293247381 0 0.010102444811199505 0.0035135214323248972 0 0.0098733060850046388 0.0038191019361402639 0 0.0096041301100039146 0.0039197668293247381 0 0.0098733060850046388 0.0038191019361402639 0 0.0097217781321813062 0.0040534349111531458 0 0.0096863835610722978 0.0042209891309590176 0 0.0097217781321813062 0.0040534349111531458 0 0.0098671153314181144 0.0039346553863270359 0 0.0098733060850046388 0.0038191019361402639 0 0.0097217781321813062 0.0040534349111531458 0 0.0098671153314181144 0.0039346553863270359 0 0.0096863835610722978 0.0042209891309590176 0 0.0098463736879645658 0.0041128858001672486 0 0.0098671153314181144 0.0039346553863270359 0 0.01013878635232475 0.0038293276001447455 0 0.0098463736879645658 0.0041128858001672486 0 0.0098671153314181144 0.0039346553863270359 0 0.020157744349129342 0.001580406296183511 0 0.021010570297163956 0.0013508481337913339 0 0.020265378574088264 0.0024468545561899314 0 0.020157744349129342 0.001580406296183511 0 0.021010570297163956 0.0013508481337913339 0 0.020079828540585199 0.00070674094055717021 0 0.019266102105809993 0.0014999110975787179 0 0.020157744349129342 0.001580406296183511 0 0.020079828540585199 0.00070674094055717021 0 0.019392916638032689 0.0023412186700483861 0 0.019266102105809993 0.0014999110975787179 0 0.020157744349129342 0.001580406296183511 0 0.021010570297163956 0.0013508481337913339 0 0.021845800895630541 0.002116687075613979 0 0.021100698710272616 0.0026435636987140053 0 0.021010570297163956 0.0013508481337913339 0 0.021096825404922241 0.00046610863630266915 0 0.020079828540585199 0.00070674094055717021 0 0.021010570297163956 0.0013508481337913339 0 0.021096825404922241 0.00046610863630266915 0 0.021901375208696706 0.00085963431972555415 0 0.020997992767545503 0.001340024236887474 0 0.022473403626745155 0.0010704095270199232 0 0.021096825404922241 0.00046610863630266915 0 0.020079828540585199 0.00070674094055717021 0 0.020385038078692224 -0.00029016849253102643 0 0.019615607711090742 -0.00016176049929092349 0 0.016670089235609826 0.00019551731822978213 0 0.01235861680415612 0.00049504064077991912 0 0.011012316104529549 0.00027451061617947506 0 0.010922282950111911 0.0010402323243247746 0 0.019377926045696957 -6.0772391503542544e-05 0 0.020079828540585199 0.00070674094055717021 0 0.020385038078692224 -0.00029016849253102643 0 0.01235861680415612 0.00049504064077991912 0 0.010922282950111911 0.0010402323243247746 0 0.01153496982356492 0.001596861693020493 0 0.010692410690142257 0.0019227997998780154 0 0.010922282950111911 0.0010402323243247746 0 0.01153496982356492 0.001596861693020493 0 0.010692410690142257 0.0019227997998780154 0 0.010922282950111911 0.0010402323243247746 0 0.010275553356546282 0.0013633873922823845 0 0.010922282950111911 0.0010402323243247746 0 0.010275553356546282 0.0013633873922823845 0 0.010203557461743923 0.00072763708709575091 0 0.010275553356546282 0.0013633873922823845 0 0.010203557461743923 0.00072763708709575091 0 0.010029217221558124 0.001164607714338456 0 0.021096825404922241 0.00046610863630266915 0 0.020385038078692224 -0.00029016849253102643 0 0.022065397644658744 -0.00029554083083260042 0 0.015704215789675114 0.001104436527123043 0 0.016826806679476117 0.00083941536271042283 0 0.01787655947224406 0.0010893249326645888 0 0.016670089235609826 0.00019551731822978213 0 0.020384244960044755 0.001183482534082512 0 0.011012316104529549 0.00027451061617947506 0 0.010922282950111911 0.0010402323243247746 0 0.010203557461743923 0.00072763708709575091 0 0.016670089235609826 0.00019551731822978213 0 0.012547419770656232 0.0011213128963976976 0 0.021265105900617531 0.0016892876205002879 0 0.021405233359090489 0.0017952905083333161 0 0.021220152082065166 0.0020580223534396032 0 0.020384244960044755 0.001183482534082512 0 0.018024687138497669 0.0016179225834562351 0 0.016826806679476117 0.00083941536271042283 0 0.01787655947224406 0.0010893249326645888 0 0.017952699311564613 0.00057201375287235562 0 0.012547419770656232 0.0011213128963976976 0 0.018024687138497669 0.0016179225834562351 0 0.015860993127670909 0.0017088428153698378 0 0.018024687138497669 0.0016179225834562351 0 0.010203557461743923 0.00072763708709575091 0 0.010029217221558124 0.001164607714338456 0 0.0097327915166662456 0.0010119306766287412 0 0.010029217221558124 0.001164607714338456 0 0.0097327915166662456 0.0010119306766287412 0 0.0099452188973041394 0.0015024636610379779 0 0.0097137349667257081 0.001891406409877057 0 0.0097327915166662456 0.0010119306766287412 0 0.0099452188973041394 0.0015024636610379779 0 0.010275553356546282 0.0013633873922823845 0 0.010029217221558124 0.001164607714338456 0 0.0099452188973041394 0.0015024636610379779 0 0.018024687138497669 0.0016179225834562351 0 0.023063993445977371 0.00089390268388260345 0 0.022363852097990064 0.00095792128806264734 0 0.02206626078085034 0.0013221005465974284 0 0.02176169287415456 0.0012026603904149796 0 0.02241211745897332 0.0017124616997110027 0 0.022363852097990064 0.00095792128806264734 0 0.02206626078085034 0.0013221005465974284 0 0.021845741172748907 0.0013688495670246537 0 0.02206626078085034 0.0013221005465974284 0 0.02176169287415456 0.0012026603904149796 0 0.02096796462446782 0.0013969406465338115 0 0.02176169287415456 0.0012026603904149796 0 0.021536800602608114 0.0016646994393251765 0 0.020384244960044755 0.001183482534082512 0 0.021657148895490634 0.0015990174969975994 0 0.020922337989550937 0.0016862694731051304 0 0.02096796462446782 0.0013969406465338115 0 0.021536800602608114 0.0016646994393251765 0 0.021265105900617531 0.0016892876205002879 0 0.021536800602608114 0.0016646994393251765 0 0.021405233359090489 0.0017952905083333161 0 0.021536800602608114 0.0016646994393251765 0 0.021405233359090489 0.0017952905083333161 0 0.021561477631574896 0.0019102701274425137 0 0.024656186394991043 0.0014654057571273753 0 0.024727781799104731 0.0013062964715612492 0 0.024861978068068245 0.00134075577005556 0 0.021405233359090489 0.0017952905083333161 0 0.021561477631574896 0.0019102701274425137 0 0.021220152082065166 0.0020580223534396032 0 0.023163941147719008 0.0017080898496391586 0 0.022473403626745155 0.0010704095270199232 0 0.024656186394991043 0.0014654057571273753 0 0.024727781799104731 0.0013062964715612492 0 0.024553401483519064 0.0013243482878042654 0 0.020384244960044755 0.001183482534082512 0 0.022473403626745155 0.0010704095270199232 0 0.021096825404922241 0.00046610863630266915 0 0.022065397644658744 -0.00029554083083260042 0 0.021901375208696706 0.00085963431972555415 0 0.024861978068068245 0.00134075577005556 0 0.024796035397438618 0.0012139909489779837 0 0.024892807599036237 0.0011539055265040181 0 0.022473403626745155 0.0010704095270199232 0 0.023454530906023095 0.0015622427014794821 0 0.024727781799104731 0.0013062964715612492 0 0.024861978068068245 0.00134075577005556 0 0.024796035397438618 0.0012139909489779837 0 0.021010570297163956 0.0013508481337913339 0 0.022039875372174545 0.00081464953875825077 0 0.021845800895630541 0.002116687075613979 0 0.024796035397438618 0.0012139909489779837 0 0.02469724609403719 0.0012019329712202817 0 0.024802903402162634 0.0010996187242514914 0 0.024727781799104731 0.0013062964715612492 0 0.02469724609403719 0.0012019329712202817 0 0.024553401483519064 0.0013243482878042654 0 0.024727781799104731 0.0013062964715612492 0 0.024796035397438618 0.0012139909489779837 0 0.02469724609403719 0.0012019329712202817 0 0.02456285127875537 0.0011910539567768562 0 0.02442143744022534 0.0012176992248066803 0 0.024325071655142222 0.0013196758641384437 0 0.02456285127875537 0.0011910539567768562 0 0.024325071655142222 0.0013196758641384437 0 0.024553401483519064 0.0013243482878042654 0 0.02469724609403719 0.0012019329712202817 0 0.02456285127875537 0.0011910539567768562 0 0.024553401483519064 0.0013243482878042654 0 0.02469724609403719 0.0012019329712202817 0 0.02456285127875537 0.0011910539567768562 0 0.024687215620464085 0.0010922483342620159 0 0.02456285127875537 0.0011910539567768562 0 0.02442143744022534 0.0012176992248066803 0 0.02455901443631129 0.001111088120726672 0 0.02442143744022534 0.0012176992248066803 0 0.024425743576515738 0.0011530606942868147 0 0.02455901443631129 0.001111088120726672 0 0.02442143744022534 0.0012176992248066803 0 0.024325071655142222 0.0013196758641384437 0 0.024191949648894664 0.0013431440029808494 0 0.02442143744022534 0.0012176992248066803 0 0.024191949648894664 0.0013431440029808494 0 0.024425743576515738 0.0011530606942868147 0 0.024325071655142222 0.0013196758641384437 0 0.024289681508365798 0.0015798515122942942 0 0.023956413261291987 0.0014397747163453559 0 0.024325071655142222 0.0013196758641384437 0 0.023956413261291987 0.0014397747163453559 0 0.024191949648894664 0.0013431440029808494 0 0.024325071655142222 0.0013196758641384437 0 0.024553401483519064 0.0013243482878042654 0 0.024289681508365798 0.0015798515122942942 0 0.024656186394991043 0.0014654057571273753 0 0.024553401483519064 0.0013243482878042654 0 0.024289681508365798 0.0015798515122942942 0 0.023163941147719008 0.0017080898496391586 0 0.023192140262499789 0.0016640738697955727 0 0.021536800602608114 0.0016646994393251765 0 0.021561477631574896 0.0019102701274425137 0 0.022027702379595351 0.0018048443963664602 0 0.02176169287415456 0.0012026603904149796 0 0.021536800602608114 0.0016646994393251765 0 0.022027702379595351 0.0018048443963664602 0 0.02176169287415456 0.0012026603904149796 0 0.022027702379595351 0.0018048443963664602 0 0.021799460320251825 0.00094468002000448064 0 0.021845741172748907 0.0013688495670246537 0 0.02176169287415456 0.0012026603904149796 0 0.021799460320251825 0.00094468002000448064 0 0.023788229557556835 0.00064684095865694667 0 0.021799460320251825 0.00094468002000448064 0 0.023438339486262789 0.0015176204352044149 0 0.022027702379595351 0.0018048443963664602 0 0.021799460320251825 0.00094468002000448064 0 0.023438339486262789 0.0015176204352044149 0 0.023192140262499789 0.0016640738697955727 0 0.023466771675443126 0.0015116798426494955 0 0.024289681508365798 0.0015798515122942942 0 0.023438339486262789 0.0015176204352044149 0 0.023956413261291987 0.0014397747163453559 0 0.023438339486262789 0.0015176204352044149 0 0.023956413261291987 0.0014397747163453559 0 0.02394450073189083 0.0014711310848296221 0 0.023438339486262789 0.0015176204352044149 0 0.02394450073189083 0.0014711310848296221 0 0.024009374506359843 0.0011422855075756745 0 0.023788229557556835 0.00064684095865694667 0 0.023438339486262789 0.0015176204352044149 0 0.024009374506359843 0.0011422855075756745 0 0.024439897432321299 0.00061803022199080388 0 0.024009374506359843 0.0011422855075756745 0 0.024277595072652564 0.0012540311071453144 0 0.024863979996551839 0.00056475626956805432 0 0.024457205236786683 0.00099786695417185679 0 0.02394450073189083 0.0014711310848296221 0 0.024277595072652564 0.0012540311071453144 0 0.02407478955451324 0.0014534731943030776 0 0.02394450073189083 0.0014711310848296221 0 0.024009374506359843 0.0011422855075756745 0 0.024277595072652564 0.0012540311071453144 0 0.023956413261291987 0.0014397747163453559 0 0.02394450073189083 0.0014711310848296221 0 0.024191949648894664 0.0013431440029808494 0 0.02394450073189083 0.0014711310848296221 0 0.02407478955451324 0.0014534731943030776 0 0.024191949648894664 0.0013431440029808494 0 0.024191949648894664 0.0013431440029808494 0 0.024248044087551407 0.001205240812362153 0 0.024425743576515738 0.0011530606942868147 0 0.02407478955451324 0.0014534731943030776 0 0.024191949648894664 0.0013431440029808494 0 0.024248044087551407 0.001205240812362153 0 0.024857967583743874 0.00046248265424040741 0 0.02477590828785331 0.00071660270543976931 0 0.025003390023702721 0.00068997473063019241 0 0.024457205236786683 0.00099786695417185679 0 0.024524845018640103 0.00097369832142821624 0 0.02477590828785331 0.00071660270543976931 0 0.024656430779578159 0.0010142008375360573 0 0.024975932747646038 0.00091123766078307319 0 0.024248044087551407 0.001205240812362153 0 0.024498668745040947 0.0010825202554307497 0 0.024656430779578159 0.0010142008375360573 0 0.024524845018640103 0.00097369832142821624 0 0.024617964289060049 0.0010358776846105654 0 0.024498668745040947 0.0010825202554307497 0 0.024425743576515738 0.0011530606942868147 0 0.024593891079811171 0.0010325727163286299 0 0.024248044087551407 0.001205240812362153 0 0.024498668745040947 0.0010825202554307497 0 0.024425743576515738 0.0011530606942868147 0 0.024498668745040947 0.0010825202554307497 0 0.024656430779578159 0.0010142008375360573 0 0.024593891079811171 0.0010325727163286299 0 0.024656430779578159 0.0010142008375360573 0 0.024732019865663559 0.00099044915490216186 0 0.024593891079811171 0.0010325727163286299 0 0.024656430779578159 0.0010142008375360573 0 0.024732019865663559 0.00099044915490216186 0 0.024889977253836543 0.0011255215443239386 0 0.024656430779578159 0.0010142008375360573 0 0.024975932747646038 0.00091123766078307319 0 0.024889977253836543 0.0011255215443239386 0 0.029835001861271533 0.00052277516353254358 0 0.029956040997458688 0.00059199343440385303 0 0.034920413513281873 5.3528323853636203e-05 0 0.034831274935839297 6.6410163133565138e-05 0 0.03489437743867331 6.6762850691277846e-05 0 0.034920413513281873 5.3528323853636203e-05 0 0.034999921420028619 5.8464881584259259e-08 0 0.034999816699184574 3.755066983140699e-08 0 0.034920413513281873 5.3528323853636203e-05 0 0.034999816699184574 3.755066983140699e-08 0 0.034831274935839297 6.6410163133565138e-05 0 0.029835001861271533 0.00052277516353254358 0 0.029615258505859079 0.00050412284142770114 0 0.024732019865663559 0.00099044915490216186 0 0.024718774805243364 0.00097888890188680788 0 0.024844512852534723 0.00089710126272586296 0 0.034999816699184574 3.755066983140699e-08 0 0.034831274935839297 6.6410163133565138e-05 0 0.034899880536236945 4.7014103237085948e-05 0 0.034999816699184574 3.755066983140699e-08 0 0.034999704103252399 5.4420831498716651e-08 0 0.034899880536236945 4.7014103237085948e-05 0 0.024844512852534723 0.00089710126272586296 0 0.024720636363749736 0.0010022334969832954 0 0.024843457609725322 0.00093894725148249648 0 0.024718774805243364 0.00097888890188680788 0 0.024844512852534723 0.00089710126272586296 0 0.024720636363749736 0.0010022334969832954 0 0.024720636363749736 0.0010022334969832954 0 0.024687215620464085 0.0010922483342620159 0 0.024797598711811177 0.0010031137194911584 0 0.024720636363749736 0.0010022334969832954 0 0.024797598711811177 0.0010031137194911584 0 0.024843457609725322 0.00093894725148249648 0 0.024718774805243364 0.00097888890188680788 0 0.024720636363749736 0.0010022334969832954 0 0.024593891079811171 0.0010325727163286299 0 0.024732019865663559 0.00099044915490216186 0 0.024718774805243364 0.00097888890188680788 0 0.024593891079811171 0.0010325727163286299 0 0.024720636363749736 0.0010022334969832954 0 0.024593891079811171 0.0010325727163286299 0 0.02455901443631129 0.001111088120726672 0 0.024425743576515738 0.0011530606942868147 0 0.024593891079811171 0.0010325727163286299 0 0.02455901443631129 0.001111088120726672 0 0.024720636363749736 0.0010022334969832954 0 0.02455901443631129 0.001111088120726672 0 0.024687215620464085 0.0010922483342620159 0 0.02456285127875537 0.0011910539567768562 0 0.02455901443631129 0.001111088120726672 0 0.024687215620464085 0.0010922483342620159 0 0.024687215620464085 0.0010922483342620159 0 0.024802903402162634 0.0010996187242514914 0 0.024797598711811177 0.0010031137194911584 0 0.02469724609403719 0.0012019329712202817 0 0.024687215620464085 0.0010922483342620159 0 0.024802903402162634 0.0010996187242514914 0 0.024802903402162634 0.0010996187242514914 0 0.024892807599036237 0.0011539055265040181 0 0.024938393781411553 0.0010268362774611196 0 0.024796035397438618 0.0012139909489779837 0 0.024802903402162634 0.0010996187242514914 0 0.024892807599036237 0.0011539055265040181 0 0.023454530906023095 0.0015622427014794821 0 0.023044088223886126 0.0024706212612394538 0 0.024938393781411553 0.0010268362774611196 0 0.024797598711811177 0.0010031137194911584 0 0.024899535833407413 0.00094891243783537906 0 0.024802903402162634 0.0010996187242514914 0 0.024938393781411553 0.0010268362774611196 0 0.024797598711811177 0.0010031137194911584 0 0.024843457609725322 0.00093894725148249648 0 0.024928192704510112 0.00088339387883842738 0 0.024899535833407413 0.00094891243783537906 0 0.024844512852534723 0.00089710126272586296 0 0.024843457609725322 0.00093894725148249648 0 0.024928192704510112 0.00088339387883842738 0 0.024797598711811177 0.0010031137194911584 0 0.024843457609725322 0.00093894725148249648 0 0.024899535833407413 0.00094891243783537906 0 0.029615258505859079 0.00050412284142770114 0 0.031105202296022167 0.00041573665643084099 0 0.035003520058381012 1.4052971536523978e-06 0 0.031105202296022167 0.00041573665643084099 0 0.034999997043900118 1.9356305475118101e-09 0 0.034999971011295671 -8.4309276843261937e-10 0 0.03498723068620261 2.1521766852273852e-07 0 0.034999704103252399 5.4420831498716651e-08 0 0.034899880536236945 4.7014103237085948e-05 0 0.034945141236303795 1.8122705091756784e-05 0 0.034999971011295671 -8.4309276843261937e-10 0 0.034999990855232394 -1.5521720419138279e-09 0 0.034994510651141023 -8.2504539570780272e-07 0 0.034999971011295671 -8.4309276843261937e-10 0 0.03498723068620261 2.1521766852273852e-07 0 0.034994510651141023 -8.2504539570780272e-07 0 0.030507322474476448 0.00068751726621033168 0 0.030897322495936696 0.00092748269909224068 0 0.030966703237491646 0.00057280592840670017 0 0.031105202296022167 0.00041573665643084099 0 0.033995796766703404 -0.00030103346254625811 0 0.024928192704510112 0.00088339387883842738 0 0.024899535833407413 0.00094891243783537906 0 0.024987249987854079 0.00092694048554793239 0 0.031105202296022167 0.00041573665643084099 0 0.027298904461226996 0.0018390819807420258 0 0.024938393781411553 0.0010268362774611196 0 0.024899535833407413 0.00094891243783537906 0 0.024987249987854079 0.00092694048554793239 0 0.023044088223886126 0.0024706212612394538 0 0.027298904461226996 0.0018390819807420258 0 0.034912364911765477 -4.3881053803339368e-06 0 0.034964633216856791 -2.0288967527626172e-05 0 0.034967969065847759 -6.966119033214029e-05 0 0.027298904461226996 0.0018390819807420258 0 0.027674286936031231 0.0019104897955011895 0 0.027298904461226996 0.0018390819807420258 0 0.033995796766703404 -0.00030103346254625811 0 0.034912364911765477 -4.3881053803339368e-06 0 0.034935180094739872 -2.9609016460273185e-05 0 0.034964633216856791 -2.0288967527626172e-05 0 0.034935180094739872 -2.9609016460273185e-05 0 0.034994305930894407 -8.2226350843958732e-06 0 0.034964633216856791 -2.0288967527626172e-05 0 0.03499997098397073 -1.367728942446415e-08 0 0.034998413208876311 -4.4372199697024694e-06 0 0.034994305930894407 -8.2226350843958732e-06 0 0.033995796766703404 -0.00030103346254625811 0 0.035247811316404462 -9.8242148084398814e-05 0 0.034998687349076858 -2.4725300588749798e-07 0 0.033995796766703404 -0.00030103346254625811 0 0.034999973975167999 -4.8063894536923576e-08 0 0.03499997098397073 -1.367728942446415e-08 0 0.034994305930894407 -8.2226350843958732e-06 0 0.034999973975167999 -4.8063894536923576e-08 0 0.034994305930894407 -8.2226350843958732e-06 0 0.034979309297734656 -1.9059141883934633e-05 0 0.034994305930894407 -8.2226350843958732e-06 0 0.034979309297734656 -1.9059141883934633e-05 0 0.034964633216856791 -2.0288967527626172e-05 0 0.034979309297734656 -1.9059141883934633e-05 0 0.034964633216856791 -2.0288967527626172e-05 0 0.034967969065847759 -6.966119033214029e-05 0 0.021691575873154526 0.0033714611809063941 0 0.021554236018208515 0.004619045916718743 0 0.020009526925990642 0.003755958304834607 0 0.021691575873154526 0.0033714611809063941 0 0.020009526925990642 0.003755958304834607 0 0.021100698710272616 0.0026435636987140053 0 0.021845800895630541 0.002116687075613979 0 0.021691575873154526 0.0033714611809063941 0 0.021100698710272616 0.0026435636987140053 0 0.021010570297163956 0.0013508481337913339 0 0.021100698710272616 0.0026435636987140053 0 0.020265378574088264 0.0024468545561899314 0 0.020009526925990642 0.003755958304834607 0 0.021100698710272616 0.0026435636987140053 0 0.020265378574088264 0.0024468545561899314 0 0.019392916638032689 0.0023412186700483861 0 0.020009526925990642 0.003755958304834607 0 0.020265378574088264 0.0024468545561899314 0 0.019392916638032689 0.0023412186700483861 0 0.020157744349129342 0.001580406296183511 0 0.020265378574088264 0.0024468545561899314 0 0.034647271554699065 0.001258989786579096 0 0.034443858108215632 0.0011523499461324456 0 0.03459428203038678 0.00091390751260353063 0 0.034647271554699065 0.001258989786579096 0 0.034443858108215632 0.0011523499461324456 0 0.034492519718772416 0.0014266474090494686 0 0.034443858108215632 0.0011523499461324456 0 0.034492519718772416 0.0014266474090494686 0 0.034141726342107902 0.001409364457455094 0 0.034492519718772416 0.0014266474090494686 0 0.034663260574816397 0.0015480974153642545 0 0.034534105757653602 0.0017506990473488725 0 0.034492519718772416 0.0014266474090494686 0 0.034141726342107902 0.001409364457455094 0 0.034534105757653602 0.0017506990473488725 0 0.034647271554699065 0.001258989786579096 0 0.034663260574816397 0.0015480974153642545 0 0.034822961500582658 0.0013564507588094375 0 0.034647271554699065 0.001258989786579096 0 0.034492519718772416 0.0014266474090494686 0 0.034663260574816397 0.0015480974153642545 0 0.034663260574816397 0.0015480974153642545 0 0.034822961500582658 0.0013564507588094375 0 0.034830079316360313 0.0016123105976507297 0 0.034822961500582658 0.0013564507588094375 0 0.035113704045285611 0.001315321220619561 0 0.034830079316360313 0.0016123105976507297 0 0.034822961500582658 0.0013564507588094375 0 0.035113704045285611 0.001315321220619561 0 0.034862396960893979 0.0010500425314434747 0 0.034647271554699065 0.001258989786579096 0 0.034822961500582658 0.0013564507588094375 0 0.034862396960893979 0.0010500425314434747 0 0.035113704045285611 0.001315321220619561 0 0.034862396960893979 0.0010500425314434747 0 0.035150988948276687 0.00074564079555206237 0 0.034862396960893979 0.0010500425314434747 0 0.034819203241445773 0.00071269412292743368 0 0.035150988948276687 0.00074564079555206237 0 0.034819203241445773 0.00071269412292743368 0 0.03459428203038678 0.00091390751260353063 0 0.034629371650544978 0.0005925454807287992 0 0.034862396960893979 0.0010500425314434747 0 0.034819203241445773 0.00071269412292743368 0 0.03459428203038678 0.00091390751260353063 0 0.034647271554699065 0.001258989786579096 0 0.034862396960893979 0.0010500425314434747 0 0.03459428203038678 0.00091390751260353063 0 0.034443858108215632 0.0011523499461324456 0 0.03459428203038678 0.00091390751260353063 0 0.034320393892703076 0.00079450530040961443 0 0.03459428203038678 0.00091390751260353063 0 0.034320393892703076 0.00079450530040961443 0 0.034629371650544978 0.0005925454807287992 0 0.034320393892703076 0.00079450530040961443 0 0.033583094087123552 0.0011701282041305335 0 0.034051846835513301 0.00044894505393578365 0 0.033583094087123552 0.0011701282041305335 0 0.034141726342107902 0.001409364457455094 0 0.033522578907990798 0.0018177510148435769 0 0.033583094087123552 0.0011701282041305335 0 0.033522578907990798 0.0018177510148435769 0 0.032694249437482517 0.0015143991725042247 0 0.034320393892703076 0.00079450530040961443 0 0.033583094087123552 0.0011701282041305335 0 0.034141726342107902 0.001409364457455094 0 0.034443858108215632 0.0011523499461324456 0 0.034320393892703076 0.00079450530040961443 0 0.034141726342107902 0.001409364457455094 0 0.034141726342107902 0.001409364457455094 0 0.033522578907990798 0.0018177510148435769 0 0.034534105757653602 0.0017506990473488725 0 0.033522578907990798 0.0018177510148435769 0 0.034575796365632058 0.0018868659761830829 0 0.034534105757653602 0.0017506990473488725 0 0.033522578907990798 0.0018177510148435769 0 0.033408149989129325 0.0022439707290672654 0 0.033613136326376115 0.002305771538380011 0 0.033522578907990798 0.0018177510148435769 0 0.033613136326376115 0.002305771538380011 0 0.033777817034636115 0.0021481243534958584 0 0.033905449359555563 0.0016444250746876165 0 0.033176333367376472 0.0029158786870014789 0 0.033522578907990798 0.0018177510148435769 0 0.032694249437482517 0.0015143991725042247 0 0.032659389934362279 0.0018790081272565956 0 0.033522578907990798 0.0018177510148435769 0 0.033136068155117729 0.0022024390441963315 0 0.032659389934362279 0.0018790081272565956 0 0.033522578907990798 0.0018177510148435769 0 0.033136068155117729 0.0022024390441963315 0 0.033408149989129325 0.0022439707290672654 0 0.033136068155117729 0.0022024390441963315 0 0.033284358355158146 0.0025003435888974711 0 0.032669945189473096 0.0025254671909933544 0 0.033136068155117729 0.0022024390441963315 0 0.033408149989129325 0.0022439707290672654 0 0.033284358355158146 0.0025003435888974711 0 0.033408149989129325 0.0022439707290672654 0 0.033284358355158146 0.0025003435888974711 0 0.033468058808801646 0.0024038638339495982 0 0.033324021511182605 0.0025114245936974284 0 0.033284358355158146 0.0025003435888974711 0 0.033468058808801646 0.0024038638339495982 0 0.029432284260531252 0.0023388089824622951 0 0.030103203101653871 0.0027624437179176058 0 0.026284750570593967 0.00082850306494548342 0 0.028114245200632285 0.0018355115503700834 0 0.027173847999560279 0.00026732496123872917 0 0.029432284260531252 0.0023388089824622951 0 0.030435048963290197 0.0020523197724667515 0 0.033339431674099099 0.002615048954662573 0 0.033284358355158146 0.0025003435888974711 0 0.032669945189473096 0.0025254671909933544 0 0.03362216905552274 0.0025425912982719517 0 0.033613136326376115 0.002305771538380011 0 0.033468058808801646 0.0024038638339495982 0 0.03362216905552274 0.0025425912982719517 0 0.033324021511182605 0.0025114245936974284 0 0.033468058808801646 0.0024038638339495982 0 0.033408149989129325 0.0022439707290672654 0 0.033613136326376115 0.002305771538380011 0 0.033468058808801646 0.0024038638339495982 0 0.03362216905552274 0.0025425912982719517 0 0.033613136326376115 0.002305771538380011 0 0.033753909737489526 0.0024360429761281382 0 0.033613136326376115 0.002305771538380011 0 0.033753909737489526 0.0024360429761281382 0 0.033777817034636115 0.0021481243534958584 0 0.031530945621125628 0.0030058400630443814 0 0.033176333367376472 0.0029158786870014789 0 0.03454649777575701 0.0018040550229387366 0 0.034706664557555646 0.0017192616238424429 0 0.034534105757653602 0.0017506990473488725 0 0.034663260574816397 0.0015480974153642545 0 0.034706664557555646 0.0017192616238424429 0 0.034534105757653602 0.0017506990473488725 0 0.034663260574816397 0.0015480974153642545 0 0.034706664557555646 0.0017192616238424429 0 0.034830079316360313 0.0016123105976507297 0 0.033176333367376472 0.0029158786870014789 0 0.033297089790820411 0.002580736370133385 0 0.03454649777575701 0.0018040550229387366 0 0.034706664557555646 0.0017192616238424429 0 0.034976610826832323 0.0018962605691289706 0 0.025683041325596141 0.00051486402692009785 0 0.025709864375168996 0.00029272753121910598 0 0.025607779177827767 0.00040985015365722986 0 0.035113704045285611 0.001315321220619561 0 0.034830079316360313 0.0016123105976507297 0 0.034976610826832323 0.0018962605691289706 0 0.033176333367376472 0.0029158786870014789 0 0.027266470566814863 0.0027804258333049684 0 0.030644325823739244 0.00052361090104872401 0 0.027266470566814863 0.0027804258333049684 0 0.034706664557555646 0.0017192616238424429 0 0.034830079316360313 0.0016123105976507297 0 0.034976610826832323 0.0018962605691289706 0 0.023693521972188242 0.0049207687419394385 0 0.027266470566814863 0.0027804258333049684 0 0.028524120436776972 0.0033421069683155797 0 0.028909821556477665 0.0034254974011636223 0 0.02840853770955119 0.0040318293373552147 0 0.028909821556477665 0.0034254974011636223 0 0.029174381140057336 0.004197021164142817 0 0.02840853770955119 0.0040318293373552147 0 0.019443328408194595 0.0052362726984214927 0 0.019336838072175858 0.005883704372543948 0 0.019132110393794838 0.0055521747628444057 0 0.019443328408194595 0.0052362726984214927 0 0.018863188768250674 0.0052897302110360839 0 0.019132110393794838 0.0055521747628444057 0 0.019336838072175858 0.005883704372543948 0 0.019132110393794838 0.0055521747628444057 0 0.01888086901127951 0.0057918175070661593 0 0.018863188768250674 0.0052897302110360839 0 0.019132110393794838 0.0055521747628444057 0 0.01888086901127951 0.0057918175070661593 0 0.023314109255709946 0.0012904919811950301 0 0.021257693768625414 0.0028780452758302871 0 0.018863188768250674 0.0052897302110360839 0 0.01888086901127951 0.0057918175070661593 0 0.018310951434076645 0.0051824895641612205 0 0.023899639201224107 5.7709694169581747e-05 0 0.024415712746408729 0.00015165235944938411 0 0.024256056764941358 0.00040555346877855125 0 0.023314109255709946 0.0012904919811950301 0 0.02509778641288575 0.00014067740791479973 0 0.024673948988658986 0.00042724115212354068 0 0.024415712746408729 0.00015165235944938411 0 0.024256056764941358 0.00040555346877855125 0 0.025560333364107374 0.00024186102686405 0 0.025263300597642514 0.00019512877177634984 0 0.02534501597650813 0.00033144050823915368 0 0.025263300597642514 0.00019512877177634984 0 0.02534501597650813 0.00033144050823915368 0 0.025084351271600618 0.00029075276262147787 0 0.02534501597650813 0.00033144050823915368 0 0.025138284420294612 0.00039738423107174602 0 0.025354172841608708 0.00046104550086678591 0 0.02534501597650813 0.00033144050823915368 0 0.025475812771014773 0.00040951521644599323 0 0.025354172841608708 0.00046104550086678591 0 0.02534501597650813 0.00033144050823915368 0 0.025475812771014773 0.00040951521644599323 0 0.025523117964014727 0.00034119132143260104 0 0.025475812771014773 0.00040951521644599323 0 0.025607779177827767 0.00040985015365722986 0 0.025523117964014727 0.00034119132143260104 0 0.025560333364107374 0.00024186102686405 0 0.02534501597650813 0.00033144050823915368 0 0.025523117964014727 0.00034119132143260104 0 0.025607779177827767 0.00040985015365722986 0 0.025623019939582353 0.00030947051147816229 0 0.025523117964014727 0.00034119132143260104 0 0.025560333364107374 0.00024186102686405 0 0.025623019939582353 0.00030947051147816229 0 0.025523117964014727 0.00034119132143260104 0 0.025709864375168996 0.00029272753121910598 0 0.025565720687467861 0.00026095606270698925 0 0.025623019939582353 0.00030947051147816229 0 0.025709864375168996 0.00029272753121910598 0 0.025607779177827767 0.00040985015365722986 0 0.025623019939582353 0.00030947051147816229 0 0.027266470566814863 0.0027804258333049684 0 0.023314109255709946 0.0012904919811950301 0 0.023314109255709946 0.0012904919811950301 0 0.024313008572131329 0.0012502059508060588 0 0.022183187397724544 0.0012861194701677273 0 0.024863979996551839 0.00056475626956805432 0 0.024955723804013213 0.0002717698305913561 0 0.024922151753243891 0.00027045352655456816 0 0.02500407174923417 0.00034208574531992611 0 0.024922151753243891 0.00027045352655456816 0 0.025084351271600618 0.00029075276262147787 0 0.02500407174923417 0.00034208574531992611 0 0.025035548202277508 0.00050352580847735191 0 0.024955723804013213 0.0002717698305913561 0 0.024922151753243891 0.00027045352655456816 0 0.02509778641288575 0.00014067740791479973 0 0.024834658146069999 0.00024438963586682314 0 0.025263300597642514 0.00019512877177634984 0 0.024922151753243891 0.00027045352655456816 0 0.025084351271600618 0.00029075276262147787 0 0.024673948988658986 0.00042724115212354068 0 0.024415712746408729 0.00015165235944938411 0 0.024922151753243891 0.00027045352655456816 0 0.025138284420294612 0.00039738423107174602 0 0.02500407174923417 0.00034208574531992611 0 0.025043175335743812 0.00051329625127157494 0 0.02534501597650813 0.00033144050823915368 0 0.025084351271600618 0.00029075276262147787 0 0.025138284420294612 0.00039738423107174602 0 0.025084351271600618 0.00029075276262147787 0 0.025138284420294612 0.00039738423107174602 0 0.02500407174923417 0.00034208574531992611 0 0.024955723804013213 0.0002717698305913561 0 0.024857967583743874 0.00046248265424040741 0 0.02500407174923417 0.00034208574531992611 0 0.024857967583743874 0.00046248265424040741 0 0.02500407174923417 0.00034208574531992611 0 0.025043175335743812 0.00051329625127157494 0 0.024857967583743874 0.00046248265424040741 0 0.025043175335743812 0.00051329625127157494 0 0.025003390023702721 0.00068997473063019241 0 0.025043175335743812 0.00051329625127157494 0 0.025220944002056652 0.0005337853621311218 0 0.025218217783827292 0.00068546975396671119 0 0.025138284420294612 0.00039738423107174602 0 0.025043175335743812 0.00051329625127157494 0 0.025220944002056652 0.0005337853621311218 0 0.025138284420294612 0.00039738423107174602 0 0.025220944002056652 0.0005337853621311218 0 0.025354172841608708 0.00046104550086678591 0 0.025043175335743812 0.00051329625127157494 0 0.025218217783827292 0.00068546975396671119 0 0.025003390023702721 0.00068997473063019241 0 0.025218217783827292 0.00068546975396671119 0 0.025003390023702721 0.00068997473063019241 0 0.025248507824859205 0.00086892832895134407 0 0.025683041325596141 0.00051486402692009785 0 0.025533505054829465 0.00051964835220039206 0 0.02567571958514649 0.00073904237964363421 0 0.025683041325596141 0.00051486402692009785 0 0.025607779177827767 0.00040985015365722986 0 0.025533505054829465 0.00051964835220039206 0 0.025475812771014773 0.00040951521644599323 0 0.025607779177827767 0.00040985015365722986 0 0.025533505054829465 0.00051964835220039206 0 0.025475812771014773 0.00040951521644599323 0 0.025533505054829465 0.00051964835220039206 0 0.025354172841608708 0.00046104550086678591 0 0.025533505054829465 0.00051964835220039206 0 0.025354172841608708 0.00046104550086678591 0 0.025467072909197992 0.00063293609873221626 0 0.025220944002056652 0.0005337853621311218 0 0.025354172841608708 0.00046104550086678591 0 0.025467072909197992 0.00063293609873221626 0 0.025218217783827292 0.00068546975396671119 0 0.025467072909197992 0.00063293609873221626 0 0.025432620730352861 0.00078886980143448148 0 0.025220944002056652 0.0005337853621311218 0 0.025218217783827292 0.00068546975396671119 0 0.025467072909197992 0.00063293609873221626 0 0.025467072909197992 0.00063293609873221626 0 0.025535903361114588 0.00075011679740144479 0 0.025432620730352861 0.00078886980143448148 0 0.030644325823739244 0.00052361090104872401 0 0.030306282923486066 0.00076960171012402324 0 0.025467072909197992 0.00063293609873221626 0 0.025535903361114588 0.00075011679740144479 0 0.02567571958514649 0.00073904237964363421 0 0.025533505054829465 0.00051964835220039206 0 0.025467072909197992 0.00063293609873221626 0 0.02567571958514649 0.00073904237964363421 0 0.035150988948276687 0.00074564079555206237 0 0.035178959631337152 0.00027415405701638161 0 0.034875049646510364 0.0003451884149080675 0 0.02567571958514649 0.00073904237964363421 0 0.025567439540543403 0.00084289673152995151 0 0.025678736847903529 0.00099636550202558574 0 0.030306282923486066 0.00076960171012402324 0 0.031813652687012382 0.0011325364927550364 0 0.025567439540543403 0.00084289673152995151 0 0.025448905641865773 0.00091539785010073197 0 0.025678736847903529 0.00099636550202558574 0 0.025535903361114588 0.00075011679740144479 0 0.02567571958514649 0.00073904237964363421 0 0.025567439540543403 0.00084289673152995151 0 0.025535903361114588 0.00075011679740144479 0 0.025567439540543403 0.00084289673152995151 0 0.025432620730352861 0.00078886980143448148 0 0.025448905641865773 0.00091539785010073197 0 0.025248507824859205 0.00086892832895134407 0 0.025308745015357258 0.0010765349570983278 0 0.025567439540543403 0.00084289673152995151 0 0.025432620730352861 0.00078886980143448148 0 0.025448905641865773 0.00091539785010073197 0 0.025432620730352861 0.00078886980143448148 0 0.025448905641865773 0.00091539785010073197 0 0.025248507824859205 0.00086892832895134407 0 0.034884948603803943 0.00017984053017013198 0 0.034870200843281164 0.0002349611307289488 0 0.034907900325244122 0.00013601815287334784 0 0.031813652687012382 0.0011325364927550364 0 0.02977703029176381 0.00057028950673043677 0 0.025448905641865773 0.00091539785010073197 0 0.025678736847903529 0.00099636550202558574 0 0.025308745015357258 0.0010765349570983278 0 0.034884948603803943 0.00017984053017013198 0 0.034873361365387996 0.00020818432450236761 0 0.034873753867560711 0.00022922194851458412 0 0.034884948603803943 0.00017984053017013198 0 0.034873361365387996 0.00020818432450236761 0 0.03487032389452592 0.00016926074238351725 0 0.034873753867560711 0.00022922194851458412 0 0.034874830594955067 0.00024973713357511211 0 0.034876096140066162 0.00023669074912025992 0 0.034873361365387996 0.00020818432450236761 0 0.034873753867560711 0.00022922194851458412 0 0.034874830594955067 0.00024973713357511211 0 0.031915277978595467 0.0010025823547508536 0 0.031813652687012382 0.0011325364927550364 0 0.034884948603803943 0.00017984053017013198 0 0.034873753867560711 0.00022922194851458412 0 0.034870200843281164 0.0002349611307289488 0 0.02477590828785331 0.00071660270543976931 0 0.025003390023702721 0.00068997473063019241 0 0.024975932747646038 0.00091123766078307319 0 0.025003390023702721 0.00068997473063019241 0 0.024975932747646038 0.00091123766078307319 0 0.025248507824859205 0.00086892832895134407 0 0.025218217783827292 0.00068546975396671119 0 0.025432620730352861 0.00078886980143448148 0 0.025248507824859205 0.00086892832895134407 0 0.024975932747646038 0.00091123766078307319 0 0.025248507824859205 0.00086892832895134407 0 0.025308745015357258 0.0010765349570983278 0 0.02977703029176381 0.00057028950673043677 0 0.029956040997458688 0.00059199343440385303 0 0.024975932747646038 0.00091123766078307319 0 0.025308745015357258 0.0010765349570983278 0 0.024889977253836543 0.0011255215443239386 0 0.034920413513281873 5.3528323853636203e-05 0 0.03489437743867331 6.6762850691277846e-05 0 0.034948644351857572 6.9473702065607287e-05 0 0.034907900325244122 0.00013601815287334784 0 0.03489437743867331 6.6762850691277846e-05 0 0.034948644351857572 6.9473702065607287e-05 0 0.034907900325244122 0.00013601815287334784 0 0.034948644351857572 6.9473702065607287e-05 0 0.034926647893837856 0.00010300974290401855 0 0.034948644351857572 6.9473702065607287e-05 0 0.034999772753798591 8.162494108879665e-08 0 0.034926647893837856 0.00010300974290401855 0 0.034920413513281873 5.3528323853636203e-05 0 0.034999921420028619 5.8464881584259259e-08 0 0.034948644351857572 6.9473702065607287e-05 0 0.034999921420028619 5.8464881584259259e-08 0 0.034948644351857572 6.9473702065607287e-05 0 0.034999772753798591 8.162494108879665e-08 0 0.034878180356279299 9.7363677634826597e-05 0 0.03487032389452592 0.00016926074238351725 0 0.034834706009387879 0.00018435730199344125 0 0.034884948603803943 0.00017984053017013198 0 0.034878180356279299 9.7363677634826597e-05 0 0.03487032389452592 0.00016926074238351725 0 0.034951701215221363 6.8241445400301601e-05 0 0.034894724015003833 0.00017166527901181874 0 0.034884948603803943 0.00017984053017013198 0 0.034878180356279299 9.7363677634826597e-05 0 0.034926647893837856 0.00010300974290401855 0 0.034884948603803943 0.00017984053017013198 0 0.034907900325244122 0.00013601815287334784 0 0.034926647893837856 0.00010300974290401855 0 0.035000003397458401 -1.2634403414398588e-08 0 0.035020191741212327 3.0569881257709803e-05 0 0.035000067906222128 4.8152837870876646e-08 0 0.034999772753798591 8.162494108879665e-08 0 0.034878180356279299 9.7363677634826597e-05 0 0.034926647893837856 0.00010300974290401855 0 0.034999985986540652 1.6995305524437699e-08 0 0.034951701215221363 6.8241445400301601e-05 0 0.035020191741212327 3.0569881257709803e-05 0 0.035000067906222128 4.8152837870876646e-08 0 0.034988901168720901 4.8716088249588314e-05 0 0.035000067906222128 4.8152837870876646e-08 0 0.034988901168720901 4.8716088249588314e-05 0 0.03499981375244126 8.5375016933114706e-09 0 0.034988901168720901 4.8716088249588314e-05 0 0.03499981375244126 8.5375016933114706e-09 0 0.034939346197359514 9.0214374978559258e-05 0 0.03499981375244126 8.5375016933114706e-09 0 0.034818074890471305 0.00013050831856013375 0 0.034939346197359514 9.0214374978559258e-05 0 0.034818074890471305 0.00013050831856013375 0 0.034939346197359514 9.0214374978559258e-05 0 0.034984026771034266 0.00016272041526559192 0 0.035020191741212327 3.0569881257709803e-05 0 0.034988901168720901 4.8716088249588314e-05 0 0.034984026771034266 0.00016272041526559192 0 0.034988901168720901 4.8716088249588314e-05 0 0.034939346197359514 9.0214374978559258e-05 0 0.034984026771034266 0.00016272041526559192 0 0.034873361365387996 0.00020818432450236761 0 0.03487032389452592 0.00016926074238351725 0 0.034834706009387879 0.00018435730199344125 0 0.034874830594955067 0.00024973713357511211 0 0.034834706009387879 0.00018435730199344125 0 0.034875049646510364 0.0003451884149080675 0 0.034873361365387996 0.00020818432450236761 0 0.034874830594955067 0.00024973713357511211 0 0.034834706009387879 0.00018435730199344125 0 0.031813652687012382 0.0011325364927550364 0 0.035760783794766896 0.00011872925290780827 0 0.034874830594955067 0.00024973713357511211 0 0.034876096140066162 0.00023669074912025992 0 0.034875049646510364 0.0003451884149080675 0 0.034834706009387879 0.00018435730199344125 0 0.034606255434391255 0.00035007302616095796 0 0.034875049646510364 0.0003451884149080675 0 0.034894724015003833 0.00017166527901181874 0 0.034632402200477891 0.00034127453306016065 0 0.034818074890471305 0.00013050831856013375 0 0.034984026771034266 0.00016272041526559192 0 0.034606255434391255 0.00035007302616095796 0 0.034320393892703076 0.00079450530040961443 0 0.034606255434391255 0.00035007302616095796 0 0.034629371650544978 0.0005925454807287992 0 0.034606255434391255 0.00035007302616095796 0 0.034629371650544978 0.0005925454807287992 0 0.034875049646510364 0.0003451884149080675 0 0.034819203241445773 0.00071269412292743368 0 0.034629371650544978 0.0005925454807287992 0 0.034875049646510364 0.0003451884149080675 0 0.034819203241445773 0.00071269412292743368 0 0.035150988948276687 0.00074564079555206237 0 0.034875049646510364 0.0003451884149080675 0 0.034051846835513301 0.00044894505393578365 0 0.034603649435369407 0.00025864594964581679 0 0.034436608625238153 0.0004576657344717851 0 0.034320393892703076 0.00079450530040961443 0 0.034606255434391255 0.00035007302616095796 0 0.034051846835513301 0.00044894505393578365 0 0.034606255434391255 0.00035007302616095796 0 0.034051846835513301 0.00044894505393578365 0 0.034603649435369407 0.00025864594964581679 0 0.034818074890471305 0.00013050831856013375 0 0.034606255434391255 0.00035007302616095796 0 0.034603649435369407 0.00025864594964581679 0 0.034818074890471305 0.00013050831856013375 0 0.034603649435369407 0.00025864594964581679 0 0.034999852564754366 1.2546486944434702e-07 0 0.034603649435369407 0.00025864594964581679 0 0.034999852564754366 1.2546486944434702e-07 0 0.034793740355492923 0.00016065793410111745 0 0.03499981375244126 8.5375016933114706e-09 0 0.034818074890471305 0.00013050831856013375 0 0.034999852564754366 1.2546486944434702e-07 0 0.034999852564754366 1.2546486944434702e-07 0 0.034998848597984522 5.2811319473676641e-08 0 0.034793740355492923 0.00016065793410111745 0 0.034998848597984522 5.2811319473676641e-08 0 0.034686877441437919 0.00021134361223524447 0 0.034793740355492923 0.00016065793410111745 0 0.034998848597984522 5.2811319473676641e-08 0 0.034686877441437919 0.00021134361223524447 0 0.034429891645385104 0.00016708640387751793 0 0.034686877441437919 0.00021134361223524447 0 0.034420004504571132 0.00037765449335952532 0 0.034593144427341266 0.00033905989227620931 0 0.034686877441437919 0.00021134361223524447 0 0.034793740355492923 0.00016065793410111745 0 0.034593144427341266 0.00033905989227620931 0 0.034603649435369407 0.00025864594964581679 0 0.034793740355492923 0.00016065793410111745 0 0.034593144427341266 0.00033905989227620931 0 0.035000097322875165 4.7357863323672067e-08 0 0.03499800136522515 4.720897529021839e-05 0 0.035022833885621739 2.8091495198911505e-05 0 0.035000097322875165 4.7357863323672067e-08 0 0.03499800136522515 4.720897529021839e-05 0 0.034999826360952932 1.7115902067747529e-08 0 0.034999900723364633 2.4205733369740353e-08 0 0.034730031028183971 0.00011405398782534152 0 0.034999982264610222 -1.6284523027890274e-08 0 0.035000097322875165 4.7357863323672067e-08 0 0.035022833885621739 2.8091495198911505e-05 0 0.034686877441437919 0.00021134361223524447 0 0.034429891645385104 0.00016708640387751793 0 0.034420004504571132 0.00037765449335952532 0 0.034429891645385104 0.00016708640387751793 0 0.034420004504571132 0.00037765449335952532 0 0.03424718452903857 0.00038589003704923993 0 0.03499800136522515 4.720897529021839e-05 0 0.035022833885621739 2.8091495198911505e-05 0 0.034977185006850965 0.00018781400030427658 0 0.034730031028183971 0.00011405398782534152 0 0.034608294147908364 0.00027787883636078901 0 0.034420004504571132 0.00037765449335952532 0 0.034166493781826512 0.00052052510383985943 0 0.03424718452903857 0.00038589003704923993 0 0.034420004504571132 0.00037765449335952532 0 0.034453521907698716 0.00049690135644856338 0 0.034166493781826512 0.00052052510383985943 0 0.034603649435369407 0.00025864594964581679 0 0.034593144427341266 0.00033905989227620931 0 0.034436608625238153 0.0004576657344717851 0 0.034420004504571132 0.00037765449335952532 0 0.034453521907698716 0.00049690135644856338 0 0.034593144427341266 0.00033905989227620931 0 0.034453521907698716 0.00049690135644856338 0 0.034593144427341266 0.00033905989227620931 0 0.034436608625238153 0.0004576657344717851 0 0.034453521907698716 0.00049690135644856338 0 0.034436608625238153 0.0004576657344717851 0 0.034488745958796058 0.0004771119972370874 0 0.034051846835513301 0.00044894505393578365 0 0.034436608625238153 0.0004576657344717851 0 0.034488745958796058 0.0004771119972370874 0 0.033583094087123552 0.0011701282041305335 0 0.034051846835513301 0.00044894505393578365 0 0.032372683823335469 0.00099128064791794541 0 0.033999134534121393 0.00047107934428841983 0 0.033465718166289737 0.00076027933498171391 0 0.033583094087123552 0.0011701282041305335 0 0.032694249437482517 0.0015143991725042247 0 0.032372683823335469 0.00099128064791794541 0 0.032694249437482517 0.0015143991725042247 0 0.032030879288542188 0.0015706113320403522 0 0.032659389934362279 0.0018790081272565956 0 0.032030879288542188 0.0015706113320403522 0 0.032372683823335469 0.00099128064791794541 0 0.032368382139148097 0.001641926673223841 0 0.032694249437482517 0.0015143991725042247 0 0.032030879288542188 0.0015706113320403522 0 0.032372683823335469 0.00099128064791794541 0 0.034453521907698716 0.00049690135644856338 0 0.034488745958796058 0.0004771119972370874 0 0.034354330260611778 0.00077827289649854163 0 0.033465718166289737 0.00076027933498171391 0 0.033370076160227559 0.0011603373333454097 0 0.034453521907698716 0.00049690135644856338 0 0.034166493781826512 0.00052052510383985943 0 0.034354330260611778 0.00077827289649854163 0 0.034166493781826512 0.00052052510383985943 0 0.034354330260611778 0.00077827289649854163 0 0.033699437214781094 0.0010829479599097534 0 0.033370076160227559 0.0011603373333454097 0 0.033664703045029797 0.0011081725477802833 0 0.032368382139148097 0.001641926673223841 0 0.032381941290500989 0.0013678572724801672 0 0.033699437214781094 0.0010829479599097534 0 0.032030879288542188 0.0015706113320403522 0 0.032368382139148097 0.001641926673223841 0 0.032381941290500989 0.0013678572724801672 0 0.032381941290500989 0.0013678572724801672 0 0.032801276207471274 0.00085123880323986062 0 0.032040249876450141 0.0012470284161292936 0 0.032381941290500989 0.0013678572724801672 0 0.033435154187515977 0.00090116439324303306 0 0.033699437214781094 0.0010829479599097534 0 0.032381941290500989 0.0013678572724801672 0 0.032801276207471274 0.00085123880323986062 0 0.033435154187515977 0.00090116439324303306 0 0.032801276207471274 0.00085123880323986062 0 0.032796330810921107 0.00020737387208993511 0 0.033342192786570503 0.00044008889575178199 0 0.032801276207471274 0.00085123880323986062 0 0.033435154187515977 0.00090116439324303306 0 0.033342192786570503 0.00044008889575178199 0 0.032801276207471274 0.00085123880323986062 0 0.032040249876450141 0.0012470284161292936 0 0.032143894273150571 0.00038014289197049636 0 0.032801276207471274 0.00085123880323986062 0 0.032143894273150571 0.00038014289197049636 0 0.032796330810921107 0.00020737387208993511 0 0.032040249876450141 0.0012470284161292936 0 0.030780153163007268 0.00095693057125753958 0 0.032143894273150571 0.00038014289197049636 0 0.032040249876450141 0.0012470284161292936 0 0.030780153163007268 0.00095693057125753958 0 0.031520458711094004 0.002011909670959872 0 0.030780153163007268 0.00095693057125753958 0 0.028114245200632285 0.0018355115503700834 0 0.027173847999560279 0.00026732496123872917 0 0.030435048963290197 0.0020523197724667515 0 0.031202077991569425 0.0021004352729780806 0 0.030780153163007268 0.00095693057125753958 0 0.028114245200632285 0.0018355115503700834 0 0.031520458711094004 0.002011909670959872 0 0.032669945189473096 0.0025254671909933544 0 0.032659389934362279 0.0018790081272565956 0 0.031520458711094004 0.002011909670959872 0 0.033136068155117729 0.0022024390441963315 0 0.032669945189473096 0.0025254671909933544 0 0.032659389934362279 0.0018790081272565956 0 0.032030879288542188 0.0015706113320403522 0 0.032381941290500989 0.0013678572724801672 0 0.031520458711094004 0.002011909670959872 0 0.032381941290500989 0.0013678572724801672 0 0.032040249876450141 0.0012470284161292936 0 0.031520458711094004 0.002011909670959872 0 0.032030879288542188 0.0015706113320403522 0 0.032659389934362279 0.0018790081272565956 0 0.031520458711094004 0.002011909670959872 0 0.033683783849881799 0.00070926692442799027 0 0.033825318255371939 0.00081898547054481551 0 0.033859879719376776 0.000660270988323016 0 0.033683783849881799 0.00070926692442799027 0 0.033859879719376776 0.000660270988323016 0 0.033505005705942122 0.00071584461857618592 0 0.033683783849881799 0.00070926692442799027 0 0.033505005705942122 0.00071584461857618592 0 0.032954751852525027 0.0010836866614883055 0 0.033683783849881799 0.00070926692442799027 0 0.033691764903405565 0.00070260748251396526 0 0.033660918419137341 0.0008245795322903498 0 0.033683783849881799 0.00070926692442799027 0 0.033691764903405565 0.00070260748251396526 0 0.033688716858049396 0.00073560030580899346 0 0.033691764903405565 0.00070260748251396526 0 0.033688716858049396 0.00073560030580899346 0 0.033629395293162279 0.00054102804500515795 0 0.033688716858049396 0.00073560030580899346 0 0.033342192786570503 0.00044008889575178199 0 0.033629395293162279 0.00054102804500515795 0 0.033688716858049396 0.00073560030580899346 0 0.033435154187515977 0.00090116439324303306 0 0.033342192786570503 0.00044008889575178199 0 0.033435154187515977 0.00090116439324303306 0 0.033825318255371939 0.00081898547054481551 0 0.033699437214781094 0.0010829479599097534 0 0.033688716858049396 0.00073560030580899346 0 0.033435154187515977 0.00090116439324303306 0 0.033825318255371939 0.00081898547054481551 0 0.033683783849881799 0.00070926692442799027 0 0.033688716858049396 0.00073560030580899346 0 0.033825318255371939 0.00081898547054481551 0 0.033825318255371939 0.00081898547054481551 0 0.033699437214781094 0.0010829479599097534 0 0.034032060578533835 0.00067618153078304716 0 0.034166493781826512 0.00052052510383985943 0 0.033699437214781094 0.0010829479599097534 0 0.034032060578533835 0.00067618153078304716 0 0.034032060578533835 0.00067618153078304716 0 0.033859879719376776 0.000660270988323016 0 0.034129908808672227 0.00051023421955450406 0 0.033825318255371939 0.00081898547054481551 0 0.034032060578533835 0.00067618153078304716 0 0.033859879719376776 0.000660270988323016 0 0.034032060578533835 0.00067618153078304716 0 0.034129908808672227 0.00051023421955450406 0 0.034308204413588693 0.00045141816246929982 0 0.034129908808672227 0.00051023421955450406 0 0.034308204413588693 0.00045141816246929982 0 0.034475442901131789 0.00031668516432707688 0 0.034032060578533835 0.00067618153078304716 0 0.034308204413588693 0.00045141816246929982 0 0.034424349945306791 0.00042033418625547992 0 0.034308204413588693 0.00045141816246929982 0 0.034424349945306791 0.00042033418625547992 0 0.034603324133288052 0.00024698804048985535 0 0.034308204413588693 0.00045141816246929982 0 0.034475442901131789 0.00031668516432707688 0 0.034603324133288052 0.00024698804048985535 0 0.034166493781826512 0.00052052510383985943 0 0.034032060578533835 0.00067618153078304716 0 0.034424349945306791 0.00042033418625547992 0 0.034166493781826512 0.00052052510383985943 0 0.034424349945306791 0.00042033418625547992 0 0.03424718452903857 0.00038589003704923993 0 0.034446805553482528 0.00040593719351094619 0 0.034608294147908364 0.00027787883636078901 0 0.034424349945306791 0.00042033418625547992 0 0.034977185006850965 0.00018781400030427658 0 0.034816328521708226 0.00010865030700807747 0 0.03499800136522515 4.720897529021839e-05 0 0.034977185006850965 0.00018781400030427658 0 0.034816328521708226 0.00010865030700807747 0 0.034424349945306791 0.00042033418625547992 0 0.034816328521708226 0.00010865030700807747 0 0.034603324133288052 0.00024698804048985535 0 0.034816328521708226 0.00010865030700807747 0 0.034999826360952932 1.7115902067747529e-08 0 0.034999651775989113 7.9487414965443635e-08 0 0.03499800136522515 4.720897529021839e-05 0 0.034816328521708226 0.00010865030700807747 0 0.034999826360952932 1.7115902067747529e-08 0 0.034475442901131789 0.00031668516432707688 0 0.034746258653241407 0.00015215596746736852 0 0.034603324133288052 0.00024698804048985535 0 0.034816328521708226 0.00010865030700807747 0 0.034603324133288052 0.00024698804048985535 0 0.034999651775989113 7.9487414965443635e-08 0 0.034746258653241407 0.00015215596746736852 0 0.034603324133288052 0.00024698804048985535 0 0.034999651775989113 7.9487414965443635e-08 0 0.034746258653241407 0.00015215596746736852 0 0.034999651775989113 7.9487414965443635e-08 0 0.034999565605557108 1.1808298868084467e-07 0 0.034746258653241407 0.00015215596746736852 0 0.034999565605557108 1.1808298868084467e-07 0 0.034693290004489993 0.00017368024752422749 0 0.034999565605557108 1.1808298868084467e-07 0 0.034693290004489993 0.00017368024752422749 0 0.034999797104509567 1.132664014448129e-07 0 0.034475442901131789 0.00031668516432707688 0 0.034746258653241407 0.00015215596746736852 0 0.034693290004489993 0.00017368024752422749 0 0.034693290004489993 0.00017368024752422749 0 0.034999797104509567 1.132664014448129e-07 0 0.03454330601774324 0.00024413615003315573 0 0.034999797104509567 1.132664014448129e-07 0 0.034998808666237287 -2.6692675800190977e-09 0 0.034678517320993557 0.00014736296158355183 0 0.034999845009463654 4.0356673164155045e-08 0 0.034683886537222097 9.132236345123805e-05 0 0.034998808666237287 -2.6692675800190977e-09 0 0.034678517320993557 0.00014736296158355183 0 0.03440538027466139 0.00016378189015011567 0 0.034678517320993557 0.00014736296158355183 0 0.034309219816633464 0.0003417775464352423 0 0.03440538027466139 0.00016378189015011567 0 0.034678517320993557 0.00014736296158355183 0 0.03454330601774324 0.00024413615003315573 0 0.034309219816633464 0.0003417775464352423 0 0.034999797104509567 1.132664014448129e-07 0 0.034678517320993557 0.00014736296158355183 0 0.03454330601774324 0.00024413615003315573 0 0.03454330601774324 0.00024413615003315573 0 0.034309219816633464 0.0003417775464352423 0 0.034191061798238234 0.00041355047680586014 0 0.03454330601774324 0.00024413615003315573 0 0.034191061798238234 0.00041355047680586014 0 0.034384419317285857 0.0003413702713341437 0 0.034309219816633464 0.0003417775464352423 0 0.034191061798238234 0.00041355047680586014 0 0.034090653113561541 0.000412892564766614 0 0.034191061798238234 0.00041355047680586014 0 0.034384419317285857 0.0003413702713341437 0 0.034098819049077009 0.00047389641219095733 0 0.034129908808672227 0.00051023421955450406 0 0.034384419317285857 0.0003413702713341437 0 0.034098819049077009 0.00047389641219095733 0 0.034129908808672227 0.00051023421955450406 0 0.034475442901131789 0.00031668516432707688 0 0.034384419317285857 0.0003413702713341437 0 0.034475442901131789 0.00031668516432707688 0 0.034693290004489993 0.00017368024752422749 0 0.034384419317285857 0.0003413702713341437 0 0.034693290004489993 0.00017368024752422749 0 0.03454330601774324 0.00024413615003315573 0 0.034384419317285857 0.0003413702713341437 0 0.034850509474417125 -3.426149822624094e-05 0 0.034999765200851636 -4.8230944906148772e-08 0 0.034999333984673364 -1.6210323136454641e-07 0 0.034850509474417125 -3.426149822624094e-05 0 0.034665864862628792 -4.1738949745746721e-05 0 0.034999333984673364 -1.6210323136454641e-07 0 0.034665864862628792 -4.1738949745746721e-05 0 0.034999333984673364 -1.6210323136454641e-07 0 0.034625485322538944 -0.00010673411754587173 0 0.035000025348991937 1.0112592594966451e-08 0 0.034999765200851636 -4.8230944906148772e-08 0 0.034948525605007705 -1.9326768166618806e-05 0 0.034850509474417125 -3.426149822624094e-05 0 0.034809127771147426 7.6455207931883397e-06 0 0.034665864862628792 -4.1738949745746721e-05 0 0.034850509474417125 -3.426149822624094e-05 0 0.034948525605007705 -1.9326768166618806e-05 0 0.034809127771147426 7.6455207931883397e-06 0 0.034850509474417125 -3.426149822624094e-05 0 0.034999765200851636 -4.8230944906148772e-08 0 0.034948525605007705 -1.9326768166618806e-05 0 0.034683886537222097 9.132236345123805e-05 0 0.03451451553736827 0.00015856677317107825 0 0.034309219816633464 0.0003417775464352423 0 0.034180062222965532 0.00033270133953689965 0 0.034215789018899254 0.00034055495591577191 0 0.034309219816633464 0.0003417775464352423 0 0.03440538027466139 0.00016378189015011567 0 0.034215789018899254 0.00034055495591577191 0 0.034309219816633464 0.0003417775464352423 0 0.034180062222965532 0.00033270133953689965 0 0.034090653113561541 0.000412892564766614 0 0.034180062222965532 0.00033270133953689965 0 0.034159209764553188 0.00033009710831525001 0 0.034090653113561541 0.000412892564766614 0 0.034180062222965532 0.00033270133953689965 0 0.034374849408587517 0.00017863016132931367 0 0.034159209764553188 0.00033009710831525001 0 0.034180062222965532 0.00033270133953689965 0 0.034215789018899254 0.00034055495591577191 0 0.034374849408587517 0.00017863016132931367 0 0.034809127771147426 7.6455207931883397e-06 0 0.034665864862628792 -4.1738949745746721e-05 0 0.03459428367929393 4.5641737376354514e-05 0 0.03451451553736827 0.00015856677317107825 0 0.034408429770555957 0.00017570753385833828 0 0.034809127771147426 7.6455207931883397e-06 0 0.03459428367929393 4.5641737376354514e-05 0 0.034374849408587517 0.00017863016132931367 0 0.034665864862628792 -4.1738949745746721e-05 0 0.034538290968299509 2.4592932354523144e-05 0 0.03452996393062284 -5.0363773381014353e-05 0 0.034665864862628792 -4.1738949745746721e-05 0 0.034538290968299509 2.4592932354523144e-05 0 0.03459428367929393 4.5641737376354514e-05 0 0.034538290968299509 2.4592932354523144e-05 0 0.03459428367929393 4.5641737376354514e-05 0 0.034427306428478376 0.00012465847577410971 0 0.034427306428478376 0.00012465847577410971 0 0.034374849408587517 0.00017863016132931367 0 0.034074800682518849 0.00039233742594037269 0 0.03459428367929393 4.5641737376354514e-05 0 0.034427306428478376 0.00012465847577410971 0 0.034374849408587517 0.00017863016132931367 0 0.034427306428478376 0.00012465847577410971 0 0.034473558128476557 7.6276441667225995e-06 0 0.034495731065770384 4.3290377657579726e-06 0 0.034473558128476557 7.6276441667225995e-06 0 0.034495731065770384 4.3290377657579726e-06 0 0.034458691879319915 -4.1965321257805144e-05 0 0.034538290968299509 2.4592932354523144e-05 0 0.034427306428478376 0.00012465847577410971 0 0.034495731065770384 4.3290377657579726e-06 0 0.034538290968299509 2.4592932354523144e-05 0 0.034495731065770384 4.3290377657579726e-06 0 0.03452996393062284 -5.0363773381014353e-05 0 0.034495731065770384 4.3290377657579726e-06 0 0.03445037785699135 -6.5181551416978415e-05 0 0.03452996393062284 -5.0363773381014353e-05 0 0.034495731065770384 4.3290377657579726e-06 0 0.03445037785699135 -6.5181551416978415e-05 0 0.034458691879319915 -4.1965321257805144e-05 0 0.03445037785699135 -6.5181551416978415e-05 0 0.034353687529366995 -0.00010060551452142535 0 0.034405652874710639 -0.00013487499843586905 0 0.03445037785699135 -6.5181551416978415e-05 0 0.03452996393062284 -5.0363773381014353e-05 0 0.034405652874710639 -0.00013487499843586905 0 0.034665864862628792 -4.1738949745746721e-05 0 0.03452996393062284 -5.0363773381014353e-05 0 0.034625485322538944 -0.00010673411754587173 0 0.03452996393062284 -5.0363773381014353e-05 0 0.034625485322538944 -0.00010673411754587173 0 0.034405652874710639 -0.00013487499843586905 0 0.034372807678158326 0.00010098768955762591 0 0.034241598357090716 0.00023635649264726314 0 0.034202649518113089 -2.7115217971344178e-05 0 0.034372807678158326 0.00010098768955762591 0 0.034379781064255634 -2.5231168541221398e-05 0 0.034462212746080821 1.7360180070601266e-05 0 0.034372807678158326 0.00010098768955762591 0 0.034379781064255634 -2.5231168541221398e-05 0 0.034202649518113089 -2.7115217971344178e-05 0 0.034379781064255634 -2.5231168541221398e-05 0 0.034353687529366995 -0.00010060551452142535 0 0.034202649518113089 -2.7115217971344178e-05 0 0.03445037785699135 -6.5181551416978415e-05 0 0.034353687529366995 -0.00010060551452142535 0 0.034458691879319915 -4.1965321257805144e-05 0 0.034379781064255634 -2.5231168541221398e-05 0 0.034353687529366995 -0.00010060551452142535 0 0.034458691879319915 -4.1965321257805144e-05 0 0.034379781064255634 -2.5231168541221398e-05 0 0.034458691879319915 -4.1965321257805144e-05 0 0.034462212746080821 1.7360180070601266e-05 0 0.034458691879319915 -4.1965321257805144e-05 0 0.034493091331134387 -4.5211935061402383e-05 0 0.034462212746080821 1.7360180070601266e-05 0 0.03439286837033869 0.00016287806990211107 0 0.034301580181519881 0.00018801768731307729 0 0.034427306428478376 0.00012465847577410971 0 0.034473558128476557 7.6276441667225995e-06 0 0.034493091331134387 -4.5211935061402383e-05 0 0.034473558128476557 7.6276441667225995e-06 0 0.034458691879319915 -4.1965321257805144e-05 0 0.034493091331134387 -4.5211935061402383e-05 0 0.034493091331134387 -4.5211935061402383e-05 0 0.034462212746080821 1.7360180070601266e-05 0 0.034601403274554514 0.00012161272171112629 0 0.034372807678158326 0.00010098768955762591 0 0.034462212746080821 1.7360180070601266e-05 0 0.034472457135410424 0.00014472344930551101 0 0.034462212746080821 1.7360180070601266e-05 0 0.034601403274554514 0.00012161272171112629 0 0.034472457135410424 0.00014472344930551101 0 0.034301580181519881 0.00018801768731307729 0 0.034356112114745464 0.00033384033123776857 0 0.034010967163937818 0.00045333756902492793 0 0.033855239446953851 0.00048227022980659544 0 0.033979985458575709 0.00048360831290728223 0 0.034074800682518849 0.00039233742594037269 0 0.034010967163937818 0.00045333756902492793 0 0.033979985458575709 0.00048360831290728223 0 0.034074800682518849 0.00039233742594037269 0 0.034010967163937818 0.00045333756902492793 0 0.034159209764553188 0.00033009710831525001 0 0.034374849408587517 0.00017863016132931367 0 0.034074800682518849 0.00039233742594037269 0 0.034159209764553188 0.00033009710831525001 0 0.034010967163937818 0.00045333756902492793 0 0.034159209764553188 0.00033009710831525001 0 0.034090653113561541 0.000412892564766614 0 0.034010967163937818 0.00045333756902492793 0 0.033832401372259929 0.00050723047775595449 0 0.033855239446953851 0.00048227022980659544 0 0.034010967163937818 0.00045333756902492793 0 0.034090653113561541 0.000412892564766614 0 0.033832401372259929 0.00050723047775595449 0 0.033832401372259929 0.00050723047775595449 0 0.033855239446953851 0.00048227022980659544 0 0.033534451286005157 0.00046532274652594843 0 0.032812293626301517 0.0003437734021390623 0 0.033534451286005157 0.00046532274652594843 0 0.033137630109596146 0.00059570123459439525 0 0.033855239446953851 0.00048227022980659544 0 0.033979491967244986 0.00031407117838352179 0 0.033534451286005157 0.00046532274652594843 0 0.03357421394068006 0.00039056372241819999 0 0.033444580321501396 0.0004297616864727297 0 0.032812293626301517 0.0003437734021390623 0 0.032821866205700385 0.00060085497068547661 0 0.033137630109596146 0.00059570123459439525 0 0.032794542364820212 0.00036658628842506223 0 0.032611901597587048 0.00053186941664283658 0 0.032821866205700385 0.00060085497068547661 0 0.03357421394068006 0.00039056372241819999 0 0.033020937966123487 0.00050464260635834041 0 0.034792965993811924 0.0005719076867545409 0 0.034601403274554514 0.00012161272171112629 0 0.034536823766743684 0.00037149209148565072 0 0.03357421394068006 0.00039056372241819999 0 0.034356112114745464 0.00033384033123776857 0 0.033855239446953851 0.00048227022980659544 0 0.033979491967244986 0.00031407117838352179 0 0.033979985458575709 0.00048360831290728223 0 0.034601403274554514 0.00012161272171112629 0 0.034500769118874876 0.00024830713965500812 0 0.034472457135410424 0.00014472344930551101 0 0.034500769118874876 0.00024830713965500812 0 0.034472457135410424 0.00014472344930551101 0 0.034409269482951997 0.00031548648307175504 0 0.034500769118874876 0.00024830713965500812 0 0.034536823766743684 0.00037149209148565072 0 0.034409269482951997 0.00031548648307175504 0 0.034601403274554514 0.00012161272171112629 0 0.034500769118874876 0.00024830713965500812 0 0.034536823766743684 0.00037149209148565072 0 0.032794542364820212 0.00036658628842506223 0 0.032611901597587048 0.00053186941664283658 0 0.03236601165311765 0.00043013033047773798 0 0.034792965993811924 0.0005719076867545409 0 0.034536823766743684 0.00037149209148565072 0 0.033790873626076877 0.00077115759865148327 0 0.03357421394068006 0.00039056372241819999 0 0.033114492852592957 0.00059197279223219279 0 0.03236601165311765 0.00043013033047773798 0 0.032154917957416804 0.00065757046615509955 0 0.031880755024907365 0.00053079090411823075 0 0.033114492852592957 0.00059197279223219279 0 0.032208482628022596 0.00067216702566270296 0 0.034536823766743684 0.00037149209148565072 0 0.033790873626076877 0.00077115759865148327 0 0.032976078062502703 0.00035125443433982019 0 0.034476445783920742 0.00037168375770794146 0 0.033612568418765476 0.00046703413254421363 0 0.033790873626076877 0.00077115759865148327 0 0.032976078062502703 0.00035125443433982019 0 0.0325418122117061 0.00081543544746471544 0 0.034536823766743684 0.00037149209148565072 0 0.034280439831307324 0.0005494071897246182 0 0.034409269482951997 0.00031548648307175504 0 0.034280439831307324 0.0005494071897246182 0 0.034409269482951997 0.00031548648307175504 0 0.034241598357090716 0.00023635649264726314 0 0.034372807678158326 0.00010098768955762591 0 0.034409269482951997 0.00031548648307175504 0 0.034241598357090716 0.00023635649264726314 0 0.034372807678158326 0.00010098768955762591 0 0.034472457135410424 0.00014472344930551101 0 0.034409269482951997 0.00031548648307175504 0 0.033829579363478073 0.00059661236763606195 0 0.033888173073372281 0.00052392391455589773 0 0.033567953652854178 0.00066986485467408752 0 0.033859879719376776 0.000660270988323016 0 0.033829579363478073 0.00059661236763606195 0 0.033505005705942122 0.00071584461857618592 0 0.033859879719376776 0.000660270988323016 0 0.034129908808672227 0.00051023421955450406 0 0.033829579363478073 0.00059661236763606195 0 0.034129908808672227 0.00051023421955450406 0 0.033829579363478073 0.00059661236763606195 0 0.034098819049077009 0.00047389641219095733 0 0.033829579363478073 0.00059661236763606195 0 0.034098819049077009 0.00047389641219095733 0 0.033888173073372281 0.00052392391455589773 0 0.034191061798238234 0.00041355047680586014 0 0.034098819049077009 0.00047389641219095733 0 0.033888173073372281 0.00052392391455589773 0 0.034191061798238234 0.00041355047680586014 0 0.034090653113561541 0.000412892564766614 0 0.033888173073372281 0.00052392391455589773 0 0.033832401372259929 0.00050723047775595449 0 0.033888173073372281 0.00052392391455589773 0 0.033671742643068846 0.00055206651324353267 0 0.034090653113561541 0.000412892564766614 0 0.033832401372259929 0.00050723047775595449 0 0.033888173073372281 0.00052392391455589773 0 0.033888173073372281 0.00052392391455589773 0 0.033671742643068846 0.00055206651324353267 0 0.033567953652854178 0.00066986485467408752 0 0.033832401372259929 0.00050723047775595449 0 0.033671742643068846 0.00055206651324353267 0 0.033534451286005157 0.00046532274652594843 0 0.033671742643068846 0.00055206651324353267 0 0.033534451286005157 0.00046532274652594843 0 0.033418335983236992 0.00069697902831804466 0 0.033671742643068846 0.00055206651324353267 0 0.033567953652854178 0.00066986485467408752 0 0.033418335983236992 0.00069697902831804466 0 0.033292243203936131 0.00082213130939139351 0 0.033567953652854178 0.00066986485467408752 0 0.033505005705942122 0.00071584461857618592 0 0.033292243203936131 0.00082213130939139351 0 0.033567953652854178 0.00066986485467408752 0 0.033418335983236992 0.00069697902831804466 0 0.033829579363478073 0.00059661236763606195 0 0.033567953652854178 0.00066986485467408752 0 0.033505005705942122 0.00071584461857618592 0 0.033292243203936131 0.00082213130939139351 0 0.033505005705942122 0.00071584461857618592 0 0.032954751852525027 0.0010836866614883055 0 0.032954751852525027 0.0010836866614883055 0 0.032412160430642344 0.00065070852144278777 0 0.033057563412502725 0.00077176452398501389 0 0.033292243203936131 0.00082213130939139351 0 0.032954751852525027 0.0010836866614883055 0 0.033057563412502725 0.00077176452398501389 0 0.032412160430642344 0.00065070852144278777 0 0.033057563412502725 0.00077176452398501389 0 0.032682020727269098 0.00033410450822275289 0 0.033120515882602695 0.00056294720742232406 0 0.033057563412502725 0.00077176452398501389 0 0.032682020727269098 0.00033410450822275289 0 0.033120515882602695 0.00056294720742232406 0 0.033057563412502725 0.00077176452398501389 0 0.033418335983236992 0.00069697902831804466 0 0.033292243203936131 0.00082213130939139351 0 0.033057563412502725 0.00077176452398501389 0 0.033418335983236992 0.00069697902831804466 0 0.033534451286005157 0.00046532274652594843 0 0.033418335983236992 0.00069697902831804466 0 0.033239233478473587 0.00070989202932932494 0 0.033418335983236992 0.00069697902831804466 0 0.033301242487362687 0.00066341203911030034 0 0.033239233478473587 0.00070989202932932494 0 0.033301242487362687 0.00066341203911030034 0 0.033239233478473587 0.00070989202932932494 0 0.033140503068925346 0.0008715921074163186 0 0.033120515882602695 0.00056294720742232406 0 0.033418335983236992 0.00069697902831804466 0 0.033301242487362687 0.00066341203911030034 0 0.033120515882602695 0.00056294720742232406 0 0.033301242487362687 0.00066341203911030034 0 0.03324761881878064 0.00054481081866095257 0 0.03324761881878064 0.00054481081866095257 0 0.032678550773235858 -0.00022683004434363477 0 0.032778941997008475 9.6993396342717663e-05 0 0.033301242487362687 0.00066341203911030034 0 0.03324761881878064 0.00054481081866095257 0 0.033140503068925346 0.0008715921074163186 0 0.03324761881878064 0.00054481081866095257 0 0.033307671173914144 0.0014607538639549921 0 0.033140503068925346 0.0008715921074163186 0 0.033246861132676449 0.00057247922668020757 0 0.033138945057832978 0.00064615571822109049 0 0.03324761881878064 0.00054481081866095257 0 0.033172330762795958 -0.00030993138430167945 0 0.032678550773235858 -0.00022683004434363477 0 0.032678550773235858 -0.00022683004434363477 0 0.032633326030731623 -0.00053236265161683025 0 0.032539045057457056 -0.00036027826968993175 0 0.032678550773235858 -0.00022683004434363477 0 0.032539045057457056 -0.00036027826968993175 0 0.032778941997008475 9.6993396342717663e-05 0 0.032633326030731623 -0.00053236265161683025 0 0.032539045057457056 -0.00036027826968993175 0 0.031908063316075937 -0.00085305098811549855 0 0.032539045057457056 -0.00036027826968993175 0 0.032233864063574466 -9.2404466469720115e-05 0 0.031908063316075937 -0.00085305098811549855 0 0.032539045057457056 -0.00036027826968993175 0 0.032233864063574466 -9.2404466469720115e-05 0 0.032778941997008475 9.6993396342717663e-05 0 0.032412160430642344 0.00065070852144278777 0 0.032682020727269098 0.00033410450822275289 0 0.032233864063574466 -9.2404466469720115e-05 0 0.032682020727269098 0.00033410450822275289 0 0.032233864063574466 -9.2404466469720115e-05 0 0.032778941997008475 9.6993396342717663e-05 0 0.033120515882602695 0.00056294720742232406 0 0.032682020727269098 0.00033410450822275289 0 0.032778941997008475 9.6993396342717663e-05 0 0.033120515882602695 0.00056294720742232406 0 0.03324761881878064 0.00054481081866095257 0 0.032778941997008475 9.6993396342717663e-05 0 0.032145522849915217 0.00088347425789004643 0 0.032261306572647988 0.0012893833368815485 0 0.031820789408685705 0.001036010520738754 0 0.032145522849915217 0.00088347425789004643 0 0.032461754205000221 0.00073158033458350208 0 0.032261306572647988 0.0012893833368815485 0 0.032145522849915217 0.00088347425789004643 0 0.032154917957416804 0.00065757046615509955 0 0.031920715498123725 0.00079578158584819566 0 0.03236601165311765 0.00043013033047773798 0 0.032154917957416804 0.00065757046615509955 0 0.032461754205000221 0.00073158033458350208 0 0.032145522849915217 0.00088347425789004643 0 0.032154917957416804 0.00065757046615509955 0 0.032461754205000221 0.00073158033458350208 0 0.032461754205000221 0.00073158033458350208 0 0.032681078783120751 0.00085208522109692965 0 0.032821866205700385 0.00060085497068547661 0 0.032611901597587048 0.00053186941664283658 0 0.032461754205000221 0.00073158033458350208 0 0.032821866205700385 0.00060085497068547661 0 0.032611901597587048 0.00053186941664283658 0 0.03236601165311765 0.00043013033047773798 0 0.032461754205000221 0.00073158033458350208 0 0.032681078783120751 0.00085208522109692965 0 0.032725038893446787 0.00095881862339716696 0 0.032261306572647988 0.0012893833368815485 0 0.032461754205000221 0.00073158033458350208 0 0.032681078783120751 0.00085208522109692965 0 0.032261306572647988 0.0012893833368815485 0 0.032681078783120751 0.00085208522109692965 0 0.032929108370876391 0.00075683860819430429 0 0.032725038893446787 0.00095881862339716696 0 0.032681078783120751 0.00085208522109692965 0 0.032821866205700385 0.00060085497068547661 0 0.032929108370876391 0.00075683860819430429 0 0.032821866205700385 0.00060085497068547661 0 0.032929108370876391 0.00075683860819430429 0 0.033137630109596146 0.00059570123459439525 0 0.033534451286005157 0.00046532274652594843 0 0.033137630109596146 0.00059570123459439525 0 0.033239233478473587 0.00070989202932932494 0 0.032929108370876391 0.00075683860819430429 0 0.033137630109596146 0.00059570123459439525 0 0.033239233478473587 0.00070989202932932494 0 0.032929108370876391 0.00075683860819430429 0 0.033239233478473587 0.00070989202932932494 0 0.032725038893446787 0.00095881862339716696 0 0.033239233478473587 0.00070989202932932494 0 0.033140503068925346 0.0008715921074163186 0 0.032725038893446787 0.00095881862339716696 0 0.033140503068925346 0.0008715921074163186 0 0.032750148443665569 0.0014244584412065741 0 0.032725038893446787 0.00095881862339716696 0 0.033307671173914144 0.0014607538639549921 0 0.033140503068925346 0.0008715921074163186 0 0.032750148443665569 0.0014244584412065741 0 0.032750148443665569 0.0014244584412065741 0 0.032159545071055291 0.001585912971100812 0 0.03243322408448842 0.0018440794412954431 0 0.032750148443665569 0.0014244584412065741 0 0.032725038893446787 0.00095881862339716696 0 0.032159545071055291 0.001585912971100812 0 0.032675168942627078 0.00098264574775166558 0 0.032014456397735556 0.0011184406680188738 0 0.032725038893446787 0.00095881862339716696 0 0.032159545071055291 0.001585912971100812 0 0.031784167474329522 0.00095569707713320318 0 0.032159545071055291 0.001585912971100812 0 0.03173869533962885 0.0020661901937703221 0 0.031394541890953316 0.0016602646906179624 0 0.032159545071055291 0.001585912971100812 0 0.031784167474329522 0.00095569707713320318 0 0.031394541890953316 0.0016602646906179624 0 0.031700886048742716 0.0026107061542504943 0 0.031809338601540525 0.0024393608863669623 0 0.03134478177817903 0.0024705802968919472 0 0.031722800738853717 0.0025485164118418894 0 0.031809338601540525 0.0024393608863669623 0 0.031912633765682145 0.0025221405445403481 0 0.031722800738853717 0.0025485164118418894 0 0.031912633765682145 0.0025221405445403481 0 0.031949265961767712 0.0027759352925670749 0 0.02936745920249691 0.0028991341206178588 0 0.030832784894165792 0.0020396275625369164 0 0.02936745920249691 0.0028991341206178588 0 0.031865512995818218 0.0028742130921146783 0 0.031809338601540525 0.0024393608863669623 0 0.03173869533962885 0.0020661901937703221 0 0.03134478177817903 0.0024705802968919472 0 0.03173869533962885 0.0020661901937703221 0 0.031394541890953316 0.0016602646906179624 0 0.03134478177817903 0.0024705802968919472 0 0.031809338601540525 0.0024393608863669623 0 0.03173869533962885 0.0020661901937703221 0 0.032093592805125894 0.0020844503704386254 0 0.032159545071055291 0.001585912971100812 0 0.032093592805125894 0.0020844503704386254 0 0.03243322408448842 0.0018440794412954431 0 0.032159545071055291 0.001585912971100812 0 0.03173869533962885 0.0020661901937703221 0 0.032093592805125894 0.0020844503704386254 0 0.032093592805125894 0.0020844503704386254 0 0.032036123855721493 0.0023333829588909759 0 0.032402329604657359 0.0022085017724758696 0 0.032093592805125894 0.0020844503704386254 0 0.032402329604657359 0.0022085017724758696 0 0.03243322408448842 0.0018440794412954431 0 0.032093666043255094 0.0025177047579514498 0 0.032402329604657359 0.0022085017724758696 0 0.032277763075190306 0.0026732361539500574 0 0.032036123855721493 0.0023333829588909759 0 0.032093666043255094 0.0025177047579514498 0 0.032402329604657359 0.0022085017724758696 0 0.031809338601540525 0.0024393608863669623 0 0.032036123855721493 0.0023333829588909759 0 0.031912633765682145 0.0025221405445403481 0 0.031809338601540525 0.0024393608863669623 0 0.032093592805125894 0.0020844503704386254 0 0.032036123855721493 0.0023333829588909759 0 0.032036123855721493 0.0023333829588909759 0 0.031912633765682145 0.0025221405445403481 0 0.032093666043255094 0.0025177047579514498 0 0.031912633765682145 0.0025221405445403481 0 0.032093666043255094 0.0025177047579514498 0 0.031949265961767712 0.0027759352925670749 0 0.032366101004536081 0.0022376777835702308 0 0.032094758818749181 0.002663593225285703 0 0.032602828308569934 0.0023642805804784789 0 0.032402329604657359 0.0022085017724758696 0 0.03228822321494914 0.0025693150774864356 0 0.032602828308569934 0.0023642805804784789 0 0.032402329604657359 0.0022085017724758696 0 0.032758832762209096 0.0019158980729621932 0 0.032750148443665569 0.0014244584412065741 0 0.03243322408448842 0.0018440794412954431 0 0.032758832762209096 0.0019158980729621932 0 0.032402329604657359 0.0022085017724758696 0 0.03243322408448842 0.0018440794412954431 0 0.032758832762209096 0.0019158980729621932 0 0.033307671173914144 0.0014607538639549921 0 0.032758832762209096 0.0019158980729621932 0 0.033007386288155985 0.0022461962787877197 0 0.033307671173914144 0.0014607538639549921 0 0.032750148443665569 0.0014244584412065741 0 0.032758832762209096 0.0019158980729621932 0 0.032602828308569934 0.0023642805804784789 0 0.033007386288155985 0.0022461962787877197 0 0.032593868744383588 0.0028535036786798526 0 0.032602828308569934 0.0023642805804784789 0 0.032758832762209096 0.0019158980729621932 0 0.033007386288155985 0.0022461962787877197 0 0.03320856846019616 -0.00087340920553525192 0 0.033146891779156265 -0.00090996919178421573 0 0.033071313632809185 -0.00089058060688491133 0 0.03320856846019616 -0.00087340920553525192 0 0.033146891779156265 -0.00090996919178421573 0 0.033062991399049987 -0.00087094955617546125 0 0.029776935572912878 -0.00026435044913723592 0 0.02885516770757458 0.00043084156918001123 0 0.0336186317461055 0.00061901368005433909 0 0.02885516770757458 0.00043084156918001123 0 0.026448200520113683 0.00041337852709341194 0 0.024516180021588289 0.0013738798706852448 0 0.026492165291021691 0.0015676881925876583 0 0.016410764677683445 -0.0024949729702179336 0 0.019474576506611455 -0.0011314791477803514 0 0.011802991946288829 -0.0036501472748654736 0 0.012006763556082526 -0.0043064526935857397 0 0.012315128070749684 -0.003729998527060322 0 0.011802991946288829 -0.0036501472748654736 0 0.011328792121612209 -0.0036998334311563754 0 0.012006763556082526 -0.0043064526935857397 0 0.023874569423434844 0.0028406456219394922 0 0.024516180021588289 0.0013738798706852448 0 0.026492165291021691 0.0015676881925876583 0 0.019289155231802128 -0.00084173984909708148 0 0.02885516770757458 0.00043084156918001123 0 0.023874569423434844 0.0028406456219394922 0 0.023704946865955274 0.0026691789975948712 0 0.024516180021588289 0.0013738798706852448 0 0.016307209086644667 -0.0023685495913174795 0 0.016410764677683445 -0.0024949729702179336 0 0.016307209086644667 -0.0023685495913174795 0 0.019289155231802128 -0.00084173984909708148 0 0.016827770813000572 -0.0015066622206815798 0 0.019058175422959098 -0.002673915534798771 0 0.018066320130824057 -0.0036644140580744757 0 0.016410764677683445 -0.0024949729702179336 0 0.019289155231802128 -0.00084173984909708148 0 0.019032904923457116 -0.0019886939995639838 0 0.019036407738433351 -0.0019895055771820217 0 0.019036254883582467 -0.0019905102404021357 0 0.019036407738433351 -0.0019895055771820217 0 0.019036254883582467 -0.0019905102404021357 0 0.01903989896270513 -0.001987917817038427 0 0.019032904923457116 -0.0019886939995639838 0 0.019036254883582467 -0.0019905102404021357 0 0.019031074873577535 -0.0019931921706632886 0 0.019036254883582467 -0.0019905102404021357 0 0.01903989896270513 -0.001987917817038427 0 0.019036449526041502 -0.0019917800175317918 0 0.024158260406762107 0.0014140956617118342 0 0.023064754060931947 0.00031760066513918491 0 0.025628636214302922 -0.0011020033144414527 0 0.01903989896270513 -0.001987917817038427 0 0.019042097769057728 -0.0019861591524702421 0 0.019036449526041502 -0.0019917800175317918 0 0.032213529041525565 0.0030427629454206091 0 0.032593868744383588 0.0028535036786798526 0 0.032164439975592499 0.0029901130601708635 0 0.019289155231802128 -0.00084173984909708148 0 0.024863778146843679 0.00041461930782922882 0 0.024863778146843679 0.00041461930782922882 0 0.02885516770757458 0.00043084156918001123 0 0.01903989896270513 -0.001987917817038427 0 0.019047207811090063 -0.0019818469380878489 0 0.019042097769057728 -0.0019861591524702421 0 0.019036407738433351 -0.0019895055771820217 0 0.01903989896270513 -0.001987917817038427 0 0.019047207811090063 -0.0019818469380878489 0 0.032602828308569934 0.0023642805804784789 0 0.032593868744383588 0.0028535036786798526 0 0.03228822321494914 0.0025693150774864356 0 0.032593868744383588 0.0028535036786798526 0 0.03228822321494914 0.0025693150774864356 0 0.032164439975592499 0.0029901130601708635 0 0.032094758818749181 0.002663593225285703 0 0.026508030380047662 0.0015959166519243456 0 0.032277763075190306 0.0026732361539500574 0 0.031949265961767712 0.0027759352925670749 0 0.032169139387588225 0.0030057561803274019 0 0.032093666043255094 0.0025177047579514498 0 0.032277763075190306 0.0026732361539500574 0 0.031949265961767712 0.0027759352925670749 0 0.024088377826359655 0.0021567219312886442 0 0.024075417887003507 0.0015879432778535694 0 0.024520564913691791 0.0019600950539209578 0 0.024088377826359655 0.0021567219312886442 0 0.023530498500218735 0.0016029244230339893 0 0.024075417887003507 0.0015879432778535694 0 0.028068781580755372 0.0025037904238924004 0 0.026508030380047662 0.0015959166519243456 0 0.023530498500218735 0.0016029244230339893 0 0.023552228055349934 0.0014388783981098682 0 0.024075417887003507 0.0015879432778535694 0 0.026508030380047662 0.0015959166519243456 0 0.023167249531155339 -5.9821109147960893e-06 0 0.024984117216946555 -8.2565645156711183e-05 0 0.024681556327275419 -0.00038439839038208461 0 0.024596806590177864 0.0001326642327343153 0 0.024863778146843679 0.00041461930782922882 0 0.026508030380047662 0.0015959166519243456 0 0.024863778146843679 0.00041461930782922882 0 0.023167249531155339 -5.9821109147960893e-06 0 0.019047207811090063 -0.0019818469380878489 0 0.019047319230630206 -0.0019825538470656765 0 0.019042097769057728 -0.0019861591524702421 0 0.023167249531155339 -5.9821109147960893e-06 0 0.018659884008148778 -0.0031159978507775761 0 0.019047319230630206 -0.0019825538470656765 0 0.019036449526041502 -0.0019917800175317918 0 0.019041866407799372 -0.0019942936941651905 0 0.019047319230630206 -0.0019825538470656765 0 0.019042097769057728 -0.0019861591524702421 0 0.019036449526041502 -0.0019917800175317918 0 0.019036254883582467 -0.0019905102404021357 0 0.019036449526041502 -0.0019917800175317918 0 0.019031074873577535 -0.0019931921706632886 0 0.014183230651235964 -0.006429759490373263 0 0.012878468596175441 -0.0060627949882217629 0 0.01405768685482689 -0.0057338303345326859 0 0.020906483865218321 -0.0025829672518758694 0 0.020784575806311607 -0.0018362175753381289 0 0.018026269706820204 -0.001012200542938264 0 0.018676512677737647 -0.0030748808219596331 0 0.018659884008148778 -0.0031159978507775761 0 0.019032904923457116 -0.0019886939995639838 0 0.019031074873577535 -0.0019931921706632886 0 0.019012830356932776 -0.0019902507855253187 0 0.018659884008148778 -0.0031159978507775761 0 0.014666063725578282 -0.0038318392400351594 0 0.016307209086644667 -0.0023685495913174795 0 0.014666063725578282 -0.0038318392400351594 0 0.023167249531155339 -5.9821109147960893e-06 0 0.017115236521258761 -0.0028792845098995937 0 0.018659884008148778 -0.0031159978507775761 0 0.017115236521258761 -0.0028792845098995937 0 0.023552228055349934 0.0014388783981098682 0 0.024075417887003507 0.0015879432778535694 0 0.024264794864689434 0.0010241840545494683 0 0.024075417887003507 0.0015879432778535694 0 0.024264794864689434 0.0010241840545494683 0 0.024668925140386516 0.0014238872718372578 0 0.024515923733719348 0.00094555420142759534 0 0.024668925140386516 0.0014238872718372578 0 0.025568985835044387 0.0011614026088834222 0 0.024075417887003507 0.0015879432778535694 0 0.024668925140386516 0.0014238872718372578 0 0.024520564913691791 0.0019600950539209578 0 0.024515923733719348 0.00094555420142759534 0 0.024264794864689434 0.0010241840545494683 0 0.024668925140386516 0.0014238872718372578 0 0.018117622971926234 -0.0024273798354287899 0 0.017115236521258761 -0.0028792845098995937 0 0.024668925140386516 0.0014238872718372578 0 0.024520564913691791 0.0019600950539209578 0 0.025109214600850617 0.0019286954870342125 0 0.024658531337639251 0.0027038460948417371 0 0.024088377826359655 0.0021567219312886442 0 0.024520564913691791 0.0019600950539209578 0 0.02936745920249691 0.0028991341206178588 0 0.028068781580755372 0.0025037904238924004 0 0.02936745920249691 0.0028991341206178588 0 0.028373170923200609 0.0028635919143558219 0 0.024658531337639251 0.0027038460948417371 0 0.024520564913691791 0.0019600950539209578 0 0.025109214600850617 0.0019286954870342125 0 0.028931100883843406 -0.00070640668516809395 0 0.028902668633050896 -0.00094481291690132619 0 0.028458732458645844 -0.00015653893395332848 0 0.032867327184980623 -0.00058034667181945481 0 0.031667255316917539 -0.00060464511685940422 0 0.028458732458645844 -0.00015653893395332848 0 0.024933702223398645 -0.0023161417234262571 0 0.021314000832090896 -0.0029390281256369112 0 0.028931100883843406 -0.00070640668516809395 0 0.02904522082813156 -0.00074867419370020177 0 0.028725256012724871 0.00014140739979115284 0 0.018063197456605031 -0.0068600055235031451 0 0.014488320878817339 -0.00573215509923452 0 0.016653812427448698 -0.0053275949840356071 0 0.028148376602174272 -0.0013744536402543245 0 0.024933702223398645 -0.0023161417234262571 0 0.028931100883843406 -0.00070640668516809395 0 0.028915912128922968 -0.00090941865534709511 0 0.028922297449402321 -0.00088079732426687095 0 0.018063197456605031 -0.0068600055235031451 0 0.016653812427448698 -0.0053275949840356071 0 0.017786115190644353 -0.0055123343929936374 0 0.018063197456605031 -0.0068600055235031451 0 0.019088531681421671 -0.0051273120136742277 0 0.017786115190644353 -0.0055123343929936374 0 0.018063197456605031 -0.0068600055235031451 0 0.019088531681421671 -0.0051273120136742277 0 0.020822563560759053 -0.0055521073792440629 0 0.024933702223398645 -0.0023161417234262571 0 0.024311303851603988 -0.0036220503688505243 0 0.028267204437678925 -0.0010080616216869064 0 0.028700668484693336 -0.0010831282929558489 0 0.028807529542645642 -0.0011520936030911897 0 0.028915912128922968 -0.00090941865534709511 0 0.02885585682162848 -0.00097869032477905862 0 0.028922297449402321 -0.00088079732426687095 0 0.024933702223398645 -0.0023161417234262571 0 0.028861129435181893 -0.0018505619347510291 0 0.028915912128922968 -0.00090941865534709511 0 0.02885585682162848 -0.00097869032477905862 0 0.028700668484693336 -0.0010831282929558489 0 0.02885585682162848 -0.00097869032477905862 0 0.028700668484693336 -0.0010831282929558489 0 0.028912898596021357 -0.00097801625294174606 0 0.030786159607803502 -0.00083313124017796961 0 0.030375250069503576 -0.00083884161508843299 0 0.02885585682162848 -0.00097869032477905862 0 0.028902668633050896 -0.00094481291690132619 0 0.028922297449402321 -0.00088079732426687095 0 0.032633326030731623 -0.00053236265161683025 0 0.032867327184980623 -0.00058034667181945481 0 0.031908063316075937 -0.00085305098811549855 0 0.02885585682162848 -0.00097869032477905862 0 0.028902668633050896 -0.00094481291690132619 0 0.028912898596021357 -0.00097801625294174606 0 0.032633326030731623 -0.00053236265161683025 0 0.032867327184980623 -0.00058034667181945481 0 0.032260837472000543 -0.00054894514526283172 0 0.028931100883843406 -0.00070640668516809395 0 0.028902668633050896 -0.00094481291690132619 0 0.028922297449402321 -0.00088079732426687095 0 0.032867327184980623 -0.00058034667181945481 0 0.031667255316917539 -0.00060464511685940422 0 0.032260837472000543 -0.00054894514526283172 0 0.032678550773235858 -0.00022683004434363477 0 0.032633326030731623 -0.00053236265161683025 0 0.032260837472000543 -0.00054894514526283172 0 0.033172330762795958 -0.00030993138430167945 0 0.032678550773235858 -0.00022683004434363477 0 0.03268829621223892 -0.00046547393931342966 0 0.032678550773235858 -0.00022683004434363477 0 0.032260837472000543 -0.00054894514526283172 0 0.03268829621223892 -0.00046547393931342966 0 0.03268829621223892 -0.00046547393931342966 0 0.032732008134935528 -0.00067084048582649993 0 0.032991844271846239 -0.00070087930786863777 0 0.03268829621223892 -0.00046547393931342966 0 0.032732008134935528 -0.00067084048582649993 0 0.032394842406930226 -0.00058817800060779969 0 0.031667255316917539 -0.00060464511685940422 0 0.032260837472000543 -0.00054894514526283172 0 0.032394842406930226 -0.00058817800060779969 0 0.032260837472000543 -0.00054894514526283172 0 0.03268829621223892 -0.00046547393931342966 0 0.032394842406930226 -0.00058817800060779969 0 0.033172330762795958 -0.00030993138430167945 0 0.03320856846019616 -0.00087340920553525192 0 0.032991844271846239 -0.00070087930786863777 0 0.033138945057832978 0.00064615571822109049 0 0.0336186317461055 0.00061901368005433909 0 0.033172330762795958 -0.00030993138430167945 0 0.03268829621223892 -0.00046547393931342966 0 0.032991844271846239 -0.00070087930786863777 0 0.029776935572912878 -0.00026435044913723592 0 0.030646833279821359 -0.0006361484567016883 0 0.033146891779156265 -0.00090996919178421573 0 0.033071313632809185 -0.00089058060688491133 0 0.032882981870443355 -0.0010171591385677566 0 0.026448200520113683 0.00041337852709341194 0 0.028458732458645844 -0.00015653893395332848 0 0.028420782393239901 -0.00047980593903783775 0 0.03320856846019616 -0.00087340920553525192 0 0.032991844271846239 -0.00070087930786863777 0 0.033071313632809185 -0.00089058060688491133 0 0.032991844271846239 -0.00070087930786863777 0 0.033071313632809185 -0.00089058060688491133 0 0.032882981870443355 -0.0010171591385677566 0 0.031667255316917539 -0.00060464511685940422 0 0.032394842406930226 -0.00058817800060779969 0 0.032882981870443355 -0.0010171591385677566 0 0.030786159607803502 -0.00083313124017796961 0 0.028760682628155152 -0.00017459812824229651 0 0.028931100883843406 -0.00070640668516809395 0 0.028458732458645844 -0.00015653893395332848 0 0.028725256012724871 0.00014140739979115284 0 0.031667255316917539 -0.00060464511685940422 0 0.028458732458645844 -0.00015653893395332848 0 0.028420782393239901 -0.00047980593903783775 0 0.031414812163489687 -0.00066475967255033401 0 0.030646833279821359 -0.0006361484567016883 0 0.032732008134935528 -0.00067084048582649993 0 0.032991844271846239 -0.00070087930786863777 0 0.032882981870443355 -0.0010171591385677566 0 0.032732008134935528 -0.00067084048582649993 0 0.032394842406930226 -0.00058817800060779969 0 0.032882981870443355 -0.0010171591385677566 0 0.014488320878817339 -0.00573215509923452 0 0.015370542412780701 -0.0041795887000065359 0 0.016653812427448698 -0.0053275949840356071 0 0.014488320878817339 -0.00573215509923452 0 0.01363616769321937 -0.0045224918834774067 0 0.015370542412780701 -0.0041795887000065359 0 0.028458732458645844 -0.00015653893395332848 0 0.028725256012724871 0.00014140739979115284 0 0.026492165291021691 0.0015676881925876583 0 0.021314000832090896 -0.0029390281256369112 0 0.019474576506611455 -0.0011314791477803514 0 0.026448200520113683 0.00041337852709341194 0 0.028458732458645844 -0.00015653893395332848 0 0.026492165291021691 0.0015676881925876583 0 0.014488320878817339 -0.00573215509923452 0 0.01363616769321937 -0.0045224918834774067 0 0.012006763556082526 -0.0043064526935857397 0 0.013276662345836182 -0.0037169318378506896 0 0.0127479557213007 -0.0034175635589943493 0 0.012303087191054043 -0.0034330942130420729 0 0.01363616769321937 -0.0045224918834774067 0 0.012006763556082526 -0.0043064526935857397 0 0.013276662345836182 -0.0037169318378506896 0 0.012006763556082526 -0.0043064526935857397 0 0.012315128070749684 -0.003729998527060322 0 0.013276662345836182 -0.0037169318378506896 0 0.012315128070749684 -0.003729998527060322 0 0.013276662345836182 -0.0037169318378506896 0 0.012303087191054043 -0.0034330942130420729 0 0.011802991946288829 -0.0036501472748654736 0 0.012315128070749684 -0.003729998527060322 0 0.012303087191054043 -0.0034330942130420729 0 0.015370542412780701 -0.0041795887000065359 0 0.013276662345836182 -0.0037169318378506896 0 0.015531377480384058 -0.0020403078844115062 0 0.013276662345836182 -0.0037169318378506896 0 0.013028298752255458 -0.0035601244679537621 0 0.0127479557213007 -0.0034175635589943493 0 0.01363616769321937 -0.0045224918834774067 0 0.015370542412780701 -0.0041795887000065359 0 0.013276662345836182 -0.0037169318378506896 0 0.01332847050656632 -0.0036146163218541087 0 0.014363405816314465 -0.0027877117883757141 0 0.015370542412780701 -0.0041795887000065359 0 0.017456490395310539 -0.0027368802505856691 0 0.017550659881556945 -0.0044165045990561102 0 0.015370542412780701 -0.0041795887000065359 0 0.015531377480384058 -0.0020403078844115062 0 0.017456490395310539 -0.0027368802505856691 0 0.015370542412780701 -0.0041795887000065359 0 0.017550659881556945 -0.0044165045990561102 0 0.016653812427448698 -0.0053275949840356071 0 0.017550659881556945 -0.0044165045990561102 0 0.016653812427448698 -0.0053275949840356071 0 0.017786115190644353 -0.0055123343929936374 0 0.017550659881556945 -0.0044165045990561102 0 0.019088531681421671 -0.0051273120136742277 0 0.017786115190644353 -0.0055123343929936374 0 0.017550659881556945 -0.0044165045990561102 0 0.019088531681421671 -0.0051273120136742277 0 0.018874570059923372 -0.0037216392698858486 0 0.019088531681421671 -0.0051273120136742277 0 0.018874570059923372 -0.0037216392698858486 0 0.020340806539724896 -0.0040177567557749721 0 0.017456490395310539 -0.0027368802505856691 0 0.018874570059923372 -0.0037216392698858486 0 0.019794751641211646 -0.0020748570758075675 0 0.017456490395310539 -0.0027368802505856691 0 0.017550659881556945 -0.0044165045990561102 0 0.018874570059923372 -0.0037216392698858486 0 0.021493883564094228 -0.0031711416333291892 0 0.020340806539724896 -0.0040177567557749721 0 0.019794751641211646 -0.0020748570758075675 0 0.018874570059923372 -0.0037216392698858486 0 0.020340806539724896 -0.0040177567557749721 0 0.019794751641211646 -0.0020748570758075675 0 0.021212616289626268 -0.0032418232589887393 0 0.02035788594337869 -0.0026049537193809165 0 0.021493883564094228 -0.0031711416333291892 0 0.02143381949699311 -0.0043593782002206705 0 0.020340806539724896 -0.0040177567557749721 0 0.02143381949699311 -0.0043593782002206705 0 0.020822563560759053 -0.0055521073792440629 0 0.022224459895669124 -0.0044865828450521674 0 0.021493883564094228 -0.0031711416333291892 0 0.02143381949699311 -0.0043593782002206705 0 0.022397241688981582 -0.0037121048102150148 0 0.019088531681421671 -0.0051273120136742277 0 0.020340806539724896 -0.0040177567557749721 0 0.020822563560759053 -0.0055521073792440629 0 0.02143381949699311 -0.0043593782002206705 0 0.020340806539724896 -0.0040177567557749721 0 0.020822563560759053 -0.0055521073792440629 0 0.028700668484693336 -0.0010831282929558489 0 0.028807529542645642 -0.0011520936030911897 0 0.028841221812294513 -0.0010631884479013966 0 0.024311303851603988 -0.0036220503688505243 0 0.025463848166335543 -0.0030406219083286977 0 0.028807529542645642 -0.0011520936030911897 0 0.028756620193831836 -0.0012482115123275269 0 0.028610788078659345 -0.0016487318672993008 0 0.028807529542645642 -0.0011520936030911897 0 0.028756620193831836 -0.0012482115123275269 0 0.028938206820963479 -0.0010389902787608727 0 0.028756620193831836 -0.0012482115123275269 0 0.028938206820963479 -0.0010389902787608727 0 0.028746526746096169 -0.0009765981381390839 0 0.028938206820963479 -0.0010389902787608727 0 0.028746526746096169 -0.0009765981381390839 0 0.029111567230786482 -0.00080005143378261896 0 0.028700668484693336 -0.0010831282929558489 0 0.028841221812294513 -0.0010631884479013966 0 0.028912898596021357 -0.00097801625294174606 0 0.028807529542645642 -0.0011520936030911897 0 0.028938206820963479 -0.0010389902787608727 0 0.028841221812294513 -0.0010631884479013966 0 0.028938206820963479 -0.0010389902787608727 0 0.028841221812294513 -0.0010631884479013966 0 0.028912898596021357 -0.00097801625294174606 0 0.028246120583413789 -0.00098828462151683309 0 0.028074761946363939 -0.0013552531502048154 0 0.027677728574237399 -0.00082270786656429503 0 0.028246120583413789 -0.00098828462151683309 0 0.028507226768595885 -0.0012423181655173564 0 0.028074761946363939 -0.0013552531502048154 0 0.028756620193831836 -0.0012482115123275269 0 0.028746526746096169 -0.0009765981381390839 0 0.028507226768595885 -0.0012423181655173564 0 0.028246120583413789 -0.00098828462151683309 0 0.028746526746096169 -0.0009765981381390839 0 0.028507226768595885 -0.0012423181655173564 0 0.028507226768595885 -0.0012423181655173564 0 0.028074761946363939 -0.0013552531502048154 0 0.028610788078659345 -0.0016487318672993008 0 0.028756620193831836 -0.0012482115123275269 0 0.028507226768595885 -0.0012423181655173564 0 0.028610788078659345 -0.0016487318672993008 0 0.028074761946363939 -0.0013552531502048154 0 0.028610788078659345 -0.0016487318672993008 0 0.027634987432796451 -0.0021107694999228806 0 0.025463848166335543 -0.0030406219083286977 0 0.025360957884787278 -0.002954111850887594 0 0.022224459895669124 -0.0044865828450521674 0 0.022397241688981582 -0.0037121048102150148 0 0.023188858882536852 -0.0037804367947826449 0 0.02143381949699311 -0.0043593782002206705 0 0.022224459895669124 -0.0044865828450521674 0 0.022397241688981582 -0.0037121048102150148 0 0.021160500297669985 -0.0034275759738560127 0 0.022397241688981582 -0.0037121048102150148 0 0.022313724212888283 -0.0028407363237823876 0 0.021212616289626268 -0.0032418232589887393 0 0.022336885116932166 -0.0036958195378162073 0 0.022397241688981582 -0.0037121048102150148 0 0.023135672260398775 -0.0031260711306461317 0 0.023188858882536852 -0.0037804367947826449 0 0.022397241688981582 -0.0037121048102150148 0 0.023135672260398775 -0.0031260711306461317 0 0.022313724212888283 -0.0028407363237823876 0 0.023135672260398775 -0.0031260711306461317 0 0.023899316157081227 -0.003143577903447678 0 0.023492079739500973 -0.0026665104345544371 0 0.023899316157081227 -0.003143577903447678 0 0.023845377559055764 -0.0025466349957425699 0 0.023492079739500973 -0.0026665104345544371 0 0.026355997167787831 -0.0024169061728338474 0 0.027634987432796451 -0.0021107694999228806 0 0.026763984804653126 -0.0014748443409193272 0 0.026355997167787831 -0.0024169061728338474 0 0.025893472959784676 -0.0015648108802498784 0 0.026763984804653126 -0.0014748443409193272 0 0.023135672260398775 -0.0031260711306461317 0 0.023899316157081227 -0.003143577903447678 0 0.023188858882536852 -0.0037804367947826449 0 0.025097322069085676 -0.002754238301695459 0 0.025360957884787278 -0.002954111850887594 0 0.023847025848122531 -0.0023285704666552785 0 0.024476159405669124 -0.0024387083545874717 0 0.023924481978655678 -0.0024796160280426216 0 0.025097322069085676 -0.002754238301695459 0 0.02452156832568465 -0.0025197051304120372 0 0.023899316157081227 -0.003143577903447678 0 0.024476159405669124 -0.0024387083545874717 0 0.023845377559055764 -0.0025466349957425699 0 0.026355997167787831 -0.0024169061728338474 0 0.024476159405669124 -0.0024387083545874717 0 0.025893472959784676 -0.0015648108802498784 0 0.024476159405669124 -0.0024387083545874717 0 0.025045116540933592 -0.0012719374240625512 0 0.025893472959784676 -0.0015648108802498784 0 0.025893472959784676 -0.0015648108802498784 0 0.026180235822704529 -0.00091693487411133442 0 0.026763984804653126 -0.0014748443409193272 0 0.025045116540933592 -0.0012719374240625512 0 0.025893472959784676 -0.0015648108802498784 0 0.026180235822704529 -0.00091693487411133442 0 0.026180235822704529 -0.00091693487411133442 0 0.025633049812729954 -0.0006832392040307067 0 0.02609642485793813 -0.00036421370980756841 0 0.025045116540933592 -0.0012719374240625512 0 0.026180235822704529 -0.00091693487411133442 0 0.025633049812729954 -0.0006832392040307067 0 0.025055757699865105 -0.00080263293076355624 0 0.025045116540933592 -0.0012719374240625512 0 0.025633049812729954 -0.0006832392040307067 0 0.025055757699865105 -0.00080263293076355624 0 0.025633049812729954 -0.0006832392040307067 0 0.025595014024692699 -0.00037789199417607913 0 0.027634987432796451 -0.0021107694999228806 0 0.027440860713084672 -0.0012677100721670777 0 0.026763984804653126 -0.0014748443409193272 0 0.028074761946363939 -0.0013552531502048154 0 0.027634987432796451 -0.0021107694999228806 0 0.027440860713084672 -0.0012677100721670777 0 0.026180235822704529 -0.00091693487411133442 0 0.026763984804653126 -0.0014748443409193272 0 0.026993422098838864 -0.00075244935915994081 0 0.026180235822704529 -0.00091693487411133442 0 0.026993422098838864 -0.00075244935915994081 0 0.026530214336559835 -0.00044925127240623669 0 0.027440860713084672 -0.0012677100721670777 0 0.026763984804653126 -0.0014748443409193272 0 0.026993422098838864 -0.00075244935915994081 0 0.027440860713084672 -0.0012677100721670777 0 0.026993422098838864 -0.00075244935915994081 0 0.027677728574237399 -0.00082270786656429503 0 0.028074761946363939 -0.0013552531502048154 0 0.027440860713084672 -0.0012677100721670777 0 0.027677728574237399 -0.00082270786656429503 0 0.026993422098838864 -0.00075244935915994081 0 0.026866264298186619 -0.00020780930867823281 0 0.027465703328150525 -0.00024192689652414119 0 0.026993422098838864 -0.00075244935915994081 0 0.027677728574237399 -0.00082270786656429503 0 0.027465703328150525 -0.00024192689652414119 0 0.026993422098838864 -0.00075244935915994081 0 0.026530214336559835 -0.00044925127240623669 0 0.026866264298186619 -0.00020780930867823281 0 0.026530214336559835 -0.00044925127240623669 0 0.026866264298186619 -0.00020780930867823281 0 0.026467993103437001 -4.0759360327095974e-05 0 0.026806174381962328 0.00025001152377310184 0 0.026467993103437001 -4.0759360327095974e-05 0 0.026506925399644974 0.00026451830188436813 0 0.026866264298186619 -0.00020780930867823281 0 0.026806174381962328 0.00025001152377310184 0 0.027465703328150525 -0.00024192689652414119 0 0.026866264298186619 -0.00020780930867823281 0 0.026806174381962328 0.00025001152377310184 0 0.026467993103437001 -4.0759360327095974e-05 0 0.027465703328150525 -0.00024192689652414119 0 0.027677974004497695 0.00060998823603437933 0 0.028048980760062736 1.169649508085271e-06 0 0.026806174381962328 0.00025001152377310184 0 0.027465703328150525 -0.00024192689652414119 0 0.027677974004497695 0.00060998823603437933 0 0.025633049812729954 -0.0006832392040307067 0 0.025595014024692699 -0.00037789199417607913 0 0.02609642485793813 -0.00036421370980756841 0 0.025595014024692699 -0.00037789199417607913 0 0.02609642485793813 -0.00036421370980756841 0 0.026141556376312672 9.4395661441950219e-06 0 0.026180235822704529 -0.00091693487411133442 0 0.026530214336559835 -0.00044925127240623669 0 0.02609642485793813 -0.00036421370980756841 0 0.026530214336559835 -0.00044925127240623669 0 0.02609642485793813 -0.00036421370980756841 0 0.026467993103437001 -4.0759360327095974e-05 0 0.026467993103437001 -4.0759360327095974e-05 0 0.026141556376312672 9.4395661441950219e-06 0 0.026506925399644974 0.00026451830188436813 0 0.02609642485793813 -0.00036421370980756841 0 0.026467993103437001 -4.0759360327095974e-05 0 0.026141556376312672 9.4395661441950219e-06 0 0.025632004346020816 -6.5883895902013809e-05 0 0.025595014024692699 -0.00037789199417607913 0 0.026141556376312672 9.4395661441950219e-06 0 0.025632004346020816 -6.5883895902013809e-05 0 0.026141556376312672 9.4395661441950219e-06 0 0.026405323833308878 0.00025293667470857963 0 0.026141556376312672 9.4395661441950219e-06 0 0.026405323833308878 0.00025293667470857963 0 0.026506925399644974 0.00026451830188436813 0 0.026506925399644974 0.00026451830188436813 0 0.026509249824135491 0.00031853645495421033 0 0.0267743018017687 0.00040001289037418513 0 0.026405323833308878 0.00025293667470857963 0 0.026506925399644974 0.00026451830188436813 0 0.026509249824135491 0.00031853645495421033 0 0.028604701210219442 -8.9373793447369154e-05 0 0.029741987223160769 -0.00010817328029446297 0 0.030780153163007268 0.00095693057125753958 0 0.030939268174913773 -0.00067819481388399602 0 0.032143894273150571 0.00038014289197049636 0 0.028604701210219442 -8.9373793447369154e-05 0 0.027304300210238084 0.00024899792765252981 0 0.026405323833308878 0.00025293667470857963 0 0.026509249824135491 0.00031853645495421033 0 0.027173847999560279 0.00026732496123872917 0 0.030780153163007268 0.00095693057125753958 0 0.030939268174913773 -0.00067819481388399602 0 0.027173847999560279 0.00026732496123872917 0 0.029086319592822804 0.00035676261223292847 0 0.029741987223160769 -0.00010817328029446297 0 0.026806174381962328 0.00025001152377310184 0 0.027086973423478992 0.00031867516192382844 0 0.0267743018017687 0.00040001289037418513 0 0.026271803388721874 0.00015664965115777882 0 0.029086319592822804 0.00035676261223292847 0 0.033105006737379414 -0.00028881255719843637 0 0.032393408204447874 -0.00042652532731641922 0 0.032796330810921107 0.00020737387208993511 0 0.026806174381962328 0.00025001152377310184 0 0.026506925399644974 0.00026451830188436813 0 0.0267743018017687 0.00040001289037418513 0 0.030939268174913773 -0.00067819481388399602 0 0.032393408204447874 -0.00042652532731641922 0 0.032143894273150571 0.00038014289197049636 0 0.032393408204447874 -0.00042652532731641922 0 0.032143894273150571 0.00038014289197049636 0 0.032796330810921107 0.00020737387208993511 0 0.033105006737379414 -0.00028881255719843637 0 0.032796330810921107 0.00020737387208993511 0 0.033342192786570503 0.00044008889575178199 0 0.033342192786570503 0.00044008889575178199 0 0.033614231370802466 0.00025299026244446593 0 0.033629395293162279 0.00054102804500515795 0 0.029086319592822804 0.00035676261223292847 0 0.031440400898774576 0.00075393425482160603 0 0.027397184275197013 0.0007454609868608182 0 0.028873949998082606 0.0012249687912247939 0 0.028743247726203614 0.00020752859794887594 0 0.033105006737379414 -0.00028881255719843637 0 0.033342192786570503 0.00044008889575178199 0 0.033614231370802466 0.00025299026244446593 0 0.029086319592822804 0.00035676261223292847 0 0.028073040391979592 0.00042568411115491281 0 0.031440400898774576 0.00075393425482160603 0 0.032148255773983878 0.0010841088885219629 0 0.028873949998082606 0.0012249687912247939 0 0.03083874548804421 0.0015041923229865194 0 0.029821792611353159 0.00055332329879164072 0 0.028873949998082606 0.0012249687912247939 0 0.029821792611353159 0.00055332329879164072 0 0.028743247726203614 0.00020752859794887594 0 0.033614231370802466 0.00025299026244446593 0 0.033629395293162279 0.00054102804500515795 0 0.033660918419137341 0.0008245795322903498 0 0.033691764903405565 0.00070260748251396526 0 0.033629395293162279 0.00054102804500515795 0 0.033660918419137341 0.0008245795322903498 0 0.032954751852525027 0.0010836866614883055 0 0.032412160430642344 0.00065070852144278777 0 0.03083874548804421 0.0015041923229865194 0 0.033683783849881799 0.00070926692442799027 0 0.032954751852525027 0.0010836866614883055 0 0.033660918419137341 0.0008245795322903498 0 0.032828522546268377 0.0011197012712069962 0 0.032148255773983878 0.0010841088885219629 0 0.032412160430642344 0.00065070852144278777 0 0.03083874548804421 0.0015041923229865194 0 0.031182356331587901 0.0002057275472243302 0 0.03083874548804421 0.0015041923229865194 0 0.029821792611353159 0.00055332329879164072 0 0.031182356331587901 0.0002057275472243302 0 0.029563790447502056 -0.00037443034006661336 0 0.031182356331587901 0.0002057275472243302 0 0.031908063316075937 -0.00085305098811549855 0 0.029821792611353159 0.00055332329879164072 0 0.029563790447502056 -0.00037443034006661336 0 0.031182356331587901 0.0002057275472243302 0 0.032412160430642344 0.00065070852144278777 0 0.032233864063574466 -9.2404466469720115e-05 0 0.031182356331587901 0.0002057275472243302 0 0.032233864063574466 -9.2404466469720115e-05 0 0.031182356331587901 0.0002057275472243302 0 0.031908063316075937 -0.00085305098811549855 0 0.028938206820963479 -0.0010389902787608727 0 0.028912898596021357 -0.00097801625294174606 0 0.029111567230786482 -0.00080005143378261896 0 0.029529978653507389 -0.00036865226502287454 0 0.030375250069503576 -0.00083884161508843299 0 0.029563790447502056 -0.00037443034006661336 0 0.028912898596021357 -0.00097801625294174606 0 0.029111567230786482 -0.00080005143378261896 0 0.028746526746096169 -0.0009765981381390839 0 0.029111567230786482 -0.00080005143378261896 0 0.02893513896001829 -0.00061642064699067101 0 0.029563790447502056 -0.00037443034006661336 0 0.029111567230786482 -0.00080005143378261896 0 0.02893513896001829 -0.00061642064699067101 0 0.028246120583413789 -0.00098828462151683309 0 0.028746526746096169 -0.0009765981381390839 0 0.028275472137241454 -0.00053514275501825707 0 0.028746526746096169 -0.0009765981381390839 0 0.02893513896001829 -0.00061642064699067101 0 0.028275472137241454 -0.00053514275501825707 0 0.027677728574237399 -0.00082270786656429503 0 0.027465703328150525 -0.00024192689652414119 0 0.028275472137241454 -0.00053514275501825707 0 0.028246120583413789 -0.00098828462151683309 0 0.027677728574237399 -0.00082270786656429503 0 0.028275472137241454 -0.00053514275501825707 0 0.027465703328150525 -0.00024192689652414119 0 0.028275472137241454 -0.00053514275501825707 0 0.028048980760062736 1.169649508085271e-06 0 0.027677974004497695 0.00060998823603437933 0 0.028048980760062736 1.169649508085271e-06 0 0.028743247726203614 0.00020752859794887594 0 0.028275472137241454 -0.00053514275501825707 0 0.028048980760062736 1.169649508085271e-06 0 0.028743247726203614 0.00020752859794887594 0 0.029563790447502056 -0.00037443034006661336 0 0.02893513896001829 -0.00061642064699067101 0 0.028743247726203614 0.00020752859794887594 0 0.02893513896001829 -0.00061642064699067101 0 0.028275472137241454 -0.00053514275501825707 0 0.028743247726203614 0.00020752859794887594 0 0.029821792611353159 0.00055332329879164072 0 0.029563790447502056 -0.00037443034006661336 0 0.028743247726203614 0.00020752859794887594 0 0.027654495215858169 -0.00020264624675230268 0 0.027670570187202672 -0.00014309981550850482 0 0.028224736940819017 -8.683265828162505e-05 0 0.027654495215858169 -0.00020264624675230268 0 0.028362361266918896 4.3036778884884182e-08 0 0.028224736940819017 -8.683265828162505e-05 0 0.027654495215858169 -0.00020264624675230268 0 0.028362361266918896 4.3036778884884182e-08 0 0.026589022687930647 -8.9393865476432977e-07 0 0.027654495215858169 -0.00020264624675230268 0 0.026589022687930647 -8.9393865476432977e-07 0 0.026928457507548083 0.00016868774713892979 0 0.027654495215858169 -0.00020264624675230268 0 0.027603865150732897 -0.00010333520000778019 0 0.026928457507548083 0.00016868774713892979 0 0.027654495215858169 -0.00020264624675230268 0 0.027603865150732897 -0.00010333520000778019 0 0.027670570187202672 -0.00014309981550850482 0 0.025207021090493897 0.00045673991988440775 0 0.025049330300512328 -1.2923156977276273e-06 0 0.022915532976478116 0.00089215190618309351 0 0.022520946566133966 0.0011202947367003069 0 0.022659122710234941 0.00055261394961741517 0 0.027603865150732897 -0.00010333520000778019 0 0.027470442996866039 -0.00016872663021640235 0 0.027670570187202672 -0.00014309981550850482 0 0.02531274297028404 -0.00027927040531787516 0 0.025582228457013426 -6.4063926658982972e-05 0 0.025398114098063865 0.00038311714480317416 0 0.025049330300512328 -1.2923156977276273e-06 0 0.023656764537733046 0.00070884226439959965 0 0.02531274297028404 -0.00027927040531787516 0 0.025462387838538644 -0.00036937801888170193 0 0.025582228457013426 -6.4063926658982972e-05 0 0.025049330300512328 -1.2923156977276273e-06 0 0.025244876583883424 -0.00013809486885771717 0 0.027470442996866039 -0.00016872663021640235 0 0.027340231167262589 1.3624604585586654e-05 0 0.027670570187202672 -0.00014309981550850482 0 0.025049330300512328 -1.2923156977276273e-06 0 0.026540542656309361 -0.00049483655590343257 0 0.025309277439797478 -0.00027952289711679349 0 0.025462387838538644 -0.00036937801888170193 0 0.02553923602729519 -0.00088676610283857293 0 0.027340231167262589 1.3624604585586654e-05 0 0.027670570187202672 -0.00014309981550850482 0 0.027657307949987206 0.00034695724045490805 0 0.027670570187202672 -0.00014309981550850482 0 0.027657307949987206 0.00034695724045490805 0 0.028224736940819017 -8.683265828162505e-05 0 0.027340231167262589 1.3624604585586654e-05 0 0.027657307949987206 0.00034695724045490805 0 0.027273692615707723 0.00025234318117274069 0 0.029716919847802212 0.00070516619974568897 0 0.029658261607631603 0.00041716596823435407 0 0.032099889879500847 0.00034185049254404368 0 0.033212582333106519 0.00027577330338871475 0 0.033151887893718639 0.0010412457035237589 0 0.031481479885977826 0.001023048900104938 0 0.032099889879500847 0.00034185049254404368 0 0.033009289676182309 0.0013383661651608155 0 0.032099889879500847 0.00034185049254404368 0 0.033151887893718639 0.0010412457035237589 0 0.033009289676182309 0.0013383661651608155 0 0.031481479885977826 0.001023048900104938 0 0.032099889879500847 0.00034185049254404368 0 0.030654657878346307 -0.00014573640342100557 0 0.031481479885977826 0.001023048900104938 0 0.029414713866670817 0.00025505919738405525 0 0.030654657878346307 -0.00014573640342100557 0 0.027657307949987206 0.00034695724045490805 0 0.028224736940819017 -8.683265828162505e-05 0 0.029414713866670817 0.00025505919738405525 0 0.029716919847802212 0.00070516619974568897 0 0.02938500017120587 0.00031551275083988381 0 0.028362361266918896 4.3036778884884182e-08 0 0.028224736940819017 -8.683265828162505e-05 0 0.029414713866670817 0.00025505919738405525 0 0.028362361266918896 4.3036778884884182e-08 0 0.029414713866670817 0.00025505919738405525 0 0.030136284729439713 4.6662811032856283e-07 0 0.029414713866670817 0.00025505919738405525 0 0.030136284729439713 4.6662811032856283e-07 0 0.030654657878346307 -0.00014573640342100557 0 0.030136284729439713 4.6662811032856283e-07 0 0.030654657878346307 -0.00014573640342100557 0 0.031905452305158399 -4.0202240697193832e-07 0 0.03499557100961765 -1.6363537243042356e-06 0 0.034575031698884193 -9.1475179794728084e-05 0 0.035000430234605008 2.0632116074470667e-07 0 0.030654657878346307 -0.00014573640342100557 0 0.031003227127707381 -0.00040592316489155449 0 0.031905452305158399 -4.0202240697193832e-07 0 0.032636919132970135 -0.00018962751311152814 0 0.031909129401925251 -5.8518492650456836e-08 0 0.034214148670116948 3.3654916655053186e-05 0 0.03499557100961765 -1.6363537243042356e-06 0 0.034575031698884193 -9.1475179794728084e-05 0 0.034214148670116948 3.3654916655053186e-05 0 0.031916597747056255 2.5368085020782101e-06 0 0.03499557100961765 -1.6363537243042356e-06 0 0.032636919132970135 -0.00018962751311152814 0 0.033616577479365618 -0.00032943537293206082 0 0.032099889879500847 0.00034185049254404368 0 0.031003227127707381 -0.00040592316489155449 0 0.03267781973816903 -0.00063063386673718421 0 0.032099889879500847 0.00034185049254404368 0 0.030654657878346307 -0.00014573640342100557 0 0.031003227127707381 -0.00040592316489155449 0 0.032099889879500847 0.00034185049254404368 0 0.03267781973816903 -0.00063063386673718421 0 0.033212582333106519 0.00027577330338871475 0 0.03267781973816903 -0.00063063386673718421 0 0.033212582333106519 0.00027577330338871475 0 0.034531812903089688 -0.00018755069171276617 0 0.03416879882610363 0.00033812446659203398 0 0.034531812903089688 -0.00018755069171276617 0 0.034762900806509997 6.0913477849609577e-05 0 0.033212582333106519 0.00027577330338871475 0 0.03416879882610363 0.00033812446659203398 0 0.034531812903089688 -0.00018755069171276617 0 0.033616577479365618 -0.00032943537293206082 0 0.034459957214920504 -0.00022452506718756524 0 0.034575031698884193 -9.1475179794728084e-05 0 0.034531812903089688 -0.00018755069171276617 0 0.035000430234605008 2.0632116074470667e-07 0 0.034531812903089688 -0.00018755069171276617 0 0.035000430234605008 2.0632116074470667e-07 0 0.034877043173532227 -8.186328879804189e-05 0 0.035000430234605008 2.0632116074470667e-07 0 0.034877043173532227 -8.186328879804189e-05 0 0.034917171510690528 -6.3291498963948326e-05 0 0.034877043173532227 -8.186328879804189e-05 0 0.034985084524252703 3.4948662217348724e-05 0 0.034762900806509997 6.0913477849609577e-05 0 0.034877043173532227 -8.186328879804189e-05 0 0.034985084524252703 3.4948662217348724e-05 0 0.034917171510690528 -6.3291498963948326e-05 0 0.034531812903089688 -0.00018755069171276617 0 0.034877043173532227 -8.186328879804189e-05 0 0.034762900806509997 6.0913477849609577e-05 0 0.03416879882610363 0.00033812446659203398 0 0.034762900806509997 6.0913477849609577e-05 0 0.034444293188537492 0.00067139050042892866 0 0.034762900806509997 6.0913477849609577e-05 0 0.034922270299880528 0.00050133933968948049 0 0.034444293188537492 0.00067139050042892866 0 0.034674730034573338 5.4944871642772331e-05 0 0.034371812919347884 0.00032862731508944169 0 0.034762673070517988 0.00028240291011296471 0 0.03478041653776183 8.5627186211810035e-05 0 0.035021055728596567 0.0004702861439875261 0 0.034985084524252703 3.4948662217348724e-05 0 0.034762900806509997 6.0913477849609577e-05 0 0.034922270299880528 0.00050133933968948049 0 0.030959731327999871 -0.0013508185613545483 0 0.03476580040717045 0.00073333884098759927 0 0.034371812919347884 0.00032862731508944169 0 0.034442871581064592 0.00070886188073873279 0 0.034762673070517988 0.00028240291011296471 0 0.034371812919347884 0.00032862731508944169 0 0.034442871581064592 0.00070886188073873279 0 0.034062564523707088 0.00069037093407774012 0 0.033515015726444768 0.0011722393158503377 0 0.033433653970876213 0.0012696571198019442 0 0.034209112815853593 0.00082561101107716205 0 0.027378084407974724 -0.0009211484901144462 0 0.027712343426272948 -0.000596979989331256 0 0.028022326565303311 -0.0009009734013997148 0 0.026740280138614805 -0.0037522934604252885 0 0.026512029546647522 -0.0034043555147633738 0 0.025819066112070774 -0.0033604618138159872 0 0.030959731327999871 -0.0013508185613545483 0 0.028660109031080939 -0.0011000629068108093 0 0.030959731327999871 -0.0013508185613545483 0 0.030086803202187495 -0.00072552736516732347 0 0.026740280138614805 -0.0037522934604252885 0 0.025819066112070774 -0.0033604618138159872 0 0.024943290697322547 -0.0038398696458943099 0 0.026512029546647522 -0.0034043555147633738 0 0.025819066112070774 -0.0033604618138159872 0 0.025082167862460068 -0.0024535043707104723 0 0.025819066112070774 -0.0033604618138159872 0 0.024943290697322547 -0.0038398696458943099 0 0.025082167862460068 -0.0024535043707104723 0 0.028660109031080939 -0.0011000629068108093 0 0.024670822386452754 -0.002194743127952768 0 0.035021055728596567 0.0004702861439875261 0 0.030086803202187495 -0.00072552736516732347 0 0.034922270299880528 0.00050133933968948049 0 0.034560097949123382 0.0012491885681137718 0 0.034444293188537492 0.00067139050042892866 0 0.03416879882610363 0.00033812446659203398 0 0.034444293188537492 0.00067139050042892866 0 0.033789094308338055 0.00076409372204834253 0 0.034444293188537492 0.00067139050042892866 0 0.033789094308338055 0.00076409372204834253 0 0.033889297626384041 0.0012988663177432929 0 0.033212582333106519 0.00027577330338871475 0 0.03416879882610363 0.00033812446659203398 0 0.033789094308338055 0.00076409372204834253 0 0.033212582333106519 0.00027577330338871475 0 0.033789094308338055 0.00076409372204834253 0 0.033151887893718639 0.0010412457035237589 0 0.033789094308338055 0.00076409372204834253 0 0.033151887893718639 0.0010412457035237589 0 0.033889297626384041 0.0012988663177432929 0 0.029658261607631603 0.00041716596823435407 0 0.030269780340704041 -8.4928697226792208e-05 0 0.025774873676780899 -0.001499621028286704 0 0.026486212115380124 -0.0014735815027483977 0 0.026042011248556228 -0.00096078140240013433 0 0.033151887893718639 0.0010412457035237589 0 0.033046703542967563 0.0013177778418943945 0 0.033889297626384041 0.0012988663177432929 0 0.030785754681610381 0.0004487141090289487 0 0.029658261607631603 0.00041716596823435407 0 0.026540542656309361 -0.00049483655590343257 0 0.029658261607631603 0.00041716596823435407 0 0.02553923602729519 -0.00088676610283857293 0 0.025774873676780899 -0.001499621028286704 0 0.026042011248556228 -0.00096078140240013433 0 0.034560097949123382 0.0012491885681137718 0 0.034444293188537492 0.00067139050042892866 0 0.033889297626384041 0.0012988663177432929 0 0.030086803202187495 -0.00072552736516732347 0 0.030269780340704041 -8.4928697226792208e-05 0 0.027226384016641052 -0.0014382958392032278 0 0.026486212115380124 -0.0014735815027483977 0 0.026544384298302894 -0.00049295325409730588 0 0.02341593727166931 -0.0016663086584661646 0 0.023641014177038198 -0.0015736322352169025 0 0.025082167862460068 -0.0024535043707104723 0 0.030086803202187495 -0.00072552736516732347 0 0.024458281111944889 -0.0012772220050891406 0 0.026486212115380124 -0.0014735815027483977 0 0.026544384298302894 -0.00049295325409730588 0 0.026042011248556228 -0.00096078140240013433 0 0.026544384298302894 -0.00049295325409730588 0 0.026042011248556228 -0.00096078140240013433 0 0.025875331336944397 -0.00045212220327248961 0 0.02553923602729519 -0.00088676610283857293 0 0.026042011248556228 -0.00096078140240013433 0 0.025875331336944397 -0.00045212220327248961 0 0.025462387838538644 -0.00036937801888170193 0 0.02553923602729519 -0.00088676610283857293 0 0.025875331336944397 -0.00045212220327248961 0 0.024458281111944889 -0.0012772220050891406 0 0.024286365950698184 3.8913761064556338e-05 0 0.025875331336944397 -0.00045212220327248961 0 0.025582228457013426 -6.4063926658982972e-05 0 0.025868999452717478 0.00038369637963830223 0 0.026544384298302894 -0.00049295325409730588 0 0.025875331336944397 -0.00045212220327248961 0 0.025868999452717478 0.00038369637963830223 0 0.025462387838538644 -0.00036937801888170193 0 0.025875331336944397 -0.00045212220327248961 0 0.025582228457013426 -6.4063926658982972e-05 0 0.023641014177038198 -0.0015736322352169025 0 0.024553548335773234 -0.0015706370299913637 0 0.023634251497881086 -0.00040391134335842027 0 0.02341593727166931 -0.0016663086584661646 0 0.023641014177038198 -0.0015736322352169025 0 0.023634251497881086 -0.00040391134335842027 0 0.02341593727166931 -0.0016663086584661646 0 0.023634251497881086 -0.00040391134335842027 0 0.022487124294960709 -0.00032720605257771591 0 0.025500155848004163 -0.00092217424719835217 0 0.025229243168992967 -9.920475586861742e-05 0 0.026949322174286191 -0.00025985927376788237 0 0.026982158062812334 0.00028042555912072601 0 0.026551692997948136 0.00035818550734907227 0 0.027355722411424931 1.7330700707393738e-05 0 0.026949322174286191 -0.00025985927376788237 0 0.026982158062812334 0.00028042555912072601 0 0.027355722411424931 1.7330700707393738e-05 0 0.027278878502763514 0.00047299342427488053 0 0.026982158062812334 0.00028042555912072601 0 0.027355722411424931 1.7330700707393738e-05 0 0.027819287025079527 0.00019424429183802257 0 0.027278878502763514 0.00047299342427488053 0 0.027355722411424931 1.7330700707393738e-05 0 0.027402341007518319 -0.00041956863929064575 0 0.027692994982364844 -0.00022870350741301069 0 0.027355722411424931 1.7330700707393738e-05 0 0.027692994982364844 -0.00022870350741301069 0 0.027819287025079527 0.00019424429183802257 0 0.027355722411424931 1.7330700707393738e-05 0 0.027402341007518319 -0.00041956863929064575 0 0.026949322174286191 -0.00025985927376788237 0 0.027378084407974724 -0.0009211484901144462 0 0.027402341007518319 -0.00041956863929064575 0 0.026949322174286191 -0.00025985927376788237 0 0.027402341007518319 -0.00041956863929064575 0 0.027712343426272948 -0.000596979989331256 0 0.027692994982364844 -0.00022870350741301069 0 0.027378084407974724 -0.0009211484901144462 0 0.027402341007518319 -0.00041956863929064575 0 0.027712343426272948 -0.000596979989331256 0 0.028660109031080939 -0.0011000629068108093 0 0.025500155848004163 -0.00092217424719835217 0 0.024943290697322547 -0.0038398696458943099 0 0.02341593727166931 -0.0016663086584661646 0 0.025082167862460068 -0.0024535043707104723 0 0.025472982830289311 -0.002836956953062607 0 0.024517948305487862 -0.0022068476732194668 0 0.024553548335773234 -0.0015706370299913637 0 0.023641014177038198 -0.0015736322352169025 0 0.024517948305487862 -0.0022068476732194668 0 0.024553548335773234 -0.0015706370299913637 0 0.023846080042040117 -0.0016916416207426377 0 0.024670822386452754 -0.002194743127952768 0 0.029441170164185158 0.00035064991032488884 0 0.0300291587597117 -0.0006219095642166862 0 0.028095244244911968 -0.00042386407177266158 0 0.028484955272395487 -0.00010646555391982401 0 0.028756719475535503 -0.0010583115636274307 0 0.030352274217867462 0.00069798966597712099 0 0.031334190155803611 0.00051959902187528819 0 0.031724297979424922 -0.00012331507900369945 0 0.027712343426272948 -0.000596979989331256 0 0.028095244244911968 -0.00042386407177266158 0 0.028022326565303311 -0.0009009734013997148 0 0.027712343426272948 -0.000596979989331256 0 0.027692994982364844 -0.00022870350741301069 0 0.028095244244911968 -0.00042386407177266158 0 0.027819287025079527 0.00019424429183802257 0 0.028484955272395487 -0.00010646555391982401 0 0.028199663134809178 0.00079192580760639123 0 0.028095244244911968 -0.00042386407177266158 0 0.027819287025079527 0.00019424429183802257 0 0.028484955272395487 -0.00010646555391982401 0 0.027692994982364844 -0.00022870350741301069 0 0.028095244244911968 -0.00042386407177266158 0 0.027819287025079527 0.00019424429183802257 0 0.032504413142985647 0.00090791799515906415 0 0.031334190155803611 0.00051959902187528819 0 0.030161776621574678 0.0010738661868321204 0 0.030352274217867462 0.00069798966597712099 0 0.031334190155803611 0.00051959902187528819 0 0.030161776621574678 0.0010738661868321204 0 0.031417679912751198 0.00072057475393431036 0 0.030336418485402607 0.001065074907712116 0 0.030322982773389892 0.00063284765164565526 0 0.030357141751391432 0.00093041550315299309 0 0.030161776621574678 0.0010738661868321204 0 0.032504413142985647 0.00090791799515906415 0 0.031334190155803611 0.00051959902187528819 0 0.032306868458592319 0.00010540159214062096 0 0.032504413142985647 0.00090791799515906415 0 0.032306868458592319 0.00010540159214062096 0 0.032970398851124703 0.00024627251667434151 0 0.031334190155803611 0.00051959902187528819 0 0.032306868458592319 0.00010540159214062096 0 0.031724297979424922 -0.00012331507900369945 0 0.032306868458592319 0.00010540159214062096 0 0.032700169016790605 -0.00029293047633672506 0 0.031724297979424922 -0.00012331507900369945 0 0.032306868458592319 0.00010540159214062096 0 0.033176502601259573 -0.00026186976420333247 0 0.032970398851124703 0.00024627251667434151 0 0.032306868458592319 0.00010540159214062096 0 0.033176502601259573 -0.00026186976420333247 0 0.032700169016790605 -0.00029293047633672506 0 0.033176502601259573 -0.00026186976420333247 0 0.033419496884635337 -0.00048178305298672314 0 0.033769245816153773 -0.00038952371175001409 0 0.033176502601259573 -0.00026186976420333247 0 0.032700169016790605 -0.00029293047633672506 0 0.033419496884635337 -0.00048178305298672314 0 0.032700169016790605 -0.00029293047633672506 0 0.031724297979424922 -0.00012331507900369945 0 0.032840637871595274 -0.00063309787198479459 0 0.032700169016790605 -0.00029293047633672506 0 0.032840637871595274 -0.00063309787198479459 0 0.033419496884635337 -0.00048178305298672314 0 0.0300291587597117 -0.0006219095642166862 0 0.032349931071920385 -0.0008507994609541459 0 0.031370938862468653 -0.00018090309858126801 0 0.032349931071920385 -0.0008507994609541459 0 0.028756719475535503 -0.0010583115636274307 0 0.028173466092445965 -0.0014850954689191865 0 0.029016083035918912 -0.0020556049983170592 0 0.028756719475535503 -0.0010583115636274307 0 0.028022326565303311 -0.0009009734013997148 0 0.028173466092445965 -0.0014850954689191865 0 0.028095244244911968 -0.00042386407177266158 0 0.028756719475535503 -0.0010583115636274307 0 0.028022326565303311 -0.0009009734013997148 0 0.027378084407974724 -0.0009211484901144462 0 0.028022326565303311 -0.0009009734013997148 0 0.028173466092445965 -0.0014850954689191865 0 0.028660109031080939 -0.0011000629068108093 0 0.031370938862468653 -0.00018090309858126801 0 0.033515015726444768 0.0011722393158503377 0 0.034209112815853593 0.00082561101107716205 0 0.034069618129405822 0.00055818103326693146 0 0.034209112815853593 0.00082561101107716205 0 0.034069618129405822 0.00055818103326693146 0 0.034429106063250406 0.000405964076273613 0 0.035000430234605008 2.0632116074470667e-07 0 0.034998563952184029 -3.7305893334100406e-07 0 0.034937864030350388 -3.7813159968139787e-05 0 0.035000430234605008 2.0632116074470667e-07 0 0.034937864030350388 -3.7813159968139787e-05 0 0.034914503264240108 -4.2958631305122068e-05 0 0.03476580040717045 0.00073333884098759927 0 0.034697890724740742 2.0602432757843599e-05 0 0.034674730034573338 5.4944871642772331e-05 0 0.034762673070517988 0.00028240291011296471 0 0.034947483487859615 -1.0160345574958673e-05 0 0.034429106063250406 0.000405964076273613 0 0.034540381259440554 0.00010836878085346875 0 0.034764040073508931 0.00042138558535181973 0 0.034209112815853593 0.00082561101107716205 0 0.034429106063250406 0.000405964076273613 0 0.034764040073508931 0.00042138558535181973 0 0.034069618129405822 0.00055818103326693146 0 0.034429106063250406 0.000405964076273613 0 0.034540381259440554 0.00010836878085346875 0 0.03478041653776183 8.5627186211810035e-05 0 0.034914186971344595 -5.9328855018155661e-05 0 0.034674730034573338 5.4944871642772331e-05 0 0.034947483487859615 -1.0160345574958673e-05 0 0.034917171510690528 -6.3291498963948326e-05 0 0.035000430234605008 2.0632116074470667e-07 0 0.034917171510690528 -6.3291498963948326e-05 0 0.034914503264240108 -4.2958631305122068e-05 0 0.034947483487859615 -1.0160345574958673e-05 0 0.034917171510690528 -6.3291498963948326e-05 0 0.034914503264240108 -4.2958631305122068e-05 0 0.034697890724740742 2.0602432757843599e-05 0 0.034897800430609978 -2.2456551328463609e-05 0 0.034998563952184029 -3.7305893334100406e-07 0 0.034937864030350388 -3.7813159968139787e-05 0 0.034540041143990591 -0.00019930915250985758 0 0.034937864030350388 -3.7813159968139787e-05 0 0.034914503264240108 -4.2958631305122068e-05 0 0.034869052010303402 2.6091771969564287e-05 0 0.034937864030350388 -3.7813159968139787e-05 0 0.034540041143990591 -0.00019930915250985758 0 0.034317660113038356 -0.00027413029816517146 0 0.034540381259440554 0.00010836878085346875 0 0.034914503264240108 -4.2958631305122068e-05 0 0.034869052010303402 2.6091771969564287e-05 0 0.034816123448991702 -4.8198500244179157e-05 0 0.034828063341489045 -7.1636699989168449e-06 0 0.034998563952184029 -3.7305893334100406e-07 0 0.034540041143990591 -0.00019930915250985758 0 0.034436465651720205 -0.00025201029261239828 0 0.034540041143990591 -0.00019930915250985758 0 0.034180169082509523 -0.00035914183513028789 0 0.034317660113038356 -0.00027413029816517146 0 0.034540041143990591 -0.00019930915250985758 0 0.034180169082509523 -0.00035914183513028789 0 0.034436465651720205 -0.00025201029261239828 0 0.034180169082509523 -0.00035914183513028789 0 0.033971872797378601 -0.00045225041681712001 0 0.034436465651720205 -0.00025201029261239828 0 0.034180169082509523 -0.00035914183513028789 0 0.03379049644318452 -0.00060092870860063089 0 0.033971872797378601 -0.00045225041681712001 0 0.034828063341489045 -7.1636699989168449e-06 0 0.032349931071920385 -0.0008507994609541459 0 0.034540381259440554 0.00010836878085346875 0 0.034869052010303402 2.6091771969564287e-05 0 0.034764040073508931 0.00042138558535181973 0 0.03379049644318452 -0.00060092870860063089 0 0.034317660113038356 -0.00027413029816517146 0 0.034146802539101004 -0.0008741232708727154 0 0.034180169082509523 -0.00035914183513028789 0 0.03379049644318452 -0.00060092870860063089 0 0.034317660113038356 -0.00027413029816517146 0 0.03379049644318452 -0.00060092870860063089 0 0.032840637871595274 -0.00063309787198479459 0 0.033419496884635337 -0.00048178305298672314 0 0.033848368185021203 -0.00083756586454895789 0 0.032349931071920385 -0.0008507994609541459 0 0.033971872797378601 -0.00045225041681712001 0 0.033419496884635337 -0.00048178305298672314 0 0.033769245816153773 -0.00038952371175001409 0 0.03379049644318452 -0.00060092870860063089 0 0.033971872797378601 -0.00045225041681712001 0 0.033419496884635337 -0.00048178305298672314 0 0.033769245816153773 -0.00038952371175001409 0 0.034076486074525049 -0.00029346179638822518 0 0.034207199782905061 -0.00033300875789893597 0 0.033971872797378601 -0.00045225041681712001 0 0.033769245816153773 -0.00038952371175001409 0 0.034207199782905061 -0.00033300875789893597 0 0.034076486074525049 -0.00029346179638822518 0 0.034207199782905061 -0.00033300875789893597 0 0.034333504437298643 -0.0002438765064477488 0 0.034207199782905061 -0.00033300875789893597 0 0.034602943856295997 -0.00017788516566885542 0 0.034333504437298643 -0.0002438765064477488 0 0.033971872797378601 -0.00045225041681712001 0 0.034207199782905061 -0.00033300875789893597 0 0.034436465651720205 -0.00025201029261239828 0 0.034998563952184029 -3.7305893334100406e-07 0 0.034436465651720205 -0.00025201029261239828 0 0.034602943856295997 -0.00017788516566885542 0 0.034998563952184029 -3.7305893334100406e-07 0 0.034999333984673364 -1.6210323136454641e-07 0 0.034602943856295997 -0.00017788516566885542 0 0.034207199782905061 -0.00033300875789893597 0 0.034436465651720205 -0.00025201029261239828 0 0.034602943856295997 -0.00017788516566885542 0 0.034999333984673364 -1.6210323136454641e-07 0 0.034602943856295997 -0.00017788516566885542 0 0.034625485322538944 -0.00010673411754587173 0 0.034625485322538944 -0.00010673411754587173 0 0.034459741205519159 -0.0001846373954784534 0 0.034405652874710639 -0.00013487499843586905 0 0.034602943856295997 -0.00017788516566885542 0 0.034459741205519159 -0.0001846373954784534 0 0.034333504437298643 -0.0002438765064477488 0 0.034602943856295997 -0.00017788516566885542 0 0.034625485322538944 -0.00010673411754587173 0 0.034459741205519159 -0.0001846373954784534 0 0.034076486074525049 -0.00029346179638822518 0 0.034333504437298643 -0.0002438765064477488 0 0.034191330694630193 -0.00019795340604797005 0 0.034459741205519159 -0.0001846373954784534 0 0.034333504437298643 -0.0002438765064477488 0 0.034191330694630193 -0.00019795340604797005 0 0.034191330694630193 -0.00019795340604797005 0 0.034405652874710639 -0.00013487499843586905 0 0.034158321138407589 -0.00014804628942612647 0 0.034459741205519159 -0.0001846373954784534 0 0.034191330694630193 -0.00019795340604797005 0 0.034405652874710639 -0.00013487499843586905 0 0.034353687529366995 -0.00010060551452142535 0 0.034158321138407589 -0.00014804628942612647 0 0.034202649518113089 -2.7115217971344178e-05 0 0.034353687529366995 -0.00010060551452142535 0 0.034405652874710639 -0.00013487499843586905 0 0.034158321138407589 -0.00014804628942612647 0 0.034202649518113089 -2.7115217971344178e-05 0 0.033847195906020269 -0.00017841900373236433 0 0.033873207278118156 0.00024844382943679019 0 0.034158321138407589 -0.00014804628942612647 0 0.034202649518113089 -2.7115217971344178e-05 0 0.033847195906020269 -0.00017841900373236433 0 0.034191330694630193 -0.00019795340604797005 0 0.034158321138407589 -0.00014804628942612647 0 0.033847195906020269 -0.00017841900373236433 0 0.034191330694630193 -0.00019795340604797005 0 0.033847195906020269 -0.00017841900373236433 0 0.033807309588302033 -0.00020183323185091071 0 0.033769245816153773 -0.00038952371175001409 0 0.034076486074525049 -0.00029346179638822518 0 0.033807309588302033 -0.00020183323185091071 0 0.034076486074525049 -0.00029346179638822518 0 0.034191330694630193 -0.00019795340604797005 0 0.033807309588302033 -0.00020183323185091071 0 0.033176502601259573 -0.00026186976420333247 0 0.033769245816153773 -0.00038952371175001409 0 0.033807309588302033 -0.00020183323185091071 0 0.033176502601259573 -0.00026186976420333247 0 0.033807309588302033 -0.00020183323185091071 0 0.033393285777359928 -5.4060715384453784e-05 0 0.033393285777359928 -5.4060715384453784e-05 0 0.033663991402822377 0.00025708768672538568 0 0.032970398851124703 0.00024627251667434151 0 0.033807309588302033 -0.00020183323185091071 0 0.033393285777359928 -5.4060715384453784e-05 0 0.033663991402822377 0.00025708768672538568 0 0.033176502601259573 -0.00026186976420333247 0 0.033393285777359928 -5.4060715384453784e-05 0 0.032970398851124703 0.00024627251667434151 0 0.033847195906020269 -0.00017841900373236433 0 0.033807309588302033 -0.00020183323185091071 0 0.033663991402822377 0.00025708768672538568 0 0.033698426489218586 -0.00017490197114962441 0 0.032765223145421102 0.00011055205011153007 0 0.031900291244172936 -0.00014087397197568781 0 0.032340133526714193 0.00047141233642440411 0 0.031017043135028208 0.00085196064766595539 0 0.033847195906020269 -0.00017841900373236433 0 0.031900291244172936 -0.00014087397197568781 0 0.033093493790294672 0.00024844853761350999 0 0.031900291244172936 -0.00014087397197568781 0 0.032340133526714193 0.00047141233642440411 0 0.033093493790294672 0.00024844853761350999 0 0.032504413142985647 0.00090791799515906415 0 0.033663991402822377 0.00025708768672538568 0 0.032970398851124703 0.00024627251667434151 0 0.031417679912751198 0.00072057475393431036 0 0.032765223145421102 0.00011055205011153007 0 0.030322982773389892 0.00063284765164565526 0 0.031900291244172936 -0.00014087397197568781 0 0.031017043135028208 0.00085196064766595539 0 0.031017043135028208 0.00085196064766595539 0 0.031093921950812543 0.00079933113213876165 0 0.030744226011430911 0.0009247645950554858 0 0.031017043135028208 0.00085196064766595539 0 0.030744226011430911 0.0009247645950554858 0 0.030357141751391432 0.00093041550315299309 0 0.030322982773389892 0.00063284765164565526 0 0.031017043135028208 0.00085196064766595539 0 0.030357141751391432 0.00093041550315299309 0 0.032340133526714193 0.00047141233642440411 0 0.031017043135028208 0.00085196064766595539 0 0.033321324496567037 0.00096358017029483348 0 0.031017043135028208 0.00085196064766595539 0 0.031390737435855576 0.00046296163772017741 0 0.031093921950812543 0.00079933113213876165 0 0.031135165233764823 0.0008427173504839241 0 0.032342849436394011 0.00070109339897538091 0 0.031390432144100075 0.00073243623062528454 0 0.031390737435855576 0.00046296163772017741 0 0.031093921950812543 0.00079933113213876165 0 0.031390432144100075 0.00073243623062528454 0 0.031390737435855576 0.00046296163772017741 0 0.0325418122117061 0.00081543544746471544 0 0.032976078062502703 0.00035125443433982019 0 0.031390737435855576 0.00046296163772017741 0 0.0325418122117061 0.00081543544746471544 0 0.031489747677577722 0.00072988169236350316 0 0.032208482628022596 0.00067216702566270296 0 0.034280439831307324 0.0005494071897246182 0 0.033321324496567037 0.00096358017029483348 0 0.033873207278118156 0.00024844382943679019 0 0.033612568418765476 0.00046703413254421363 0 0.032342849436394011 0.00070109339897538091 0 0.034241598357090716 0.00023635649264726314 0 0.034202649518113089 -2.7115217971344178e-05 0 0.033873207278118156 0.00024844382943679019 0 0.034280439831307324 0.0005494071897246182 0 0.034241598357090716 0.00023635649264726314 0 0.033873207278118156 0.00024844382943679019 0 0.033321324496567037 0.00096358017029483348 0 0.033873207278118156 0.00024844382943679019 0 0.033093493790294672 0.00024844853761350999 0 0.033847195906020269 -0.00017841900373236433 0 0.033873207278118156 0.00024844382943679019 0 0.033093493790294672 0.00024844853761350999 0 0.032340133526714193 0.00047141233642440411 0 0.033321324496567037 0.00096358017029483348 0 0.033093493790294672 0.00024844853761350999 0 0.031820789408685705 0.001036010520738754 0 0.031305342382974742 0.0010423183687329489 0 0.031557414591329054 0.0015268767500569954 0 0.032261306572647988 0.0012893833368815485 0 0.031820789408685705 0.001036010520738754 0 0.031557414591329054 0.0015268767500569954 0 0.031390432144100075 0.00073243623062528454 0 0.031880755024907365 0.00053079090411823075 0 0.031652562055375214 0.00080893863239116259 0 0.031820789408685705 0.001036010520738754 0 0.031920715498123725 0.00079578158584819566 0 0.031652562055375214 0.00080893863239116259 0 0.032145522849915217 0.00088347425789004643 0 0.031820789408685705 0.001036010520738754 0 0.031920715498123725 0.00079578158584819566 0 0.032154917957416804 0.00065757046615509955 0 0.031880755024907365 0.00053079090411823075 0 0.031920715498123725 0.00079578158584819566 0 0.031880755024907365 0.00053079090411823075 0 0.031920715498123725 0.00079578158584819566 0 0.031652562055375214 0.00080893863239116259 0 0.031820789408685705 0.001036010520738754 0 0.031652562055375214 0.00080893863239116259 0 0.031305342382974742 0.0010423183687329489 0 0.031390432144100075 0.00073243623062528454 0 0.031652562055375214 0.00080893863239116259 0 0.031305342382974742 0.0010423183687329489 0 0.031390432144100075 0.00073243623062528454 0 0.031305342382974742 0.0010423183687329489 0 0.031093921950812543 0.00079933113213876165 0 0.031305342382974742 0.0010423183687329489 0 0.031093921950812543 0.00079933113213876165 0 0.030837485916811437 0.0010619873801521991 0 0.031093921950812543 0.00079933113213876165 0 0.030837485916811437 0.0010619873801521991 0 0.030744226011430911 0.0009247645950554858 0 0.030837485916811437 0.0010619873801521991 0 0.030744226011430911 0.0009247645950554858 0 0.030114963718306471 0.001065124407818636 0 0.030744226011430911 0.0009247645950554858 0 0.030114963718306471 0.001065124407818636 0 0.030357141751391432 0.00093041550315299309 0 0.030837485916811437 0.0010619873801521991 0 0.030720604363886538 0.001683775601091993 0 0.030114963718306471 0.001065124407818636 0 0.030720604363886538 0.001683775601091993 0 0.029184859308887933 0.0014649298386498586 0 0.030114963718306471 0.001065124407818636 0 0.031305342382974742 0.0010423183687329489 0 0.030720604363886538 0.001683775601091993 0 0.031557414591329054 0.0015268767500569954 0 0.031305342382974742 0.0010423183687329489 0 0.030837485916811437 0.0010619873801521991 0 0.030720604363886538 0.001683775601091993 0 0.030203540856118909 0.0014300911310299843 0 0.031163197217902758 0.0012799231046844853 0 0.029687259939630121 0.0012026992432200485 0 0.029059431793608721 0.0019495490058790488 0 0.029184859308887933 0.0014649298386498586 0 0.030203540856118909 0.0014300911310299843 0 0.029264655319638309 0.0014692780346926063 0 0.029687259939630121 0.0012026992432200485 0 0.029790793276314703 0.0018621507248912476 0 0.029059431793608721 0.0019495490058790488 0 0.029687259939630121 0.0012026992432200485 0 0.029790793276314703 0.0018621507248912476 0 0.030562252159231456 0.0019291848763720856 0 0.029687259939630121 0.0012026992432200485 0 0.030562252159231456 0.0019291848763720856 0 0.030781562061621946 0.001026653119480141 0 0.032014456397735556 0.0011184406680188738 0 0.031163197217902758 0.0012799231046844853 0 0.031784167474329522 0.00095569707713320318 0 0.030781562061621946 0.001026653119480141 0 0.031394541890953316 0.0016602646906179624 0 0.030562252159231456 0.0019291848763720856 0 0.030781562061621946 0.001026653119480141 0 0.031394541890953316 0.0016602646906179624 0 0.030562252159231456 0.0019291848763720856 0 0.031394541890953316 0.0016602646906179624 0 0.03134478177817903 0.0024705802968919472 0 0.030562252159231456 0.0019291848763720856 0 0.03134478177817903 0.0024705802968919472 0 0.03066698251610463 0.0027193056919006834 0 0.030562252159231456 0.0019291848763720856 0 0.03066698251610463 0.0027193056919006834 0 0.029942155372721529 0.0026366036614769114 0 0.03066698251610463 0.0027193056919006834 0 0.031108211993516228 0.0032439002740404046 0 0.030421386674800828 0.0034080892917316818 0 0.03066698251610463 0.0027193056919006834 0 0.030421386674800828 0.0034080892917316818 0 0.029942155372721529 0.0026366036614769114 0 0.03134478177817903 0.0024705802968919472 0 0.03066698251610463 0.0027193056919006834 0 0.031108211993516228 0.0032439002740404046 0 0.031980428428585027 0.0031495853694504688 0 0.03134478177817903 0.0024705802968919472 0 0.031108211993516228 0.0032439002740404046 0 0.031980428428585027 0.0031495853694504688 0 0.031108211993516228 0.0032439002740404046 0 0.031507558368891644 0.0038777116975384396 0 0.031108211993516228 0.0032439002740404046 0 0.031507558368891644 0.0038777116975384396 0 0.030810792808218305 0.0038957568478726087 0 0.031108211993516228 0.0032439002740404046 0 0.030810792808218305 0.0038957568478726087 0 0.030421386674800828 0.0034080892917316818 0 0.030810792808218305 0.0038957568478726087 0 0.030421386674800828 0.0034080892917316818 0 0.029992648825919812 0.0043941540455326011 0 0.024944278630266312 0.0018646723978555919 0 0.026845519245498942 0.0041098620912737565 0 0.030810792808218305 0.0038957568478726087 0 0.031055064079828498 0.0045270628136663436 0 0.029992648825919812 0.0043941540455326011 0 0.021600818128191649 0.0029710913849031622 0 0.023169810572649344 0.0033008327204337318 0 0.022057515123237441 0.002210097212369996 0 0.018117622971926234 -0.0024273798354287899 0 0.024944278630266312 0.0018646723978555919 0 0.031507558368891644 0.0038777116975384396 0 0.030810792808218305 0.0038957568478726087 0 0.031055064079828498 0.0045270628136663436 0 0.024668925140386516 0.0014238872718372578 0 0.025109214600850617 0.0019286954870342125 0 0.025568985835044387 0.0011614026088834222 0 0.028373170923200609 0.0028635919143558219 0 0.024944278630266312 0.0018646723978555919 0 0.026845519245498942 0.0041098620912737565 0 0.026940916760516669 0.004044560335203869 0 0.023610872674868711 0.0027669929840348079 0 0.024820291762347235 0.0033521011986082879 0 0.024625370235951245 0.0035902472464774361 0 0.022975471567462234 0.0038570412222329918 0 0.02247310497703299 0.0035784268901867047 0 0.023610872674868711 0.0027669929840348079 0 0.023169810572649344 0.0033008327204337318 0 0.024625370235951245 0.0035902472464774361 0 0.020206929749350018 0.0038492266082481488 0 0.02100181154305392 0.0041273592160201086 0 0.02090518406805509 0.0035887161333228615 0 0.023610872674868711 0.0027669929840348079 0 0.023169810572649344 0.0033008327204337318 0 0.02227534204757926 0.002144690049246866 0 0.030421386674800828 0.0034080892917316818 0 0.029992648825919812 0.0043941540455326011 0 0.029663648413026794 0.0036113868205799285 0 0.029663648413026794 0.0036113868205799285 0 0.028959447383154556 0.0031414436377686997 0 0.028846649177257606 0.0044898806420464203 0 0.029992648825919812 0.0043941540455326011 0 0.029663648413026794 0.0036113868205799285 0 0.028846649177257606 0.0044898806420464203 0 0.029663648413026794 0.0036113868205799285 0 0.029942155372721529 0.0026366036614769114 0 0.028959447383154556 0.0031414436377686997 0 0.030421386674800828 0.0034080892917316818 0 0.029663648413026794 0.0036113868205799285 0 0.029942155372721529 0.0026366036614769114 0 0.029790793276314703 0.0018621507248912476 0 0.030562252159231456 0.0019291848763720856 0 0.029942155372721529 0.0026366036614769114 0 0.029942155372721529 0.0026366036614769114 0 0.028959447383154556 0.0031414436377686997 0 0.029059431793608721 0.0019495490058790488 0 0.029790793276314703 0.0018621507248912476 0 0.029942155372721529 0.0026366036614769114 0 0.029059431793608721 0.0019495490058790488 0 0.027965201748779651 0.0025523446730068562 0 0.028959447383154556 0.0031414436377686997 0 0.029059431793608721 0.0019495490058790488 0 0.027965201748779651 0.0025523446730068562 0 0.028284833353477302 0.0018514817785291039 0 0.029059431793608721 0.0019495490058790488 0 0.027965201748779651 0.0025523446730068562 0 0.026986661821980604 0.0017875025312869832 0 0.028284833353477302 0.0018514817785291039 0 0.027965201748779651 0.0025523446730068562 0 0.02755140925685667 0.0038859535969731915 0 0.026104053252456075 0.0031557935697963287 0 0.02755140925685667 0.0038859535969731915 0 0.026199943587951961 0.0039867294803625853 0 0.026104053252456075 0.0031557935697963287 0 0.027965201748779651 0.0025523446730068562 0 0.028959447383154556 0.0031414436377686997 0 0.02755140925685667 0.0038859535969731915 0 0.024982697890885395 0.0042573600215711094 0 0.026940916760516669 0.004044560335203869 0 0.028959447383154556 0.0031414436377686997 0 0.02755140925685667 0.0038859535969731915 0 0.028846649177257606 0.0044898806420464203 0 0.02755140925685667 0.0038859535969731915 0 0.027011920507743047 0.004805998446528654 0 0.028846649177257606 0.0044898806420464203 0 0.02755140925685667 0.0038859535969731915 0 0.027011920507743047 0.004805998446528654 0 0.026199943587951961 0.0039867294803625853 0 0.021913040004311178 0.0044810565850080036 0 0.021616329175464369 0.0037067241241067824 0 0.022607149466952421 0.0039274087406192312 0 0.021913040004311178 0.0044810565850080036 0 0.021616329175464369 0.0037067241241067824 0 0.02100181154305392 0.0041273592160201086 0 0.024982697890885395 0.0042573600215711094 0 0.02247310497703299 0.0035784268901867047 0 0.025886062237188538 0.0038572123283503765 0 0.024820291762347235 0.0033521011986082879 0 0.024625370235951245 0.0035902472464774361 0 0.021616329175464369 0.0037067241241067824 0 0.02100181154305392 0.0041273592160201086 0 0.02090518406805509 0.0035887161333228615 0 0.022840579389333777 0.0039611992254064265 0 0.022607149466952421 0.0039274087406192312 0 0.022123293135498306 0.0035716252007159935 0 0.022840579389333777 0.0039611992254064265 0 0.022607149466952421 0.0039274087406192312 0 0.023820843050582564 0.0043401893559499964 0 0.021616329175464369 0.0037067241241067824 0 0.022607149466952421 0.0039274087406192312 0 0.022123293135498306 0.0035716252007159935 0 0.027011920507743047 0.004805998446528654 0 0.026199943587951961 0.0039867294803625853 0 0.023820843050582564 0.0043401893559499964 0 0.021913040004311178 0.0044810565850080036 0 0.022607149466952421 0.0039274087406192312 0 0.023820843050582564 0.0043401893559499964 0 0.024982697890885395 0.0042573600215711094 0 0.023639370087757836 0.0044049529898644241 0 0.026199943587951961 0.0039867294803625853 0 0.023820843050582564 0.0043401893559499964 0 0.026104053252456075 0.0031557935697963287 0 0.022840579389333777 0.0039611992254064265 0 0.023820843050582564 0.0043401893559499964 0 0.023138951206214689 0.0038600192150033425 0 0.023820843050582564 0.0043401893559499964 0 0.024113831906531893 0.0031088486950046714 0 0.023138951206214689 0.0038600192150033425 0 0.023820843050582564 0.0043401893559499964 0 0.024113831906531893 0.0031088486950046714 0 0.026104053252456075 0.0031557935697963287 0 0.024113831906531893 0.0031088486950046714 0 0.026104053252456075 0.0031557935697963287 0 0.026986661821980604 0.0017875025312869832 0 0.027965201748779651 0.0025523446730068562 0 0.026104053252456075 0.0031557935697963287 0 0.026986661821980604 0.0017875025312869832 0 0.024113831906531893 0.0031088486950046714 0 0.026986661821980604 0.0017875025312869832 0 0.023725355927057833 0.0019279845785492677 0 0.026985961428392161 0.0017769791256835551 0 0.025869148049839676 0.001187492566660826 0 0.026986661821980604 0.0017875025312869832 0 0.027708674701583225 0.0016492019346595924 0 0.027851966454865568 0.0015742043241475793 0 0.026986661821980604 0.0017875025312869832 0 0.0240278460835072 0.00063648649260998548 0 0.023725355927057833 0.0019279845785492677 0 0.027708674701583225 0.0016492019346595924 0 0.027851966454865568 0.0015742043241475793 0 0.027593329846298312 0.0011984358048438626 0 0.027851966454865568 0.0015742043241475793 0 0.028751061629634488 0.001382855721012095 0 0.028125875531252655 0.001571705304673384 0 0.026986661821980604 0.0017875025312869832 0 0.027851966454865568 0.0015742043241475793 0 0.028125875531252655 0.001571705304673384 0 0.026986661821980604 0.0017875025312869832 0 0.028125875531252655 0.001571705304673384 0 0.028284833353477302 0.0018514817785291039 0 0.028125875531252655 0.001571705304673384 0 0.028284833353477302 0.0018514817785291039 0 0.029184859308887933 0.0014649298386498586 0 0.028284833353477302 0.0018514817785291039 0 0.029059431793608721 0.0019495490058790488 0 0.029184859308887933 0.0014649298386498586 0 0.028751061629634488 0.001382855721012095 0 0.028125875531252655 0.001571705304673384 0 0.029184859308887933 0.0014649298386498586 0 0.028751061629634488 0.001382855721012095 0 0.029184859308887933 0.0014649298386498586 0 0.029517617558736848 0.0011966301397257828 0 0.029184859308887933 0.0014649298386498586 0 0.029517617558736848 0.0011966301397257828 0 0.030114963718306471 0.001065124407818636 0 0.030114963718306471 0.001065124407818636 0 0.030357141751391432 0.00093041550315299309 0 0.030161776621574678 0.0010738661868321204 0 0.029517617558736848 0.0011966301397257828 0 0.030114963718306471 0.001065124407818636 0 0.030161776621574678 0.0010738661868321204 0 0.029517617558736848 0.0011966301397257828 0 0.030161776621574678 0.0010738661868321204 0 0.029096168255192761 0.0011605284441538709 0 0.030352274217867462 0.00069798966597712099 0 0.030161776621574678 0.0010738661868321204 0 0.029096168255192761 0.0011605284441538709 0 0.029441170164185158 0.00035064991032488884 0 0.028617017029947556 0.0010192774110175879 0 0.027819287025079527 0.00019424429183802257 0 0.028199663134809178 0.00079192580760639123 0 0.027623216120516093 0.00071557107230942323 0 0.028199663134809178 0.00079192580760639123 0 0.027593329846298312 0.0011984358048438626 0 0.027623216120516093 0.00071557107230942323 0 0.027851966454865568 0.0015742043241475793 0 0.028199663134809178 0.00079192580760639123 0 0.027593329846298312 0.0011984358048438626 0 0.027957229386304808 0.0016010434603957527 0 0.028617017029947556 0.0010192774110175879 0 0.028751061629634488 0.001382855721012095 0 0.029517617558736848 0.0011966301397257828 0 0.029096168255192761 0.0011605284441538709 0 0.027851966454865568 0.0015742043241475793 0 0.028751061629634488 0.001382855721012095 0 0.029096168255192761 0.0011605284441538709 0 0.026782037026094579 0.00079641963366207326 0 0.02722067587515067 0.00089659510342969399 0 0.026941760282422102 0.0013817283614166692 0 0.027593329846298312 0.0011984358048438626 0 0.02722067587515067 0.00089659510342969399 0 0.027623216120516093 0.00071557107230942323 0 0.027593329846298312 0.0011984358048438626 0 0.02722067587515067 0.00089659510342969399 0 0.026941760282422102 0.0013817283614166692 0 0.027819287025079527 0.00019424429183802257 0 0.027623216120516093 0.00071557107230942323 0 0.027278878502763514 0.00047299342427488053 0 0.02722067587515067 0.00089659510342969399 0 0.027623216120516093 0.00071557107230942323 0 0.027278878502763514 0.00047299342427488053 0 0.026782037026094579 0.00079641963366207326 0 0.02722067587515067 0.00089659510342969399 0 0.027278878502763514 0.00047299342427488053 0 0.026782037026094579 0.00079641963366207326 0 0.027278878502763514 0.00047299342427488053 0 0.026982158062812334 0.00028042555912072601 0 0.026782037026094579 0.00079641963366207326 0 0.026982158062812334 0.00028042555912072601 0 0.026551692997948136 0.00035818550734907227 0 0.023634251497881086 -0.00040391134335842027 0 0.022487124294960709 -0.00032720605257771591 0 0.022762380321781558 0.00049858886591857513 0 0.025229243168992967 -9.920475586861742e-05 0 0.023634386268692187 0.00075782938160583473 0 0.026782037026094579 0.00079641963366207326 0 0.026551692997948136 0.00035818550734907227 0 0.026141124459794832 0.00096756901301888528 0 0.022487124294960709 -0.00032720605257771591 0 0.022535286710732395 0.00035695864949362592 0 0.022762380321781558 0.00049858886591857513 0 0.025582228457013426 -6.4063926658982972e-05 0 0.025868999452717478 0.00038369637963830223 0 0.025398114098063865 0.00038311714480317416 0 0.022487124294960709 -0.00032720605257771591 0 0.022288930747168898 0.00047478616499855149 0 0.021966359793159175 0.00057870112216680742 0 0.022443203735659469 0.00048809644852695883 0 0.02241199704041625 0.00057389182886178594 0 0.022415094923218325 0.00077322672727785915 0 0.022487124294960709 -0.00032720605257771591 0 0.022535286710732395 0.00035695864949362592 0 0.022288930747168898 0.00047478616499855149 0 0.024286365950698184 3.8913761064556338e-05 0 0.023408267046072347 0.00078504657322541773 0 0.022535286710732395 0.00035695864949362592 0 0.02259454032416279 0.00042819596059635363 0 0.022470855854065323 0.00046405713413298302 0 0.022535286710732395 0.00035695864949362592 0 0.022470855854065323 0.00046405713413298302 0 0.022288930747168898 0.00047478616499855149 0 0.02304430874544015 0.000466121330278651 0 0.023634386268692187 0.00075782938160583473 0 0.02259454032416279 0.00042819596059635363 0 0.02241199704041625 0.00057389182886178594 0 0.022470855854065323 0.00046405713413298302 0 0.023634386268692187 0.00075782938160583473 0 0.023124411570038771 0.00085081008933688036 0 0.02241199704041625 0.00057389182886178594 0 0.022470855854065323 0.00046405713413298302 0 0.022288930747168898 0.00047478616499855149 0 0.02241199704041625 0.00057389182886178594 0 0.022288930747168898 0.00047478616499855149 0 0.02224342025052635 0.00068592475824682956 0 0.022288930747168898 0.00047478616499855149 0 0.02224342025052635 0.00068592475824682956 0 0.021966359793159175 0.00057870112216680742 0 0.023634386268692187 0.00075782938160583473 0 0.025028717001259197 0.00097564186705035151 0 0.026782037026094579 0.00079641963366207326 0 0.026141124459794832 0.00096756901301888528 0 0.026941760282422102 0.0013817283614166692 0 0.022443203735659469 0.00048809644852695883 0 0.022415094923218325 0.00077322672727785915 0 0.022806130714835015 0.00055775504635761247 0 0.022415094923218325 0.00077322672727785915 0 0.022582371752337745 0.0010842386164701403 0 0.022806130714835015 0.00055775504635761247 0 0.02241199704041625 0.00057389182886178594 0 0.022415094923218325 0.00077322672727785915 0 0.02224342025052635 0.00068592475824682956 0 0.022415094923218325 0.00077322672727785915 0 0.02224342025052635 0.00068592475824682956 0 0.022138721379878459 0.00092363706727805676 0 0.022138721379878459 0.00092363706727805676 0 0.02235110666390237 0.0011930087720116215 0 0.02200890747997437 0.0012757719530619659 0 0.022415094923218325 0.00077322672727785915 0 0.022138721379878459 0.00092363706727805676 0 0.02235110666390237 0.0011930087720116215 0 0.02235110666390237 0.0011930087720116215 0 0.022582371752337745 0.0010842386164701403 0 0.02260851705597245 0.0014409652440934215 0 0.022415094923218325 0.00077322672727785915 0 0.02235110666390237 0.0011930087720116215 0 0.022582371752337745 0.0010842386164701403 0 0.022582371752337745 0.0010842386164701403 0 0.022833760918557957 0.0013400645816803391 0 0.02260851705597245 0.0014409652440934215 0 0.022582371752337745 0.0010842386164701403 0 0.022833760918557957 0.0013400645816803391 0 0.022806130714835015 0.00055775504635761247 0 0.025869148049839676 0.001187492566660826 0 0.025028717001259197 0.00097564186705035151 0 0.027708674701583225 0.0016492019346595924 0 0.027593329846298312 0.0011984358048438626 0 0.026941760282422102 0.0013817283614166692 0 0.0240278460835072 0.00063648649260998548 0 0.022833760918557957 0.0013400645816803391 0 0.022806130714835015 0.00055775504635761247 0 0.0240278460835072 0.00063648649260998548 0 0.022833760918557957 0.0013400645816803391 0 0.023725355927057833 0.0019279845785492677 0 0.022833760918557957 0.0013400645816803391 0 0.023725355927057833 0.0019279845785492677 0 0.022464507117502457 0.0031611693186979323 0 0.022833760918557957 0.0013400645816803391 0 0.022743453177556831 0.0016467914091734075 0 0.02260851705597245 0.0014409652440934215 0 0.022801381739280362 0.0014314612049936418 0 0.022622627908852805 0.0023448479110420089 0 0.024113831906531893 0.0031088486950046714 0 0.022464507117502457 0.0031611693186979323 0 0.023138951206214689 0.0038600192150033425 0 0.024113831906531893 0.0031088486950046714 0 0.023725355927057833 0.0019279845785492677 0 0.022464507117502457 0.0031611693186979323 0 0.022840579389333777 0.0039611992254064265 0 0.023138951206214689 0.0038600192150033425 0 0.022600801662167012 0.0039855496460112242 0 0.022622627908852805 0.0023448479110420089 0 0.022733520363123622 0.0031215945452580619 0 0.022464507117502457 0.0031611693186979323 0 0.023138951206214689 0.0038600192150033425 0 0.022600801662167012 0.0039855496460112242 0 0.022670536077475285 0.0020309370462114839 0 0.022511995322476011 0.0023544432357194001 0 0.022600774995318599 0.0023891517721723724 0 0.022600801662167012 0.0039855496460112242 0 0.022443998910882373 0.003756352843768455 0 0.0228146447378791 0.0035496720240577738 0 0.022733520363123622 0.0031215945452580619 0 0.021623906949984735 0.0022305753787922383 0 0.022840579389333777 0.0039611992254064265 0 0.022443998910882373 0.003756352843768455 0 0.022200237577484631 0.0035401677637961104 0 0.022840579389333777 0.0039611992254064265 0 0.022600801662167012 0.0039855496460112242 0 0.022443998910882373 0.003756352843768455 0 0.019926270446979932 0.00083118462648729531 0 0.01973916651402912 0.0010131850024079159 0 0.020256339802327189 0.0012140652020882316 0 0.019926270446979932 0.00083118462648729531 0 0.01973916651402912 0.0010131850024079159 0 0.019711783083852189 0.00077096523533926118 0 0.022670536077475285 0.0020309370462114839 0 0.022253148361234949 0.0020421536803189905 0 0.022511995322476011 0.0023544432357194001 0 0.021231487446507814 0.0015535545035682973 0 0.02076217025402002 0.0013855654853670509 0 0.022670536077475285 0.0020309370462114839 0 0.022253148361234949 0.0020421536803189905 0 0.022369002143699232 0.0016117566010876276 0 0.021231487446507814 0.0015535545035682973 0 0.020657208271206373 0.0010316205096267438 0 0.022253148361234949 0.0020421536803189905 0 0.022369002143699232 0.0016117566010876276 0 0.021961366887089245 0.0017061323796900842 0 0.019926270446979932 0.00083118462648729531 0 0.019619806516567372 0.00049021966232474438 0 0.019711783083852189 0.00077096523533926118 0 0.022369002143699232 0.0016117566010876276 0 0.02200890747997437 0.0012757719530619659 0 0.021961366887089245 0.0017061323796900842 0 0.022743453177556831 0.0016467914091734075 0 0.022670536077475285 0.0020309370462114839 0 0.022369002143699232 0.0016117566010876276 0 0.022743453177556831 0.0016467914091734075 0 0.022369002143699232 0.0016117566010876276 0 0.02260851705597245 0.0014409652440934215 0 0.02235110666390237 0.0011930087720116215 0 0.022369002143699232 0.0016117566010876276 0 0.02260851705597245 0.0014409652440934215 0 0.02235110666390237 0.0011930087720116215 0 0.022369002143699232 0.0016117566010876276 0 0.02200890747997437 0.0012757719530619659 0 0.02200890747997437 0.0012757719530619659 0 0.021647380085680415 0.0013348403793255724 0 0.021961366887089245 0.0017061323796900842 0 0.021165348992854063 0.00083853289720657337 0 0.019691765527993062 0.00034557078212277959 0 0.021175187211812909 0.00065225692037661144 0 0.021097345003353404 0.00080046381954815911 0 0.021116013252732546 0.00063398441982722147 0 0.0219649659645249 0.00070964557145742778 0 0.022900208860128127 0.0012354599384846526 0 0.021175187211812909 0.00065225692037661144 0 0.021116013252732546 0.00063398441982722147 0 0.021133563771468883 0.00059846644671672782 0 0.02217531716285431 0.00065107711302546313 0 0.022177412619656386 0.0008521064210572142 0 0.022124370134007025 0.00078907814377550108 0 0.021165348992854063 0.00083853289720657337 0 0.022900208860128127 0.0012354599384846526 0 0.01938977552321506 0.00021690274170680862 0 0.019475896055078663 0.0004054470507659789 0 0.019619806516567372 0.00049021966232474438 0 0.021165348992854063 0.00083853289720657337 0 0.020657208271206373 0.0010316205096267438 0 0.01938977552321506 0.00021690274170680862 0 0.019475896055078663 0.0004054470507659789 0 0.019297242333174196 0.00043906633025356413 0 0.019317284882805992 0.00043101762074100434 0 0.019691765527993062 0.00034557078212277959 0 0.019475896055078663 0.0004054470507659789 0 0.019397377572657578 0.00061640992990103275 0 0.019218113994689191 0.00043592347982184616 0 0.019475896055078663 0.0004054470507659789 0 0.019619806516567372 0.00049021966232474438 0 0.019397377572657578 0.00061640992990103275 0 0.019619806516567372 0.00049021966232474438 0 0.019559746161673393 0.00075776208376090559 0 0.019397377572657578 0.00061640992990103275 0 0.019619806516567372 0.00049021966232474438 0 0.019711783083852189 0.00077096523533926118 0 0.019559746161673393 0.00075776208376090559 0 0.019559746161673393 0.00075776208376090559 0 0.019397377572657578 0.00061640992990103275 0 0.019281628378871464 0.00082509844049030712 0 0.019397377572657578 0.00061640992990103275 0 0.019281628378871464 0.00082509844049030712 0 0.019077600555720324 0.00071215269019400348 0 0.019397377572657578 0.00061640992990103275 0 0.019077600555720324 0.00071215269019400348 0 0.019218113994689191 0.00043592347982184616 0 0.015599155345121494 -0.00088601912929185103 0 0.015251759781317124 -0.00044204160827289007 0 0.015954580064249289 -0.00027495427236924006 0 0.017045686980723035 -0.00092251524665598725 0 0.015599155345121494 -0.00088601912929185103 0 0.015237176759593261 -0.000935304965368131 0 0.015599155345121494 -0.00088601912929185103 0 0.015393849758310629 -0.00089208459026698776 0 0.015251759781317124 -0.00044204160827289007 0 0.015881215541515916 -0.00079541056512548241 0 0.017000906995932805 -0.00022826620638727809 0 0.017045686980723035 -0.00092251524665598725 0 0.015599155345121494 -0.00088601912929185103 0 0.015954580064249289 -0.00027495427236924006 0 0.018332640591392436 -4.9928135272447744e-05 0 0.017000906995932805 -0.00022826620638727809 0 0.01973916651402912 0.0010131850024079159 0 0.019559746161673393 0.00075776208376090559 0 0.019281628378871464 0.00082509844049030712 0 0.01973916651402912 0.0010131850024079159 0 0.019711783083852189 0.00077096523533926118 0 0.019559746161673393 0.00075776208376090559 0 0.01658509045307997 -0.00038357160148918911 0 0.016833204999944291 -0.00062207400971470096 0 0.016529228819180019 -0.00011268988305512992 0 0.017833393722908725 -5.6412358965735488e-05 0 0.018262590826957227 2.5160149098984493e-07 0 0.016990975851286019 -2.6490518648649048e-07 0 0.017200688014270951 -0.00020427291518312947 0 0.018049287181470766 0.00017288813344607657 0 0.017833393722908725 -5.6412358965735488e-05 0 0.018262590826957227 2.5160149098984493e-07 0 0.017893417340732756 0.00022284070778307811 0 0.015393849758310629 -0.00089208459026698776 0 0.015251759781317124 -0.00044204160827289007 0 0.014950472535446879 -0.00097291140584964103 0 0.015251759781317124 -0.00044204160827289007 0 0.014950472535446879 -0.00097291140584964103 0 0.014775423403970601 4.9444894268438465e-05 0 0.017078614616566391 -0.00013480963891037106 0 0.015522555599863066 -0.00020380894801729657 0 0.017981405463738522 0.00016576017463777092 0 0.019691765527993062 0.00034557078212277959 0 0.01658509045307997 -0.00038357160148918911 0 0.016833204999944291 -0.00062207400971470096 0 0.016721555242993572 -0.00066519987029419001 0 0.019119421167793568 0.00049747464611951968 0 0.018983356127507213 0.00042221790177135882 0 0.01913283547065037 5.1199777870996154e-05 0 0.017802343017386379 0.00011444368076052681 0 0.017759565497090846 0.00021252578563122569 0 0.017918302526512515 0.00022465723739321475 0 0.017981405463738522 0.00016576017463777092 0 0.018611601412427202 0.0002399193519942735 0 0.017759565497090846 0.00021252578563122569 0 0.017918302526512515 0.00022465723739321475 0 0.018025811188883342 0.00035822231516327091 0 0.017078614616566391 -0.00013480963891037106 0 0.017981405463738522 0.00016576017463777092 0 0.017078614616566391 -0.00013480963891037106 0 0.018049287181470766 0.00017288813344607657 0 0.017918302526512515 0.00022465723739321475 0 0.018078581225530542 0.00021995517713082661 0 0.018025811188883342 0.00035822231516327091 0 0.017802343017386379 0.00011444368076052681 0 0.017918302526512515 0.00022465723739321475 0 0.018078581225530542 0.00021995517713082661 0 0.018049287181470766 0.00017288813344607657 0 0.018611601412427202 0.0002399193519942735 0 0.017000906995932805 -0.00022826620638727809 0 0.017981405463738522 0.00016576017463777092 0 0.01707218276347891 -0.0003384674426428132 0 0.01760643760254315 -0.00013295415673536152 0 0.017575143996210126 -6.1222170217742534e-05 0 0.017000906995932805 -0.00022826620638727809 0 0.017078614616566391 -0.00013480963891037106 0 0.018611601412427202 0.0002399193519942735 0 0.020447773727678281 0.00042605302405314188 0 0.018266394817289408 -1.7336094918132452e-09 0 0.019243449891826438 4.7518674368087065e-07 0 0.019486420606099945 2.8650956590816344e-09 0 0.019706132713396961 0.00050847646932824196 0 0.019509813307853216 0.00039983415454695635 0 0.019676792907544382 0.00014562550599584332 0 0.01940591249697321 0.0002817011526300659 0 0.018942274456751181 0.00023450615953153273 0 0.018049287181470766 0.00017288813344607657 0 0.018942274456751181 0.00023450615953153273 0 0.018589494650553554 0.00010827043704464714 0 0.018536730817575384 0.00024634365501946174 0 0.018893774035494436 0.00044165557842276362 0 0.018589494650553554 0.00010827043704464714 0 0.018893774035494436 0.00044165557842276362 0 0.019005892825346433 0.00026709336899049006 0 0.018611601412427202 0.0002399193519942735 0 0.01940591249697321 0.0002817011526300659 0 0.017661226797079346 0.00041084692251449164 0 0.017931743615825238 0.00052370276637445762 0 0.017893417340732756 0.00022284070778307811 0 0.017833393722908725 -5.6412358965735488e-05 0 0.017661226797079346 0.00041084692251449164 0 0.017893417340732756 0.00022284070778307811 0 0.018264731899890606 1.2644593032127208e-07 0 0.018942274456751181 0.00023450615953153273 0 0.018262590826957227 2.5160149098984493e-07 0 0.017931743615825238 0.00052370276637445762 0 0.017893417340732756 0.00022284070778307811 0 0.018942274456751181 0.00023450615953153273 0 0.019488241082597405 3.047276276563135e-07 0 0.019765848164817225 2.2127683514764106e-05 0 0.019490437359611573 4.288703771221332e-07 0 0.019855503174099568 -4.2725512640268029e-07 0 0.019765848164817225 2.2127683514764106e-05 0 0.019713432879790896 9.9759542462897618e-05 0 0.019490437359611573 4.288703771221332e-07 0 0.01940591249697321 0.0002817011526300659 0 0.02001114252480762 0.00025255035084844008 0 0.019860223116854543 1.418185030409238e-06 0 0.020808480422477949 -7.6177193342010966e-06 0 0.021538382769066295 -6.8319429456307831e-07 0 0.02002320693810682 0.00036769876720498857 0 0.019863275424787254 0.00027998108903094088 0 0.020112348350764031 0.00023173381595022961 0 0.02001114252480762 0.00025255035084844008 0 0.020570624490568394 0.00024524257571123981 0 0.019860223116854543 1.418185030409238e-06 0 0.020808480422477949 -7.6177193342010966e-06 0 0.021508644908208051 0.00034714980515025261 0 0.01940591249697321 0.0002817011526300659 0 0.020570624490568394 0.00024524257571123981 0 0.020808480422477949 -7.6177193342010966e-06 0 0.021508644908208051 0.00034714980515025261 0 0.021578508014430082 -0.00010477300451536391 0 0.021031500492545756 0.00081191178848832272 0 0.021097345003353404 0.00080046381954815911 0 0.021116013252732546 0.00063398441982722147 0 0.019119421167793568 0.00049747464611951968 0 0.01913283547065037 5.1199777870996154e-05 0 0.019342199216018055 1.1669896048078587e-05 0 0.020447773727678281 0.00042605302405314188 0 0.019691765527993062 0.00034557078212277959 0 0.019706132713396961 0.00050847646932824196 0 0.019865442965521573 0.00011004682091264206 0 0.019676792907544382 0.00014562550599584332 0 0.020447773727678281 0.00042605302405314188 0 0.020570624490568394 0.00024524257571123981 0 0.021508644908208051 0.00034714980515025261 0 0.022004209956316387 -0.00014306931007956249 0 0.021578508014430082 -0.00010477300451536391 0 0.021019970625654257 0.00049367245144490144 0 0.020800578035700217 0.00053494443605018758 0 0.021149587292573518 3.553379948416516e-06 0 0.020570624490568394 0.00024524257571123981 0 0.021735032015584198 0.00019695558781715608 0 0.020447773727678281 0.00042605302405314188 0 0.021735032015584198 0.00019695558781715608 0 0.022004209956316387 -0.00014306931007956249 0 0.022309469354160227 -0.00016682377320145222 0 0.022131211441726167 -0.00013611190147335455 0 0.022004209956316387 -0.00014306931007956249 0 0.021578508014430082 -0.00010477300451536391 0 0.022309469354160227 -0.00016682377320145222 0 0.021225067356860625 0.00060467286605344749 0 0.02129496874853655 0.000395941816901555 0 0.021373421007132267 0.00029092816405193385 0 0.020447773727678281 0.00042605302405314188 0 0.0219649659645249 0.00070964557145742778 0 0.021735032015584198 0.00019695558781715608 0 0.022740824261376719 0.00061920216841303678 0 0.022315542146355397 0.00042579864389992981 0 0.02217531716285431 0.00065107711302546313 0 0.022177412619656386 0.0008521064210572142 0 0.021735032015584198 0.00019695558781715608 0 0.0219649659645249 0.00070964557145742778 0 0.021578508014430082 -0.00010477300451536391 0 0.021538382769066295 -6.8319429456307831e-07 0 0.022309469354160227 -0.00016682377320145222 0 0.020808480422477949 -7.6177193342010966e-06 0 0.021578508014430082 -0.00010477300451536391 0 0.021538382769066295 -6.8319429456307831e-07 0 0.022309469354160227 -0.00016682377320145222 0 0.0230690551873198 -0.00014049428779772902 0 0.023177899175759745 -6.3215674189498883e-07 0 0.021538382769066295 -6.8319429456307831e-07 0 0.022309469354160227 -0.00016682377320145222 0 0.023177899175759745 -6.3215674189498883e-07 0 0.0230690551873198 -0.00014049428779772902 0 0.023177899175759745 -6.3215674189498883e-07 0 0.024812414836341844 1.1974196655175791e-06 0 0.0230690551873198 -0.00014049428779772902 0 0.022884367084685317 -6.8219881655575985e-05 0 0.02316938188487391 9.6964790973369297e-05 0 0.0230690551873198 -0.00014049428779772902 0 0.022948112913778466 -0.00025947466439869241 0 0.022884367084685317 -6.8219881655575985e-05 0 0.022309469354160227 -0.00016682377320145222 0 0.0230690551873198 -0.00014049428779772902 0 0.022131211441726167 -0.00013611190147335455 0 0.022824261941321214 -0.00043831246199917438 0 0.022740824261376719 0.00061920216841303678 0 0.024383655287255248 0.0019878723527195271 0 0.024424937233388216 0.0020399722382498198 0 0.024690477203535843 0.0015154527075079362 0 0.02439985653760814 0.0022590629593561293 0 0.024832444809024488 0.0017302527381100128 0 0.024694459290614135 0.0016196565629871078 0 0.022740824261376719 0.00061920216841303678 0 0.022900208860128127 0.0012354599384846526 0 0.021165348992854063 0.00083853289720657337 0 0.022279619699967161 0.0010485060755832094 0 0.022592540533015328 0.0013832360371996174 0 0.022500843910075723 0.001268773938761828 0 0.02277137935798865 0.0010194292426273985 0 0.022900208860128127 0.0012354599384846526 0 0.023857853665181752 0.0013532980847999218 0 0.022500843910075723 0.001268773938761828 0 0.02277137935798865 0.0010194292426273985 0 0.022729754996742572 0.00096758773998692873 0 0.022900208860128127 0.0012354599384846526 0 0.024790169579056848 0.001659521944160145 0 0.022740824261376719 0.00061920216841303678 0 0.023899547707200219 0.00064439348417476229 0 0.02200890747997437 0.0012757719530619659 0 0.021647380085680415 0.0013348403793255724 0 0.021815678726423194 0.0009587203860016866 0 0.022138721379878459 0.00092363706727805676 0 0.02200890747997437 0.0012757719530619659 0 0.021815678726423194 0.0009587203860016866 0 0.022138721379878459 0.00092363706727805676 0 0.021815678726423194 0.0009587203860016866 0 0.021966359793159175 0.00057870112216680742 0 0.022279619699967161 0.0010485060755832094 0 0.023408267046072347 0.00078504657322541773 0 0.024832444809024488 0.0017302527381100128 0 0.024694459290614135 0.0016196565629871078 0 0.0252585508313358 0.0011449950078996078 0 0.02224342025052635 0.00068592475824682956 0 0.022138721379878459 0.00092363706727805676 0 0.021966359793159175 0.00057870112216680742 0 0.023857853665181752 0.0013532980847999218 0 0.023408267046072347 0.00078504657322541773 0 0.02277137935798865 0.0010194292426273985 0 0.022729754996742572 0.00096758773998692873 0 0.022962587704754813 0.00064633255705106316 0 0.024383655287255248 0.0019878723527195271 0 0.024690477203535843 0.0015154527075079362 0 0.024668949768442788 0.0013561863311429799 0 0.024690477203535843 0.0015154527075079362 0 0.024668949768442788 0.0013561863311429799 0 0.024992680089248431 0.00093243689272318523 0 0.024668949768442788 0.0013561863311429799 0 0.024992680089248431 0.00093243689272318523 0 0.024977827927399027 0.00062379735461931974 0 0.022884367084685317 -6.8219881655575985e-05 0 0.022988340111662842 0.00041945793921710847 0 0.022659122710234941 0.00055261394961741517 0 0.022884367084685317 -6.8219881655575985e-05 0 0.022988340111662842 0.00041945793921710847 0 0.02316938188487391 9.6964790973369297e-05 0 0.024790169579056848 0.001659521944160145 0 0.024954658780280099 0.0009479116870345232 0 0.023899547707200219 0.00064439348417476229 0 0.023656764537733046 0.00070884226439959965 0 0.024992680089248431 0.00093243689272318523 0 0.0252585508313358 0.0011449950078996078 0 0.024977827927399027 0.00062379735461931974 0 0.024694459290614135 0.0016196565629871078 0 0.024992680089248431 0.00093243689272318523 0 0.0252585508313358 0.0011449950078996078 0 0.02531274297028404 -0.00027927040531787516 0 0.024977827927399027 0.00062379735461931974 0 0.025398114098063865 0.00038311714480317416 0 0.0252585508313358 0.0011449950078996078 0 0.024977827927399027 0.00062379735461931974 0 0.025398114098063865 0.00038311714480317416 0 0.025868999452717478 0.00038369637963830223 0 0.0252585508313358 0.0011449950078996078 0 0.025398114098063865 0.00038311714480317416 0 0.022915532976478116 0.00089215190618309351 0 0.022988340111662842 0.00041945793921710847 0 0.022659122710234941 0.00055261394961741517 0 0.022915532976478116 0.00089215190618309351 0 0.022988340111662842 0.00041945793921710847 0 0.023499935679447595 0.00073728188055435838 0 0.025207021090493897 0.00045673991988440775 0 0.025239468470660206 0.00034817737332389038 0 0.025239468470660206 0.00034817737332389038 0 0.024816156888488827 1.2493308634419911e-07 0 0.026589022687930647 -8.9393865476432977e-07 0 0.026928457507548083 0.00016868774713892979 0 0.024818518262295333 1.6404669437880725e-06 0 0.0230690551873198 -0.00014049428779772902 0 0.024812414836341844 1.1974196655175791e-06 0 0.02316938188487391 9.6964790973369297e-05 0 0.023499935679447595 0.00073728188055435838 0 0.024812414836341844 1.1974196655175791e-06 0 0.02316938188487391 9.6964790973369297e-05 0 0.022988340111662842 0.00041945793921710847 0 0.023499935679447595 0.00073728188055435838 0 0.02316938188487391 9.6964790973369297e-05 0 0.0082367193030251796 0.00017311205093039427 0 0.008713760415551542 -0.00057203841483193733 0 0.0068699531859712183 0.00011985028762599183 0 0.0066302763352623136 0.00022802828875333699 0 0.0067236626988361288 0.00042614341633827969 0 0.0097892766636367493 -1.490139889332871e-07 0 0.010748484425968782 -0.00018511792826155377 0 0.011263618877261081 1.425409108889165e-07 0 0.0097892766636367493 -1.490139889332871e-07 0 0.010297910361260453 0.00027194158718485764 0 0.010748484425968782 -0.00018511792826155377 0 0.0097840712691723685 4.7647223489768566e-07 0 0.0082367193030251796 0.00017311205093039427 0 0.0097806996030687064 4.0761851062928956e-07 0 0.0089067653427303273 4.6647143171770422e-05 0 0.0079667676450129524 -6.6662074039472829e-08 0 0.0068699531859712183 0.00011985028762599183 0 0.0066023735641378397 2.7455914583022065e-05 0 0.0066302763352623136 0.00022802828875333699 0 0.0082367193030251796 0.00017311205093039427 0 0.0061443697692548207 -6.2090086094086948e-05 0 0.006514708654721561 0.00014363578268692818 0 0.0066023735641378397 2.7455914583022065e-05 0 0.0066302763352623136 0.00022802828875333699 0 0.006514708654721561 0.00014363578268692818 0 0.0063438422676147773 0.0001393082942366872 0 0.0065270072392522999 -0.00022233407452717952 0 0.0058419620117611693 -0.0023740785010986794 0 0.0057378795363493855 -0.002749502785006349 0 0.005924206231670625 -0.0025822026695213195 0 0.006514708654721561 0.00014363578268692818 0 0.0063438422676147773 0.0001393082942366872 0 0.0064548194329322982 0.00040457254954793078 0 0.0057378795363493855 -0.002749502785006349 0 0.005924206231670625 -0.0025822026695213195 0 0.0060439555186092564 -0.0027531562283508756 0 0.0061045786261725628 -0.0009725594073184136 0 0.0061041437381619606 -0.0018920279015108954 0 0.006514708654721561 0.00014363578268692818 0 0.0066302763352623136 0.00022802828875333699 0 0.0064548194329322982 0.00040457254954793078 0 0.0066302763352623136 0.00022802828875333699 0 0.0064548194329322982 0.00040457254954793078 0 0.0067236626988361288 0.00042614341633827969 0 0.0061041437381619606 -0.0018920279015108954 0 0.008713760415551542 -0.00057203841483193733 0 0.0064973709991252042 -0.0029267699874703911 0 0.0063254071757311075 -0.0029707665968568353 0 0.0065269992840621821 -0.0029767460236320392 0 0.0063153592699570242 -0.0030132214493520217 0 0.0063254071757311075 -0.0029707665968568353 0 0.0065269992840621821 -0.0029767460236320392 0 0.0064973709991252042 -0.0029267699874703911 0 0.0063254071757311075 -0.0029707665968568353 0 0.006282126305273637 -0.0029462708246277389 0 0.009316364786287815 -0.0018139866338205352 0 0.0077284322864791932 -0.0034527248963304798 0 0.0061041437381619606 -0.0018920279015108954 0 0.0061680135729281146 -0.0028755731513860467 0 0.0062920694265203416 -0.0029564339165203731 0 0.0063058907435415519 -0.0029737032097802304 0 0.0063042678441977132 -0.0028966256832005191 0 0.0062920694265203416 -0.0029564339165203731 0 0.0063058907435415519 -0.0029737032097802304 0 0.0063254071757311075 -0.0029707665968568353 0 0.0061041437381619606 -0.0018920279015108954 0 0.0060594565370199974 -0.0025056789600043923 0 0.0062920694265203416 -0.0029564339165203731 0 0.0063254071757311075 -0.0029707665968568353 0 0.006282126305273637 -0.0029462708246277389 0 0.0062920694265203416 -0.0029564339165203731 0 0.006282126305273637 -0.0029462708246277389 0 0.0063078659638561799 -0.0029880103693681074 0 0.00954642627277065 -0.0036891723017333528 0 0.0096972063381241865 -0.0035521944870719846 0 0.0094233125630396528 -0.0035291944637669014 0 0.012771993440365555 0.0021519441060638593 0 0.013462361367279203 0.00060706780758476076 0 0.014874290919895481 0.0051039436138485767 0 0.01364927533129667 0.0054118988387117078 0 0.014415271792261413 0.0041484006903269727 0 0.0097578679231957871 -0.0037000558244633217 0 0.00954642627277065 -0.0036891723017333528 0 0.0096972063381241865 -0.0035521944870719846 0 0.010718241335900897 0.00030053045150794277 0 0.01036696832725624 0.0011507410923361115 0 0.011052226124029986 0.00093311837452475608 0 0.009316364786287815 -0.0018139866338205352 0 0.012771993440365555 0.0021519441060638593 0 0.012771993440365555 0.0021519441060638593 0 0.012164907021615334 0.0031864610456515279 0 0.01364927533129667 0.0054118988387117078 0 0.01251425982069076 0.0057232168081097585 0 0.013427861716073214 0.0044646890936920289 0 0.011052226124029986 0.00093311837452475608 0 0.011325908622462149 0.00057270165096972366 0 0.011767222985500841 0.00071783636433723618 0 0.012164907021615334 0.0031864610456515279 0 0.012500171760929031 0.0017452833981092149 0 0.011119046181252359 0.00015239433138908165 0 0.010817322293647609 2.0890008838886716e-05 0 0.012179774843772001 0.00015106251206265756 0 0.010718241335900897 0.00030053045150794277 0 0.011052226124029986 0.00093311837452475608 0 0.011325908622462149 0.00057270165096972366 0 0.010718241335900897 0.00030053045150794277 0 0.011325908622462149 0.00057270165096972366 0 0.011119046181252359 0.00015239433138908165 0 0.010688342291194057 0.00028702749171726622 0 0.011119046181252359 0.00015239433138908165 0 0.010817322293647609 2.0890008838886716e-05 0 0.009316364786287815 -0.0018139866338205352 0 0.010689569271796272 -0.00082652565875599891 0 0.009316364786287815 -0.0018139866338205352 0 0.008713760415551542 -0.00057203841483193733 0 0.011325908622462149 0.00057270165096972366 0 0.011119046181252359 0.00015239433138908165 0 0.012179774843772001 0.00015106251206265756 0 0.011325908622462149 0.00057270165096972366 0 0.012179774843772001 0.00015106251206265756 0 0.011767222985500841 0.00071783636433723618 0 0.008713760415551542 -0.00057203841483193733 0 0.012417736553040263 0.00022038531826784716 0 0.011934762068871211 1.3157383730234403e-06 0 0.012500171760929031 0.0017452833981092149 0 0.011271758580453799 -4.4853148217359767e-09 0 0.01193202781508019 1.681062537443738e-08 0 0.012125063319806745 7.5964972296414818e-06 0 0.012417736553040263 0.00022038531826784716 0 0.012500171760929031 0.0017452833981092149 0 0.012500171760929031 0.0017452833981092149 0 0.013791094789932354 0.0024161884779022374 0 0.011935467596971337 1.4405261889544506e-06 0 0.013003177300084757 0.00026773383398863036 0 0.013465717905306736 3.7975756267395355e-05 0 0.013003177300084757 0.00026773383398863036 0 0.013465717905306736 3.7975756267395355e-05 0 0.014256145225296646 0.00010657622462826554 0 0.011935467596971337 1.4405261889544506e-06 0 0.013465717905306736 3.7975756267395355e-05 0 0.013689456235051974 -7.1149991072289442e-07 0 0.013465717905306736 3.7975756267395355e-05 0 0.013969126884889667 2.8210529845394548e-05 0 0.013689456235051974 -7.1149991072289442e-07 0 0.013969126884889667 2.8210529845394548e-05 0 0.013689456235051974 -7.1149991072289442e-07 0 0.014558115295307508 1.6152216754515961e-05 0 0.013465717905306736 3.7975756267395355e-05 0 0.013969126884889667 2.8210529845394548e-05 0 0.014256145225296646 0.00010657622462826554 0 0.013791094789932354 0.0024161884779022374 0 0.014686942452027663 0.0015840327015019119 0 0.013427861716073214 0.0044646890936920289 0 0.014363220620397027 0.0030239423224243962 0 0.014415271792261413 0.0041484006903269727 0 0.013969126884889667 2.8210529845394548e-05 0 0.014256145225296646 0.00010657622462826554 0 0.014558115295307508 1.6152216754515961e-05 0 0.01364927533129667 0.0054118988387117078 0 0.013427861716073214 0.0044646890936920289 0 0.014415271792261413 0.0041484006903269727 0 0.014256145225296646 0.00010657622462826554 0 0.014558115295307508 1.6152216754515961e-05 0 0.014833061544243209 0.00029855332117516964 0 0.014558115295307508 1.6152216754515961e-05 0 0.014854150290317907 0.00027400153206968818 0 0.014833061544243209 0.00029855332117516964 0 0.014854150290317907 0.00027400153206968818 0 0.015082726007612391 0.0005233272546952642 0 0.014833061544243209 0.00029855332117516964 0 0.013689456235051974 -7.1149991072289442e-07 0 0.014558115295307508 1.6152216754515961e-05 0 0.015439362944760188 8.8283506129346554e-07 0 0.014558115295307508 1.6152216754515961e-05 0 0.015439362944760188 8.8283506129346554e-07 0 0.014854150290317907 0.00027400153206968818 0 0.015446709504743767 -2.4168800574596286e-07 0 0.015711814980747373 2.5133751503509481e-07 0 0.016529228819180019 -0.00011268988305512992 0 0.015439362944760188 8.8283506129346554e-07 0 0.014854150290317907 0.00027400153206968818 0 0.014775423403970601 4.9444894268438465e-05 0 0.015443031083022639 -1.4867234506142556e-07 0 0.015522555599863066 -0.00020380894801729657 0 0.015716295968860455 -5.0615300589289593e-08 0 0.016641525993380639 -0.00011758250703521568 0 0.014854150290317907 0.00027400153206968818 0 0.01510027125707856 0.00021222900586283005 0 0.015082726007612391 0.0005233272546952642 0 0.014854150290317907 0.00027400153206968818 0 0.014775423403970601 4.9444894268438465e-05 0 0.01510027125707856 0.00021222900586283005 0 0.015251759781317124 -0.00044204160827289007 0 0.014775423403970601 4.9444894268438465e-05 0 0.01510027125707856 0.00021222900586283005 0 0.015711814980747373 2.5133751503509481e-07 0 0.016529228819180019 -0.00011268988305512992 0 0.016312124481360896 -8.5599301806584327e-05 0 0.01658509045307997 -0.00038357160148918911 0 0.016529228819180019 -0.00011268988305512992 0 0.016312124481360896 -8.5599301806584327e-05 0 0.01571594472184315 2.6990313042990551e-07 0 0.016990975851286019 -2.6490518648649048e-07 0 0.017079918808354213 2.0117781946929439e-05 0 0.017833393722908725 -5.6412358965735488e-05 0 0.016990975851286019 -2.6490518648649048e-07 0 0.017079918808354213 2.0117781946929439e-05 0 0.017200688014270951 -0.00020427291518312947 0 0.016641525993380639 -0.00011758250703521568 0 0.017045686980723035 -0.00092251524665598725 0 0.015954580064249289 -0.00027495427236924006 0 0.017102964091482611 0.00052710932574402951 0 0.015954580064249289 -0.00027495427236924006 0 0.015604831431663416 0.00099710151397728892 0 0.017102964091482611 0.00052710932574402951 0 0.015954580064249289 -0.00027495427236924006 0 0.01510027125707856 0.00021222900586283005 0 0.015604831431663416 0.00099710151397728892 0 0.015251759781317124 -0.00044204160827289007 0 0.015954580064249289 -0.00027495427236924006 0 0.01510027125707856 0.00021222900586283005 0 0.015082726007612391 0.0005233272546952642 0 0.015604831431663416 0.00099710151397728892 0 0.014833061544243209 0.00029855332117516964 0 0.01510027125707856 0.00021222900586283005 0 0.015082726007612391 0.0005233272546952642 0 0.015604831431663416 0.00099710151397728892 0 0.015604831431663416 0.00099710151397728892 0 0.017409295225814487 0.0019296491460620215 0 0.017102964091482611 0.00052710932574402951 0 0.015604831431663416 0.00099710151397728892 0 0.016053553477477986 0.0030887793101511849 0 0.017409295225814487 0.0019296491460620215 0 0.015604831431663416 0.00099710151397728892 0 0.016053553477477986 0.0030887793101511849 0 0.014363220620397027 0.0030239423224243962 0 0.015499265518680371 0.00095905039309148311 0 0.014686942452027663 0.0015840327015019119 0 0.016053553477477986 0.0030887793101511849 0 0.014363220620397027 0.0030239423224243962 0 0.014415271792261413 0.0041484006903269727 0 0.014874290919895481 0.0051039436138485767 0 0.016053553477477986 0.0030887793101511849 0 0.014415271792261413 0.0041484006903269727 0 0.012771993440365555 0.0021519441060638593 0 0.016358970627377633 0.0043824603314765957 0 0.014752239917364634 0.005840387606946878 0 0.016053553477477986 0.0030887793101511849 0 0.017674297332450396 0.0050039484487860355 0 0.016053553477477986 0.0030887793101511849 0 0.017674297332450396 0.0050039484487860355 0 0.018653503318065031 0.0033846748480106524 0 0.013462361367279203 0.00060706780758476076 0 0.014656289163571397 0.00033605072645538587 0 0.0094233125630396528 -0.0035291944637669014 0 0.0089518165052386404 -0.0035109979723509286 0 0.0092423329343816907 -0.0037238657867267847 0 0.0089518165052386404 -0.0035109979723509286 0 0.0088290288711097252 -0.0037674182635141604 0 0.0092423329343816907 -0.0037238657867267847 0 0.017674297332450396 0.0050039484487860355 0 0.020370654044451143 0.004178897454263383 0 0.018653503318065031 0.0033846748480106524 0 0.020370654044451143 0.004178897454263383 0 0.020421929188144179 0.0030006310695910505 0 0.018653503318065031 0.0033846748480106524 0 0.020421929188144179 0.0030006310695910505 0 0.018653503318065031 0.0033846748480106524 0 0.018908574771023035 0.002291519923817196 0 0.016053553477477986 0.0030887793101511849 0 0.018653503318065031 0.0033846748480106524 0 0.017409295225814487 0.0019296491460620215 0 0.018653503318065031 0.0033846748480106524 0 0.017409295225814487 0.0019296491460620215 0 0.018908574771023035 0.002291519923817196 0 0.017409295225814487 0.0019296491460620215 0 0.018288753056897099 0.0013964601090522054 0 0.017102964091482611 0.00052710932574402951 0 0.018288753056897099 0.0013964601090522054 0 0.017102964091482611 0.00052710932574402951 0 0.018566896559340126 0.00040256252984519628 0 0.017409295225814487 0.0019296491460620215 0 0.018288753056897099 0.0013964601090522054 0 0.018908574771023035 0.002291519923817196 0 0.020421929188144179 0.0030006310695910505 0 0.019641287536508904 0.001394616430676092 0 0.020729145089800335 -3.1296329187828316e-05 0 0.018288753056897099 0.0013964601090522054 0 0.018908574771023035 0.002291519923817196 0 0.019641287536508904 0.001394616430676092 0 0.020421929188144179 0.0030006310695910505 0 0.018908574771023035 0.002291519923817196 0 0.019641287536508904 0.001394616430676092 0 0.018288753056897099 0.0013964601090522054 0 0.019641287536508904 0.001394616430676092 0 0.018566896559340126 0.00040256252984519628 0 0.019641287536508904 0.001394616430676092 0 0.019791312454751131 0.00027938823351343606 0 0.018566896559340126 0.00040256252984519628 0 0.019791312454751131 0.00027938823351343606 0 0.019973852623983046 -0.00024709418849472911 0 0.018566896559340126 0.00040256252984519628 0 0.019641287536508904 0.001394616430676092 0 0.019791312454751131 0.00027938823351343606 0 0.020729145089800335 -3.1296329187828316e-05 0 0.019791312454751131 0.00027938823351343606 0 0.019973852623983046 -0.00024709418849472911 0 0.020729145089800335 -3.1296329187828316e-05 0 0.02076217025402002 0.0013855654853670509 0 0.021623906949984735 0.0022305753787922383 0 0.018332640591392436 -4.9928135272447744e-05 0 0.02076217025402002 0.0013855654853670509 0 0.017045686980723035 -0.00092251524665598725 0 0.017102964091482611 0.00052710932574402951 0 0.018566896559340126 0.00040256252984519628 0 0.017045686980723035 -0.00092251524665598725 0 0.019973852623983046 -0.00024709418849472911 0 0.018566896559340126 0.00040256252984519628 0 0.021883954052923146 0.0031895640858792184 0 0.021756089758313148 0.0033853318839982896 0 0.022200237577484631 0.0035401677637961104 0 0.022443998910882373 0.003756352843768455 0 0.021883954052923146 0.0031895640858792184 0 0.022200237577484631 0.0035401677637961104 0 0.021623906949984735 0.0022305753787922383 0 0.022023088744017223 0.0032989703484051815 0 0.022443998910882373 0.003756352843768455 0 0.0228146447378791 0.0035496720240577738 0 0.021883954052923146 0.0031895640858792184 0 0.02086975687965778 0.0026045320197168732 0 0.021108572787367118 0.0031212198505713661 0 0.021883954052923146 0.0031895640858792184 0 0.020321611908750873 0.0025739643427155636 0 0.021623906949984735 0.0022305753787922383 0 0.020421929188144179 0.0030006310695910505 0 0.02086975687965778 0.0026045320197168732 0 0.021108572787367118 0.0031212198505713661 0 0.020421929188144179 0.0030006310695910505 0 0.021108572787367118 0.0031212198505713661 0 0.020960354120163407 0.0034018000392671689 0 0.021108572787367118 0.0031212198505713661 0 0.021425067236140214 0.0033641156780010641 0 0.020960354120163407 0.0034018000392671689 0 0.021108572787367118 0.0031212198505713661 0 0.021425067236140214 0.0033641156780010641 0 0.021883954052923146 0.0031895640858792184 0 0.021425067236140214 0.0033641156780010641 0 0.021883954052923146 0.0031895640858792184 0 0.021756089758313148 0.0033853318839982896 0 0.021425067236140214 0.0033641156780010641 0 0.021277933363015578 0.003639638292969163 0 0.021756089758313148 0.0033853318839982896 0 0.021425067236140214 0.0033641156780010641 0 0.021277933363015578 0.003639638292969163 0 0.020960354120163407 0.0034018000392671689 0 0.020370654044451143 0.004178897454263383 0 0.020421929188144179 0.0030006310695910505 0 0.020960354120163407 0.0034018000392671689 0 0.020370654044451143 0.004178897454263383 0 0.021277933363015578 0.003639638292969163 0 0.020960354120163407 0.0034018000392671689 0 0.014656289163571397 0.00033605072645538587 0 0.014883829103768549 -2.7416502196135304e-06 0 0.0089518165052386404 -0.0035109979723509286 0 0.0084783459751224238 -0.0036695944645491183 0 0.0086094727183531148 -0.0036319377935177706 0 0.0089518165052386404 -0.0035109979723509286 0 0.0088290288711097252 -0.0037674182635141604 0 0.0086094727183531148 -0.0036319377935177706 0 0.0078223440541554338 -0.0036117021485422029 0 0.0080783708296075594 -0.0036809998695389 0 0.0088290288711097252 -0.0037674182635141604 0 0.0081262320531508316 -0.0036799403939950883 0 0.0086094727183531148 -0.0036319377935177706 0 0.0068119929411590086 -0.0035058874346663698 0 0.0081262320531508316 -0.0036799403939950883 0 0.0074137313200796241 -0.0032510460103002872 0 0.0084783459751224238 -0.0036695944645491183 0 0.0081262320531508316 -0.0036799403939950883 0 0.0086094727183531148 -0.0036319377935177706 0 0.0074137313200796241 -0.0032510460103002872 0 0.007260562815173557 -0.0029210659397425278 0 0.0077670839600597098 -0.0032173117724754239 0 0.0081262320531508316 -0.0036799403939950883 0 0.0074137313200796241 -0.0032510460103002872 0 0.0078421292829126237 -0.0034196611432961441 0 0.007260562815173557 -0.0029210659397425278 0 0.0067918049202631819 -0.003005294708498345 0 0.0067790606020919448 -0.0026519383123163823 0 0.0074137313200796241 -0.0032510460103002872 0 0.007260562815173557 -0.0029210659397425278 0 0.0067918049202631819 -0.003005294708498345 0 0.0067918049202631819 -0.003005294708498345 0 0.0064702358808490408 -0.0027641609869587182 0 0.0067790606020919448 -0.0026519383123163823 0 0.0068119929411590086 -0.0035058874346663698 0 0.0074137313200796241 -0.0032510460103002872 0 0.0067918049202631819 -0.003005294708498345 0 0.0068119929411590086 -0.0035058874346663698 0 0.0067918049202631819 -0.003005294708498345 0 0.0065827147736829362 -0.0031590734741881663 0 0.0068119929411590086 -0.0035058874346663698 0 0.0065827147736829362 -0.0031590734741881663 0 0.0063370266779655378 -0.0031497305402675342 0 0.0078223440541554338 -0.0036117021485422029 0 0.0078275174394907571 -0.0034353911474656732 0 0.0065827147736829362 -0.0031590734741881663 0 0.0063370266779655378 -0.0031497305402675342 0 0.0064380473164748365 -0.0029833280098350355 0 0.0077284322864791932 -0.0034527248963304798 0 0.0078275174394907571 -0.0034353911474656732 0 0.00954642627277065 -0.0036891723017333528 0 0.0094233125630396528 -0.0035291944637669014 0 0.0092423329343816907 -0.0037238657867267847 0 0.006282126305273637 -0.0029462708246277389 0 0.0063370266779655378 -0.0031497305402675342 0 0.0063078659638561799 -0.0029880103693681074 0 0.0063370266779655378 -0.0031497305402675342 0 0.0063078659638561799 -0.0029880103693681074 0 0.0064380473164748365 -0.0029833280098350355 0 0.0063078659638561799 -0.0029880103693681074 0 0.0064380473164748365 -0.0029833280098350355 0 0.0063042678441977132 -0.0028966256832005191 0 0.0062920694265203416 -0.0029564339165203731 0 0.0063078659638561799 -0.0029880103693681074 0 0.0063042678441977132 -0.0028966256832005191 0 0.0067918049202631819 -0.003005294708498345 0 0.0065827147736829362 -0.0031590734741881663 0 0.0064380473164748365 -0.0029833280098350355 0 0.0064380473164748365 -0.0029833280098350355 0 0.0064702358808490408 -0.0027641609869587182 0 0.0063042678441977132 -0.0028966256832005191 0 0.0067918049202631819 -0.003005294708498345 0 0.0064380473164748365 -0.0029833280098350355 0 0.0064702358808490408 -0.0027641609869587182 0 0.0064702358808490408 -0.0027641609869587182 0 0.0062895902756674484 -0.0024975180606753166 0 0.0064636063649036206 -0.0024205287501949902 0 0.0064702358808490408 -0.0027641609869587182 0 0.0060439555186092564 -0.0027531562283508756 0 0.0062895902756674484 -0.0024975180606753166 0 0.00646328198930425 -0.0027698972604330067 0 0.0061680135729281146 -0.0028755731513860467 0 0.005924206231670625 -0.0025822026695213195 0 0.0060439555186092564 -0.0027531562283508756 0 0.0060507762875148512 -0.0024475131098150239 0 0.0060439555186092564 -0.0027531562283508756 0 0.0060507762875148512 -0.0024475131098150239 0 0.0062895902756674484 -0.0024975180606753166 0 0.0058419620117611693 -0.0023740785010986794 0 0.0060507762875148512 -0.0024475131098150239 0 0.0060166198701117855 -0.0022630566267098592 0 0.0058419620117611693 -0.0023740785010986794 0 0.005924206231670625 -0.0025822026695213195 0 0.0060507762875148512 -0.0024475131098150239 0 0.0060507762875148512 -0.0024475131098150239 0 0.0061817726575110988 -0.002297728202506173 0 0.0060166198701117855 -0.0022630566267098592 0 0.0062895902756674484 -0.0024975180606753166 0 0.0061817726575110988 -0.002297728202506173 0 0.0064636063649036206 -0.0024205287501949902 0 0.0060507762875148512 -0.0024475131098150239 0 0.0062895902756674484 -0.0024975180606753166 0 0.0061817726575110988 -0.002297728202506173 0 0.0064636063649036206 -0.0024205287501949902 0 0.0065620599264304353 -0.0023389102708852865 0 0.0067790606020919448 -0.0026519383123163823 0 0.0065620599264304353 -0.0023389102708852865 0 0.0067790606020919448 -0.0026519383123163823 0 0.0070606431370561912 -0.0026089758458413964 0 0.007260562815173557 -0.0029210659397425278 0 0.0067790606020919448 -0.0026519383123163823 0 0.0070606431370561912 -0.0026089758458413964 0 0.0064702358808490408 -0.0027641609869587182 0 0.0064636063649036206 -0.0024205287501949902 0 0.0067790606020919448 -0.0026519383123163823 0 0.0073591936133860893 -0.0025630374169517424 0 0.007793839755651775 -0.0028193458690382051 0 0.007544779073950912 -0.0028801381322580187 0 0.0073591936133860893 -0.0025630374169517424 0 0.0070606431370561912 -0.0026089758458413964 0 0.007544779073950912 -0.0028801381322580187 0 0.0065620599264304353 -0.0023389102708852865 0 0.0070606431370561912 -0.0026089758458413964 0 0.0069161865698445235 -0.0023799876462087598 0 0.0073591936133860893 -0.0025630374169517424 0 0.0070606431370561912 -0.0026089758458413964 0 0.0069161865698445235 -0.0023799876462087598 0 0.0073591936133860893 -0.0025630374169517424 0 0.0069161865698445235 -0.0023799876462087598 0 0.0071326798502414166 -0.0022567526705193656 0 0.0073591936133860893 -0.0025630374169517424 0 0.0074788190106164481 -0.0023638585124805618 0 0.0071326798502414166 -0.0022567526705193656 0 0.0073591936133860893 -0.0025630374169517424 0 0.0074788190106164481 -0.0023638585124805618 0 0.0076146495694583037 -0.0025658676764737254 0 0.0074788190106164481 -0.0023638585124805618 0 0.0078319497059348448 -0.0024994314120826608 0 0.0076993255812589419 -0.0021299708409295327 0 0.0074788190106164481 -0.0023638585124805618 0 0.0078319497059348448 -0.0024994314120826608 0 0.0076146495694583037 -0.0025658676764737254 0 0.0078319497059348448 -0.0024994314120826608 0 0.007793839755651775 -0.0028193458690382051 0 0.008048790426910906 -0.0028409550235679671 0 0.0078319497059348448 -0.0024994314120826608 0 0.0076146495694583037 -0.0025658676764737254 0 0.007793839755651775 -0.0028193458690382051 0 0.0073591936133860893 -0.0025630374169517424 0 0.0076146495694583037 -0.0025658676764737254 0 0.007793839755651775 -0.0028193458690382051 0 0.007793839755651775 -0.0028193458690382051 0 0.0081155280742879424 -0.0031606353785182308 0 0.0079811989746050305 -0.0031992074302733364 0 0.007793839755651775 -0.0028193458690382051 0 0.008048790426910906 -0.0028409550235679671 0 0.0081155280742879424 -0.0031606353785182308 0 0.0081155280742879424 -0.0031606353785182308 0 0.0083527615703217414 -0.0034685897984814418 0 0.0082997780310812702 -0.0031054869395926357 0 0.008048790426910906 -0.0028409550235679671 0 0.0081155280742879424 -0.0031606353785182308 0 0.0082997780310812702 -0.0031054869395926357 0 0.0081155280742879424 -0.0031606353785182308 0 0.0079811989746050305 -0.0031992074302733364 0 0.0082663665419475951 -0.0034604593434572738 0 0.0079811989746050305 -0.0031992074302733364 0 0.0077670839600597098 -0.0032173117724754239 0 0.00818469070059572 -0.0035553442311780617 0 0.0079811989746050305 -0.0031992074302733364 0 0.007544779073950912 -0.0028801381322580187 0 0.0077670839600597098 -0.0032173117724754239 0 0.007793839755651775 -0.0028193458690382051 0 0.0079811989746050305 -0.0031992074302733364 0 0.007544779073950912 -0.0028801381322580187 0 0.007260562815173557 -0.0029210659397425278 0 0.007544779073950912 -0.0028801381322580187 0 0.0077670839600597098 -0.0032173117724754239 0 0.007260562815173557 -0.0029210659397425278 0 0.0070606431370561912 -0.0026089758458413964 0 0.007544779073950912 -0.0028801381322580187 0 0.0074137313200796241 -0.0032510460103002872 0 0.0077670839600597098 -0.0032173117724754239 0 0.0078421292829126237 -0.0034196611432961441 0 0.0077670839600597098 -0.0032173117724754239 0 0.0078421292829126237 -0.0034196611432961441 0 0.00818469070059572 -0.0035553442311780617 0 0.0081262320531508316 -0.0036799403939950883 0 0.0078421292829126237 -0.0034196611432961441 0 0.00818469070059572 -0.0035553442311780617 0 0.0084783459751224238 -0.0036695944645491183 0 0.0081262320531508316 -0.0036799403939950883 0 0.00818469070059572 -0.0035553442311780617 0 0.00818469070059572 -0.0035553442311780617 0 0.0087249678181837258 -0.0037499266220513282 0 0.0082663665419475951 -0.0034604593434572738 0 0.0079811989746050305 -0.0031992074302733364 0 0.00818469070059572 -0.0035553442311780617 0 0.0082663665419475951 -0.0034604593434572738 0 0.014883829103768549 -2.7416502196135304e-06 0 0.014984077787429209 -0.00016120812196765362 0 0.021277933363015578 0.003639638292969163 0 0.021321651805106763 0.0034079592488734894 0 0.021756089758313148 0.0033853318839982896 0 0.0084783459751224238 -0.0036695944645491183 0 0.00818469070059572 -0.0035553442311780617 0 0.0087249678181837258 -0.0037499266220513282 0 0.021321651805106763 0.0034079592488734894 0 0.021756089758313148 0.0033853318839982896 0 0.022123293135498306 0.0035716252007159935 0 0.021321651805106763 0.0034079592488734894 0 0.022123293135498306 0.0035716252007159935 0 0.021560428141512149 0.0034062434195496895 0 0.021616329175464369 0.0037067241241067824 0 0.022123293135498306 0.0035716252007159935 0 0.021560428141512149 0.0034062434195496895 0 0.021756089758313148 0.0033853318839982896 0 0.022123293135498306 0.0035716252007159935 0 0.022200237577484631 0.0035401677637961104 0 0.022840579389333777 0.0039611992254064265 0 0.022123293135498306 0.0035716252007159935 0 0.022200237577484631 0.0035401677637961104 0 0.021616329175464369 0.0037067241241067824 0 0.02090518406805509 0.0035887161333228615 0 0.021213562537599394 0.0031815734828543954 0 0.021616329175464369 0.0037067241241067824 0 0.021560428141512149 0.0034062434195496895 0 0.021213562537599394 0.0031815734828543954 0 0.014984077787429209 -0.00016120812196765362 0 0.01496555169951351 -0.00025321727120769814 0 0.021321651805106763 0.0034079592488734894 0 0.021560428141512149 0.0034062434195496895 0 0.021213562537599394 0.0031815734828543954 0 0.02090518406805509 0.0035887161333228615 0 0.021213562537599394 0.0031815734828543954 0 0.020358892889957771 0.0031889108388768405 0 0.01496555169951351 -0.00025321727120769814 0 0.014126309965316313 -0.00026093256887173397 0 0.0085604458386259828 -0.003653109585017451 0 0.0083527615703217414 -0.0034685897984814418 0 0.0084934520302259262 -0.0034374694450661075 0 0.0087249678181837258 -0.0037499266220513282 0 0.0085604458386259828 -0.003653109585017451 0 0.0083527615703217414 -0.0034685897984814418 0 0.0087249678181837258 -0.0037499266220513282 0 0.0082663665419475951 -0.0034604593434572738 0 0.0083527615703217414 -0.0034685897984814418 0 0.0081155280742879424 -0.0031606353785182308 0 0.0082663665419475951 -0.0034604593434572738 0 0.0083527615703217414 -0.0034685897984814418 0 0.0083527615703217414 -0.0034685897984814418 0 0.0084934520302259262 -0.0034374694450661075 0 0.0082997780310812702 -0.0031054869395926357 0 0.0084934520302259262 -0.0034374694450661075 0 0.0086903632931532408 -0.0033857682853931799 0 0.0085433987653642657 -0.0031147647259531738 0 0.0089018147695152615 -0.0032105171735924555 0 0.0086903632931532408 -0.0033857682853931799 0 0.0085433987653642657 -0.0031147647259531738 0 0.0089018147695152615 -0.0032105171735924555 0 0.0086903632931532408 -0.0033857682853931799 0 0.0088900936397773075 -0.0035128248044687853 0 0.0088900936397773075 -0.0035128248044687853 0 0.0086740720053602623 -0.0036007492064625774 0 0.0089193633679675241 -0.003705787386291977 0 0.0086903632931532408 -0.0033857682853931799 0 0.0088900936397773075 -0.0035128248044687853 0 0.0086740720053602623 -0.0036007492064625774 0 0.0088900936397773075 -0.0035128248044687853 0 0.0089193633679675241 -0.003705787386291977 0 0.0091874992607095321 -0.0036306096387236811 0 0.0085604458386259828 -0.003653109585017451 0 0.0084934520302259262 -0.0034374694450661075 0 0.0086740720053602623 -0.0036007492064625774 0 0.0084934520302259262 -0.0034374694450661075 0 0.0086903632931532408 -0.0033857682853931799 0 0.0086740720053602623 -0.0036007492064625774 0 0.0085604458386259828 -0.003653109585017451 0 0.0086740720053602623 -0.0036007492064625774 0 0.0087460986080684887 -0.0037942380186115391 0 0.0086740720053602623 -0.0036007492064625774 0 0.0087460986080684887 -0.0037942380186115391 0 0.0089193633679675241 -0.003705787386291977 0 0.0087460986080684887 -0.0037942380186115391 0 0.0089193633679675241 -0.003705787386291977 0 0.0091288150814145819 -0.0039240060706484878 0 0.014126309965316313 -0.00026093256887173397 0 0.016141518386337549 -9.7313572801266605e-05 0 0.020206929749350018 0.0038492266082481488 0 0.020358892889957771 0.0031889108388768405 0 0.019248841414606081 0.003420876171655679 0 0.022975471567462234 0.0038570412222329918 0 0.016141518386337549 -9.7313572801266605e-05 0 0.020206929749350018 0.0038492266082481488 0 0.02090518406805509 0.0035887161333228615 0 0.020358892889957771 0.0031889108388768405 0 0.019412817470184748 -0.0011520773301236949 0 0.018794692759126808 -0.0012560694110769907 0 0.01852818432539257 -0.00085940074272681448 0 0.018117622971926234 -0.0024273798354287899 0 0.014932460061520741 -0.0013975405136642709 0 0.0099260166804824961 -0.0052076873651618573 0 0.01094723422178397 -0.0045417669872226092 0 0.011979380162240653 -0.0056079882903829559 0 0.012387187012483133 -0.0059237224701143088 0 0.0099260166804824961 -0.0052076873651618573 0 0.011979380162240653 -0.0056079882903829559 0 0.0099260166804824961 -0.0052076873651618573 0 0.0098200031156816213 -0.0050341881815627208 0 0.01094723422178397 -0.0045417669872226092 0 0.0128114809626659 -0.0026011008273386111 0 0.0097101336671713973 -0.0050022631634674443 0 0.024944278630266312 0.0018646723978555919 0 0.014932460061520741 -0.0013975405136642709 0 0.023169810572649344 0.0033008327204337318 0 0.022057515123237441 0.002210097212369996 0 0.02227534204757926 0.002144690049246866 0 0.014932460061520741 -0.0013975405136642709 0 0.016141518386337549 -9.7313572801266605e-05 0 0.014932460061520741 -0.0013975405136642709 0 0.0128114809626659 -0.0026011008273386111 0 0.015275469323200619 -0.00066115298290739472 0 0.013283955741133023 -4.0812535268426007e-05 0 0.014539545260481642 0.00051085653775302187 0 0.016141518386337549 -9.7313572801266605e-05 0 0.0128114809626659 -0.0026011008273386111 0 0.0089193633679675241 -0.003705787386291977 0 0.0091288150814145819 -0.0039240060706484878 0 0.0091611927389660484 -0.0039105782842330048 0 0.0089193633679675241 -0.003705787386291977 0 0.0096459612460633205 -0.005041023495713344 0 0.0094146328706632317 -0.0038899572057357465 0 0.0082893876692989085 -0.0040752556790562165 0 0.0128114809626659 -0.0026011008273386111 0 0.0096459612460633205 -0.005041023495713344 0 0.0094146328706632317 -0.0038899572057357465 0 0.01094723422178397 -0.0045417669872226092 0 0.0094146328706632317 -0.0038899572057357465 0 0.01094723422178397 -0.0045417669872226092 0 0.01172135264116524 -0.0046581838539848696 0 0.0096694211582776628 -0.0039028850692785929 0 0.010450513990141059 -0.0046466854509983517 0 0.0094146328706632317 -0.0038899572057357465 0 0.0097677012994432499 -0.0039361446088277529 0 0.010011033943415763 -0.0043399583087604596 0 0.0094146328706632317 -0.0038899572057357465 0 0.0097677012994432499 -0.0039361446088277529 0 0.0095114774811078627 -0.0036726541614103972 0 0.0097677012994432499 -0.0039361446088277529 0 0.010055914283326027 -0.0039407268168210807 0 0.010011033943415763 -0.0043399583087604596 0 0.0097677012994432499 -0.0039361446088277529 0 0.0098775212278614574 -0.0037015152999355988 0 0.010055914283326027 -0.0039407268168210807 0 0.0097677012994432499 -0.0039361446088277529 0 0.0098775212278614574 -0.0037015152999355988 0 0.0095114774811078627 -0.0036726541614103972 0 0.0098775212278614574 -0.0037015152999355988 0 0.0095114774811078627 -0.0036726541614103972 0 0.0096353527176231985 -0.0034051855985664696 0 0.0095114774811078627 -0.0036726541614103972 0 0.0092285636101359491 -0.003446540353593677 0 0.0096353527176231985 -0.0034051855985664696 0 0.0098775212278614574 -0.0037015152999355988 0 0.0096353527176231985 -0.0034051855985664696 0 0.010119445112921597 -0.0033306537607107074 0 0.0089193633679675241 -0.003705787386291977 0 0.0094146328706632317 -0.0038899572057357465 0 0.0091874992607095321 -0.0036306096387236811 0 0.0094146328706632317 -0.0038899572057357465 0 0.0095114774811078627 -0.0036726541614103972 0 0.0091874992607095321 -0.0036306096387236811 0 0.0095114774811078627 -0.0036726541614103972 0 0.0091874992607095321 -0.0036306096387236811 0 0.0092285636101359491 -0.003446540353593677 0 0.0088900936397773075 -0.0035128248044687853 0 0.0091874992607095321 -0.0036306096387236811 0 0.0092285636101359491 -0.003446540353593677 0 0.0089018147695152615 -0.0032105171735924555 0 0.0088900936397773075 -0.0035128248044687853 0 0.0092285636101359491 -0.003446540353593677 0 0.0092285636101359491 -0.003446540353593677 0 0.009276279099514723 -0.0031740070236363923 0 0.0096353527176231985 -0.0034051855985664696 0 0.0089018147695152615 -0.0032105171735924555 0 0.0092285636101359491 -0.003446540353593677 0 0.009276279099514723 -0.0031740070236363923 0 0.009276279099514723 -0.0031740070236363923 0 0.0096353527176231985 -0.0034051855985664696 0 0.0098411296330161383 -0.0030782583440044416 0 0.0096353527176231985 -0.0034051855985664696 0 0.0098411296330161383 -0.0030782583440044416 0 0.010119445112921597 -0.0033306537607107074 0 0.0098411296330161383 -0.0030782583440044416 0 0.0094778739325707319 -0.0028685332878578087 0 0.010063680866397038 -0.0027770372791121817 0 0.009276279099514723 -0.0031740070236363923 0 0.0098411296330161383 -0.0030782583440044416 0 0.0094778739325707319 -0.0028685332878578087 0 0.0091666837460508428 -0.002432906459885073 0 0.0089769471363670434 -0.0023172510113447522 0 0.0090656553749295064 -0.0023663946696902997 0 0.0094778739325707319 -0.0028685332878578087 0 0.0091666837460508428 -0.002432906459885073 0 0.010063680866397038 -0.0027770372791121817 0 0.009207267160981903 -0.0023963148659205216 0 0.00958986147031478 -0.0023448295907578039 0 0.0094778739325707319 -0.0028685332878578087 0 0.0091666837460508428 -0.002432906459885073 0 0.009045504689854671 -0.0028815984241228345 0 0.0091666837460508428 -0.002432906459885073 0 0.0087754264247148338 -0.0026315759857303525 0 0.009045504689854671 -0.0028815984241228345 0 0.0087754264247148338 -0.0026315759857303525 0 0.009045504689854671 -0.0028815984241228345 0 0.008735183552404659 -0.0029358580088260774 0 0.009276279099514723 -0.0031740070236363923 0 0.0094778739325707319 -0.0028685332878578087 0 0.009045504689854671 -0.0028815984241228345 0 0.0089018147695152615 -0.0032105171735924555 0 0.009276279099514723 -0.0031740070236363923 0 0.009045504689854671 -0.0028815984241228345 0 0.0089018147695152615 -0.0032105171735924555 0 0.009045504689854671 -0.0028815984241228345 0 0.008735183552404659 -0.0029358580088260774 0 0.0089018147695152615 -0.0032105171735924555 0 0.008735183552404659 -0.0029358580088260774 0 0.0085433987653642657 -0.0031147647259531738 0 0.008735183552404659 -0.0029358580088260774 0 0.0085433987653642657 -0.0031147647259531738 0 0.0083270113732233034 -0.0027237506204869158 0 0.0082997780310812702 -0.0031054869395926357 0 0.0085433987653642657 -0.0031147647259531738 0 0.0083270113732233034 -0.0027237506204869158 0 0.0084934520302259262 -0.0034374694450661075 0 0.0082997780310812702 -0.0031054869395926357 0 0.0085433987653642657 -0.0031147647259531738 0 0.0078319497059348448 -0.0024994314120826608 0 0.008048790426910906 -0.0028409550235679671 0 0.0083270113732233034 -0.0027237506204869158 0 0.008048790426910906 -0.0028409550235679671 0 0.0082997780310812702 -0.0031054869395926357 0 0.0083270113732233034 -0.0027237506204869158 0 0.0087754264247148338 -0.0026315759857303525 0 0.0083270113732233034 -0.0027237506204869158 0 0.0085857244284451555 -0.0023627684139707647 0 0.0087754264247148338 -0.0026315759857303525 0 0.008735183552404659 -0.0029358580088260774 0 0.0083270113732233034 -0.0027237506204869158 0 0.0083270113732233034 -0.0027237506204869158 0 0.0080343083999446785 -0.0023257898915492741 0 0.0085857244284451555 -0.0023627684139707647 0 0.0078319497059348448 -0.0024994314120826608 0 0.0083270113732233034 -0.0027237506204869158 0 0.0080343083999446785 -0.0023257898915492741 0 0.0080343083999446785 -0.0023257898915492741 0 0.0076993255812589419 -0.0021299708409295327 0 0.0079923193291068107 -0.0019785613115686552 0 0.0078319497059348448 -0.0024994314120826608 0 0.0080343083999446785 -0.0023257898915492741 0 0.0076993255812589419 -0.0021299708409295327 0 0.0080343083999446785 -0.0023257898915492741 0 0.0079923193291068107 -0.0019785613115686552 0 0.0085857244284451555 -0.0023627684139707647 0 0.0080163667678773854 -0.0019641433136243971 0 0.0083930715124239334 -0.0020106729207546338 0 0.0079923193291068107 -0.0019785613115686552 0 0.0090406594983595961 -0.0021951534371655564 0 0.0085857244284451555 -0.0023627684139707647 0 0.0079923193291068107 -0.0019785613115686552 0 0.0078013297282447181 -0.0017863706855189537 0 0.007796306492541441 -0.0016928376482082618 0 0.0091666837460508428 -0.002432906459885073 0 0.0090406594983595961 -0.0021951534371655564 0 0.0090656553749295064 -0.0023663946696902997 0 0.0091666837460508428 -0.002432906459885073 0 0.0090406594983595961 -0.0021951534371655564 0 0.0085857244284451555 -0.0023627684139707647 0 0.0091666837460508428 -0.002432906459885073 0 0.0087754264247148338 -0.0026315759857303525 0 0.0085857244284451555 -0.0023627684139707647 0 0.0076129644855953563 -0.0017314240543530239 0 0.0074023943667070836 -0.0015488502161634516 0 0.0076839079506355636 -0.0017698188380297531 0 0.0073456546444600878 -0.0017425973451823172 0 0.006999159677957412 -0.0016583177149751321 0 0.007796306492541441 -0.0016928376482082618 0 0.0076839079506355636 -0.0017698188380297531 0 0.007769000700149048 -0.0013775870835250612 0 0.007796306492541441 -0.0016928376482082618 0 0.007769000700149048 -0.0013775870835250612 0 0.007958799516000075 -0.0013354262378810278 0 0.007796306492541441 -0.0016928376482082618 0 0.007958799516000075 -0.0013354262378810278 0 0.0079427463840946455 -0.0015931275231048305 0 0.0078013297282447181 -0.0017863706855189537 0 0.007796306492541441 -0.0016928376482082618 0 0.0079427463840946455 -0.0015931275231048305 0 0.0079923193291068107 -0.0019785613115686552 0 0.007796306492541441 -0.0016928376482082618 0 0.0076839079506355636 -0.0017698188380297531 0 0.0079923193291068107 -0.0019785613115686552 0 0.0076839079506355636 -0.0017698188380297531 0 0.007718213374205851 -0.0019243558705561712 0 0.0076839079506355636 -0.0017698188380297531 0 0.007718213374205851 -0.0019243558705561712 0 0.0075167160651400285 -0.0018777239199262914 0 0.0076993255812589419 -0.0021299708409295327 0 0.0075167160651400285 -0.0018777239199262914 0 0.0073655703280777864 -0.0020973690648092573 0 0.0076993255812589419 -0.0021299708409295327 0 0.007718213374205851 -0.0019243558705561712 0 0.0075167160651400285 -0.0018777239199262914 0 0.0076993255812589419 -0.0021299708409295327 0 0.0079923193291068107 -0.0019785613115686552 0 0.007718213374205851 -0.0019243558705561712 0 0.0076839079506355636 -0.0017698188380297531 0 0.0075167160651400285 -0.0018777239199262914 0 0.0073456546444600878 -0.0017425973451823172 0 0.007324786560022124 -0.0017816269206747213 0 0.0073456546444600878 -0.0017425973451823172 0 0.0070786151630081321 -0.0017852410336284253 0 0.0075167160651400285 -0.0018777239199262914 0 0.007324786560022124 -0.0017816269206747213 0 0.0073456546444600878 -0.0017425973451823172 0 0.0075167160651400285 -0.0018777239199262914 0 0.007324786560022124 -0.0017816269206747213 0 0.0072944881307926293 -0.0018777288148903424 0 0.007324786560022124 -0.0017816269206747213 0 0.0072611489421692925 -0.0017960378005485113 0 0.0072944881307926293 -0.0018777288148903424 0 0.007324786560022124 -0.0017816269206747213 0 0.0072611489421692925 -0.0017960378005485113 0 0.0072026772865323406 -0.0018582984802598082 0 0.0072611489421692925 -0.0017960378005485113 0 0.0072026772865323406 -0.0018582984802598082 0 0.0072739359661304495 -0.0018202230745299572 0 0.007324786560022124 -0.0017816269206747213 0 0.0070786151630081321 -0.0017852410336284253 0 0.0072026772865323406 -0.0018582984802598082 0 0.0070786151630081321 -0.0017852410336284253 0 0.0068259231997239008 -0.0017503773221594075 0 0.0065270639521179778 -0.0017724907722852371 0 0.0073456546444600878 -0.0017425973451823172 0 0.006999159677957412 -0.0016583177149751321 0 0.0068259231997239008 -0.0017503773221594075 0 0.0073456546444600878 -0.0017425973451823172 0 0.0070786151630081321 -0.0017852410336284253 0 0.0068259231997239008 -0.0017503773221594075 0 0.007769000700149048 -0.0013775870835250612 0 0.007958799516000075 -0.0013354262378810278 0 0.0079333011006273522 -0.0011546849102968217 0 0.006999159677957412 -0.0016583177149751321 0 0.0068259231997239008 -0.0017503773221594075 0 0.0066845193669858374 -0.0017960724533823884 0 0.0074023943667070836 -0.0015488502161634516 0 0.007316257844292488 -0.0014896683009046018 0 0.0065270639521179778 -0.0017724907722852371 0 0.0066845193669858374 -0.0017960724533823884 0 0.0067254539494333012 -0.0015385718096238787 0 0.0068259231997239008 -0.0017503773221594075 0 0.0065270639521179778 -0.0017724907722852371 0 0.0066845193669858374 -0.0017960724533823884 0 0.0065270639521179778 -0.0017724907722852371 0 0.0060280968725488103 -0.00082446502915395836 0 0.0065879419463986105 -0.001210004498792153 0 0.0065270639521179778 -0.0017724907722852371 0 0.0065879419463986105 -0.001210004498792153 0 0.0067254539494333012 -0.0015385718096238787 0 0.0070786151630081321 -0.0017852410336284253 0 0.0065270639521179778 -0.0017724907722852371 0 0.0070339427450084105 -0.002001712851112824 0 0.0065270639521179778 -0.0017724907722852371 0 0.00540011526940724 -0.0012724700365388147 0 0.0060280968725488103 -0.00082446502915395836 0 0.0064763847150589096 -0.001748301899437271 0 0.0062174692070488717 -0.0016791201604687194 0 0.00540011526940724 -0.0012724700365388147 0 0.0053545344528798094 -0.00058771936788025946 0 0.0060280968725488103 -0.00082446502915395836 0 0.0060280968725488103 -0.00082446502915395836 0 0.0065122506286567836 -0.0006708052162271497 0 0.0065879419463986105 -0.001210004498792153 0 0.0060280968725488103 -0.00082446502915395836 0 0.0060885385820733488 -0.00022714956264854573 0 0.0065122506286567836 -0.0006708052162271497 0 0.0060280968725488103 -0.00082446502915395836 0 0.0060885385820733488 -0.00022714956264854573 0 0.0056778476322234062 -0.00024350408950015749 0 0.0060885385820733488 -0.00022714956264854573 0 0.0056778476322234062 -0.00024350408950015749 0 0.0056763136727053911 0.00023288534224597747 0 0.0053545344528798094 -0.00058771936788025946 0 0.0060280968725488103 -0.00082446502915395836 0 0.0056778476322234062 -0.00024350408950015749 0 0.0053545344528798094 -0.00058771936788025946 0 0.0056778476322234062 -0.00024350408950015749 0 0.0052578637807864197 0.00018207409800056039 0 0.0056778476322234062 -0.00024350408950015749 0 0.0056763136727053911 0.00023288534224597747 0 0.0052578637807864197 0.00018207409800056039 0 0.0056763136727053911 0.00023288534224597747 0 0.0052578637807864197 0.00018207409800056039 0 0.0054328578970536875 0.00055141553353098901 0 0.0056763136727053911 0.00023288534224597747 0 0.0060472279520950136 0.00028951640841915215 0 0.0056780483626187057 0.0005701781833361031 0 0.0060885385820733488 -0.00022714956264854573 0 0.0056763136727053911 0.00023288534224597747 0 0.0060472279520950136 0.00028951640841915215 0 0.0048653063967286098 0.00048344139427771826 0 0.0050941380718155238 0.00045213622381077331 0 0.004991675905419663 0.00023577623408503216 0 0.0048653063967286098 0.00048344139427771826 0 0.004991675905419663 0.00023577623408503216 0 0.0047561590163451607 0.00022800371275881167 0 0.0050941380718155238 0.00045213622381077331 0 0.0052578637807864197 0.00018207409800056039 0 0.0054328578970536875 0.00055141553353098901 0 0.0050941380718155238 0.00045213622381077331 0 0.0052578637807864197 0.00018207409800056039 0 0.004991675905419663 0.00023577623408503216 0 0.0048689718578820195 0.00022503031760503017 0 0.0061075341104878207 -0.00083002588081254548 0 0.0052578637807864197 0.00018207409800056039 0 0.004991675905419663 0.00023577623408503216 0 0.0050367177312408331 -1.1753157071654476e-05 0 0.0053545344528798094 -0.00058771936788025946 0 0.0052578637807864197 0.00018207409800056039 0 0.0046124936203225247 -0.00075618202845808126 0 0.004991675905419663 0.00023577623408503216 0 0.0050367177312408331 -1.1753157071654476e-05 0 0.0047561590163451607 0.00022800371275881167 0 0.0061075341104878207 -0.00083002588081254548 0 0.0058708621299427121 4.6535084312834764e-05 0 0.0061075341104878207 -0.00083002588081254548 0 0.0073825065579107545 -0.0016120635984404371 0 0.0076151562278706179 -0.00072656968317875309 0 0.0070775471436069172 -0.00081647943665336825 0 0.0069397125514004745 -0.00025071860687978328 0 0.0076151562278706179 -0.00072656968317875309 0 0.0072030505412565343 -0.0013308226771012632 0 0.0070775471436069172 -0.00081647943665336825 0 0.00540011526940724 -0.0012724700365388147 0 0.0053545344528798094 -0.00058771936788025946 0 0.0046124936203225247 -0.00075618202845808126 0 0.0062174692070488717 -0.0016791201604687194 0 0.0061075341104878207 -0.00083002588081254548 0 0.0070786151630081321 -0.0017852410336284253 0 0.0070339427450084105 -0.002001712851112824 0 0.0072026772865323406 -0.0018582984802598082 0 0.0070339427450084105 -0.002001712851112824 0 0.007208807363071076 -0.0020284357224869881 0 0.0072026772865323406 -0.0018582984802598082 0 0.007208807363071076 -0.0020284357224869881 0 0.0072026772865323406 -0.0018582984802598082 0 0.0072739359661304495 -0.0018202230745299572 0 0.0072030505412565343 -0.0013308226771012632 0 0.0064697966511582444 -0.0014754809363119617 0 0.0065383866873799656 -0.00093489602892721268 0 0.0065383866873799656 -0.00093489602892721268 0 0.0070775471436069172 -0.00081647943665336825 0 0.0069397125514004745 -0.00025071860687978328 0 0.0072030505412565343 -0.0013308226771012632 0 0.0065383866873799656 -0.00093489602892721268 0 0.0070775471436069172 -0.00081647943665336825 0 0.0069397125514004745 -0.00025071860687978328 0 0.0059959884114925387 0.00029138413162092293 0 0.0059324207540549 -0.00044734819561731106 0 0.0065383866873799656 -0.00093489602892721268 0 0.0069397125514004745 -0.00025071860687978328 0 0.0059324207540549 -0.00044734819561731106 0 0.0058708621299427121 4.6535084312834764e-05 0 0.0052802690147100758 0.00038842476178692142 0 0.0047561590163451607 0.00022800371275881167 0 0.0045690649285366905 0.00055053637429804125 0 0.0046894333694108619 0.00056371251127065143 0 0.0048653063967286098 0.00048344139427771826 0 0.0047561590163451607 0.00022800371275881167 0 0.0046894333694108619 0.00056371251127065143 0 0.0049864483950813132 -0.00014428946845802077 0 0.0041568358247709497 0.00029695085306318626 0 0.0046157368801414142 0.00068923914269148582 0 0.0049864483950813132 -0.00014428946845802077 0 0.0043579073656825262 -0.00011592112608380777 0 0.0041568358247709497 0.00029695085306318626 0 0.0052802690147100758 0.00038842476178692142 0 0.0046929805703182937 0.0006778976916304942 0 0.0059959884114925387 0.00029138413162092293 0 0.0049864483950813132 -0.00014428946845802077 0 0.0046157368801414142 0.00068923914269148582 0 0.0059959884114925387 0.00029138413162092293 0 0.0059324207540549 -0.00044734819561731106 0 0.0049864483950813132 -0.00014428946845802077 0 0.0059324207540549 -0.00044734819561731106 0 0.0049864483950813132 -0.00014428946845802077 0 0.0056319277829864952 -0.0010314106302379699 0 0.0049864483950813132 -0.00014428946845802077 0 0.0056319277829864952 -0.0010314106302379699 0 0.0045536175876346972 -0.00062352827295465024 0 0.0056319277829864952 -0.0010314106302379699 0 0.0050697825562984571 -0.0013784967413164304 0 0.0045536175876346972 -0.00062352827295465024 0 0.0065383866873799656 -0.00093489602892721268 0 0.0059324207540549 -0.00044734819561731106 0 0.0056319277829864952 -0.0010314106302379699 0 0.0064697966511582444 -0.0014754809363119617 0 0.0056319277829864952 -0.0010314106302379699 0 0.005839596106417537 -0.0016282916169664389 0 0.0064697966511582444 -0.0014754809363119617 0 0.0065383866873799656 -0.00093489602892721268 0 0.0056319277829864952 -0.0010314106302379699 0 0.0056319277829864952 -0.0010314106302379699 0 0.005839596106417537 -0.0016282916169664389 0 0.0050697825562984571 -0.0013784967413164304 0 0.005839596106417537 -0.0016282916169664389 0 0.0063883588162510262 -0.0019519034226650001 0 0.0055738947033963692 -0.0021695337766778357 0 0.0063883588162510262 -0.0019519034226650001 0 0.0062131895708555807 -0.0021444075503751548 0 0.0055738947033963692 -0.0021695337766778357 0 0.0064697966511582444 -0.0014754809363119617 0 0.005839596106417537 -0.0016282916169664389 0 0.0063883588162510262 -0.0019519034226650001 0 0.0064697966511582444 -0.0014754809363119617 0 0.0063883588162510262 -0.0019519034226650001 0 0.0070181067697900855 -0.0017763216449872797 0 0.0073825065579107545 -0.0016120635984404371 0 0.0069884347563435199 -0.0017913789765868771 0 0.0072030505412565343 -0.0013308226771012632 0 0.0064697966511582444 -0.0014754809363119617 0 0.0070181067697900855 -0.0017763216449872797 0 0.0072611489421692925 -0.0017960378005485113 0 0.0072739359661304495 -0.0018202230745299572 0 0.0070181067697900855 -0.0017763216449872797 0 0.0070181067697900855 -0.0017763216449872797 0 0.0072944881307926293 -0.0018777288148903424 0 0.0069574827666352675 -0.0020325811929657028 0 0.0072611489421692925 -0.0017960378005485113 0 0.0070181067697900855 -0.0017763216449872797 0 0.0072944881307926293 -0.0018777288148903424 0 0.0063883588162510262 -0.0019519034226650001 0 0.0070181067697900855 -0.0017763216449872797 0 0.0069574827666352675 -0.0020325811929657028 0 0.0072944881307926293 -0.0018777288148903424 0 0.0069574827666352675 -0.0020325811929657028 0 0.0073655703280777864 -0.0020973690648092573 0 0.0075167160651400285 -0.0018777239199262914 0 0.0072944881307926293 -0.0018777288148903424 0 0.0073655703280777864 -0.0020973690648092573 0 0.0074788190106164481 -0.0023638585124805618 0 0.0076993255812589419 -0.0021299708409295327 0 0.0073655703280777864 -0.0020973690648092573 0 0.0074788190106164481 -0.0023638585124805618 0 0.0073655703280777864 -0.0020973690648092573 0 0.0071326798502414166 -0.0022567526705193656 0 0.0069574827666352675 -0.0020325811929657028 0 0.0073655703280777864 -0.0020973690648092573 0 0.0071326798502414166 -0.0022567526705193656 0 0.0069161865698445235 -0.0023799876462087598 0 0.0071326798502414166 -0.0022567526705193656 0 0.0067340541698152016 -0.0021992480522866147 0 0.0069161865698445235 -0.0023799876462087598 0 0.0065149295840321473 -0.0022295452139390161 0 0.0067340541698152016 -0.0021992480522866147 0 0.0065620599264304353 -0.0023389102708852865 0 0.0069161865698445235 -0.0023799876462087598 0 0.0065149295840321473 -0.0022295452139390161 0 0.0065149295840321473 -0.0022295452139390161 0 0.0062131895708555807 -0.0021444075503751548 0 0.0067340541698152016 -0.0021992480522866147 0 0.0063883588162510262 -0.0019519034226650001 0 0.0062131895708555807 -0.0021444075503751548 0 0.0067340541698152016 -0.0021992480522866147 0 0.0069574827666352675 -0.0020325811929657028 0 0.0071326798502414166 -0.0022567526705193656 0 0.0067340541698152016 -0.0021992480522866147 0 0.0063883588162510262 -0.0019519034226650001 0 0.0069574827666352675 -0.0020325811929657028 0 0.0067340541698152016 -0.0021992480522866147 0 0.0061667841241340431 -0.0021186562761886596 0 0.0061995351220897358 -0.0021588610140947286 0 0.0060358329523023382 -0.0020460453618072229 0 0.0065149295840321473 -0.0022295452139390161 0 0.0062131895708555807 -0.0021444075503751548 0 0.0061667841241340431 -0.0021186562761886596 0 0.0065620599264304353 -0.0023389102708852865 0 0.0065149295840321473 -0.0022295452139390161 0 0.0061667841241340431 -0.0021186562761886596 0 0.0065620599264304353 -0.0023389102708852865 0 0.0061667841241340431 -0.0021186562761886596 0 0.0061995351220897358 -0.0021588610140947286 0 0.0064636063649036206 -0.0024205287501949902 0 0.0065620599264304353 -0.0023389102708852865 0 0.0061995351220897358 -0.0021588610140947286 0 0.0061817726575110988 -0.002297728202506173 0 0.0061995351220897358 -0.0021588610140947286 0 0.0060727452452810941 -0.0021435132815410089 0 0.0061817726575110988 -0.002297728202506173 0 0.0064636063649036206 -0.0024205287501949902 0 0.0061995351220897358 -0.0021588610140947286 0 0.0058419620117611693 -0.0023740785010986794 0 0.0060166198701117855 -0.0022630566267098592 0 0.0059401593128298744 -0.0021031727757655438 0 0.0061817726575110988 -0.002297728202506173 0 0.0060727452452810941 -0.0021435132815410089 0 0.0060166198701117855 -0.0022630566267098592 0 0.0060727452452810941 -0.0021435132815410089 0 0.0060166198701117855 -0.0022630566267098592 0 0.0059401593128298744 -0.0021031727757655438 0 0.0060231665805038923 -0.0014119298420300094 0 0.0060084409522800121 -0.0018677046612345729 0 0.0059401593128298744 -0.0021031727757655438 0 0.0060368398941715038 -0.0020472298384984224 0 0.0060238007104122014 -0.0019370229173945579 0 0.0060727452452810941 -0.0021435132815410089 0 0.0059401593128298744 -0.0021031727757655438 0 0.0060368398941715038 -0.0020472298384984224 0 0.0061995351220897358 -0.0021588610140947286 0 0.0060716184346253392 -0.0020617939766973876 0 0.0060358329523023382 -0.0020460453618072229 0 0.0061995351220897358 -0.0021588610140947286 0 0.0060727452452810941 -0.0021435132815410089 0 0.0060716184346253392 -0.0020617939766973876 0 0.0060727452452810941 -0.0021435132815410089 0 0.0060368398941715038 -0.0020472298384984224 0 0.0060716184346253392 -0.0020617939766973876 0 0.0060368398941715038 -0.0020472298384984224 0 0.0060716184346253392 -0.0020617939766973876 0 0.006046737347888134 -0.0020277156027952779 0 0.006046737347888134 -0.0020277156027952779 0 0.0060070492838842802 -0.002103044111821363 0 0.0060358329523023382 -0.0020460453618072229 0 0.006046737347888134 -0.0020277156027952779 0 0.0060238007104122014 -0.0019370229173945579 0 0.0060070492838842802 -0.002103044111821363 0 0.0060716184346253392 -0.0020617939766973876 0 0.006046737347888134 -0.0020277156027952779 0 0.0060358329523023382 -0.0020460453618072229 0 0.0060238007104122014 -0.0019370229173945579 0 0.0061041311066062304 -0.0021333689822870504 0 0.0064563911368978114 -0.0013218697967681246 0 0.0060368398941715038 -0.0020472298384984224 0 0.006046737347888134 -0.0020277156027952779 0 0.0060238007104122014 -0.0019370229173945579 0 0.0060877140753130485 -0.00061751079681781988 0 0.0060238007104122014 -0.0019370229173945579 0 0.0064563911368978114 -0.0013218697967681246 0 0.0027766415481732427 -0.0018712504365252648 0 0.0019915074604938236 -0.0022333259400675537 0 0.0022541412374783563 -0.0013899242257782039 0 0.0027766415481732427 -0.0018712504365252648 0 0.0019915074604938236 -0.0022333259400675537 0 0.0034894837230707697 -0.0024288965033073436 0 0.0060238007104122014 -0.0019370229173945579 0 0.0061041311066062304 -0.0021333689822870504 0 0.0060070492838842802 -0.002103044111821363 0 0.0042467437720837839 -0.0011646470729273922 0 0.0021653808514474774 -0.001041268799114928 0 0.0042467437720837839 -0.0011646470729273922 0 0.0047189941647690151 -0.0023687104956482954 0 0.0027766415481732427 -0.0018712504365252648 0 0.0034894837230707697 -0.0024288965033073436 0 0.0032294434329533891 -0.0013881254712444272 0 0.0034894837230707697 -0.0024288965033073436 0 0.0043285785231106889 -0.0016440029146113848 0 0.0032294434329533891 -0.0013881254712444272 0 0.0034894837230707697 -0.0024288965033073436 0 0.0043285785231106889 -0.0016440029146113848 0 0.0055738947033963692 -0.0021695337766778357 0 0.0047189941647690151 -0.0023687104956482954 0 0.0054916157627972768 -0.0021698597195925979 0 0.0061667841241340431 -0.0021186562761886596 0 0.0060358329523023382 -0.0020460453618072229 0 0.0055738947033963692 -0.0021695337766778357 0 0.0060070492838842802 -0.002103044111821363 0 0.0060358329523023382 -0.0020460453618072229 0 0.0055738947033963692 -0.0021695337766778357 0 0.0062131895708555807 -0.0021444075503751548 0 0.0061667841241340431 -0.0021186562761886596 0 0.0055738947033963692 -0.0021695337766778357 0 0.005839596106417537 -0.0016282916169664389 0 0.0055738947033963692 -0.0021695337766778357 0 0.0050697825562984571 -0.0013784967413164304 0 0.0043285785231106889 -0.0016440029146113848 0 0.0055738947033963692 -0.0021695337766778357 0 0.0050697825562984571 -0.0013784967413164304 0 0.0043285785231106889 -0.0016440029146113848 0 0.0050697825562984571 -0.0013784967413164304 0 0.0040615582230566641 -0.001086237196482849 0 0.0043285785231106889 -0.0016440029146113848 0 0.0040615582230566641 -0.001086237196482849 0 0.0032294434329533891 -0.0013881254712444272 0 0.0040615582230566641 -0.001086237196482849 0 0.0037275088005659452 -0.00055848911524232741 0 0.0031271154286806008 -0.00065471053767944553 0 0.0040615582230566641 -0.001086237196482849 0 0.0037275088005659452 -0.00055848911524232741 0 0.0045536175876346972 -0.00062352827295465024 0 0.0050697825562984571 -0.0013784967413164304 0 0.0040615582230566641 -0.001086237196482849 0 0.0045536175876346972 -0.00062352827295465024 0 0.0049864483950813132 -0.00014428946845802077 0 0.0045536175876346972 -0.00062352827295465024 0 0.0043579073656825262 -0.00011592112608380777 0 0.0045536175876346972 -0.00062352827295465024 0 0.0043579073656825262 -0.00011592112608380777 0 0.003806811993638038 -0.00015267493055476516 0 0.003806811993638038 -0.00015267493055476516 0 0.0030670002266367973 7.4951368920514439e-05 0 0.0031019114372747578 -0.00030226549604817917 0 0.0037275088005659452 -0.00055848911524232741 0 0.003806811993638038 -0.00015267493055476516 0 0.0031019114372747578 -0.00030226549604817917 0 0.0037275088005659452 -0.00055848911524232741 0 0.0045536175876346972 -0.00062352827295465024 0 0.003806811993638038 -0.00015267493055476516 0 0.003806811993638038 -0.00015267493055476516 0 0.0030670002266367973 7.4951368920514439e-05 0 0.0033170019620852656 0.00046542949413596392 0 0.003806811993638038 -0.00015267493055476516 0 0.0041568358247709497 0.00029695085306318626 0 0.0033170019620852656 0.00046542949413596392 0 0.0043579073656825262 -0.00011592112608380777 0 0.003806811993638038 -0.00015267493055476516 0 0.0041568358247709497 0.00029695085306318626 0 0.0019748555895465637 -7.0837272960373108e-05 0 0.0025463723742352538 -4.3184856513935635e-05 0 0.0024062531371109156 -0.00034327050739052132 0 0.0019748555895465637 -7.0837272960373108e-05 0 0.0025463723742352538 -4.3184856513935635e-05 0 0.0026058941793006747 0.00034770029079450989 0 0.0030670002266367973 7.4951368920514439e-05 0 0.0025463723742352538 -4.3184856513935635e-05 0 0.0031019114372747578 -0.00030226549604817917 0 0.0030670002266367973 7.4951368920514439e-05 0 0.0025463723742352538 -4.3184856513935635e-05 0 0.0026058941793006747 0.00034770029079450989 0 0.0031019114372747578 -0.00030226549604817917 0 0.0024062531371109156 -0.00034327050739052132 0 0.0031271154286806008 -0.00065471053767944553 0 0.0025463723742352538 -4.3184856513935635e-05 0 0.0031019114372747578 -0.00030226549604817917 0 0.0024062531371109156 -0.00034327050739052132 0 0.0019748555895465637 -7.0837272960373108e-05 0 0.0024062531371109156 -0.00034327050739052132 0 0.001926577217948755 -0.00039278688314051607 0 0.0024062531371109156 -0.00034327050739052132 0 0.0023867127427854716 -0.00064023165987841461 0 0.001926577217948755 -0.00039278688314051607 0 0.0023867127427854716 -0.00064023165987841461 0 0.0031271154286806008 -0.00065471053767944553 0 0.0032294434329533891 -0.0013881254712444272 0 0.0037275088005659452 -0.00055848911524232741 0 0.0031019114372747578 -0.00030226549604817917 0 0.0031271154286806008 -0.00065471053767944553 0 0.0024062531371109156 -0.00034327050739052132 0 0.0023867127427854716 -0.00064023165987841461 0 0.0031271154286806008 -0.00065471053767944553 0 0.0040615582230566641 -0.001086237196482849 0 0.0031271154286806008 -0.00065471053767944553 0 0.0032294434329533891 -0.0013881254712444272 0 0.0023575370274500026 -0.00058677462664967646 0 0.0021653808514474774 -0.001041268799114928 0 0.0027766415481732427 -0.0018712504365252648 0 0.0032294434329533891 -0.0013881254712444272 0 0.0022541412374783563 -0.0013899242257782039 0 0.0023867127427854716 -0.00064023165987841461 0 0.0020595482774428773 -0.00045631114889556882 0 0.001970167617180186 -0.00046781258454498497 0 0.0023867127427854716 -0.00064023165987841461 0 0.0032294434329533891 -0.0013881254712444272 0 0.0022541412374783563 -0.0013899242257782039 0 0.0019820663564343016 -0.00033093744234629729 0 0.0019512893860094721 -0.00028351197639040783 0 0.001970167617180186 -0.00046781258454498497 0 0.0019882818247427539 -0.00031938347381956118 0 0.0020595482774428773 -0.00045631114889556882 0 0.0019820663564343016 -0.00033093744234629729 0 0.0020595482774428773 -0.00045631114889556882 0 0.0019820663564343016 -0.00033093744234629729 0 0.001970167617180186 -0.00046781258454498497 0 0.0019512893860094721 -0.00028351197639040783 0 0.0024394921957519456 0.00027467923221632668 0 0.0020091754342734312 -0.00010553544115046502 0 0.0019820663564343016 -0.00033093744234629729 0 0.0019512893860094721 -0.00028351197639040783 0 0.0020091754342734312 -0.00010553544115046502 0 0.0019512893860094721 -0.00028351197639040783 0 0.0017484844653403214 -0.00040365611881563383 0 0.0022305468335646898 -0.00028521743637605112 0 0.0019512893860094721 -0.00028351197639040783 0 0.0017484844653403214 -0.00040365611881563383 0 0.001970167617180186 -0.00046781258454498497 0 0.0023867127427854716 -0.00064023165987841461 0 0.001970167617180186 -0.00046781258454498497 0 0.001926577217948755 -0.00039278688314051607 0 0.0017484844653403214 -0.00040365611881563383 0 0.001970167617180186 -0.00046781258454498497 0 0.001926577217948755 -0.00039278688314051607 0 0.0019748555895465637 -7.0837272960373108e-05 0 0.001926577217948755 -0.00039278688314051607 0 0.0014795498582994644 -0.00028832435258245419 0 0.0017484844653403214 -0.00040365611881563383 0 0.001926577217948755 -0.00039278688314051607 0 0.0014795498582994644 -0.00028832435258245419 0 0.0017484844653403214 -0.00040365611881563383 0 0.0014795498582994644 -0.00028832435258245419 0 0.0014406343486143905 -0.00029565979104782364 0 0.0014795498582994644 -0.00028832435258245419 0 0.00085025713137047341 -0.00019325616174928559 0 0.0014164786552781949 9.3132884531206122e-06 0 0.0019748555895465637 -7.0837272960373108e-05 0 0.0014795498582994644 -0.00028832435258245419 0 0.0014164786552781949 9.3132884531206122e-06 0 0.00048256054546974233 -5.3470963954810027e-07 0 0.00085025713137047341 -0.00019325616174928559 0 0.0014406343486143905 -0.00029565979104782364 0 0.0014795498582994644 -0.00028832435258245419 0 0.00085025713137047341 -0.00019325616174928559 0 0.0014406343486143905 -0.00029565979104782364 0 0.00048256054546974233 -5.3470963954810027e-07 0 0.0014406343486143905 -0.00029565979104782364 0 0.0024082547789820337 -1.1036679540541719e-06 0 0.0014406343486143905 -0.00029565979104782364 0 0.0024082547789820337 -1.1036679540541719e-06 0 0.0022305468335646898 -0.00028521743637605112 0 0.0017484844653403214 -0.00040365611881563383 0 0.0014406343486143905 -0.00029565979104782364 0 0.0022305468335646898 -0.00028521743637605112 0 0.0019512893860094721 -0.00028351197639040783 0 0.0022305468335646898 -0.00028521743637605112 0 0.0024394921957519456 0.00027467923221632668 0 0.0022305468335646898 -0.00028521743637605112 0 0.004329571159445789 1.334748414670129e-06 0 0.0024394921957519456 0.00027467923221632668 0 0.0024082547789820337 -1.1036679540541719e-06 0 0.0022305468335646898 -0.00028521743637605112 0 0.004329571159445789 1.334748414670129e-06 0 0.004333307527654086 1.3435542267571321e-07 0 0.004324945330133171 0.00020086174377828192 0 0.0043360854790980502 1.3832965675186307e-06 0 0.0059049389881802852 -0.00012175079394457341 0 0.0061492205059483262 -9.8756936873188277e-07 0 0.0043360854790980502 1.3832965675186307e-06 0 0.0059049389881802852 -0.00012175079394457341 0 0.0061555281951602443 0.00028948689160029185 0 0.0059049389881802852 -0.00012175079394457341 0 0.0061492205059483262 -9.8756936873188277e-07 0 0.0064880439208876402 -0.00020747768958976056 0 0.0059049389881802852 -0.00012175079394457341 0 0.0064880439208876402 -0.00020747768958976056 0 0.0063674838159211208 -0.00011346476727502151 0 0.0064880439208876402 -0.00020747768958976056 0 0.0063674838159211208 -0.00011346476727502151 0 0.0065095709393220812 -0.00017847342602343101 0 0.0063674838159211208 -0.00011346476727502151 0 0.0061555281951602443 0.00028948689160029185 0 0.0065479712332938639 7.3159755080016127e-05 0 0.0059049389881802852 -0.00012175079394457341 0 0.0063674838159211208 -0.00011346476727502151 0 0.0061555281951602443 0.00028948689160029185 0 0.004324945330133171 0.00020086174377828192 0 0.0042896669409716358 7.1982049594460825e-05 0 0.0065479712332938639 7.3159755080016127e-05 0 0.0065949758767403551 -5.8493752253719322e-05 0 0.0065317425130681957 -0.00011810242047621168 0 0.0063674838159211208 -0.00011346476727502151 0 0.0065479712332938639 7.3159755080016127e-05 0 0.0065317425130681957 -0.00011810242047621168 0 0.0019882818247427539 -0.00031938347381956118 0 0.0019820663564343016 -0.00033093744234629729 0 0.0020091754342734312 -0.00010553544115046502 0 0.0042467437720837839 -0.0011646470729273922 0 0.0042896669409716358 7.1982049594460825e-05 0 0.0066652275814312783 -1.2851739994650499e-05 0 0.0065479712332938639 7.3159755080016127e-05 0 0.0065949758767403551 -5.8493752253719322e-05 0 0.0066652275814312783 -1.2851739994650499e-05 0 0.0065949758767403551 -5.8493752253719322e-05 0 0.0066080254161932838 -0.00014981857043903549 0 0.0042467437720837839 -0.0011646470729273922 0 0.0067171980519649295 -0.00061434712653750541 0 0.0065949758767403551 -5.8493752253719322e-05 0 0.0066080254161932838 -0.00014981857043903549 0 0.0065317425130681957 -0.00011810242047621168 0 0.0066080254161932838 -0.00014981857043903549 0 0.0065317425130681957 -0.00011810242047621168 0 0.0065382735826305391 -0.00017183144100936141 0 0.0065317425130681957 -0.00011810242047621168 0 0.0065382735826305391 -0.00017183144100936141 0 0.0065095709393220812 -0.00017847342602343101 0 0.0063674838159211208 -0.00011346476727502151 0 0.0065317425130681957 -0.00011810242047621168 0 0.0065095709393220812 -0.00017847342602343101 0 0.0065382735826305391 -0.00017183144100936141 0 0.00656170467494804 -0.00014162493506875574 0 0.0065095709393220812 -0.00017847342602343101 0 0.0065382735826305391 -0.00017183144100936141 0 0.00656170467494804 -0.00014162493506875574 0 0.0065270072392522999 -0.00022233407452717952 0 0.0066080254161932838 -0.00014981857043903549 0 0.0065382735826305391 -0.00017183144100936141 0 0.0065270072392522999 -0.00022233407452717952 0 0.0060877140753130485 -0.00061751079681781988 0 0.0064563911368978114 -0.0013218697967681246 0 0.0065270072392522999 -0.00022233407452717952 0 0.0067171980519649295 -0.00061434712653750541 0 0.0065041277236492882 -0.000340329991541988 0 0.0061045786261725628 -0.0009725594073184136 0 0.0060231665805038923 -0.0014119298420300094 0 0.0063438422676147773 0.0001393082942366872 0 0.0060877140753130485 -0.00061751079681781988 0 0.0065270072392522999 -0.00022233407452717952 0 0.006514708654721561 0.00014363578268692818 0 0.0066023735641378397 2.7455914583022065e-05 0 0.0065270072392522999 -0.00022233407452717952 0 0.0066023735641378397 2.7455914583022065e-05 0 0.00656170467494804 -0.00014162493506875574 0 0.0066991839829656829 -7.2047334782942316e-06 0 0.0066023735641378397 2.7455914583022065e-05 0 0.00656170467494804 -0.00014162493506875574 0 0.0065270072392522999 -0.00022233407452717952 0 0.0067840625323349986 0.00028347345498489559 0 0.0066023735641378397 2.7455914583022065e-05 0 0.0066991839829656829 -7.2047334782942316e-06 0 0.0082367193030251796 0.00017311205093039427 0 0.0072972392910466222 -0.00010213195662133804 0 0.0089067653427303273 4.6647143171770422e-05 0 0.0079667676450129524 -6.6662074039472829e-08 0 0.0072934109311484181 -5.4968191137754217e-05 0 0.0067840625323349986 0.00028347345498489559 0 0.0066991839829656829 -7.2047334782942316e-06 0 0.0072934109311484181 -5.4968191137754217e-05 0 0.0061492205059483262 -9.8756936873188277e-07 0 0.0079667676450129524 -6.6662074039472829e-08 0 0.0072934109311484181 -5.4968191137754217e-05 0 0.0061492205059483262 -9.8756936873188277e-07 0 0.0064880439208876402 -0.00020747768958976056 0 0.0072934109311484181 -5.4968191137754217e-05 0 0.0066991839829656829 -7.2047334782942316e-06 0 0.0072934109311484181 -5.4968191137754217e-05 0 0.0067875618053339038 -0.00011541956886833009 0 0.0064880439208876402 -0.00020747768958976056 0 0.0072934109311484181 -5.4968191137754217e-05 0 0.0067875618053339038 -0.00011541956886833009 0 0.0064880439208876402 -0.00020747768958976056 0 0.0066091565504492519 -0.00013956225735173284 0 0.0067875618053339038 -0.00011541956886833009 0 0.0064880439208876402 -0.00020747768958976056 0 0.0065095709393220812 -0.00017847342602343101 0 0.0066091565504492519 -0.00013956225735173284 0 0.00656170467494804 -0.00014162493506875574 0 0.0066991839829656829 -7.2047334782942316e-06 0 0.0066091565504492519 -0.00013956225735173284 0 0.00656170467494804 -0.00014162493506875574 0 0.0065095709393220812 -0.00017847342602343101 0 0.0066091565504492519 -0.00013956225735173284 0 0.0066991839829656829 -7.2047334782942316e-06 0 0.0066091565504492519 -0.00013956225735173284 0 0.0067875618053339038 -0.00011541956886833009 0 0.014643860107263335 -0.00089417275447978924 0 0.014719161744948563 -0.0012933525985036577 0 0.014194307805730612 -0.001141807904447687 0 0.014643860107263335 -0.00089417275447978924 0 0.014234006146230768 -0.00050388754976385137 0 0.01503447766163938 -0.00056628172849009905 0 0.014643860107263335 -0.00089417275447978924 0 0.01503447766163938 -0.00056628172849009905 0 0.015026809360122068 -0.00096795322472963358 0 0.014643860107263335 -0.00089417275447978924 0 0.015026809360122068 -0.00096795322472963358 0 0.014719161744948563 -0.0012933525985036577 0 0.014643860107263335 -0.00089417275447978924 0 0.014234006146230768 -0.00050388754976385137 0 0.014194307805730612 -0.001141807904447687 0 0.014234006146230768 -0.00050388754976385137 0 0.014194307805730612 -0.001141807904447687 0 0.013652620849304695 -0.00088967958431377531 0 0.015961831379337602 -0.00058984924182396258 0 0.014279364136883129 0.00074920333741037518 0 0.015686499797890382 0.0012820642046560103 0 0.015961831379337602 -0.00058984924182396258 0 0.018189267882155039 0.00061290646380309573 0 0.015686499797890382 0.0012820642046560103 0 0.014970508246685173 -0.00053763088393336594 0 0.017235343667629129 -0.00046541225827810291 0 0.015961831379337602 -0.00058984924182396258 0 0.018506761976592838 -0.00053712709066081727 0 0.018189267882155039 0.00061290646380309573 0 0.020071796361493328 2.3635114378972927e-05 0 0.019763860445989552 0.00029063384382969947 0 0.018506761976592838 -0.00053712709066081727 0 0.020070308239592306 -3.021826938046557e-05 0 0.018189267882155039 0.00061290646380309573 0 0.017235343667629129 -0.00046541225827810291 0 0.015744817442838316 -0.00096402386891053277 0 0.020070308239592306 -3.021826938046557e-05 0 0.020178785489682688 -7.6001887499643159e-05 0 0.020024830031027119 -0.00036550819860652609 0 0.011539783423598828 -0.0028648300353312202 0 0.011527777615986929 -0.0029808578156970472 0 0.011486769433168342 -0.0029282372163925126 0 0.018506761976592838 -0.00053712709066081727 0 0.020070308239592306 -3.021826938046557e-05 0 0.020178785489682688 -7.6001887499643159e-05 0 0.015744817442838316 -0.00096402386891053277 0 0.01562636868064898 -0.0017437533394677057 0 0.01503447766163938 -0.00056628172849009905 0 0.015788428014621655 -0.00060350287258734028 0 0.015402815546953738 -0.0008592721910079536 0 0.015744817442838316 -0.00096402386891053277 0 0.013281191634032817 -0.0018337973251605494 0 0.015788428014621655 -0.00060350287258734028 0 0.015628572323764269 -0.00091184330225840382 0 0.015833296943274483 -0.0010345126820724153 0 0.015788428014621655 -0.00060350287258734028 0 0.015402815546953738 -0.0008592721910079536 0 0.015628572323764269 -0.00091184330225840382 0 0.015402815546953738 -0.0008592721910079536 0 0.015628572323764269 -0.00091184330225840382 0 0.01548726938696802 -0.0011553468144211128 0 0.015628572323764269 -0.00091184330225840382 0 0.01548726938696802 -0.0011553468144211128 0 0.015833296943274483 -0.0010345126820724153 0 0.01503447766163938 -0.00056628172849009905 0 0.015402815546953738 -0.0008592721910079536 0 0.015026809360122068 -0.00096795322472963358 0 0.015402815546953738 -0.0008592721910079536 0 0.015175880082512451 -0.0012877679588297673 0 0.01548726938696802 -0.0011553468144211128 0 0.015402815546953738 -0.0008592721910079536 0 0.015026809360122068 -0.00096795322472963358 0 0.015175880082512451 -0.0012877679588297673 0 0.015175880082512451 -0.0012877679588297673 0 0.015360577185122151 -0.001766323495660852 0 0.014883448152882738 -0.0016483612204401252 0 0.015026809360122068 -0.00096795322472963358 0 0.015175880082512451 -0.0012877679588297673 0 0.014719161744948563 -0.0012933525985036577 0 0.015175880082512451 -0.0012877679588297673 0 0.01548726938696802 -0.0011553468144211128 0 0.015360577185122151 -0.001766323495660852 0 0.015175880082512451 -0.0012877679588297673 0 0.014883448152882738 -0.0016483612204401252 0 0.014719161744948563 -0.0012933525985036577 0 0.01548726938696802 -0.0011553468144211128 0 0.015360577185122151 -0.001766323495660852 0 0.015833296943274483 -0.0010345126820724153 0 0.01300501748895222 -0.0014440519436891596 0 0.013281191634032817 -0.0018337973251605494 0 0.011885817686132281 -0.0021069631605276093 0 0.011736001726359297 -0.0025610119885278049 0 0.011648613741739611 -0.0020195153020954042 0 0.011885817686132281 -0.0021069631605276093 0 0.012159167421332514 -0.001910340008586645 0 0.011736001726359297 -0.0025610119885278049 0 0.011873234560030053 -0.0017497679094479858 0 0.012166705607267743 -0.0018836928612844511 0 0.01237491080956358 -0.0015387550786444871 0 0.011885817686132281 -0.0021069631605276093 0 0.011873234560030053 -0.0017497679094479858 0 0.011648613741739611 -0.0020195153020954042 0 0.011793761479112352 -0.0022047832774294046 0 0.01300501748895222 -0.0014440519436891596 0 0.011885817686132281 -0.0021069631605276093 0 0.011873234560030053 -0.0017497679094479858 0 0.012166705607267743 -0.0018836928612844511 0 0.015360577185122151 -0.001766323495660852 0 0.014954555198957682 -0.002066754452709514 0 0.014883448152882738 -0.0016483612204401252 0 0.01300501748895222 -0.0014440519436891596 0 0.012420523789881297 -0.0015999319412697982 0 0.012133313226615133 -0.00093701172237379323 0 0.01098377899845184 -0.0017650224071651941 0 0.011472451564200724 -0.001935138868427861 0 0.01300501748895222 -0.0014440519436891596 0 0.0089898022046660912 -0.00069394534262096151 0 0.014954555198957682 -0.002066754452709514 0 0.014883448152882738 -0.0016483612204401252 0 0.014179759772672679 -0.0018392039489267032 0 0.013697219220099937 -0.0020022681596150874 0 0.013497654158062119 -0.0018866287634334066 0 0.013578847237939989 -0.0021028341665018783 0 0.012420523789881297 -0.0015999319412697982 0 0.014261488023172064 -0.0019743406998217394 0 0.014883448152882738 -0.0016483612204401252 0 0.014719161744948563 -0.0012933525985036577 0 0.014179759772672679 -0.0018392039489267032 0 0.014719161744948563 -0.0012933525985036577 0 0.014194307805730612 -0.001141807904447687 0 0.014179759772672679 -0.0018392039489267032 0 0.013497654158062119 -0.0018866287634334066 0 0.013216197608376608 -0.0019837752715005149 0 0.013369559592579907 -0.002171388010912813 0 0.014261488023172064 -0.0019743406998217394 0 0.013037199952458797 -0.0015398957754994339 0 0.013497654158062119 -0.0018866287634334066 0 0.013216197608376608 -0.0019837752715005149 0 0.013204396713553669 -0.0015786421539837601 0 0.013216197608376608 -0.0019837752715005149 0 0.012798278347533634 -0.0019637280223918285 0 0.013204396713553669 -0.0015786421539837601 0 0.012798278347533634 -0.0019637280223918285 0 0.013204396713553669 -0.0015786421539837601 0 0.012559135657464204 -0.0014402299038911957 0 0.013204396713553669 -0.0015786421539837601 0 0.013652620849304695 -0.00088967958431377531 0 0.012875010066828617 -0.00098237785126901837 0 0.013204396713553669 -0.0015786421539837601 0 0.012559135657464204 -0.0014402299038911957 0 0.012875010066828617 -0.00098237785126901837 0 0.014194307805730612 -0.001141807904447687 0 0.014179759772672679 -0.0018392039489267032 0 0.013204396713553669 -0.0015786421539837601 0 0.014194307805730612 -0.001141807904447687 0 0.013204396713553669 -0.0015786421539837601 0 0.013652620849304695 -0.00088967958431377531 0 0.011660421099852464 -0.0018861046546746849 0 0.012298831550257551 -0.001790521642936134 0 0.0123593734536821 -0.0024535831523702385 0 0.011660421099852464 -0.0018861046546746849 0 0.012298831550257551 -0.001790521642936134 0 0.011893871359538035 -0.0015243290476292829 0 0.012194064968044888 -0.0026258349797340097 0 0.013235447009787979 -0.0020531102677623578 0 0.012798278347533634 -0.0019637280223918285 0 0.012298831550257551 -0.001790521642936134 0 0.012559135657464204 -0.0014402299038911957 0 0.012298831550257551 -0.001790521642936134 0 0.012559135657464204 -0.0014402299038911957 0 0.012098472488800124 -0.0011607086112447528 0 0.012559135657464204 -0.0014402299038911957 0 0.012098472488800124 -0.0011607086112447528 0 0.012875010066828617 -0.00098237785126901837 0 0.012298831550257551 -0.001790521642936134 0 0.012098472488800124 -0.0011607086112447528 0 0.011893871359538035 -0.0015243290476292829 0 0.013716301008110294 -0.0012524539460358234 0 0.013235447009787979 -0.0020531102677623578 0 0.01416097305034608 -0.00121338983867967 0 0.015153068838807494 -0.0012809986162955575 0 0.014721145763407439 -0.0025685648866023056 0 0.015153068838807494 -0.0012809986162955575 0 0.015922689916359936 0.00044614054314983629 0 0.014587342031089254 -9.856422592856919e-08 0 0.01416097305034608 -0.00121338983867967 0 0.015153068838807494 -0.0012809986162955575 0 0.014587342031089254 -9.856422592856919e-08 0 0.012098472488800124 -0.0011607086112447528 0 0.012501334521570486 -0.00015839196359264458 0 0.012875010066828617 -0.00098237785126901837 0 0.013716301008110294 -0.0012524539460358234 0 0.013656733525594031 0.00032466361257155749 0 0.013695050684110515 0.00081989820523898358 0 0.014587342031089254 -9.856422592856919e-08 0 0.015067486210368798 0.0012102428493223647 0 0.015922689916359936 0.00044614054314983629 0 0.014587342031089254 -9.856422592856919e-08 0 0.015067486210368798 0.0012102428493223647 0 0.014234006146230768 -0.00050388754976385137 0 0.013652620849304695 -0.00088967958431377531 0 0.013534241786800422 -0.0003785489645192695 0 0.013652620849304695 -0.00088967958431377531 0 0.012875010066828617 -0.00098237785126901837 0 0.013534241786800422 -0.0003785489645192695 0 0.012501334521570486 -0.00015839196359264458 0 0.013534241786800422 -0.0003785489645192695 0 0.014279364136883129 0.00074920333741037518 0 0.012501334521570486 -0.00015839196359264458 0 0.012875010066828617 -0.00098237785126901837 0 0.013534241786800422 -0.0003785489645192695 0 0.014970508246685173 -0.00053763088393336594 0 0.013672018470087016 -0.00040749794548440137 0 0.015961831379337602 -0.00058984924182396258 0 0.013534241786800422 -0.0003785489645192695 0 0.014279364136883129 0.00074920333741037518 0 0.019114133430070429 9.3664393829645019e-05 0 0.01912577381047106 0.00054992637872369906 0 0.014279364136883129 0.00074920333741037518 0 0.013516463963111212 0.0017474142146059292 0 0.015686499797890382 0.0012820642046560103 0 0.013656733525594031 0.00032466361257155749 0 0.019114133430070429 9.3664393829645019e-05 0 0.012501334521570486 -0.00015839196359264458 0 0.014279364136883129 0.00074920333741037518 0 0.013516463963111212 0.0017474142146059292 0 0.02361399830061733 -0.0022034524633788044 0 0.023459428845316512 -0.0022691306212597726 0 0.023748632127277836 -0.0023954267071082656 0 0.024026329338738855 -0.00069334195528245415 0 0.022810201556231466 -0.0011696116352427864 0 0.022719971610205426 -0.00029782546748297371 0 0.019114133430070429 9.3664393829645019e-05 0 0.02372631826817348 -0.0018027949121281542 0 0.024026329338738855 -0.00069334195528245415 0 0.023550691397189072 -0.0015319919399334363 0 0.022810201556231466 -0.0011696116352427864 0 0.014188081969827512 0.0016622694506219136 0 0.015067486210368798 0.0012102428493223647 0 0.015232588181491511 0.0022136616518977511 0 0.013695050684110515 0.00081989820523898358 0 0.014188081969827512 0.0016622694506219136 0 0.015067486210368798 0.0012102428493223647 0 0.015922689916359936 0.00044614054314983629 0 0.016788238098906959 0.0018099023346860306 0 0.015067486210368798 0.0012102428493223647 0 0.016788238098906959 0.0018099023346860306 0 0.015067486210368798 0.0012102428493223647 0 0.015232588181491511 0.0022136616518977511 0 0.02361399830061733 -0.0022034524633788044 0 0.02377868943043606 -0.0025034244962168399 0 0.023748632127277836 -0.0023954267071082656 0 0.019114133430070429 9.3664393829645019e-05 0 0.019852273959438071 -0.00027683276843839101 0 0.017926988028725607 8.7609404958782769e-05 0 0.019852273959438071 -0.00027683276843839101 0 0.014188081969827512 0.0016622694506219136 0 0.013854673614168299 0.0023839381541529039 0 0.015232588181491511 0.0022136616518977511 0 0.023250916477710958 -0.0028437105509104203 0 0.02377868943043606 -0.0025034244962168399 0 0.023924481978655678 -0.0024796160280426216 0 0.023924481978655678 -0.0024796160280426216 0 0.023748632127277836 -0.0023954267071082656 0 0.023845377559055764 -0.0025466349957425699 0 0.02377868943043606 -0.0025034244962168399 0 0.023924481978655678 -0.0024796160280426216 0 0.023748632127277836 -0.0023954267071082656 0 0.024476159405669124 -0.0024387083545874717 0 0.023924481978655678 -0.0024796160280426216 0 0.023845377559055764 -0.0025466349957425699 0 0.02372631826817348 -0.0018027949121281542 0 0.023088544969837782 -0.0024470648709007752 0 0.023550691397189072 -0.0015319919399334363 0 0.023098843106420467 -0.0024064162593709737 0 0.022810201556231466 -0.0011696116352427864 0 0.023459428845316512 -0.0022691306212597726 0 0.023492079739500973 -0.0026665104345544371 0 0.023098843106420467 -0.0024064162593709737 0 0.023459428845316512 -0.0022691306212597726 0 0.023748632127277836 -0.0023954267071082656 0 0.023845377559055764 -0.0025466349957425699 0 0.023459428845316512 -0.0022691306212597726 0 0.023845377559055764 -0.0025466349957425699 0 0.023492079739500973 -0.0026665104345544371 0 0.023135672260398775 -0.0031260711306461317 0 0.023492079739500973 -0.0026665104345544371 0 0.023098843106420467 -0.0024064162593709737 0 0.023135672260398775 -0.0031260711306461317 0 0.023098843106420467 -0.0024064162593709737 0 0.022313724212888283 -0.0028407363237823876 0 0.023098843106420467 -0.0024064162593709737 0 0.022313724212888283 -0.0028407363237823876 0 0.022242256440308975 -0.002016669384621235 0 0.022313724212888283 -0.0028407363237823876 0 0.022242256440308975 -0.002016669384621235 0 0.021424302823498893 -0.0023287842809658339 0 0.021160500297669985 -0.0034275759738560127 0 0.022313724212888283 -0.0028407363237823876 0 0.021424302823498893 -0.0023287842809658339 0 0.022242256440308975 -0.002016669384621235 0 0.021964747273582906 -0.0012672389682540867 0 0.021333965577360406 -0.001636822836934626 0 0.022242256440308975 -0.002016669384621235 0 0.021333965577360406 -0.001636822836934626 0 0.021424302823498893 -0.0023287842809658339 0 0.023098843106420467 -0.0024064162593709737 0 0.022242256440308975 -0.002016669384621235 0 0.022810201556231466 -0.0011696116352427864 0 0.022242256440308975 -0.002016669384621235 0 0.022810201556231466 -0.0011696116352427864 0 0.021964747273582906 -0.0012672389682540867 0 0.022810201556231466 -0.0011696116352427864 0 0.021964747273582906 -0.0012672389682540867 0 0.021980483343180583 -0.00067158199225039207 0 0.022810201556231466 -0.0011696116352427864 0 0.021980483343180583 -0.00067158199225039207 0 0.022719971610205426 -0.00029782546748297371 0 0.021964747273582906 -0.0012672389682540867 0 0.021980483343180583 -0.00067158199225039207 0 0.021116905361610972 -0.00069772801670120975 0 0.021964747273582906 -0.0012672389682540867 0 0.021116905361610972 -0.00069772801670120975 0 0.021333965577360406 -0.001636822836934626 0 0.021980483343180583 -0.00067158199225039207 0 0.021292664484498385 4.8292330695815889e-05 0 0.022719971610205426 -0.00029782546748297371 0 0.021980483343180583 -0.00067158199225039207 0 0.021292664484498385 4.8292330695815889e-05 0 0.021116905361610972 -0.00069772801670120975 0 0.019763860445989552 0.00029063384382969947 0 0.01912577381047106 0.00054992637872369906 0 0.020070308239592306 -3.021826938046557e-05 0 0.020024830031027119 -0.00036550819860652609 0 0.020568231167868163 -0.00030759113609601571 0 0.020024830031027119 -0.00036550819860652609 0 0.020568231167868163 -0.00030759113609601571 0 0.020528724493169972 -0.00079614306817941114 0 0.020070308239592306 -3.021826938046557e-05 0 0.021292664484498385 4.8292330695815889e-05 0 0.020568231167868163 -0.00030759113609601571 0 0.021292664484498385 4.8292330695815889e-05 0 0.020568231167868163 -0.00030759113609601571 0 0.021116905361610972 -0.00069772801670120975 0 0.020568231167868163 -0.00030759113609601571 0 0.021116905361610972 -0.00069772801670120975 0 0.020528724493169972 -0.00079614306817941114 0 0.021116905361610972 -0.00069772801670120975 0 0.020744538167993622 -0.0012653415964220297 0 0.020528724493169972 -0.00079614306817941114 0 0.021116905361610972 -0.00069772801670120975 0 0.020744538167993622 -0.0012653415964220297 0 0.021333965577360406 -0.001636822836934626 0 0.020024830031027119 -0.00036550819860652609 0 0.020528724493169972 -0.00079614306817941114 0 0.020111593410630627 -0.0017058438837656948 0 0.011527777615986929 -0.0029808578156970472 0 0.011524687156365083 -0.0029680022847115525 0 0.011509756729458802 -0.002980526939087705 0 0.01562636868064898 -0.0017437533394677057 0 0.01755218529047042 -0.0025049648894549079 0 0.020744538167993622 -0.0012653415964220297 0 0.020528724493169972 -0.00079614306817941114 0 0.020111593410630627 -0.0017058438837656948 0 0.01755218529047042 -0.0025049648894549079 0 0.017887661365688375 -0.0022873831167250758 0 0.020191818197284252 -0.0016494016341988466 0 0.020208621113843334 -0.0018324069542613457 0 0.020662196259247926 -0.0017000940309844438 0 0.02108944450201445 -0.0008387376091424807 0 0.01755218529047042 -0.0025049648894549079 0 0.020744538167993622 -0.0012653415964220297 0 0.020191818197284252 -0.0016494016341988466 0 0.020662196259247926 -0.0017000940309844438 0 0.020208621113843334 -0.0018324069542613457 0 0.020662196259247926 -0.0017000940309844438 0 0.020627452457283084 -0.0024140654414691971 0 0.020744538167993622 -0.0012653415964220297 0 0.021333965577360406 -0.001636822836934626 0 0.020662196259247926 -0.0017000940309844438 0 0.020662196259247926 -0.0017000940309844438 0 0.021424302823498893 -0.0023287842809658339 0 0.020627452457283084 -0.0024140654414691971 0 0.021333965577360406 -0.001636822836934626 0 0.020662196259247926 -0.0017000940309844438 0 0.021424302823498893 -0.0023287842809658339 0 0.021160500297669985 -0.0034275759738560127 0 0.021424302823498893 -0.0023287842809658339 0 0.020627452457283084 -0.0024140654414691971 0 0.021160500297669985 -0.0034275759738560127 0 0.020627452457283084 -0.0024140654414691971 0 0.019964399962614534 -0.0030438582455207665 0 0.019894373570197691 -0.0024673024345611412 0 0.020627452457283084 -0.0024140654414691971 0 0.019964399962614534 -0.0030438582455207665 0 0.020208621113843334 -0.0018324069542613457 0 0.019894373570197691 -0.0024673024345611412 0 0.020627452457283084 -0.0024140654414691971 0 0.020208621113843334 -0.0018324069542613457 0 0.019894373570197691 -0.0024673024345611412 0 0.018760396582976863 -0.0025773958073044222 0 0.019894373570197691 -0.0024673024345611412 0 0.019964399962614534 -0.0030438582455207665 0 0.018760396582976863 -0.0025773958073044222 0 0.017456490395310539 -0.0027368802505856691 0 0.019794751641211646 -0.0020748570758075675 0 0.017407575557792623 -0.00087237399749760152 0 0.02035788594337869 -0.0026049537193809165 0 0.015053688901435533 -0.0026988556580644155 0 0.011524687156365083 -0.0029680022847115525 0 0.011517656147624665 -0.00295793285599518 0 0.011536807509247038 -0.0028976511638391812 0 0.020180223638376561 -0.0016175549788170862 0 0.020208621113843334 -0.0018324069542613457 0 0.018760396582976863 -0.0025773958073044222 0 0.01755218529047042 -0.0025049648894549079 0 0.015053688901435533 -0.0026988556580644155 0 0.011517656147624665 -0.00295793285599518 0 0.01152165153981374 -0.0029354173106212909 0 0.011536807509247038 -0.0028976511638391812 0 0.011506297174305031 -0.0029710487719118491 0 0.011517656147624665 -0.00295793285599518 0 0.01152165153981374 -0.0029354173106212909 0 0.011506297174305031 -0.0029710487719118491 0 0.011517656147624665 -0.00295793285599518 0 0.011505200530331329 -0.0029748685967386909 0 0.011524687156365083 -0.0029680022847115525 0 0.011517656147624665 -0.00295793285599518 0 0.011509756729458802 -0.002980526939087705 0 0.01152165153981374 -0.0029354173106212909 0 0.011536807509247038 -0.0028976511638391812 0 0.011591917195118817 -0.0028672557533143185 0 0.011529974505619973 -0.0029648740125096181 0 0.01152165153981374 -0.0029354173106212909 0 0.011591917195118817 -0.0028672557533143185 0 0.011529974505619973 -0.0029648740125096181 0 0.011591917195118817 -0.0028672557533143185 0 0.011594744145383293 -0.0030077058513182089 0 0.011506297174305031 -0.0029710487719118491 0 0.011529974505619973 -0.0029648740125096181 0 0.01152165153981374 -0.0029354173106212909 0 0.013028298752255458 -0.0035601244679537621 0 0.013425207087460252 -0.0032833320347072418 0 0.012959305912796532 -0.003108131611790149 0 0.015053688901435533 -0.0026988556580644155 0 0.011896542695124053 -0.0028649380953740589 0 0.015531377480384058 -0.0020403078844115062 0 0.017456490395310539 -0.0027368802505856691 0 0.017407575557792623 -0.00087237399749760152 0 0.014363405816314465 -0.0027877117883757141 0 0.015053688901435533 -0.0026988556580644155 0 0.0127479557213007 -0.0034175635589943493 0 0.011960019062528984 -0.0029853669399508695 0 0.012959305912796532 -0.003108131611790149 0 0.013028298752255458 -0.0035601244679537621 0 0.0127479557213007 -0.0034175635589943493 0 0.012959305912796532 -0.003108131611790149 0 0.012303087191054043 -0.0034330942130420729 0 0.011960019062528984 -0.0029853669399508695 0 0.011714146833831778 -0.0032611166295746091 0 0.0127479557213007 -0.0034175635589943493 0 0.012303087191054043 -0.0034330942130420729 0 0.011960019062528984 -0.0029853669399508695 0 0.011960019062528984 -0.0029853669399508695 0 0.011714146833831778 -0.0032611166295746091 0 0.011551241365366643 -0.0030458747951820297 0 0.011960019062528984 -0.0029853669399508695 0 0.011594744145383293 -0.0030077058513182089 0 0.011601857236019893 -0.0030068246792651888 0 0.012154699916143142 -0.0030239443241678204 0 0.011896542695124053 -0.0028649380953740589 0 0.011960019062528984 -0.0029853669399508695 0 0.011591917195118817 -0.0028672557533143185 0 0.011594744145383293 -0.0030077058513182089 0 0.011594744145383293 -0.0030077058513182089 0 0.011520126459759531 -0.0030042747449259225 0 0.011486958760815744 -0.0029989780991593914 0 0.011594744145383293 -0.0030077058513182089 0 0.011520126459759531 -0.0030042747449259225 0 0.011601857236019893 -0.0030068246792651888 0 0.011520126459759531 -0.0030042747449259225 0 0.011601857236019893 -0.0030068246792651888 0 0.01140162913089761 -0.0029611228617173828 0 0.011960019062528984 -0.0029853669399508695 0 0.011601857236019893 -0.0030068246792651888 0 0.011551241365366643 -0.0030458747951820297 0 0.011601857236019893 -0.0030068246792651888 0 0.011551241365366643 -0.0030458747951820297 0 0.011340428357839352 -0.0029439494525007569 0 0.011601857236019893 -0.0030068246792651888 0 0.01140162913089761 -0.0029611228617173828 0 0.011340428357839352 -0.0029439494525007569 0 0.01140162913089761 -0.0029611228617173828 0 0.011340428357839352 -0.0029439494525007569 0 0.011229307407839964 -0.0028367919314036621 0 0.011520126459759531 -0.0030042747449259225 0 0.011439256325048875 -0.0029905342281802468 0 0.01140162913089761 -0.0029611228617173828 0 0.011439256325048875 -0.0029905342281802468 0 0.01140162913089761 -0.0029611228617173828 0 0.011322137941683814 -0.002963139018138774 0 0.01140162913089761 -0.0029611228617173828 0 0.011322137941683814 -0.002963139018138774 0 0.011198365487236645 -0.002911328970033229 0 0.011322137941683814 -0.002963139018138774 0 0.011364634829592195 -0.0029650673245751559 0 0.011293648081773681 -0.0029463844592611467 0 0.011322137941683814 -0.002963139018138774 0 0.011418675318858073 -0.0029887334282819537 0 0.011364634829592195 -0.0029650673245751559 0 0.011439256325048875 -0.0029905342281802468 0 0.011322137941683814 -0.002963139018138774 0 0.011418675318858073 -0.0029887334282819537 0 0.011418675318858073 -0.0029887334282819537 0 0.011458330874469501 -0.0029912894111116628 0 0.01142562438464673 -0.0029786646914550384 0 0.011418675318858073 -0.0029887334282819537 0 0.01142562438464673 -0.0029786646914550384 0 0.011364634829592195 -0.0029650673245751559 0 0.01142562438464673 -0.0029786646914550384 0 0.011364634829592195 -0.0029650673245751559 0 0.011405569403487288 -0.0029578336759176708 0 0.01142562438464673 -0.0029786646914550384 0 0.011405569403487288 -0.0029578336759176708 0 0.011455540989935009 -0.0029615656330677265 0 0.011405569403487288 -0.0029578336759176708 0 0.011455540989935009 -0.0029615656330677265 0 0.011424919562372182 -0.0029342033560666599 0 0.011527777615986929 -0.0029808578156970472 0 0.011455540989935009 -0.0029615656330677265 0 0.011486769433168342 -0.0029282372163925126 0 0.011527777615986929 -0.0029808578156970472 0 0.011455540989935009 -0.0029615656330677265 0 0.011479015858619447 -0.0029856749069849795 0 0.011458330874469501 -0.0029912894111116628 0 0.01142562438464673 -0.0029786646914550384 0 0.011479015858619447 -0.0029856749069849795 0 0.01142562438464673 -0.0029786646914550384 0 0.011455540989935009 -0.0029615656330677265 0 0.011479015858619447 -0.0029856749069849795 0 0.011458330874469501 -0.0029912894111116628 0 0.011479015858619447 -0.0029856749069849795 0 0.011488048417385963 -0.0029862180150596724 0 0.011479015858619447 -0.0029856749069849795 0 0.011488048417385963 -0.0029862180150596724 0 0.011509756729458802 -0.002980526939087705 0 0.011527777615986929 -0.0029808578156970472 0 0.011479015858619447 -0.0029856749069849795 0 0.011509756729458802 -0.002980526939087705 0 0.011517656147624665 -0.00295793285599518 0 0.011509756729458802 -0.002980526939087705 0 0.011505200530331329 -0.0029748685967386909 0 0.011488048417385963 -0.0029862180150596724 0 0.011509756729458802 -0.002980526939087705 0 0.011505200530331329 -0.0029748685967386909 0 0.011506297174305031 -0.0029710487719118491 0 0.011488048417385963 -0.0029862180150596724 0 0.011505200530331329 -0.0029748685967386909 0 0.011506297174305031 -0.0029710487719118491 0 0.011529974505619973 -0.0029648740125096181 0 0.011486958760815744 -0.0029989780991593914 0 0.011506297174305031 -0.0029710487719118491 0 0.011488048417385963 -0.0029862180150596724 0 0.011486958760815744 -0.0029989780991593914 0 0.011529974505619973 -0.0029648740125096181 0 0.011594744145383293 -0.0030077058513182089 0 0.011486958760815744 -0.0029989780991593914 0 0.011439256325048875 -0.0029905342281802468 0 0.011418675318858073 -0.0029887334282819537 0 0.011486958760815744 -0.0029989780991593914 0 0.011520126459759531 -0.0030042747449259225 0 0.011439256325048875 -0.0029905342281802468 0 0.011486958760815744 -0.0029989780991593914 0 0.011418675318858073 -0.0029887334282819537 0 0.011458330874469501 -0.0029912894111116628 0 0.011486958760815744 -0.0029989780991593914 0 0.011458330874469501 -0.0029912894111116628 0 0.011488048417385963 -0.0029862180150596724 0 0.011486958760815744 -0.0029989780991593914 0 0.01035451689734166 -0.0040383010111286694 0 0.010011033943415763 -0.0043399583087604596 0 0.010752051325718499 -0.0042760232983565507 0 0.01035451689734166 -0.0040383010111286694 0 0.010711405563520172 -0.0038534162775774243 0 0.010279845753243637 -0.0037013845839563844 0 0.010055914283326027 -0.0039407268168210807 0 0.01035451689734166 -0.0040383010111286694 0 0.010279845753243637 -0.0037013845839563844 0 0.010055914283326027 -0.0039407268168210807 0 0.01035451689734166 -0.0040383010111286694 0 0.010011033943415763 -0.0043399583087604596 0 0.012878468596175441 -0.0060627949882217629 0 0.01172135264116524 -0.0046581838539848696 0 0.011979380162240653 -0.0056079882903829559 0 0.010450513990141059 -0.0046466854509983517 0 0.014666063725578282 -0.0038318392400351594 0 0.012878468596175441 -0.0060627949882217629 0 0.01172135264116524 -0.0046581838539848696 0 0.01405768685482689 -0.0057338303345326859 0 0.01094723422178397 -0.0045417669872226092 0 0.01172135264116524 -0.0046581838539848696 0 0.011979380162240653 -0.0056079882903829559 0 0.017115236521258761 -0.0028792845098995937 0 0.012665453417143575 -0.004176741401547843 0 0.012387187012483133 -0.0059237224701143088 0 0.012833603660013649 -0.0060411693915043245 0 0.011979380162240653 -0.0056079882903829559 0 0.016307209086644667 -0.0023685495913174795 0 0.011923075961302119 -0.0035608502957987778 0 0.010011033943415763 -0.0043399583087604596 0 0.010814131181369292 -0.0043714393474938223 0 0.010752051325718499 -0.0042760232983565507 0 0.010011033943415763 -0.0043399583087604596 0 0.010902278511537777 -0.004813277552238579 0 0.010814131181369292 -0.0043714393474938223 0 0.014558241836147024 -0.003674102304943503 0 0.014148352443206834 -0.0034692874709494736 0 0.014026439881577051 -0.002801952330248401 0 0.014666063725578282 -0.0038318392400351594 0 0.011923075961302119 -0.0035608502957987778 0 0.011923075961302119 -0.0035608502957987778 0 0.011813882321843322 -0.0036534064585080775 0 0.010978031533892008 -0.0034011142856235151 0 0.010913195991518283 -0.0032423822825737624 0 0.011088937204720074 -0.0032713314414630074 0 0.010806875706890333 -0.0043653999124959302 0 0.010752051325718499 -0.0042760232983565507 0 0.010711405563520172 -0.0038534162775774243 0 0.011923075961302119 -0.0035608502957987778 0 0.010814404233616742 -0.0035589690085946913 0 0.01035451689734166 -0.0040383010111286694 0 0.010752051325718499 -0.0042760232983565507 0 0.010711405563520172 -0.0038534162775774243 0 0.010913195991518283 -0.0032423822825737624 0 0.011088937204720074 -0.0032713314414630074 0 0.011021043368491268 -0.0032020121626121557 0 0.011088937204720074 -0.0032713314414630074 0 0.011222338150458405 -0.0031506541074240962 0 0.011021043368491268 -0.0032020121626121557 0 0.011088937204720074 -0.0032713314414630074 0 0.011336350253587753 -0.0032524982807281724 0 0.011222338150458405 -0.0031506541074240962 0 0.011088937204720074 -0.0032713314414630074 0 0.011336350253587753 -0.0032524982807281724 0 0.011157064172994649 -0.0034038791571757501 0 0.010978031533892008 -0.0034011142856235151 0 0.011088937204720074 -0.0032713314414630074 0 0.011157064172994649 -0.0034038791571757501 0 0.01116151671906657 -0.0037592118329615371 0 0.011157064172994649 -0.0034038791571757501 0 0.011312228154459515 -0.0034896630872605617 0 0.01116151671906657 -0.0037592118329615371 0 0.010978031533892008 -0.0034011142856235151 0 0.011157064172994649 -0.0034038791571757501 0 0.011248629444860216 -0.0038184295160096329 0 0.011312228154459515 -0.0034896630872605617 0 0.011714146833831778 -0.0032611166295746091 0 0.01116151671906657 -0.0037592118329615371 0 0.011248629444860216 -0.0038184295160096329 0 0.011312228154459515 -0.0034896630872605617 0 0.011336350253587753 -0.0032524982807281724 0 0.011157064172994649 -0.0034038791571757501 0 0.011312228154459515 -0.0034896630872605617 0 0.011802991946288829 -0.0036501472748654736 0 0.012303087191054043 -0.0034330942130420729 0 0.011714146833831778 -0.0032611166295746091 0 0.016410764677683445 -0.0024949729702179336 0 0.009847797372989079 -0.0041773128661210593 0 0.011802991946288829 -0.0036501472748654736 0 0.011328792121612209 -0.0036998334311563754 0 0.011714146833831778 -0.0032611166295746091 0 0.011336350253587753 -0.0032524982807281724 0 0.011312228154459515 -0.0034896630872605617 0 0.011714146833831778 -0.0032611166295746091 0 0.011336350253587753 -0.0032524982807281724 0 0.011551241365366643 -0.0030458747951820297 0 0.011222338150458405 -0.0031506541074240962 0 0.011336350253587753 -0.0032524982807281724 0 0.011714146833831778 -0.0032611166295746091 0 0.011551241365366643 -0.0030458747951820297 0 0.011551241365366643 -0.0030458747951820297 0 0.011270696583377903 -0.0030401717192620123 0 0.011222338150458405 -0.0031506541074240962 0 0.011551241365366643 -0.0030458747951820297 0 0.011270696583377903 -0.0030401717192620123 0 0.011340428357839352 -0.0029439494525007569 0 0.011270696583377903 -0.0030401717192620123 0 0.011340428357839352 -0.0029439494525007569 0 0.011030130148906648 -0.002914606240823004 0 0.011270696583377903 -0.0030401717192620123 0 0.011039961308193739 -0.0031104369270048169 0 0.011030130148906648 -0.002914606240823004 0 0.011039961308193739 -0.0031104369270048169 0 0.010654768358940955 -0.0032600407406428904 0 0.011030130148906648 -0.002914606240823004 0 0.011270696583377903 -0.0030401717192620123 0 0.011039961308193739 -0.0031104369270048169 0 0.011222338150458405 -0.0031506541074240962 0 0.011039961308193739 -0.0031104369270048169 0 0.011222338150458405 -0.0031506541074240962 0 0.011021043368491268 -0.0032020121626121557 0 0.010711405563520172 -0.0038534162775774243 0 0.010654768358940955 -0.0032600407406428904 0 0.010279845753243637 -0.0037013845839563844 0 0.010814404233616742 -0.0035589690085946913 0 0.010694039984997629 -0.0032580373505656135 0 0.010913195991518283 -0.0032423822825737624 0 0.011021043368491268 -0.0032020121626121557 0 0.010654768358940955 -0.0032600407406428904 0 0.011039961308193739 -0.0031104369270048169 0 0.011021043368491268 -0.0032020121626121557 0 0.010654768358940955 -0.0032600407406428904 0 0.010654768358940955 -0.0032600407406428904 0 0.010481246971400418 -0.0029490716707655479 0 0.011030130148906648 -0.002914606240823004 0 0.0098411296330161383 -0.0030782583440044416 0 0.010119445112921597 -0.0033306537607107074 0 0.010481246971400418 -0.0029490716707655479 0 0.010654768358940955 -0.0032600407406428904 0 0.010119445112921597 -0.0033306537607107074 0 0.010481246971400418 -0.0029490716707655479 0 0.0098775212278614574 -0.0037015152999355988 0 0.010119445112921597 -0.0033306537607107074 0 0.010279845753243637 -0.0037013845839563844 0 0.010654768358940955 -0.0032600407406428904 0 0.010119445112921597 -0.0033306537607107074 0 0.010279845753243637 -0.0037013845839563844 0 0.0098775212278614574 -0.0037015152999355988 0 0.010055914283326027 -0.0039407268168210807 0 0.010279845753243637 -0.0037013845839563844 0 0.010223958541244039 -0.0023004401482758889 0 0.010063680866397038 -0.0027770372791121817 0 0.010591281143016136 -0.0026510942785233026 0 0.0091666837460508428 -0.002432906459885073 0 0.010223958541244039 -0.0023004401482758889 0 0.010063680866397038 -0.0027770372791121817 0 0.0098411296330161383 -0.0030782583440044416 0 0.010063680866397038 -0.0027770372791121817 0 0.010481246971400418 -0.0029490716707655479 0 0.010591281143016136 -0.0026510942785233026 0 0.010481246971400418 -0.0029490716707655479 0 0.011030130148906648 -0.002914606240823004 0 0.010063680866397038 -0.0027770372791121817 0 0.010591281143016136 -0.0026510942785233026 0 0.010481246971400418 -0.0029490716707655479 0 0.010223958541244039 -0.0023004401482758889 0 0.010591281143016136 -0.0026510942785233026 0 0.010938878413907709 -0.0024975805328578786 0 0.0089769471363670434 -0.0023172510113447522 0 0.0088079057257762512 -0.0025073958269559264 0 0.0088693692602874619 -0.0023858718856778209 0 0.00958986147031478 -0.0023448295907578039 0 0.0098844959682346176 -0.0025157297412503588 0 0.010938878413907709 -0.0024975805328578786 0 0.011030130148906648 -0.002914606240823004 0 0.01116830569051074 -0.0027855189566795692 0 0.010591281143016136 -0.0026510942785233026 0 0.010938878413907709 -0.0024975805328578786 0 0.011030130148906648 -0.002914606240823004 0 0.011340428357839352 -0.0029439494525007569 0 0.01116830569051074 -0.0027855189566795692 0 0.011229307407839964 -0.0028367919314036621 0 0.011340428357839352 -0.0029439494525007569 0 0.011030130148906648 -0.002914606240823004 0 0.01116830569051074 -0.0027855189566795692 0 0.01116830569051074 -0.0027855189566795692 0 0.011236850129506431 -0.0027860716181827695 0 0.011229307407839964 -0.0028367919314036621 0 0.0098844959682346176 -0.0025157297412503588 0 0.010341949065657066 -0.0028104243294854213 0 0.010938878413907709 -0.0024975805328578786 0 0.01116830569051074 -0.0027855189566795692 0 0.011236850129506431 -0.0027860716181827695 0 0.0088079057257762512 -0.0025073958269559264 0 0.0094380336313497869 -0.0028907737093183789 0 0.0091815106041756352 -0.0024330747546799053 0 0.0091815106041756352 -0.0024330747546799053 0 0.0091954291440115229 -0.0019150139563692266 0 0.010076800955688954 -0.0023401527553857339 0 0.0091815106041756352 -0.0024330747546799053 0 0.0091954291440115229 -0.0019150139563692266 0 0.0088115912146768706 -0.0022926134907679209 0 0.0094380336313497869 -0.0028907737093183789 0 0.0091815106041756352 -0.0024330747546799053 0 0.010076800955688954 -0.0023401527553857339 0 0.0091954291440115229 -0.0019150139563692266 0 0.0083886888353874485 -0.0016346115383130296 0 0.0088226800760888915 -0.0015054860801307936 0 0.0091954291440115229 -0.0019150139563692266 0 0.0083886888353874485 -0.0016346115383130296 0 0.0088115912146768706 -0.0022926134907679209 0 0.0088079057257762512 -0.0025073958269559264 0 0.0088115912146768706 -0.0022926134907679209 0 0.0088693692602874619 -0.0023858718856778209 0 0.0088079057257762512 -0.0025073958269559264 0 0.0091815106041756352 -0.0024330747546799053 0 0.0088115912146768706 -0.0022926134907679209 0 0.0088076931484405794 -0.0022897386841180334 0 0.0085226601504927012 -0.0021801422958644895 0 0.0088115912146768706 -0.0022926134907679209 0 0.0088693692602874619 -0.0023858718856778209 0 0.0089770762445375851 -0.0024272099660788641 0 0.0089769471363670434 -0.0023172510113447522 0 0.0088693692602874619 -0.0023858718856778209 0 0.0089770762445375851 -0.0024272099660788641 0 0.0083886888353874485 -0.0016346115383130296 0 0.0088115912146768706 -0.0022926134907679209 0 0.0080325472272256577 -0.0019556035398807258 0 0.0083886888353874485 -0.0016346115383130296 0 0.0080325472272256577 -0.0019556035398807258 0 0.0079427463840946455 -0.0015931275231048305 0 0.0083930715124239334 -0.0020106729207546338 0 0.0085226601504927012 -0.0021801422958644895 0 0.0078013297282447181 -0.0017863706855189537 0 0.0080325472272256577 -0.0019556035398807258 0 0.0079427463840946455 -0.0015931275231048305 0 0.0090406594983595961 -0.0021951534371655564 0 0.0089770762445375851 -0.0024272099660788641 0 0.0090656553749295064 -0.0023663946696902997 0 0.0089769471363670434 -0.0023172510113447522 0 0.0089770762445375851 -0.0024272099660788641 0 0.0090656553749295064 -0.0023663946696902997 0 0.011168268086853467 -0.0027824975031108101 0 0.011392711721536853 -0.0027603254702622316 0 0.01134406675640638 -0.0028754274321287922 0 0.011168268086853467 -0.0027824975031108101 0 0.010831575534490726 -0.0025235284215792135 0 0.011130055360094518 -0.0024330386047276211 0 0.011168268086853467 -0.0027824975031108101 0 0.011354538637563088 -0.0025971027001709464 0 0.011130055360094518 -0.0024330386047276211 0 0.011168268086853467 -0.0027824975031108101 0 0.011354538637563088 -0.0025971027001709464 0 0.011392711721536853 -0.0027603254702622316 0 0.011354538637563088 -0.0025971027001709464 0 0.011702024781573667 -0.0026148548593852351 0 0.011392711721536853 -0.0027603254702622316 0 0.011354538637563088 -0.0025971027001709464 0 0.011702024781573667 -0.0026148548593852351 0 0.011419962280073526 -0.0023517419769298583 0 0.011702024781573667 -0.0026148548593852351 0 0.011392711721536853 -0.0027603254702622316 0 0.011463482460919969 -0.0029030654186837923 0 0.013723047647026863 -0.0019077522391976311 0 0.013655874655048372 -0.0013612251177796614 0 0.013294993443369037 -0.0019020564141674487 0 0.013281191634032817 -0.0018337973251605494 0 0.011729828908128938 -0.0025111998119172127 0 0.011392711721536853 -0.0027603254702622316 0 0.011463482460919969 -0.0029030654186837923 0 0.01134406675640638 -0.0028754274321287922 0 0.011729828908128938 -0.0025111998119172127 0 0.011436185425260117 -0.0026493595308847329 0 0.011443752057764852 -0.0028525209358196977 0 0.011417943437497883 -0.0028914924187787676 0 0.01134406675640638 -0.0028754274321287922 0 0.011729828908128938 -0.0025111998119172127 0 0.011605963967368698 -0.0026863230457087779 0 0.011446537654602773 -0.0028581192083471777 0 0.011417943437497883 -0.0028914924187787676 0 0.011462816756897606 -0.0029005130642158058 0 0.011417943437497883 -0.0028914924187787676 0 0.011366548455834355 -0.0029088363181793927 0 0.01134406675640638 -0.0028754274321287922 0 0.011539783423598828 -0.0028648300353312202 0 0.011446537654602773 -0.0028581192083471777 0 0.011462816756897606 -0.0029005130642158058 0 0.015744817442838316 -0.00096402386891053277 0 0.011729828908128938 -0.0025111998119172127 0 0.011539783423598828 -0.0028648300353312202 0 0.011486769433168342 -0.0029282372163925126 0 0.011462816756897606 -0.0029005130642158058 0 0.011455540989935009 -0.0029615656330677265 0 0.011486769433168342 -0.0029282372163925126 0 0.011424919562372182 -0.0029342033560666599 0 0.011486769433168342 -0.0029282372163925126 0 0.011462816756897606 -0.0029005130642158058 0 0.011424919562372182 -0.0029342033560666599 0 0.011417943437497883 -0.0028914924187787676 0 0.011424919562372182 -0.0029342033560666599 0 0.011366548455834355 -0.0029088363181793927 0 0.011417943437497883 -0.0028914924187787676 0 0.011462816756897606 -0.0029005130642158058 0 0.011424919562372182 -0.0029342033560666599 0 0.011364634829592195 -0.0029650673245751559 0 0.011405569403487288 -0.0029578336759176708 0 0.011354777055770435 -0.0029386720482121528 0 0.011405569403487288 -0.0029578336759176708 0 0.011424919562372182 -0.0029342033560666599 0 0.011354777055770435 -0.0029386720482121528 0 0.011364634829592195 -0.0029650673245751559 0 0.011354777055770435 -0.0029386720482121528 0 0.011293648081773681 -0.0029463844592611467 0 0.011354777055770435 -0.0029386720482121528 0 0.011273661485104652 -0.0029029317450544609 0 0.011293648081773681 -0.0029463844592611467 0 0.011354777055770435 -0.0029386720482121528 0 0.011366548455834355 -0.0029088363181793927 0 0.011273661485104652 -0.0029029317450544609 0 0.011424919562372182 -0.0029342033560666599 0 0.011354777055770435 -0.0029386720482121528 0 0.011366548455834355 -0.0029088363181793927 0 0.011168268086853467 -0.0027824975031108101 0 0.011273661485104652 -0.0029029317450544609 0 0.01134406675640638 -0.0028754274321287922 0 0.011366548455834355 -0.0029088363181793927 0 0.011273661485104652 -0.0029029317450544609 0 0.01134406675640638 -0.0028754274321287922 0 0.011168268086853467 -0.0027824975031108101 0 0.011273661485104652 -0.0029029317450544609 0 0.011164458447013649 -0.0029255162723752595 0 0.011273661485104652 -0.0029029317450544609 0 0.011293648081773681 -0.0029463844592611467 0 0.011164458447013649 -0.0029255162723752595 0 0.011322137941683814 -0.002963139018138774 0 0.011293648081773681 -0.0029463844592611467 0 0.011164458447013649 -0.0029255162723752595 0 0.011198365487236645 -0.002911328970033229 0 0.011229307407839964 -0.0028367919314036621 0 0.010852519680401879 -0.0029142140811262984 0 0.011198365487236645 -0.002911328970033229 0 0.011164458447013649 -0.0029255162723752595 0 0.010852519680401879 -0.0029142140811262984 0 0.011322137941683814 -0.002963139018138774 0 0.011198365487236645 -0.002911328970033229 0 0.011164458447013649 -0.0029255162723752595 0 0.01140162913089761 -0.0029611228617173828 0 0.011198365487236645 -0.002911328970033229 0 0.011229307407839964 -0.0028367919314036621 0 0.010341949065657066 -0.0028104243294854213 0 0.010801896835209148 -0.0029083511990392751 0 0.011236850129506431 -0.0027860716181827695 0 0.011229307407839964 -0.0028367919314036621 0 0.010852519680401879 -0.0029142140811262984 0 0.0094380336313497869 -0.0028907737093183789 0 0.010852519680401879 -0.0029142140811262984 0 0.010076800955688954 -0.0023401527553857339 0 0.011168268086853467 -0.0027824975031108101 0 0.010852519680401879 -0.0029142140811262984 0 0.010831575534490726 -0.0025235284215792135 0 0.011168268086853467 -0.0027824975031108101 0 0.011164458447013649 -0.0029255162723752595 0 0.010852519680401879 -0.0029142140811262984 0 0.010852519680401879 -0.0029142140811262984 0 0.010831575534490726 -0.0025235284215792135 0 0.010076800955688954 -0.0023401527553857339 0 0.010076800955688954 -0.0023401527553857339 0 0.0099547172794276773 -0.0018500662876288123 0 0.010668001850531444 -0.0020748610604111135 0 0.010831575534490726 -0.0025235284215792135 0 0.010076800955688954 -0.0023401527553857339 0 0.010668001850531444 -0.0020748610604111135 0 0.0091954291440115229 -0.0019150139563692266 0 0.0099547172794276773 -0.0018500662876288123 0 0.0092484568196406925 -0.0013134601530144102 0 0.0091954291440115229 -0.0019150139563692266 0 0.010076800955688954 -0.0023401527553857339 0 0.0099547172794276773 -0.0018500662876288123 0 0.010668001850531444 -0.0020748610604111135 0 0.010921098579273014 -0.0016595297324122804 0 0.010343904266083623 -0.0014135764168727181 0 0.0099547172794276773 -0.0018500662876288123 0 0.010668001850531444 -0.0020748610604111135 0 0.010343904266083623 -0.0014135764168727181 0 0.010668001850531444 -0.0020748610604111135 0 0.010921098579273014 -0.0016595297324122804 0 0.011208629016397027 -0.002042922126169374 0 0.010921098579273014 -0.0016595297324122804 0 0.011208629016397027 -0.002042922126169374 0 0.011389851353795407 -0.001631394925490943 0 0.010668001850531444 -0.0020748610604111135 0 0.011208629016397027 -0.002042922126169374 0 0.011130055360094518 -0.0024330386047276211 0 0.011208629016397027 -0.002042922126169374 0 0.011130055360094518 -0.0024330386047276211 0 0.011419962280073526 -0.0023517419769298583 0 0.011354538637563088 -0.0025971027001709464 0 0.011130055360094518 -0.0024330386047276211 0 0.011419962280073526 -0.0023517419769298583 0 0.010831575534490726 -0.0025235284215792135 0 0.010668001850531444 -0.0020748610604111135 0 0.011130055360094518 -0.0024330386047276211 0 0.011702024781573667 -0.0026148548593852351 0 0.011419962280073526 -0.0023517419769298583 0 0.011648613741739611 -0.0020195153020954042 0 0.013281191634032817 -0.0018337973251605494 0 0.011495826377914999 -0.0022974666451082617 0 0.011208629016397027 -0.002042922126169374 0 0.011419962280073526 -0.0023517419769298583 0 0.011648613741739611 -0.0020195153020954042 0 0.011873234560030053 -0.0017497679094479858 0 0.011648613741739611 -0.0020195153020954042 0 0.011389851353795407 -0.001631394925490943 0 0.011208629016397027 -0.002042922126169374 0 0.011648613741739611 -0.0020195153020954042 0 0.011389851353795407 -0.001631394925490943 0 0.011389851353795407 -0.001631394925490943 0 0.011700598207933994 -0.0012740559294365814 0 0.010911496562751238 -0.00095113504979717483 0 0.011873234560030053 -0.0017497679094479858 0 0.011389851353795407 -0.001631394925490943 0 0.011700598207933994 -0.0012740559294365814 0 0.0086358737975731903 -0.00031323659132126154 0 0.0086752034851868224 -0.00032623217535424727 0 0.005712566566145493 0.00055343494004864906 0 0.006048463485792588 2.8430392263567389e-05 0 0.0056142127594035265 -1.1199317672861231e-05 0 0.005712566566145493 0.00055343494004864906 0 0.006048463485792588 2.8430392263567389e-05 0 0.0064082407523610146 0.0003159230462262589 0 0.006048463485792588 2.8430392263567389e-05 0 0.0064082407523610146 0.0003159230462262589 0 0.0065681051976464429 -9.4289324110338683e-05 0 0.010921098579273014 -0.0016595297324122804 0 0.011389851353795407 -0.001631394925490943 0 0.010911496562751238 -0.00095113504979717483 0 0.010921098579273014 -0.0016595297324122804 0 0.010911496562751238 -0.00095113504979717483 0 0.010343904266083623 -0.0014135764168727181 0 0.010343904266083623 -0.0014135764168727181 0 0.0092484568196406925 -0.0013134601530144102 0 0.0098639783177678908 -0.00065403652793333831 0 0.0099547172794276773 -0.0018500662876288123 0 0.010343904266083623 -0.0014135764168727181 0 0.0092484568196406925 -0.0013134601530144102 0 0.0092484568196406925 -0.0013134601530144102 0 0.0098639783177678908 -0.00065403652793333831 0 0.0083841566122985021 -0.00059744353043828045 0 0.0085655966640576873 -0.00034933396590208527 0 0.008425086556286477 -0.00053593540023526764 0 0.010911496562751238 -0.00095113504979717483 0 0.010343904266083623 -0.0014135764168727181 0 0.0098639783177678908 -0.00065403652793333831 0 0.0064082407523610146 0.0003159230462262589 0 0.0065681051976464429 -9.4289324110338683e-05 0 0.0072867061666339553 2.6470796373978856e-05 0 0.0086752034851868224 -0.00032623217535424727 0 0.0085655966640576873 -0.00034933396590208527 0 0.0065681051976464429 -9.4289324110338683e-05 0 0.0072867061666339553 2.6470796373978856e-05 0 0.0068674502693966757 -0.00037233162070880195 0 0.0068674502693966757 -0.00037233162070880195 0 0.0066097876723812251 -0.00051511680401941618 0 0.0066370455393290071 -0.00063352277555576411 0 0.0072867061666339553 2.6470796373978856e-05 0 0.0068674502693966757 -0.00037233162070880195 0 0.0077442465676157137 -0.00066975611689823087 0 0.0068674502693966757 -0.00037233162070880195 0 0.0077442465676157137 -0.00066975611689823087 0 0.0077221116852485916 -0.0010815687054771513 0 0.0072867061666339553 2.6470796373978856e-05 0 0.0077442465676157137 -0.00066975611689823087 0 0.0083841566122985021 -0.00059744353043828045 0 0.0077442465676157137 -0.00066975611689823087 0 0.0077221116852485916 -0.0010815687054771513 0 0.0079932164027832417 -0.00089347810660772131 0 0.0068674502693966757 -0.00037233162070880195 0 0.0065971399765723665 -0.00073190994393248739 0 0.0066370455393290071 -0.00063352277555576411 0 0.0068604323869720096 -0.00037952664283451835 0 0.007138565830595473 -0.00085913076242275334 0 0.0065971399765723665 -0.00073190994393248739 0 0.0066370455393290071 -0.00063352277555576411 0 0.0065944110370110371 -0.00071555574066239317 0 0.0066097876723812251 -0.00051511680401941618 0 0.0066370455393290071 -0.00063352277555576411 0 0.0064988349823199018 -0.00063291502090944795 0 0.0066370455393290071 -0.00063352277555576411 0 0.0064988349823199018 -0.00063291502090944795 0 0.0065944110370110371 -0.00071555574066239317 0 0.0064988349823199018 -0.00063291502090944795 0 0.0064291287827164022 -0.00076490158982541595 0 0.0065944110370110371 -0.00071555574066239317 0 0.0066097876723812251 -0.00051511680401941618 0 0.0064988349823199018 -0.00063291502090944795 0 0.0064046993605327181 -0.00037769717221115584 0 0.0064988349823199018 -0.00063291502090944795 0 0.006208852295546111 -0.0005731741336681812 0 0.0064046993605327181 -0.00037769717221115584 0 0.006208852295546111 -0.0005731741336681812 0 0.0060832659226692908 -0.00088376829560468803 0 0.0064291287827164022 -0.00076490158982541595 0 0.0064988349823199018 -0.00063291502090944795 0 0.006208852295546111 -0.0005731741336681812 0 0.0064291287827164022 -0.00076490158982541595 0 0.006208852295546111 -0.0005731741336681812 0 0.0057679283920977443 -0.00041710776413378425 0 0.0060832659226692908 -0.00088376829560468803 0 0.0053686352690882093 -0.00048435084176726032 0 0.0049938530396513234 -0.0005754418262923066 0 0.006208852295546111 -0.0005731741336681812 0 0.0059931476351661279 -0.00028288817591218761 0 0.0057679283920977443 -0.00041710776413378425 0 0.006048463485792588 2.8430392263567389e-05 0 0.0059931476351661279 -0.00028288817591218761 0 0.0056142127594035265 -1.1199317672861231e-05 0 0.0059931476351661279 -0.00028288817591218761 0 0.0057679283920977443 -0.00041710776413378425 0 0.0056142127594035265 -1.1199317672861231e-05 0 0.006048463485792588 2.8430392263567389e-05 0 0.0059931476351661279 -0.00028288817591218761 0 0.0064046993605327181 -0.00037769717221115584 0 0.006048463485792588 2.8430392263567389e-05 0 0.0065681051976464429 -9.4289324110338683e-05 0 0.0064046993605327181 -0.00037769717221115584 0 0.0065681051976464429 -9.4289324110338683e-05 0 0.0068674502693966757 -0.00037233162070880195 0 0.0064046993605327181 -0.00037769717221115584 0 0.0068674502693966757 -0.00037233162070880195 0 0.0066097876723812251 -0.00051511680401941618 0 0.0064046993605327181 -0.00037769717221115584 0 0.006208852295546111 -0.0005731741336681812 0 0.0059931476351661279 -0.00028288817591218761 0 0.0064046993605327181 -0.00037769717221115584 0 0.007958799516000075 -0.0013354262378810278 0 0.0079427463840946455 -0.0015931275231048305 0 0.0081141565376044063 -0.0012080822133885697 0 0.0083886888353874485 -0.0016346115383130296 0 0.0079427463840946455 -0.0015931275231048305 0 0.0081141565376044063 -0.0012080822133885697 0 0.0081141565376044063 -0.0012080822133885697 0 0.0084263763152979398 -0.0011115446359016628 0 0.0081346597568739566 -0.00081881649338364545 0 0.0084263763152979398 -0.0011115446359016628 0 0.0083841566122985021 -0.00059744353043828045 0 0.0081346597568739566 -0.00081881649338364545 0 0.0083886888353874485 -0.0016346115383130296 0 0.0084263763152979398 -0.0011115446359016628 0 0.0088226800760888915 -0.0015054860801307936 0 0.0083886888353874485 -0.0016346115383130296 0 0.0081141565376044063 -0.0012080822133885697 0 0.0084263763152979398 -0.0011115446359016628 0 0.0092484568196406925 -0.0013134601530144102 0 0.0084263763152979398 -0.0011115446359016628 0 0.0088226800760888915 -0.0015054860801307936 0 0.0091954291440115229 -0.0019150139563692266 0 0.0092484568196406925 -0.0013134601530144102 0 0.0088226800760888915 -0.0015054860801307936 0 0.0092484568196406925 -0.0013134601530144102 0 0.0084263763152979398 -0.0011115446359016628 0 0.0083841566122985021 -0.00059744353043828045 0 0.0077442465676157137 -0.00066975611689823087 0 0.0083841566122985021 -0.00059744353043828045 0 0.0079932164027832417 -0.00089347810660772131 0 0.0083841566122985021 -0.00059744353043828045 0 0.0079932164027832417 -0.00089347810660772131 0 0.0081346597568739566 -0.00081881649338364545 0 0.0077221116852485916 -0.0010815687054771513 0 0.0079932164027832417 -0.00089347810660772131 0 0.0077612704042991833 -0.00098391621356432838 0 0.0077757016289163707 -0.00089051187787920051 0 0.0081346597568739566 -0.00081881649338364545 0 0.0078970028891763265 -0.00083191973908878331 0 0.0079932164027832417 -0.00089347810660772131 0 0.0077757016289163707 -0.00089051187787920051 0 0.0081346597568739566 -0.00081881649338364545 0 0.0079932164027832417 -0.00089347810660772131 0 0.0077757016289163707 -0.00089051187787920051 0 0.0076986618865324888 -0.00094217763508965316 0 0.007958799516000075 -0.0013354262378810278 0 0.0081141565376044063 -0.0012080822133885697 0 0.0080831197271143303 -0.0011754171750106345 0 0.0080874871539380177 -0.0012014082016613718 0 0.0080052482948380493 -0.00096154850049916295 0 0.0081141565376044063 -0.0012080822133885697 0 0.0081346597568739566 -0.00081881649338364545 0 0.0078970028891763265 -0.00083191973908878331 0 0.0080052482948380493 -0.00096154850049916295 0 0.0075725834557323303 -0.0011479153636781826 0 0.0080831197271143303 -0.0011754171750106345 0 0.0079333011006273522 -0.0011546849102968217 0 0.0080589520259643811 -0.0010202199953615141 0 0.0077757016289163707 -0.00089051187787920051 0 0.0078970028891763265 -0.00083191973908878331 0 0.0075931399820381275 -0.00091980067375562824 0 0.007316257844292488 -0.0014896683009046018 0 0.0075725834557323303 -0.0011479153636781826 0 0.0066845193669858374 -0.0017960724533823884 0 0.0067254539494333012 -0.0015385718096238787 0 0.0070870250116788908 -0.0014870578295027902 0 0.007958799516000075 -0.0013354262378810278 0 0.0080831197271143303 -0.0011754171750106345 0 0.0079333011006273522 -0.0011546849102968217 0 0.0065122506286567836 -0.0006708052162271497 0 0.006811496112340526 -0.0010201313177369733 0 0.0069805772106645283 -0.00064606433883182069 0 0.006811496112340526 -0.0010201313177369733 0 0.0065879419463986105 -0.001210004498792153 0 0.0068039272812347945 -0.0013018957973114952 0 0.0065122506286567836 -0.0006708052162271497 0 0.006811496112340526 -0.0010201313177369733 0 0.0065879419463986105 -0.001210004498792153 0 0.0065879419463986105 -0.001210004498792153 0 0.0067254539494333012 -0.0015385718096238787 0 0.0068039272812347945 -0.0013018957973114952 0 0.0067254539494333012 -0.0015385718096238787 0 0.0068039272812347945 -0.0013018957973114952 0 0.0070870250116788908 -0.0014870578295027902 0 0.006811496112340526 -0.0010201313177369733 0 0.0068039272812347945 -0.0013018957973114952 0 0.0070870250116788908 -0.0014870578295027902 0 0.0075725834557323303 -0.0011479153636781826 0 0.0075963626312570923 -0.001070242003892408 0 0.0077757016289163707 -0.00089051187787920051 0 0.0075931399820381275 -0.00091980067375562824 0 0.0075833796353466029 -0.00092841234044743878 0 0.0075135191093981101 -0.00095440233039730113 0 0.0075068487286402644 -0.00093517527975602152 0 0.0073349336577764775 -0.00087841554068487828 0 0.0075833796353466029 -0.00092841234044743878 0 0.0075068487286402644 -0.00093517527975602152 0 0.0074795501246501736 -0.00091757862247879827 0 0.0075068487286402644 -0.00093517527975602152 0 0.0074795501246501736 -0.00091757862247879827 0 0.0073349336577764775 -0.00087841554068487828 0 0.0075931399820381275 -0.00091980067375562824 0 0.0075833796353466029 -0.00092841234044743878 0 0.0075068487286402644 -0.00093517527975602152 0 0.0075135191093981101 -0.00095440233039730113 0 0.0073349336577764775 -0.00087841554068487828 0 0.0070733741094656747 -0.00081511006363198376 0 0.0075725834557323303 -0.0011479153636781826 0 0.0068964700064213262 -0.00065953560036435994 0 0.0074795501246501736 -0.00091757862247879827 0 0.0073349336577764775 -0.00087841554068487828 0 0.0074872809241351077 -0.00091458057056188551 0 0.006811496112340526 -0.0010201313177369733 0 0.0070870250116788908 -0.0014870578295027902 0 0.0069805772106645283 -0.00064606433883182069 0 0.0073349336577764775 -0.00087841554068487828 0 0.0073050128001637422 -0.00085833816379546725 0 0.0070096389875537353 -0.00080996001579546333 0 0.0073349336577764775 -0.00087841554068487828 0 0.0070096389875537353 -0.00080996001579546333 0 0.0070733741094656747 -0.00081511006363198376 0 0.0073050128001637422 -0.00085833816379546725 0 0.0076044292277516615 -0.00093645280094561501 0 0.0076737884938931598 -0.00087446797512449631 0 0.0073050128001637422 -0.00085833816379546725 0 0.0074872809241351077 -0.00091458057056188551 0 0.0076044292277516615 -0.00093645280094561501 0 0.0073349336577764775 -0.00087841554068487828 0 0.0073050128001637422 -0.00085833816379546725 0 0.0074872809241351077 -0.00091458057056188551 0 0.0075833796353466029 -0.00092841234044743878 0 0.0074795501246501736 -0.00091757862247879827 0 0.0074872809241351077 -0.00091458057056188551 0 0.0075833796353466029 -0.00092841234044743878 0 0.0074872809241351077 -0.00091458057056188551 0 0.0076986618865324888 -0.00094217763508965316 0 0.0077757016289163707 -0.00089051187787920051 0 0.0075833796353466029 -0.00092841234044743878 0 0.0076986618865324888 -0.00094217763508965316 0 0.0074872809241351077 -0.00091458057056188551 0 0.0076986618865324888 -0.00094217763508965316 0 0.0076044292277516615 -0.00093645280094561501 0 0.0076044292277516615 -0.00093645280094561501 0 0.0077612704042991833 -0.00098391621356432838 0 0.0076737884938931598 -0.00087446797512449631 0 0.007138565830595473 -0.00085913076242275334 0 0.0070093403153488176 -0.00070913775371627536 0 0.0079932164027832417 -0.00089347810660772131 0 0.0076986618865324888 -0.00094217763508965316 0 0.0077612704042991833 -0.00098391621356432838 0 0.0076986618865324888 -0.00094217763508965316 0 0.0076044292277516615 -0.00093645280094561501 0 0.0077612704042991833 -0.00098391621356432838 0 0.0077221116852485916 -0.0010815687054771513 0 0.0077612704042991833 -0.00098391621356432838 0 0.0076737884938931598 -0.00087446797512449631 0 0.0063498020818599041 -0.00046989853956625995 0 0.0063719412070460764 -0.00054724141748370252 0 0.0065199883234857599 -0.00054097689584539969 0 0.0063498020818599041 -0.00046989853956625995 0 0.0063719412070460764 -0.00054724141748370252 0 0.006812905719681385 -0.00076084208998664581 0 0.0063719412070460764 -0.00054724141748370252 0 0.0063555502957871497 -0.0009019882046058616 0 0.006812905719681385 -0.00076084208998664581 0 0.0063719412070460764 -0.00054724141748370252 0 0.0063555502957871497 -0.0009019882046058616 0 0.0058869068629818109 -0.00070967561099376068 0 0.0063719412070460764 -0.00054724141748370252 0 0.0058322481837982639 -0.00047790935670867453 0 0.0058869068629818109 -0.00070967561099376068 0 0.0063555502957871497 -0.0009019882046058616 0 0.0058629275653500961 -0.0010616364634601398 0 0.0062820062836957558 -0.0012915384901550316 0 0.0063555502957871497 -0.0009019882046058616 0 0.0058869068629818109 -0.00070967561099376068 0 0.0058629275653500961 -0.0010616364634601398 0 0.0063555502957871497 -0.0009019882046058616 0 0.0066623324625779533 -0.0010665179702316855 0 0.006812905719681385 -0.00076084208998664581 0 0.0063555502957871497 -0.0009019882046058616 0 0.0066623324625779533 -0.0010665179702316855 0 0.0062820062836957558 -0.0012915384901550316 0 0.0066623324625779533 -0.0010665179702316855 0 0.0068333276516612832 -0.00083686802565405239 0 0.0069164840388572122 -0.0011045480975105915 0 0.0066623324625779533 -0.0010665179702316855 0 0.006812905719681385 -0.00076084208998664581 0 0.0068333276516612832 -0.00083686802565405239 0 0.0070093403153488176 -0.00070913775371627536 0 0.0068669535477914878 -0.00077495519968326875 0 0.0073050128001637422 -0.00085833816379546725 0 0.0076737884938931598 -0.00087446797512449631 0 0.006812905719681385 -0.00076084208998664581 0 0.006812905719681385 -0.00076084208998664581 0 0.0070096389875537353 -0.00080996001579546333 0 0.0068333276516612832 -0.00083686802565405239 0 0.0073050128001637422 -0.00085833816379546725 0 0.006812905719681385 -0.00076084208998664581 0 0.0070096389875537353 -0.00080996001579546333 0 0.0068964700064213262 -0.00065953560036435994 0 0.0070897845284170992 -0.0005404263233595673 0 0.0070733741094656747 -0.00081511006363198376 0 0.0062933988982872358 -0.00081686304729479539 0 0.0066617355648914767 -0.00079226038817110673 0 0.0070096389875537353 -0.00080996001579546333 0 0.0070733741094656747 -0.00081511006363198376 0 0.0066617355648914767 -0.00079226038817110673 0 0.0070096389875537353 -0.00080996001579546333 0 0.0068333276516612832 -0.00083686802565405239 0 0.0066617355648914767 -0.00079226038817110673 0 0.0068333276516612832 -0.00083686802565405239 0 0.0066617355648914767 -0.00079226038817110673 0 0.0069164840388572122 -0.0011045480975105915 0 0.0065368135191800304 -0.00086959698779182884 0 0.0063772131748652556 -0.0012160303971095212 0 0.0062933988982872358 -0.00081686304729479539 0 0.0066617355648914767 -0.00079226038817110673 0 0.0056107329197676676 -0.0010449566290968489 0 0.0060472279520950136 0.00028951640841915215 0 0.0066300991011220521 0.00020928565920996228 0 0.006160448019353542 0.00057811265173693383 0 0.0060472279520950136 0.00028951640841915215 0 0.0066300991011220521 0.00020928565920996228 0 0.0064556112078930908 -0.00020662265536596487 0 0.0060885385820733488 -0.00022714956264854573 0 0.0060472279520950136 0.00028951640841915215 0 0.0064556112078930908 -0.00020662265536596487 0 0.0069805772106645283 -0.00064606433883182069 0 0.0066300991011220521 0.00020928565920996228 0 0.0064556112078930908 -0.00020662265536596487 0 0.0065122506286567836 -0.0006708052162271497 0 0.0069805772106645283 -0.00064606433883182069 0 0.0064556112078930908 -0.00020662265536596487 0 0.0060885385820733488 -0.00022714956264854573 0 0.0065122506286567836 -0.0006708052162271497 0 0.0064556112078930908 -0.00020662265536596487 0 0.0046725403661795157 -0.00025447597101335581 0 0.0048661625365569354 -0.00018403879095027219 0 0.0048946877182537499 -0.00031905307416032455 0 0.0048661625365569354 -0.00018403879095027219 0 0.0048946877182537499 -0.00031905307416032455 0 0.0051562964918852611 -0.0004319307243511958 0 0.0046725403661795157 -0.00025447597101335581 0 0.0048318004037545192 -0.00038050031205457606 0 0.0048946877182537499 -0.00031905307416032455 0 0.0048318004037545192 -0.00038050031205457606 0 0.0048946877182537499 -0.00031905307416032455 0 0.0049660282872483683 -0.00040992426378801312 0 0.0048318004037545192 -0.00038050031205457606 0 0.0049660282872483683 -0.00040992426378801312 0 0.004965821451848775 -0.00053737463166551695 0 0.0048318004037545192 -0.00038050031205457606 0 0.0046733349886700394 -0.00041332228375513591 0 0.0047921440948089974 -0.00052147251613592711 0 0.0046725403661795157 -0.00025447597101335581 0 0.0048318004037545192 -0.00038050031205457606 0 0.0046733349886700394 -0.00041332228375513591 0 0.0046725403661795157 -0.00025447597101335581 0 0.0046733349886700394 -0.00041332228375513591 0 0.0045670444482900042 -0.00034307900887125138 0 0.0046733349886700394 -0.00041332228375513591 0 0.0045555247611960385 -0.00045332141606571304 0 0.0045670444482900042 -0.00034307900887125138 0 0.0046733349886700394 -0.00041332228375513591 0 0.0045555247611960385 -0.00045332141606571304 0 0.0046471217616618236 -0.00055698989874591268 0 0.0045555247611960385 -0.00045332141606571304 0 0.0044274548210249997 -0.00039869280635284053 0 0.0044979072762599756 -0.00057834538473404559 0 0.0045555247611960385 -0.00045332141606571304 0 0.0045670444482900042 -0.00034307900887125138 0 0.0044274548210249997 -0.00039869280635284053 0 0.0044274548210249997 -0.00039869280635284053 0 0.0044573429173228206 -0.00022448508380838058 0 0.0042945672177806251 -0.00027607026647259427 0 0.0045670444482900042 -0.00034307900887125138 0 0.0044274548210249997 -0.00039869280635284053 0 0.0044573429173228206 -0.00022448508380838058 0 0.0046725403661795157 -0.00025447597101335581 0 0.0045670444482900042 -0.00034307900887125138 0 0.0044573429173228206 -0.00022448508380838058 0 0.0046725403661795157 -0.00025447597101335581 0 0.0044573429173228206 -0.00022448508380838058 0 0.0044482587489129725 -7.5143844514735699e-05 0 0.0044573429173228206 -0.00022448508380838058 0 0.0044482587489129725 -7.5143844514735699e-05 0 0.0043704531962558942 -0.00012625668999170398 0 0.0044482587489129725 -7.5143844514735699e-05 0 0.0043704531962558942 -0.00012625668999170398 0 0.0043705554069217497 -0.00025986197028960459 0 0.0050986511951586861 -7.5281482707401339e-05 0 0.0048567721886059716 0.00014280818047638464 0 0.0051404980333966477 1.0240078068752875e-05 0 0.0053686352690882093 -0.00048435084176726032 0 0.0058457359762112164 -0.00037382541164291604 0 0.0060832659226692908 -0.00088376829560468803 0 0.0065706242347661967 -0.00079361683556813402 0 0.0064291287827164022 -0.00076490158982541595 0 0.0046725403661795157 -0.00025447597101335581 0 0.0048661625365569354 -0.00018403879095027219 0 0.0044482587489129725 -7.5143844514735699e-05 0 0.004847536102777497 -2.539598467444032e-05 0 0.0053686352690882093 -0.00048435084176726032 0 0.0064291287827164022 -0.00076490158982541595 0 0.0065530543121430536 -0.00075908556225971183 0 0.0065944110370110371 -0.00071555574066239317 0 0.0065706242347661967 -0.00079361683556813402 0 0.0064291287827164022 -0.00076490158982541595 0 0.0065530543121430536 -0.00075908556225971183 0 0.0065971399765723665 -0.00073190994393248739 0 0.0065944110370110371 -0.00071555574066239317 0 0.006583166997614201 -0.00069601919829741829 0 0.0065530543121430536 -0.00075908556225971183 0 0.0065944110370110371 -0.00071555574066239317 0 0.0065749655811211463 -0.0007257958544226792 0 0.0065944110370110371 -0.00071555574066239317 0 0.006583166997614201 -0.00069601919829741829 0 0.0065749655811211463 -0.0007257958544226792 0 0.006583166997614201 -0.00069601919829741829 0 0.0065749655811211463 -0.0007257958544226792 0 0.0065199883234857599 -0.00054097689584539969 0 0.0065706242347661967 -0.00079361683556813402 0 0.0065530543121430536 -0.00075908556225971183 0 0.0065749655811211463 -0.0007257958544226792 0 0.0065971399765723665 -0.00073190994393248739 0 0.0063498020818599041 -0.00046989853956625995 0 0.0065199883234857599 -0.00054097689584539969 0 0.0065971399765723665 -0.00073190994393248739 0 0.006583166997614201 -0.00069601919829741829 0 0.0065199883234857599 -0.00054097689584539969 0 0.006358249847188217 -0.00053100287533081611 0 0.0060662526619256639 -0.0003817831151763407 0 0.0063719412070460764 -0.00054724141748370252 0 0.0056084270873835631 -0.00018159004919099329 0 0.0058322481837982639 -0.00047790935670867453 0 0.0056084270873835631 -0.00018159004919099329 0 0.0054826302205965745 -0.00046323090555962893 0 0.0058322481837982639 -0.00047790935670867453 0 0.004847536102777497 -2.539598467444032e-05 0 0.0055147519276728743 -0.00050619606158985029 0 0.0065706242347661967 -0.00079361683556813402 0 0.0065749655811211463 -0.0007257958544226792 0 0.0065199883234857599 -0.00054097689584539969 0 0.0048661625365569354 -0.00018403879095027219 0 0.0051562964918852611 -0.0004319307243511958 0 0.0054826302205965745 -0.00046323090555962893 0 0.0058457359762112164 -0.00037382541164291604 0 0.0060662526619256639 -0.0003817831151763407 0 0.0050986511951586861 -7.5281482707401339e-05 0 0.0051404980333966477 1.0240078068752875e-05 0 0.0056084270873835631 -0.00018159004919099329 0 0.0050986511951586861 -7.5281482707401339e-05 0 0.0056084270873835631 -0.00018159004919099329 0 0.0054826302205965745 -0.00046323090555962893 0 0.0048946877182537499 -0.00031905307416032455 0 0.0049660282872483683 -0.00040992426378801312 0 0.0051562964918852611 -0.0004319307243511958 0 0.0051562964918852611 -0.0004319307243511958 0 0.0051928127437152255 -0.00064963810029446286 0 0.004965821451848775 -0.00053737463166551695 0 0.0049660282872483683 -0.00040992426378801312 0 0.0051562964918852611 -0.0004319307243511958 0 0.004965821451848775 -0.00053737463166551695 0 0.0051562964918852611 -0.0004319307243511958 0 0.0054826302205965745 -0.00046323090555962893 0 0.0051928127437152255 -0.00064963810029446286 0 0.0054826302205965745 -0.00046323090555962893 0 0.0051928127437152255 -0.00064963810029446286 0 0.0054865101905167959 -0.00084180708153395241 0 0.0051928127437152255 -0.00064963810029446286 0 0.0054865101905167959 -0.00084180708153395241 0 0.0051056583689317002 -0.00091901499995025509 0 0.0051928127437152255 -0.00064963810029446286 0 0.0051056583689317002 -0.00091901499995025509 0 0.0049778188757125729 -0.00072778392038565665 0 0.0051928127437152255 -0.00064963810029446286 0 0.0049778188757125729 -0.00072778392038565665 0 0.004965821451848775 -0.00053737463166551695 0 0.0054826302205965745 -0.00046323090555962893 0 0.0058322481837982639 -0.00047790935670867453 0 0.0058869068629818109 -0.00070967561099376068 0 0.0054826302205965745 -0.00046323090555962893 0 0.0058869068629818109 -0.00070967561099376068 0 0.0054865101905167959 -0.00084180708153395241 0 0.0058869068629818109 -0.00070967561099376068 0 0.0054865101905167959 -0.00084180708153395241 0 0.0058629275653500961 -0.0010616364634601398 0 0.0054865101905167959 -0.00084180708153395241 0 0.0058629275653500961 -0.0010616364634601398 0 0.0053662444796507358 -0.0012219269763072067 0 0.0054865101905167959 -0.00084180708153395241 0 0.0051056583689317002 -0.00091901499995025509 0 0.0053662444796507358 -0.0012219269763072067 0 0.0051056583689317002 -0.00091901499995025509 0 0.0050576111334593825 -0.0011874457207531066 0 0.0048792333958332396 -0.0010528151649876489 0 0.0051056583689317002 -0.00091901499995025509 0 0.0050576111334593825 -0.0011874457207531066 0 0.0053662444796507358 -0.0012219269763072067 0 0.0048792333958332396 -0.0010528151649876489 0 0.0047166784770899537 -0.001173313497784208 0 0.0048539125041781941 -0.0012745474228278246 0 0.0050576111334593825 -0.0011874457207531066 0 0.0048792333958332396 -0.0010528151649876489 0 0.0048539125041781941 -0.0012745474228278246 0 0.0047166784770899537 -0.001173313497784208 0 0.0046043004237096129 -0.0011014208038654431 0 0.0045638588689613938 -0.0012283498026820904 0 0.0048792333958332396 -0.0010528151649876489 0 0.0047166784770899537 -0.001173313497784208 0 0.0047181536075366626 -0.00099842700931320025 0 0.0047166784770899537 -0.001173313497784208 0 0.0046043004237096129 -0.0011014208038654431 0 0.0047181536075366626 -0.00099842700931320025 0 0.0046043004237096129 -0.0011014208038654431 0 0.0047181536075366626 -0.00099842700931320025 0 0.0045686094277910287 -0.00095985683184794668 0 0.0047181536075366626 -0.00099842700931320025 0 0.0046859515531742649 -0.00083484239465032753 0 0.0045686094277910287 -0.00095985683184794668 0 0.0047181536075366626 -0.00099842700931320025 0 0.0046859515531742649 -0.00083484239465032753 0 0.0048470732064376 -0.00086094734951258883 0 0.0051056583689317002 -0.00091901499995025509 0 0.0048470732064376 -0.00086094734951258883 0 0.0049778188757125729 -0.00072778392038565665 0 0.0051056583689317002 -0.00091901499995025509 0 0.0048792333958332396 -0.0010528151649876489 0 0.0048470732064376 -0.00086094734951258883 0 0.0048792333958332396 -0.0010528151649876489 0 0.0047181536075366626 -0.00099842700931320025 0 0.0048470732064376 -0.00086094734951258883 0 0.0049778188757125729 -0.00072778392038565665 0 0.0047916606878075831 -0.00067931749922710597 0 0.004965821451848775 -0.00053737463166551695 0 0.0048470732064376 -0.00086094734951258883 0 0.0049778188757125729 -0.00072778392038565665 0 0.0047916606878075831 -0.00067931749922710597 0 0.0046859515531742649 -0.00083484239465032753 0 0.0048470732064376 -0.00086094734951258883 0 0.0047916606878075831 -0.00067931749922710597 0 0.0046859515531742649 -0.00083484239465032753 0 0.0046174023242935881 -0.00070874195053446162 0 0.0045672645599520644 -0.0008312786379813396 0 0.0046859515531742649 -0.00083484239465032753 0 0.0047916606878075831 -0.00067931749922710597 0 0.0046174023242935881 -0.00070874195053446162 0 0.0047916606878075831 -0.00067931749922710597 0 0.0046471217616618236 -0.00055698989874591268 0 0.0046174023242935881 -0.00070874195053446162 0 0.0047916606878075831 -0.00067931749922710597 0 0.0046471217616618236 -0.00055698989874591268 0 0.0047921440948089974 -0.00052147251613592711 0 0.0046733349886700394 -0.00041332228375513591 0 0.0046471217616618236 -0.00055698989874591268 0 0.0047921440948089974 -0.00052147251613592711 0 0.0048318004037545192 -0.00038050031205457606 0 0.0047921440948089974 -0.00052147251613592711 0 0.004965821451848775 -0.00053737463166551695 0 0.0047916606878075831 -0.00067931749922710597 0 0.0047921440948089974 -0.00052147251613592711 0 0.004965821451848775 -0.00053737463166551695 0 0.0044274548210249997 -0.00039869280635284053 0 0.004286021763718023 -0.00061739086953901371 0 0.0042764095438483909 -0.00045042954879239631 0 0.0044979072762599756 -0.00057834538473404559 0 0.0044720934186953474 -0.0007536429092343638 0 0.004286021763718023 -0.00061739086953901371 0 0.0044274548210249997 -0.00039869280635284053 0 0.0044979072762599756 -0.00057834538473404559 0 0.004286021763718023 -0.00061739086953901371 0 0.0045555247611960385 -0.00045332141606571304 0 0.0046471217616618236 -0.00055698989874591268 0 0.0044979072762599756 -0.00057834538473404559 0 0.0046471217616618236 -0.00055698989874591268 0 0.0044979072762599756 -0.00057834538473404559 0 0.0046174023242935881 -0.00070874195053446162 0 0.0044979072762599756 -0.00057834538473404559 0 0.0046174023242935881 -0.00070874195053446162 0 0.0044720934186953474 -0.0007536429092343638 0 0.0046174023242935881 -0.00070874195053446162 0 0.0045672645599520644 -0.0008312786379813396 0 0.0044720934186953474 -0.0007536429092343638 0 0.0044720934186953474 -0.0007536429092343638 0 0.004279052651327696 -0.00089550731003261268 0 0.004286021763718023 -0.00061739086953901371 0 0.0044720934186953474 -0.0007536429092343638 0 0.004279052651327696 -0.00089550731003261268 0 0.0044513184832309866 -0.00094085228462748147 0 0.004279052651327696 -0.00089550731003261268 0 0.0044513184832309866 -0.00094085228462748147 0 0.0043278978654877473 -0.001112081590443164 0 0.0046859515531742649 -0.00083484239465032753 0 0.0045672645599520644 -0.0008312786379813396 0 0.0045686094277910287 -0.00095985683184794668 0 0.0045672645599520644 -0.0008312786379813396 0 0.0044513184832309866 -0.00094085228462748147 0 0.0045686094277910287 -0.00095985683184794668 0 0.0045672645599520644 -0.0008312786379813396 0 0.0044720934186953474 -0.0007536429092343638 0 0.0044513184832309866 -0.00094085228462748147 0 0.0044513184832309866 -0.00094085228462748147 0 0.0045686094277910287 -0.00095985683184794668 0 0.0044889276982552481 -0.0010986822915719007 0 0.0046043004237096129 -0.0011014208038654431 0 0.0045686094277910287 -0.00095985683184794668 0 0.0044889276982552481 -0.0010986822915719007 0 0.0044513184832309866 -0.00094085228462748147 0 0.0044889276982552481 -0.0010986822915719007 0 0.0043278978654877473 -0.001112081590443164 0 0.0044889276982552481 -0.0010986822915719007 0 0.0043278978654877473 -0.001112081590443164 0 0.0044208612908115622 -0.0012534250381406207 0 0.0046043004237096129 -0.0011014208038654431 0 0.0044889276982552481 -0.0010986822915719007 0 0.0045638588689613938 -0.0012283498026820904 0 0.0044889276982552481 -0.0010986822915719007 0 0.0045638588689613938 -0.0012283498026820904 0 0.0044208612908115622 -0.0012534250381406207 0 0.0043278978654877473 -0.001112081590443164 0 0.0040936944089951582 -0.0011828534880654125 0 0.0042569858638216631 -0.0012955358221263917 0 0.0043278978654877473 -0.001112081590443164 0 0.0042569858638216631 -0.0012955358221263917 0 0.0044208612908115622 -0.0012534250381406207 0 0.004279052651327696 -0.00089550731003261268 0 0.0040936944089951582 -0.0011828534880654125 0 0.0039810869177304706 -0.00077257505430675057 0 0.0040936944089951582 -0.0011828534880654125 0 0.0036918400407386694 -0.00096249043130542126 0 0.0039810869177304706 -0.00077257505430675057 0 0.0040936944089951582 -0.0011828534880654125 0 0.0036918400407386694 -0.00096249043130542126 0 0.0038817853313943421 -0.0014688598692076495 0 0.004279052651327696 -0.00089550731003261268 0 0.0043278978654877473 -0.001112081590443164 0 0.0040936944089951582 -0.0011828534880654125 0 0.0036955158415723794 -0.0009445982890130373 0 0.0035961761054841218 -0.0003880017323106743 0 0.003708681361824792 -0.00058211926996020141 0 0.0040809805122788041 -0.00051838288143422667 0 0.0039810869177304706 -0.00077257505430675057 0 0.0036918400407386694 -0.00096249043130542126 0 0.003708681361824792 -0.00058211926996020141 0 0.0039810869177304706 -0.00077257505430675057 0 0.0040809805122788041 -0.00051838288143422667 0 0.004286021763718023 -0.00061739086953901371 0 0.0039810869177304706 -0.00077257505430675057 0 0.0040809805122788041 -0.00051838288143422667 0 0.004286021763718023 -0.00061739086953901371 0 0.0042764095438483909 -0.00045042954879239631 0 0.004279052651327696 -0.00089550731003261268 0 0.004286021763718023 -0.00061739086953901371 0 0.0039810869177304706 -0.00077257505430675057 0 -0.0023812350252976787 -0.0013676308503054986 0 -0.0022291434345501106 -0.0012522573696571251 0 -0.0023070220827633211 -0.0010289905212477258 0 0.00014114106003826945 -0.00098584814361581336 0 -0.0011656560107974534 -0.0013049914914814022 0 0.0031005063872163357 -0.0011747994667616719 0 0.0028111398653867504 -0.00058996346039524622 0 0.0025088251974265162 -0.0015110246002319266 0 0.0036918400407386694 -0.00096249043130542126 0 0.0031005063872163357 -0.0011747994667616719 0 0.0028111398653867504 -0.00058996346039524622 0 0.0036918400407386694 -0.00096249043130542126 0 0.0033868835676737299 -0.000304531223829193 0 0.0028111398653867504 -0.00058996346039524622 0 -0.0023812350252976787 -0.0013676308503054986 0 -0.0022216855241693105 -0.001485533346497042 0 -0.0022291434345501106 -0.0012522573696571251 0 -0.0023812350252976787 -0.0013676308503054986 0 -0.0022216855241693105 -0.001485533346497042 0 -0.0023010544068174698 -0.0015831813281220583 0 -0.0023010544068174698 -0.0015831813281220583 0 -0.002412072087664436 -0.0016952572718484788 0 -0.0022614695447773368 -0.001716064387708633 0 -0.0022253519906136748 -0.0016445699802329044 0 -0.0023010544068174698 -0.0015831813281220583 0 -0.0022614695447773368 -0.001716064387708633 0 -0.0022253519906136748 -0.0016445699802329044 0 -0.0022614695447773368 -0.001716064387708633 0 -0.0021496319912725826 -0.0017300756332265551 0 -0.0022216855241693105 -0.001485533346497042 0 -0.0022253519906136748 -0.0016445699802329044 0 -0.0023010544068174698 -0.0015831813281220583 0 0.003708681361824792 -0.00058211926996020141 0 0.0037151348952173713 -0.00014680193114501237 0 0.0035492869558235276 -0.00017065635913918992 0 -0.0023812350252976787 -0.0013676308503054986 0 -0.0023010544068174698 -0.0015831813281220583 0 -0.002412072087664436 -0.0016952572718484788 0 0.00014114106003826945 -0.00098584814361581336 0 0.0021433374452179744 -0.00066689956518872534 0 0.0035961761054841218 -0.0003880017323106743 0 0.0021433374452179744 -0.00066689956518872534 0 0.0033868835676737299 -0.000304531223829193 0 0.0028111398653867504 -0.00058996346039524622 0 0.0031050123745243515 0.00032185240795970928 0 -0.002412072087664436 -0.0016952572718484788 0 -0.0023642659416246827 -0.0017834792044359659 0 -0.0022614695447773368 -0.001716064387708633 0 0.0021433374452179744 -0.00066689956518872534 0 0.0039471274311905398 -0.00053203352115250419 0 0.0037151348952173713 -0.00014680193114501237 0 0.0035492869558235276 -0.00017065635913918992 0 0.0035897470338364188 6.4630771076212723e-05 0 0.0039471274311905398 -0.00053203352115250419 0 0.0028368193291771968 -0.0014373259557736761 0 0.0046857040615250296 -0.00095232293487576395 0 0.0045361399758692593 -0.00093394031526065576 0 0.0045909259303423683 -0.00064720971006761185 0 0.0027574577546646785 -0.00079008869098580198 0 0.0026700313279816651 -0.0010791454761821071 0 0.002890590500226825 -0.0011044697423643003 0 0.0021433374452179744 -0.00066689956518872534 0 0.0028368193291771968 -0.0014373259557736761 0 -0.0023642659416246827 -0.0017834792044359659 0 -0.0022614695447773368 -0.001716064387708633 0 -0.0020933112783577401 -0.0018669181910474101 0 0.0065127609703507739 -0.0033448448139015352 0 0.0057371178812985714 -0.0030088939698109524 0 0.0052727937150029991 -0.0033090031556392346 0 0.0028368193291771968 -0.0014373259557736761 0 0.0014177303906085731 -0.0027473375927954133 0 0.0042945672177806251 -0.00027607026647259427 0 0.0040738323537942208 -0.00033062511060331229 0 0.0043415495643885707 -7.691951367254722e-05 0 0.0040809805122788041 -0.00051838288143422667 0 0.0042945672177806251 -0.00027607026647259427 0 0.0042764095438483909 -0.00045042954879239631 0 0.0044274548210249997 -0.00039869280635284053 0 0.0042945672177806251 -0.00027607026647259427 0 0.0042764095438483909 -0.00045042954879239631 0 0.0040809805122788041 -0.00051838288143422667 0 0.0042945672177806251 -0.00027607026647259427 0 0.0040738323537942208 -0.00033062511060331229 0 0.003708681361824792 -0.00058211926996020141 0 0.0040738323537942208 -0.00033062511060331229 0 0.0039171347102689462 -0.00017954405595075609 0 0.003708681361824792 -0.00058211926996020141 0 0.0037151348952173713 -0.00014680193114501237 0 0.0039171347102689462 -0.00017954405595075609 0 0.003708681361824792 -0.00058211926996020141 0 0.0040809805122788041 -0.00051838288143422667 0 0.0040738323537942208 -0.00033062511060331229 0 0.0035897470338364188 6.4630771076212723e-05 0 0.0039171347102689462 -0.00017954405595075609 0 0.0043415495643885707 -7.691951367254722e-05 0 0.0039471274311905398 -0.00053203352115250419 0 0.0044795975282688368 2.5188934922457679e-05 0 0.0040738323537942208 -0.00033062511060331229 0 0.0039171347102689462 -0.00017954405595075609 0 0.0043415495643885707 -7.691951367254722e-05 0 0.0050490525592527405 -0.00010806925015635937 0 0.0046816626507885754 -0.00024156901878261456 0 0.0043415495643885707 -7.691951367254722e-05 0 0.0037151348952173713 -0.00014680193114501237 0 0.0035897470338364188 6.4630771076212723e-05 0 0.0039171347102689462 -0.00017954405595075609 0 0.0050490525592527405 -0.00010806925015635937 0 0.0046816626507885754 -0.00024156901878261456 0 0.0047852090081041817 -0.00039307847067205742 0 0.0046816626507885754 -0.00024156901878261456 0 0.0043415495643885707 -7.691951367254722e-05 0 0.0046104922098103027 -0.00030713980345099313 0 0.0044573429173228206 -0.00022448508380838058 0 0.0042945672177806251 -0.00027607026647259427 0 0.0043704531962558942 -0.00012625668999170398 0 0.0042945672177806251 -0.00027607026647259427 0 0.0043415495643885707 -7.691951367254722e-05 0 0.0043704531962558942 -0.00012625668999170398 0 0.0043415495643885707 -7.691951367254722e-05 0 0.0043704531962558942 -0.00012625668999170398 0 0.0043705554069217497 -0.00025986197028960459 0 0.0061579691246822629 -0.0012256097775060863 0 0.0055491760835954147 -0.00090388905338313499 0 0.0052961204677701122 -0.00047897721575795426 0 0.0053686352690882093 -0.00048435084176726032 0 0.0056481616341770881 -0.00074000445522874624 0 0.0057679283920977443 -0.00041710776413378425 0 0.0060832659226692908 -0.00088376829560468803 0 0.0052961204677701122 -0.00047897721575795426 0 0.0043415495643885707 -7.691951367254722e-05 0 0.0043705554069217497 -0.00025986197028960459 0 0.0046104922098103027 -0.00030713980345099313 0 0.0043705554069217497 -0.00025986197028960459 0 0.0048678033337054751 -0.00052514889105422175 0 0.0046104922098103027 -0.00030713980345099313 0 0.0055491760835954147 -0.00090388905338313499 0 0.0052961204677701122 -0.00047897721575795426 0 0.0048678033337054751 -0.00052514889105422175 0 0.0049938530396513234 -0.0005754418262923066 0 0.0048732304040231223 -0.00053039876366435404 0 0.0057679283920977443 -0.00041710776413378425 0 0.0052961204677701122 -0.00047897721575795426 0 0.0053878908580948523 -0.00023233665573607401 0 0.0052961204677701122 -0.00047897721575795426 0 0.0053878908580948523 -0.00023233665573607401 0 0.0050865424016949797 -0.00029867133759422138 0 0.0053878908580948523 -0.00023233665573607401 0 0.0056142127594035265 -1.1199317672861231e-05 0 0.0051403214623605116 -4.819860522900726e-05 0 0.0053878908580948523 -0.00023233665573607401 0 0.0050865424016949797 -0.00029867133759422138 0 0.0051403214623605116 -4.819860522900726e-05 0 0.0057679283920977443 -0.00041710776413378425 0 0.0053878908580948523 -0.00023233665573607401 0 0.0056142127594035265 -1.1199317672861231e-05 0 0.0048753993793359349 -0.00029440870219537348 0 0.0046615966699943964 -0.00025609443856764472 0 0.0048530341398876839 -5.4322888033306069e-05 0 0.0048753993793359349 -0.00029440870219537348 0 0.0051403214623605116 -4.819860522900726e-05 0 0.0048530341398876839 -5.4322888033306069e-05 0 0.0050865424016949797 -0.00029867133759422138 0 0.0048753993793359349 -0.00029440870219537348 0 0.0051403214623605116 -4.819860522900726e-05 0 0.0050865424016949797 -0.00029867133759422138 0 0.0048753993793359349 -0.00029440870219537348 0 0.0048678033337054751 -0.00052514889105422175 0 0.0052961204677701122 -0.00047897721575795426 0 0.0050865424016949797 -0.00029867133759422138 0 0.0048678033337054751 -0.00052514889105422175 0 0.0048753993793359349 -0.00029440870219537348 0 0.0048373373060162138 -0.00050150223644437517 0 0.0048678033337054751 -0.00052514889105422175 0 0.0048373373060162138 -0.00050150223644437517 0 0.0048678033337054751 -0.00052514889105422175 0 0.0047852090081041817 -0.00039307847067205742 0 0.0050490525592527405 -0.00010806925015635937 0 0.0048373373060162138 -0.00050150223644437517 0 0.0047852090081041817 -0.00039307847067205742 0 0.0048678033337054751 -0.00052514889105422175 0 0.0046104922098103027 -0.00030713980345099313 0 0.0047852090081041817 -0.00039307847067205742 0 0.0046816626507885754 -0.00024156901878261456 0 0.0046104922098103027 -0.00030713980345099313 0 0.0047852090081041817 -0.00039307847067205742 0 0.0039471274311905398 -0.00053203352115250419 0 0.004940245577819663 -0.00042096910746729568 0 0.0046857040615250296 -0.00095232293487576395 0 0.0048373373060162138 -0.00050150223644437517 0 0.0045909259303423683 -0.00064720971006761185 0 0.0045361399758692593 -0.00093394031526065576 0 0.0045909259303423683 -0.00064720971006761185 0 0.0043160558755613396 -0.00039147674075972329 0 0.0045909259303423683 -0.00064720971006761185 0 0.0045992066027470465 -0.00044811831061993511 0 0.0043160558755613396 -0.00039147674075972329 0 0.0048373373060162138 -0.00050150223644437517 0 0.0045909259303423683 -0.00064720971006761185 0 0.0045992066027470465 -0.00044811831061993511 0 0.0028368193291771968 -0.0014373259557736761 0 0.0060830005675412144 -0.001848941924895912 0 0.0065127609703507739 -0.0033448448139015352 0 0.0057371178812985714 -0.0030088939698109524 0 0.0061123113348161241 -0.0024158634488283168 0 0.0057495743225934384 -0.0030152720415578625 0 0.0060830005675412144 -0.001848941924895912 0 0.0057371178812985714 -0.0030088939698109524 0 0.0063642273635801773 -0.0022236357159856838 0 0.0056660923634446747 -0.0024160840984150766 0 0.0064575870268589065 -0.0023306647292282061 0 0.0061055342232184621 -0.001472900554398425 0 0.006661308924995649 -0.0011777975527959327 0 0.0063642273635801773 -0.0022236357159856838 0 0.0056447686416181342 -0.0017792830910334061 0 0.0056660923634446747 -0.0024160840984150766 0 0.0060830005675412144 -0.001848941924895912 0 0.0061834361582069827 -0.0017301246838746316 0 0.0063642273635801773 -0.0022236357159856838 0 0.0061055342232184621 -0.001472900554398425 0 0.0056447686416181342 -0.0017792830910334061 0 0.0043160558755613396 -0.00039147674075972329 0 0.0046615966699943964 -0.00025609443856764472 0 0.004632629783417966 0.00014578712239786472 0 0.0060830005675412144 -0.001848941924895912 0 0.0056671740840113305 -0.00021488263278522329 0 0.0064575870268589065 -0.0023306647292282061 0 0.0073924117694440438 -0.0009707948029493552 0 0.006661308924995649 -0.0011777975527959327 0 0.0048753993793359349 -0.00029440870219537348 0 0.0048373373060162138 -0.00050150223644437517 0 0.0046615966699943964 -0.00025609443856764472 0 0.0048373373060162138 -0.00050150223644437517 0 0.0045992066027470465 -0.00044811831061993511 0 0.0046615966699943964 -0.00025609443856764472 0 0.0045992066027470465 -0.00044811831061993511 0 0.0043160558755613396 -0.00039147674075972329 0 0.0046615966699943964 -0.00025609443856764472 0 0.0046615966699943964 -0.00025609443856764472 0 0.004632629783417966 0.00014578712239786472 0 0.0048530341398876839 -5.4322888033306069e-05 0 0.0073924117694440438 -0.0009707948029493552 0 0.006661308924995649 -0.0011777975527959327 0 0.007144015006861174 -0.00041897934674412532 0 0.0061055342232184621 -0.001472900554398425 0 0.0062204389990399645 -0.00069011580972695393 0 0.0057928021881939323 -0.0013399446119330576 0 0.0061055342232184621 -0.001472900554398425 0 0.006661308924995649 -0.0011777975527959327 0 0.0062204389990399645 -0.00069011580972695393 0 0.006661308924995649 -0.0011777975527959327 0 0.0062204389990399645 -0.00069011580972695393 0 0.007144015006861174 -0.00041897934674412532 0 0.0057673993008724072 -0.00123220656598629 0 0.0055975335035105345 -0.0010850444440713776 0 0.0055986195938021038 -0.0012290327595431425 0 0.013497654158062119 -0.0018866287634334066 0 0.013578847237939989 -0.0021028341665018783 0 0.013369559592579907 -0.002171388010912813 0 0.0091469820868868065 -0.00092119149538052222 0 0.0095627231672678198 -0.0016717444248048011 0 0.0057673993008724072 -0.00123220656598629 0 0.0061230815514765986 -0.00099646329935032117 0 0.0055975335035105345 -0.0010850444440713776 0 0.0062204389990399645 -0.00069011580972695393 0 0.007144015006861174 -0.00041897934674412532 0 0.0070737781270415563 -7.4772094811159502e-05 0 0.0057756100288240703 -0.0011658360418313662 0 0.0091469820868868065 -0.00092119149538052222 0 0.007144015006861174 -0.00041897934674412532 0 0.0070737781270415563 -7.4772094811159502e-05 0 0.0083782312222675723 0.00043133090376388497 0 0.0079991989336842401 0.00056576063886943587 0 0.0070737781270415563 -7.4772094811159502e-05 0 0.0083782312222675723 0.00043133090376388497 0 0.0073924117694440438 -0.0009707948029493552 0 0.007144015006861174 -0.00041897934674412532 0 0.0083782312222675723 0.00043133090376388497 0 0.012420523789881297 -0.0015999319412697982 0 0.0091469820868868065 -0.00092119149538052222 0 0.004632629783417966 0.00014578712239786472 0 0.0050463890691071558 0.00076365157652691004 0 0.0049915865862568435 0.00020886399750671481 0 0.0050463890691071558 0.00076365157652691004 0 0.005367296574139778 0.00025524345730622386 0 0.0049915865862568435 0.00020886399750671481 0 0.0056671740840113305 -0.00021488263278522329 0 0.0089898022046660912 -0.00069394534262096151 0 0.012420523789881297 -0.0015999319412697982 0 0.0089898022046660912 -0.00069394534262096151 0 0.011873234560030053 -0.0017497679094479858 0 0.011700598207933994 -0.0012740559294365814 0 0.01237491080956358 -0.0015387550786444871 0 0.005712566566145493 0.00055343494004864906 0 0.0050463890691071558 0.00076365157652691004 0 0.005367296574139778 0.00025524345730622386 0 0.0086358737975731903 -0.00031323659132126154 0 0.0089898022046660912 -0.00069394534262096151 0 0.005712566566145493 0.00055343494004864906 0 0.005367296574139778 0.00025524345730622386 0 0.0056142127594035265 -1.1199317672861231e-05 0 0.005367296574139778 0.00025524345730622386 0 0.0056142127594035265 -1.1199317672861231e-05 0 0.0051403214623605116 -4.819860522900726e-05 0 0.005367296574139778 0.00025524345730622386 0 0.0051403214623605116 -4.819860522900726e-05 0 0.0049915865862568435 0.00020886399750671481 0 0.0051403214623605116 -4.819860522900726e-05 0 0.0048530341398876839 -5.4322888033306069e-05 0 0.0049915865862568435 0.00020886399750671481 0 0.004632629783417966 0.00014578712239786472 0 0.0048530341398876839 -5.4322888033306069e-05 0 0.0049915865862568435 0.00020886399750671481 0 0.0038902616500933514 -0.0011558263298481308 0 0.0033413419306534686 -0.00043070007048456372 0 0.0034009827393185958 -0.0014287531075463079 0 0.0027555368877819966 -0.0010706531312413014 0 0.0033413419306534686 -0.00043070007048456372 0 0.0034009827393185958 -0.0014287531075463079 0 0.0038902616500933514 -0.0011558263298481308 0 0.0033413419306534686 -0.00043070007048456372 0 0.0043346947090387462 -0.00082193041241484968 0 0.0074890629361413878 -0.0016804598274711361 0 0.0044275693200855094 -0.000795676218461013 0 0.0027555368877819966 -0.0010706531312413014 0 0.002350794748901321 -0.0005684725640001067 0 0.0033413419306534686 -0.00043070007048456372 0 0.0019793720892378438 -0.0012177635071792814 0 0.0027555368877819966 -0.0010706531312413014 0 0.002538298872855854 -0.0017147536304263442 0 0.0019793720892378438 -0.0012177635071792814 0 0.0027555368877819966 -0.0010706531312413014 0 0.002350794748901321 -0.0005684725640001067 0 0.011514180432840639 -0.0021181593990703459 0 0.011660421099852464 -0.0018861046546746849 0 0.0123593734536821 -0.0024535831523702385 0 0.0040314248989161703 -0.0014194280569559329 0 0.0074890629361413878 -0.0016804598274711361 0 0.0063706315585385278 -0.0018495157969306791 0 0.0066454885469478878 -0.0022527277712889437 0 0.0071940846134323968 -0.0022048691992263593 0 0.0094247547243187253 -0.0027312196860895255 0 0.0074890629361413878 -0.0016804598274711361 0 0.012798278347533634 -0.0019637280223918285 0 0.012298831550257551 -0.001790521642936134 0 0.0123593734536821 -0.0024535831523702385 0 0.0074890629361413878 -0.0016804598274711361 0 0.0095180116844340978 -0.0017688325032692133 0 0.012798278347533634 -0.0019637280223918285 0 0.0123593734536821 -0.0024535831523702385 0 0.012968301972578374 -0.0023342561908349831 0 0.013216197608376608 -0.0019837752715005149 0 0.012798278347533634 -0.0019637280223918285 0 0.012968301972578374 -0.0023342561908349831 0 0.013216197608376608 -0.0019837752715005149 0 0.012968301972578374 -0.0023342561908349831 0 0.013369559592579907 -0.002171388010912813 0 0.0055022827957747194 -0.001238410220662568 0 0.0055975335035105345 -0.0010850444440713776 0 0.0055156826626756869 -0.0011953673309458295 0 0.0095180116844340978 -0.0017688325032692133 0 0.0095627231672678198 -0.0016717444248048011 0 0.0055975335035105345 -0.0010850444440713776 0 0.0055378635776828786 -0.0011992316966792213 0 0.0055156826626756869 -0.0011953673309458295 0 0.0054773254579019827 -0.0012336404707519225 0 0.0054268060249208529 -0.0012863964603929655 0 0.0055361319449933133 -0.0011690505364720318 0 0.0057673993008724072 -0.00123220656598629 0 0.0055986195938021038 -0.0012290327595431425 0 0.0054820538306255698 -0.0012791391980426538 0 0.0057756100288240703 -0.0011658360418313662 0 0.0056427465607190586 -0.0011842738910633299 0 0.0055975335035105345 -0.0010850444440713776 0 0.0055986195938021038 -0.0012290327595431425 0 0.0055378635776828786 -0.0011992316966792213 0 0.0055986195938021038 -0.0012290327595431425 0 0.0055378635776828786 -0.0011992316966792213 0 0.0055144373195240223 -0.0012422233990970518 0 0.0055378635776828786 -0.0011992316966792213 0 0.0054773254579019827 -0.0012336404707519225 0 0.0055144373195240223 -0.0012422233990970518 0 0.0055378635776828786 -0.0011992316966792213 0 0.0055156826626756869 -0.0011953673309458295 0 0.0054773254579019827 -0.0012336404707519225 0 0.0055156826626756869 -0.0011953673309458295 0 0.0054773254579019827 -0.0012336404707519225 0 0.0055020505824636369 -0.0012090530025590076 0 0.0049800008623177737 -0.0012687681383715124 0 0.0048503949451836241 -0.0014114211862347743 0 0.0052897917091350461 -0.0015491923479653521 0 0.0054268060249208529 -0.0012863964603929655 0 0.0055274683041695079 -0.0014386916946817821 0 0.0052897917091350461 -0.0015491923479653521 0 0.0049800008623177737 -0.0012687681383715124 0 0.0054268060249208529 -0.0012863964603929655 0 0.0052897917091350461 -0.0015491923479653521 0 0.0054268060249208529 -0.0012863964603929655 0 0.0054761101767803562 -0.0012589958461908036 0 0.0054820538306255698 -0.0012791391980426538 0 0.0054773254579019827 -0.0012336404707519225 0 0.0054268060249208529 -0.0012863964603929655 0 0.0054761101767803562 -0.0012589958461908036 0 0.0054773254579019827 -0.0012336404707519225 0 0.0054761101767803562 -0.0012589958461908036 0 0.0055144373195240223 -0.0012422233990970518 0 0.0062204389990399645 -0.00069011580972695393 0 0.0054820538306255698 -0.0012791391980426538 0 0.0057928021881939323 -0.0013399446119330576 0 0.0055986195938021038 -0.0012290327595431425 0 0.0055144373195240223 -0.0012422233990970518 0 0.0054820538306255698 -0.0012791391980426538 0 0.0054761101767803562 -0.0012589958461908036 0 0.0055144373195240223 -0.0012422233990970518 0 0.0054820538306255698 -0.0012791391980426538 0 0.0054820538306255698 -0.0012791391980426538 0 0.0057928021881939323 -0.0013399446119330576 0 0.0055274683041695079 -0.0014386916946817821 0 0.0054268060249208529 -0.0012863964603929655 0 0.0054820538306255698 -0.0012791391980426538 0 0.0055274683041695079 -0.0014386916946817821 0 0.0049800008623177737 -0.0012687681383715124 0 0.0054268060249208529 -0.0012863964603929655 0 0.0043346947090387462 -0.00082193041241484968 0 0.0057634735723214141 -0.0012617791473596061 0 0.0055022827957747194 -0.001238410220662568 0 0.0055361319449933133 -0.0011690505364720318 0 0.0055758950776346131 -0.0013297963792888575 0 0.0044275693200855094 -0.000795676218461013 0 0.0055022827957747194 -0.001238410220662568 0 0.0055361319449933133 -0.0011690505364720318 0 0.0055020505824636369 -0.0012090530025590076 0 0.0055022827957747194 -0.001238410220662568 0 0.0055156826626756869 -0.0011953673309458295 0 0.0055020505824636369 -0.0012090530025590076 0 0.0054773254579019827 -0.0012336404707519225 0 0.0055361319449933133 -0.0011690505364720318 0 0.0055020505824636369 -0.0012090530025590076 0 0.0049800008623177737 -0.0012687681383715124 0 0.0043346947090387462 -0.00082193041241484968 0 0.0048503949451836241 -0.0014114211862347743 0 0.0043346947090387462 -0.00082193041241484968 0 0.0048503949451836241 -0.0014114211862347743 0 0.004360589746579345 -0.0013743052202458065 0 0.0038902616500933514 -0.0011558263298481308 0 0.0043346947090387462 -0.00082193041241484968 0 0.004360589746579345 -0.0013743052202458065 0 0.0038902616500933514 -0.0011558263298481308 0 0.004360589746579345 -0.0013743052202458065 0 0.0040494641843866735 -0.0017700989537009989 0 0.0040494641843866735 -0.0017700989537009989 0 0.0045939053230083082 -0.0016513406407437229 0 0.0046203385950356968 -0.0021276144983483039 0 0.004360589746579345 -0.0013743052202458065 0 0.0040494641843866735 -0.0017700989537009989 0 0.0045939053230083082 -0.0016513406407437229 0 0.0045939053230083082 -0.0016513406407437229 0 0.0046203385950356968 -0.0021276144983483039 0 0.0051272302913028525 -0.0018418487571182165 0 0.0048503949451836241 -0.0014114211862347743 0 0.0045939053230083082 -0.0016513406407437229 0 0.0051272302913028525 -0.0018418487571182165 0 0.0048503949451836241 -0.0014114211862347743 0 0.004360589746579345 -0.0013743052202458065 0 0.0045939053230083082 -0.0016513406407437229 0 0.0040494641843866735 -0.0017700989537009989 0 0.0046203385950356968 -0.0021276144983483039 0 0.0040634562220422171 -0.002441935091019969 0 0.0057928021881939323 -0.0013399446119330576 0 0.0056447686416181342 -0.0017792830910334061 0 0.0055274683041695079 -0.0014386916946817821 0 0.0061055342232184621 -0.001472900554398425 0 0.0057928021881939323 -0.0013399446119330576 0 0.0056447686416181342 -0.0017792830910334061 0 0.0056447686416181342 -0.0017792830910334061 0 0.0055274683041695079 -0.0014386916946817821 0 0.0052897917091350461 -0.0015491923479653521 0 0.0056447686416181342 -0.0017792830910334061 0 0.0052897917091350461 -0.0015491923479653521 0 0.0051272302913028525 -0.0018418487571182165 0 0.0048503949451836241 -0.0014114211862347743 0 0.0052897917091350461 -0.0015491923479653521 0 0.0051272302913028525 -0.0018418487571182165 0 0.0051272302913028525 -0.0018418487571182165 0 0.0054083199562030108 -0.00211976016562938 0 0.0051629230438705745 -0.0023391608625676491 0 0.0046203385950356968 -0.0021276144983483039 0 0.0051272302913028525 -0.0018418487571182165 0 0.0051629230438705745 -0.0023391608625676491 0 0.0056447686416181342 -0.0017792830910334061 0 0.0051272302913028525 -0.0018418487571182165 0 0.0054083199562030108 -0.00211976016562938 0 0.0054083199562030108 -0.00211976016562938 0 0.0056660923634446747 -0.0024160840984150766 0 0.0051629230438705745 -0.0023391608625676491 0 0.0056447686416181342 -0.0017792830910334061 0 0.0054083199562030108 -0.00211976016562938 0 0.0056660923634446747 -0.0024160840984150766 0 0.0056660923634446747 -0.0024160840984150766 0 0.0051629230438705745 -0.0023391608625676491 0 0.0053000277459009006 -0.0028074630969943597 0 0.0057371178812985714 -0.0030088939698109524 0 0.0056660923634446747 -0.0024160840984150766 0 0.0053000277459009006 -0.0028074630969943597 0 0.0051629230438705745 -0.0023391608625676491 0 0.0053000277459009006 -0.0028074630969943597 0 0.0047001965739557105 -0.0026974863697029673 0 0.0053000277459009006 -0.0028074630969943597 0 0.0047001965739557105 -0.0026974863697029673 0 0.0052727937150029991 -0.0033090031556392346 0 0.0057371178812985714 -0.0030088939698109524 0 0.0053000277459009006 -0.0028074630969943597 0 0.0052727937150029991 -0.0033090031556392346 0 0.0040634562220422171 -0.002441935091019969 0 0.0047001965739557105 -0.0026974863697029673 0 0.00355538275131705 -0.003267445327685534 0 0.0047001965739557105 -0.0026974863697029673 0 0.00355538275131705 -0.003267445327685534 0 0.0052727937150029991 -0.0033090031556392346 0 0.0046203385950356968 -0.0021276144983483039 0 0.0040634562220422171 -0.002441935091019969 0 0.0047001965739557105 -0.0026974863697029673 0 0.0046203385950356968 -0.0021276144983483039 0 0.0051629230438705745 -0.0023391608625676491 0 0.0047001965739557105 -0.0026974863697029673 0 0.0040634562220422171 -0.002441935091019969 0 0.00355538275131705 -0.003267445327685534 0 0.0032500710861474002 -0.0023068301985224387 0 0.0040494641843866735 -0.0017700989537009989 0 0.0040634562220422171 -0.002441935091019969 0 0.0032500710861474002 -0.0023068301985224387 0 0.0038902616500933514 -0.0011558263298481308 0 0.0040494641843866735 -0.0017700989537009989 0 0.0034009827393185958 -0.0014287531075463079 0 0.0040494641843866735 -0.0017700989537009989 0 0.0032500710861474002 -0.0023068301985224387 0 0.0034009827393185958 -0.0014287531075463079 0 0.0027555368877819966 -0.0010706531312413014 0 0.0034009827393185958 -0.0014287531075463079 0 0.002538298872855854 -0.0017147536304263442 0 0.0032500710861474002 -0.0023068301985224387 0 0.0034009827393185958 -0.0014287531075463079 0 0.002538298872855854 -0.0017147536304263442 0 0.0016072524413388079 -0.0031610006752240956 0 0.00355538275131705 -0.003267445327685534 0 0.0032500710861474002 -0.0023068301985224387 0 0.0016072524413388079 -0.0031610006752240956 0 0.0032500710861474002 -0.0023068301985224387 0 0.002538298872855854 -0.0017147536304263442 0 0.00013631057022596663 -0.0027371401482227209 0 0.00091729086585080855 -0.0026267362105411433 0 -0.0013431606355649697 -0.002304155624638335 0 -0.0017957720662408047 -0.002024480658504595 0 -0.0015076569616954056 -0.0016971156781793837 0 -0.0017957720662408047 -0.002024480658504595 0 -0.001883282079223843 -0.0016012015211916439 0 -0.0015076569616954056 -0.0016971156781793837 0 -0.001883282079223843 -0.0016012015211916439 0 -0.0015076569616954056 -0.0016971156781793837 0 -0.0016716914396199003 -0.0011742862075781871 0 -0.0022614695447773368 -0.001716064387708633 0 -0.0021496319912725826 -0.0017300756332265551 0 -0.0020933112783577401 -0.0018669181910474101 0 -0.0021496319912725826 -0.0017300756332265551 0 -0.0020933112783577401 -0.0018669181910474101 0 -0.0020660043120395879 -0.0016605212507447905 0 0.00091729086585080855 -0.0026267362105411433 0 0.0014177303906085731 -0.0027473375927954133 0 -0.0017957720662408047 -0.002024480658504595 0 -0.001883282079223843 -0.0016012015211916439 0 -0.0020660043120395879 -0.0016605212507447905 0 -0.0017957720662408047 -0.002024480658504595 0 -0.0020933112783577401 -0.0018669181910474101 0 -0.0020660043120395879 -0.0016605212507447905 0 -0.001883282079223843 -0.0016012015211916439 0 -0.0020660043120395879 -0.0016605212507447905 0 -0.0020929718204018058 -0.0014018205670126437 0 -0.0022253519906136748 -0.0016445699802329044 0 -0.0021496319912725826 -0.0017300756332265551 0 -0.0020660043120395879 -0.0016605212507447905 0 -0.0022216855241693105 -0.001485533346497042 0 -0.0022253519906136748 -0.0016445699802329044 0 -0.0020660043120395879 -0.0016605212507447905 0 -0.0022216855241693105 -0.001485533346497042 0 -0.0020929718204018058 -0.0014018205670126437 0 -0.0022291434345501106 -0.0012522573696571251 0 -0.0022216855241693105 -0.001485533346497042 0 -0.0020660043120395879 -0.0016605212507447905 0 -0.0020929718204018058 -0.0014018205670126437 0 -0.001883282079223843 -0.0016012015211916439 0 -0.0020929718204018058 -0.0014018205670126437 0 -0.0018672706295434749 -0.0012871603837504562 0 -0.0018672706295434749 -0.0012871603837504562 0 -0.0016849729987242074 -0.0010078483559920013 0 -0.0020505530994818621 -0.0010263262661908291 0 -0.0020929718204018058 -0.0014018205670126437 0 -0.0018672706295434749 -0.0012871603837504562 0 -0.0020505530994818621 -0.0010263262661908291 0 -0.0020929718204018058 -0.0014018205670126437 0 -0.0022291434345501106 -0.0012522573696571251 0 -0.0020505530994818621 -0.0010263262661908291 0 -0.0022291434345501106 -0.0012522573696571251 0 -0.0020505530994818621 -0.0010263262661908291 0 -0.0023070220827633211 -0.0010289905212477258 0 -0.0013683166990238495 -0.0011420497108621023 0 -0.0015076569616954056 -0.0016971156781793837 0 -0.0016716914396199003 -0.0011742862075781871 0 -0.001927437972354626 -0.0016141484525940316 0 -0.001442704260345249 -0.0011653520195032776 0 -0.001883282079223843 -0.0016012015211916439 0 -0.0018672706295434749 -0.0012871603837504562 0 -0.0015422138790115352 -0.0013255202755178752 0 -0.0018672706295434749 -0.0012871603837504562 0 -0.0015422138790115352 -0.0013255202755178752 0 -0.0016849729987242074 -0.0010078483559920013 0 -0.001442704260345249 -0.0011653520195032776 0 -0.0021033322870967 -0.001072486611105903 0 -0.0015422138790115352 -0.0013255202755178752 0 -0.0016849729987242074 -0.0010078483559920013 0 -0.0012114064125515211 -0.0010002319319067415 0 -0.0016849729987242074 -0.0010078483559920013 0 -0.0014916542866103509 -0.00068482181170723458 0 -0.0012114064125515211 -0.0010002319319067415 0 -0.0046090984103499275 -0.0020679310397545667 0 -0.0042286359729540486 -0.002112114557906844 0 -0.0040889113666388059 -0.0025462200136297185 0 -0.0031124740258731704 -0.0014446817397752996 0 -0.0021033322870967 -0.001072486611105903 0 -0.0016849729987242074 -0.0010078483559920013 0 -0.0014916542866103509 -0.00068482181170723458 0 -0.0018949249375939904 -0.00067569194307020729 0 -0.0031124740258731704 -0.0014446817397752996 0 -0.00341140028637716 -0.00095174359275315408 0 -0.0014916542866103509 -0.00068482181170723458 0 -0.0018949249375939904 -0.00067569194307020729 0 -0.0017929152883128169 -0.00030883950124267382 0 -0.0046090984103499275 -0.0020679310397545667 0 -0.0045114107303712847 -0.0016152871022270022 0 -0.0042286359729540486 -0.002112114557906844 0 -0.0046090984103499275 -0.0020679310397545667 0 -0.0045114107303712847 -0.0016152871022270022 0 -0.0051615176374999244 -0.001564726387617812 0 -0.0020505530994818621 -0.0010263262661908291 0 -0.0022439494999261116 -0.00065516803228800314 0 -0.0026221266430370592 -0.00091152254186502638 0 -0.0026207642261308959 -0.00090343236495954698 0 -0.0011656560107974534 -0.0013049914914814022 0 -0.0020505530994818621 -0.0010263262661908291 0 -0.0018949249375939904 -0.00067569194307020729 0 -0.0022439494999261116 -0.00065516803228800314 0 -0.0016849729987242074 -0.0010078483559920013 0 -0.0020505530994818621 -0.0010263262661908291 0 -0.0018949249375939904 -0.00067569194307020729 0 -0.0018949249375939904 -0.00067569194307020729 0 -0.0022439494999261116 -0.00065516803228800314 0 -0.0021960558656200064 -0.00031986291671874629 0 -0.0018949249375939904 -0.00067569194307020729 0 -0.0021960558656200064 -0.00031986291671874629 0 -0.0017929152883128169 -0.00030883950124267382 0 -0.0022439494999261116 -0.00065516803228800314 0 -0.0021960558656200064 -0.00031986291671874629 0 -0.0024636620841826441 -0.00037617909133419989 0 -0.0022439494999261116 -0.00065516803228800314 0 -0.0025323616795564535 -0.0006128849047002886 0 -0.0026221266430370592 -0.00091152254186502638 0 -0.0022439494999261116 -0.00065516803228800314 0 -0.0024636620841826441 -0.00037617909133419989 0 -0.0025323616795564535 -0.0006128849047002886 0 -0.0021960558656200064 -0.00031986291671874629 0 -0.0024636620841826441 -0.00037617909133419989 0 -0.0026182544529915271 -8.722113285377431e-07 0 -0.0021960558656200064 -0.00031986291671874629 0 -0.0021589012200021341 9.3096799856015139e-05 0 -0.0026182544529915271 -8.722113285377431e-07 0 -0.0043175540346384869 -0.0004437177254933852 0 -0.00341140028637716 -0.00095174359275315408 0 -0.0021960558656200064 -0.00031986291671874629 0 -0.0021589012200021341 9.3096799856015139e-05 0 -0.0017929152883128169 -0.00030883950124267382 0 -0.0056794128341569241 -0.0010460570810499501 0 -0.0051615176374999244 -0.001564726387617812 0 -0.0051939422831803455 -0.00091458360255677808 0 -0.0043175540346384869 -0.0004437177254933852 0 -0.0057583360192698099 -0.001068675114731019 0 -0.0043175540346384869 -0.0004437177254933852 0 -0.0033987662347913223 0.0001838165080196828 0 -0.0043880056038723839 0.0002865387424302261 0 -0.0045436214814301833 0.00044329388103555157 0 -0.004636698656784336 0.00022875146348169193 0 -0.0043175540346384869 -0.0004437177254933852 0 -0.0053839412136914696 -0.00010036967582995504 0 -0.0045114107303712847 -0.0016152871022270022 0 -0.0048476018653738724 -0.0012355714477099359 0 -0.0044938036665043294 -0.0012313328648346522 0 -0.0045114107303712847 -0.0016152871022270022 0 -0.0044938036665043294 -0.0012313328648346522 0 -0.0042194327802780795 -0.0013364287788192005 0 -0.0045114107303712847 -0.0016152871022270022 0 -0.0051615176374999244 -0.001564726387617812 0 -0.0048476018653738724 -0.0012355714477099359 0 -0.0051615176374999244 -0.001564726387617812 0 -0.0048476018653738724 -0.0012355714477099359 0 -0.0051939422831803455 -0.00091458360255677808 0 -0.0048476018653738724 -0.0012355714477099359 0 -0.0051939422831803455 -0.00091458360255677808 0 -0.0047187300757613676 -0.00091284107827835879 0 -0.0048476018653738724 -0.0012355714477099359 0 -0.0047187300757613676 -0.00091284107827835879 0 -0.0044938036665043294 -0.0012313328648346522 0 -0.0044938036665043294 -0.0012313328648346522 0 -0.0042925017150428355 -0.00095773310042508849 0 -0.0042194327802780795 -0.0013364287788192005 0 -0.0047187300757613676 -0.00091284107827835879 0 -0.0044938036665043294 -0.0012313328648346522 0 -0.0042925017150428355 -0.00095773310042508849 0 -0.0047187300757613676 -0.00091284107827835879 0 -0.0045063617103700106 -0.00058566743026170062 0 -0.0042925017150428355 -0.00095773310042508849 0 -0.0047187300757613676 -0.00091284107827835879 0 -0.0045063617103700106 -0.00058566743026170062 0 -0.0049729044748214237 -0.00054928028042248523 0 -0.0045063617103700106 -0.00058566743026170062 0 -0.0047164005933459487 -0.0001709835676770353 0 -0.0049729044748214237 -0.00054928028042248523 0 -0.0047164005933459487 -0.0001709835676770353 0 -0.0045085321175790298 0.00026491883669903119 0 -0.0050918464799868694 0.00035615541247273363 0 -0.0045063617103700106 -0.00058566743026170062 0 -0.0047164005933459487 -0.0001709835676770353 0 -0.0042385643104761979 -0.00023419842401511804 0 -0.0047164005933459487 -0.0001709835676770353 0 -0.0045085321175790298 0.00026491883669903119 0 -0.0042385643104761979 -0.00023419842401511804 0 -0.0047164005933459487 -0.0001709835676770353 0 -0.0051804801961273335 -0.00012437000232054992 0 -0.0050918464799868694 0.00035615541247273363 0 -0.0051804801961273335 -0.00012437000232054992 0 -0.0055656462754146109 5.5250653619687855e-05 0 -0.0050918464799868694 0.00035615541247273363 0 -0.0047164005933459487 -0.0001709835676770353 0 -0.0051804801961273335 -0.00012437000232054992 0 -0.0049729044748214237 -0.00054928028042248523 0 -0.0051804801961273335 -0.00012437000232054992 0 -0.0049729044748214237 -0.00054928028042248523 0 -0.0056405705138685121 -0.00046013145133026203 0 -0.0051939422831803455 -0.00091458360255677808 0 -0.0049729044748214237 -0.00054928028042248523 0 -0.0056405705138685121 -0.00046013145133026203 0 -0.0051939422831803455 -0.00091458360255677808 0 -0.0047187300757613676 -0.00091284107827835879 0 -0.0049729044748214237 -0.00054928028042248523 0 -0.0057891311638323863 -0.0010586181097521755 0 -0.0051939422831803455 -0.00091458360255677808 0 -0.0056405705138685121 -0.00046013145133026203 0 -0.0056405705138685121 -0.00046013145133026203 0 -0.0062051042785173051 -0.00062846137271114935 0 -0.0060615171595857801 0.00016671143464153622 0 -0.0057891311638323863 -0.0010586181097521755 0 -0.0056405705138685121 -0.00046013145133026203 0 -0.0062051042785173051 -0.00062846137271114935 0 -0.0063265286802419631 0.00043980166661785144 0 -0.0059163571699353441 0.00073229580639608098 0 -0.0062051042785173051 -0.00062846137271114935 0 -0.0060615171595857801 0.00016671143464153622 0 -0.0066065087700348454 -0.0002151433505330273 0 -0.0051804801961273335 -0.00012437000232054992 0 -0.0056405705138685121 -0.00046013145133026203 0 -0.0055656462754146109 5.5250653619687855e-05 0 -0.0056405705138685121 -0.00046013145133026203 0 -0.0060615171595857801 0.00016671143464153622 0 -0.0055656462754146109 5.5250653619687855e-05 0 -0.0063265286802419631 0.00043980166661785144 0 -0.0057250145581025967 0.00070455185884624833 0 -0.0060615171595857801 0.00016671143464153622 0 -0.0055656462754146109 5.5250653619687855e-05 0 -0.0055469148282494647 0.00054701449000728905 0 -0.0063841581917517473 0.00087548885564470711 0 -0.0064210735036239431 0.0010114723009495565 0 -0.0064780691226250858 0.0010300400834557528 0 -0.0063841581917517473 0.00087548885564470711 0 -0.0060190801332398215 0.00076918650755203853 0 -0.0064210735036239431 0.0010114723009495565 0 -0.0064210735036239431 0.0010114723009495565 0 -0.0065468631719352525 0.0011295537730390858 0 -0.0066213160526994337 0.0012693860758568693 0 -0.0064210735036239431 0.0010114723009495565 0 -0.0059915408870735562 0.0012120974177725343 0 -0.0066213160526994337 0.0012693860758568693 0 -0.0060190801332398215 0.00076918650755203853 0 -0.0064210735036239431 0.0010114723009495565 0 -0.0059915408870735562 0.0012120974177725343 0 -0.0060190801332398215 0.00076918650755203853 0 -0.0051692263285717877 0.0009754145077733703 0 -0.0059915408870735562 0.0012120974177725343 0 -0.0057250145581025967 0.00070455185884624833 0 -0.0052172378694595491 0.00096785179859078686 0 -0.004747339682393519 0.00068315325245299561 0 -0.0045335472666328796 0.0013499663203585504 0 -0.0042520868092585434 0.00083122397156847039 0 -0.0051692263285717877 0.0009754145077733703 0 -0.004747339682393519 0.00068315325245299561 0 -0.0045335472666328796 0.0013499663203585504 0 -0.004747339682393519 0.00068315325245299561 0 -0.0045085321175790298 0.00026491883669903119 0 -0.0050918464799868694 0.00035615541247273363 0 -0.004747339682393519 0.00068315325245299561 0 -0.0045085321175790298 0.00026491883669903119 0 -0.0042520868092585434 0.00083122397156847039 0 -0.0055469148282494647 0.00054701449000728905 0 -0.0051692263285717877 0.0009754145077733703 0 -0.0050918464799868694 0.00035615541247273363 0 -0.0055656462754146109 5.5250653619687855e-05 0 -0.0055469148282494647 0.00054701449000728905 0 -0.0050918464799868694 0.00035615541247273363 0 -0.0051692263285717877 0.0009754145077733703 0 -0.004747339682393519 0.00068315325245299561 0 -0.0050918464799868694 0.00035615541247273363 0 -0.0062257209650249737 0.0011530962174103973 0 -0.0058968825718340879 0.0012703953533868071 0 -0.0060150753721730042 0.0011495610914740661 0 -0.0062257209650249737 0.0011530962174103973 0 -0.0058968825718340879 0.0012703953533868071 0 -0.0061801268623171389 0.0013799860152049275 0 -0.0058968825718340879 0.0012703953533868071 0 -0.0058891657770669334 0.001177992158696862 0 -0.0058069908911757527 0.0012508195127305492 0 -0.0058968825718340879 0.0012703953533868071 0 -0.0058891657770669334 0.001177992158696862 0 -0.0060150753721730042 0.0011495610914740661 0 -0.0058891657770669334 0.001177992158696862 0 -0.0060150753721730042 0.0011495610914740661 0 -0.0059548615945539613 0.0010680206880779215 0 -0.0059548615945539613 0.0010680206880779215 0 -0.0057951471963650645 0.001099877786907213 0 -0.0058562491351663503 0.00096199448007787977 0 -0.0060150753721730042 0.0011495610914740661 0 -0.0059548615945539613 0.0010680206880779215 0 -0.006174072959469909 0.0010811528076226239 0 -0.0058891657770669334 0.001177992158696862 0 -0.0059548615945539613 0.0010680206880779215 0 -0.0057951471963650645 0.001099877786907213 0 -0.0059548615945539613 0.0010680206880779215 0 -0.006174072959469909 0.0010811528076226239 0 -0.0060637140765302383 0.00097771493950081782 0 -0.0062257209650249737 0.0011530962174103973 0 -0.006174072959469909 0.0010811528076226239 0 -0.0064322763587473701 0.0011123155389410738 0 -0.006174072959469909 0.0010811528076226239 0 -0.0064322763587473701 0.0011123155389410738 0 -0.0063102760825641171 0.001045175703547135 0 -0.0062257209650249737 0.0011530962174103973 0 -0.0060150753721730042 0.0011495610914740661 0 -0.006174072959469909 0.0010811528076226239 0 -0.0064322763587473701 0.0011123155389410738 0 -0.0065468631719352525 0.0011295537730390858 0 -0.0064780691226250858 0.0010300400834557528 0 -0.0064210735036239431 0.0010114723009495565 0 -0.0065468631719352525 0.0011295537730390858 0 -0.0064780691226250858 0.0010300400834557528 0 -0.0064322763587473701 0.0011123155389410738 0 -0.0064780691226250858 0.0010300400834557528 0 -0.006448408293253073 0.0010770734870723863 0 -0.0062257209650249737 0.0011530962174103973 0 -0.0064322763587473701 0.0011123155389410738 0 -0.006448408293253073 0.0010770734870723863 0 -0.0061992652890868142 0.0010969063401953811 0 -0.0064909680186150433 0.0013193373025483651 0 -0.0062257209650249737 0.0011530962174103973 0 -0.0063486339734096179 0.0013659524534375396 0 -0.0061801268623171389 0.0013799860152049275 0 -0.0063486339734096179 0.0013659524534375396 0 -0.0062684064318187281 0.0015296465936235609 0 -0.0061801268623171389 0.0013799860152049275 0 -0.0063486339734096179 0.0013659524534375396 0 -0.0062684064318187281 0.0015296465936235609 0 -0.0065305444367567654 0.0015577357170872541 0 -0.0063841581917517473 0.00087548885564470711 0 -0.0064780691226250858 0.0010300400834557528 0 -0.0064557778586856705 0.00095198098764734884 0 -0.0064780691226250858 0.0010300400834557528 0 -0.006448408293253073 0.0010770734870723863 0 -0.0064557778586856705 0.00095198098764734884 0 -0.0064909680186150433 0.0013193373025483651 0 -0.0059163571699353441 0.00073229580639608098 0 -0.0045436214814301833 0.00044329388103555157 0 -0.0047003360778067414 0.00059697944058345305 0 -0.0047498126278111693 0.00036722368508327599 0 -0.0053839412136914696 -0.00010036967582995504 0 -0.0059163571699353441 0.00073229580639608098 0 -0.0059163571699353441 0.00073229580639608098 0 -0.0054676987964770822 0.0010059885607667041 0 -0.0062684064318187281 0.0015296465936235609 0 -0.0065305444367567654 0.0015577357170872541 0 -0.0061879703422530359 0.0017971522026856701 0 -0.0047003360778067414 0.00059697944058345305 0 -0.0049827054773706504 0.00039951442472203576 0 -0.0047498126278111693 0.00036722368508327599 0 -0.0062684064318187281 0.0015296465936235609 0 -0.0061879703422530359 0.0017971522026856701 0 -0.0060879109933336005 0.0015685364219113931 0 -0.0054676987964770822 0.0010059885607667041 0 -0.005843188240613092 0.0013813640709409187 0 -0.0053374547782080398 0.00084120315212419204 0 -0.0055225959803527642 0.0010953472825900388 0 -0.0055733994357568262 0.00089980213251646829 0 -0.0058968825718340879 0.0012703953533868071 0 -0.0060879109933336005 0.0015685364219113931 0 -0.0061801268623171389 0.0013799860152049275 0 -0.0058482796696997111 0.0012352679046617242 0 -0.005843188240613092 0.0013813640709409187 0 -0.0062684064318187281 0.0015296465936235609 0 -0.0060879109933336005 0.0015685364219113931 0 -0.0061801268623171389 0.0013799860152049275 0 -0.0058968825718340879 0.0012703953533868071 0 -0.0055225959803527642 0.0010953472825900388 0 -0.0057195840522613851 0.0011260541606422777 0 -0.0058968825718340879 0.0012703953533868071 0 -0.0057195840522613851 0.0011260541606422777 0 -0.0058069908911757527 0.0012508195127305492 0 -0.0055733994357568262 0.00089980213251646829 0 -0.005638891402072123 0.00072162235318487099 0 -0.0058289097088657978 0.00094781922744135365 0 -0.0057195840522613851 0.0011260541606422777 0 -0.0055733994357568262 0.00089980213251646829 0 -0.0058289097088657978 0.00094781922744135365 0 -0.0055225959803527642 0.0010953472825900388 0 -0.0057195840522613851 0.0011260541606422777 0 -0.0055733994357568262 0.00089980213251646829 0 -0.0055733994357568262 0.00089980213251646829 0 -0.005638891402072123 0.00072162235318487099 0 -0.0054573174412349025 0.00062715163029405864 0 -0.005638891402072123 0.00072162235318487099 0 -0.0054573174412349025 0.00062715163029405864 0 -0.0055311118497894237 0.00049153394766552857 0 -0.0053374547782080398 0.00084120315212419204 0 -0.0055733994357568262 0.00089980213251646829 0 -0.0054573174412349025 0.00062715163029405864 0 -0.0050989552945190329 0.00087742471026966309 0 -0.0051860740436995576 0.00058186698522555967 0 -0.0049428492996017384 0.00047702671054363367 0 -0.0050989552945190329 0.00087742471026966309 0 -0.0054573174412349025 0.00062715163029405864 0 -0.0051860740436995576 0.00058186698522555967 0 -0.0054676987964770822 0.0010059885607667041 0 -0.0053946281960150413 0.00064802280982653021 0 -0.0043469281263935292 0.00042429961417657131 0 -0.0033191586533184493 0.00063842741799084832 0 -0.003733921198262284 -0.00013474187925823338 0 -0.0054573174412349025 0.00062715163029405864 0 -0.0051860740436995576 0.00058186698522555967 0 -0.0053372830419766175 0.00038581781432114247 0 -0.0051860740436995576 0.00058186698522555967 0 -0.0053372830419766175 0.00038581781432114247 0 -0.0049428492996017384 0.00047702671054363367 0 -0.0048536790370011466 0.00041187320306016373 0 -0.0040822246611948798 0.00021387591369357488 0 -0.0043469281263935292 0.00042429961417657131 0 -0.0049141172247571538 -7.2640507328502487e-05 0 -0.0055032667865021097 0.00018230109984570408 0 -0.0048536790370011466 0.00041187320306016373 0 -0.0054666360568161069 0.00020345918554431569 0 -0.0053372830419766175 0.00038581781432114247 0 -0.0055311118497894237 0.00049153394766552857 0 -0.0055032667865021097 0.00018230109984570408 0 -0.0054573174412349025 0.00062715163029405864 0 -0.0053372830419766175 0.00038581781432114247 0 -0.0055311118497894237 0.00049153394766552857 0 -0.0047498126278111693 0.00036722368508327599 0 -0.004636698656784336 0.00022875146348169193 0 -0.0048840654063335457 0.00016846488568038979 0 -0.0045436214814301833 0.00044329388103555157 0 -0.0047498126278111693 0.00036722368508327599 0 -0.004636698656784336 0.00022875146348169193 0 -0.0049827054773706504 0.00039951442472203576 0 -0.0047498126278111693 0.00036722368508327599 0 -0.0048840654063335457 0.00016846488568038979 0 -0.0054676987964770822 0.0010059885607667041 0 -0.0040822246611948798 0.00021387591369357488 0 -0.0030776057286522021 -0.00010783646545414104 0 -0.0027423921843144337 -0.00029522243384800915 0 -0.0029181205535047184 -0.00057103990633156727 0 -0.0040822246611948798 0.00021387591369357488 0 -0.0027283174606233382 -0.00056038360943342963 0 -0.0024636620841826441 -0.00037617909133419989 0 -0.0026182544529915271 -8.722113285377431e-07 0 -0.0027423921843144337 -0.00029522243384800915 0 -0.0033987662347913223 0.0001838165080196828 0 -0.0040822246611948798 0.00021387591369357488 0 -0.0026182544529915271 -8.722113285377431e-07 0 -0.0030776057286522021 -0.00010783646545414104 0 -0.0027423921843144337 -0.00029522243384800915 0 -0.0024636620841826441 -0.00037617909133419989 0 -0.0027423921843144337 -0.00029522243384800915 0 -0.0025323616795564535 -0.0006128849047002886 0 -0.0027423921843144337 -0.00029522243384800915 0 -0.0025323616795564535 -0.0006128849047002886 0 -0.0029181205535047184 -0.00057103990633156727 0 -0.0025323616795564535 -0.0006128849047002886 0 -0.0029181205535047184 -0.00057103990633156727 0 -0.0025536909874313489 -0.0010674394194022266 0 -0.0033191586533184493 0.00063842741799084832 0 -0.0029181205535047184 -0.00057103990633156727 0 -0.003733921198262284 -0.00013474187925823338 0 -0.0029181205535047184 -0.00057103990633156727 0 -0.003733921198262284 -0.00013474187925823338 0 -0.0037976483522185974 -0.00089565850451421754 0 0.0031005063872163357 -0.0011747994667616719 0 0.0025088251974265162 -0.0015110246002319266 0 0.0035084456353845534 -0.0016193392320590302 0 -0.0029181205535047184 -0.00057103990633156727 0 -0.0025536909874313489 -0.0010674394194022266 0 -0.0037976483522185974 -0.00089565850451421754 0 -0.0011656560107974534 -0.0013049914914814022 0 0.00025545584714286424 -0.0012897523958676227 0 -0.002329349103957518 -0.0007876158789806363 0 -0.0011656560107974534 -0.0013049914914814022 0 0.00025545584714286424 -0.0012897523958676227 0 -0.0013611337609085073 -0.00098328717502696537 0 -0.0050919365482972375 -0.000532483207485194 0 -0.0043364847218289116 -0.00023725328789477867 0 -0.0037976483522185974 -0.00089565850451421754 0 -0.0050919365482972375 -0.000532483207485194 0 -0.0037976483522185974 -0.00089565850451421754 0 -0.0053941468687005792 -0.00051985920975955208 0 -0.0039711910479168829 -0.00085082816456888356 0 -0.0013611337609085073 -0.00098328717502696537 0 -0.0049141172247571538 -7.2640507328502487e-05 0 -0.0052860025267797064 -0.00017568698479303028 0 -0.0055032667865021097 0.00018230109984570408 0 -0.0050919365482972375 -0.000532483207485194 0 -0.0049141172247571538 -7.2640507328502487e-05 0 -0.0052860025267797064 -0.00017568698479303028 0 -0.0043469281263935292 0.00042429961417657131 0 -0.0049141172247571538 -7.2640507328502487e-05 0 -0.0043364847218289116 -0.00023725328789477867 0 -0.0050919365482972375 -0.000532483207485194 0 -0.0049141172247571538 -7.2640507328502487e-05 0 -0.0043364847218289116 -0.00023725328789477867 0 -0.0043469281263935292 0.00042429961417657131 0 -0.0043364847218289116 -0.00023725328789477867 0 -0.003733921198262284 -0.00013474187925823338 0 -0.0043364847218289116 -0.00023725328789477867 0 -0.003733921198262284 -0.00013474187925823338 0 -0.0037976483522185974 -0.00089565850451421754 0 0.0036918400407386694 -0.00096249043130542126 0 0.0031005063872163357 -0.0011747994667616719 0 0.0035084456353845534 -0.0016193392320590302 0 0.0036918400407386694 -0.00096249043130542126 0 0.0035084456353845534 -0.0016193392320590302 0 0.0038817853313943421 -0.0014688598692076495 0 0.0040936944089951582 -0.0011828534880654125 0 0.0038817853313943421 -0.0014688598692076495 0 0.0040573103713193465 -0.0014043085643696998 0 0.0035084456353845534 -0.0016193392320590302 0 0.0038817853313943421 -0.0014688598692076495 0 0.004213558856588028 -0.0016801991600914473 0 0.0041437656683738239 -0.0015158894454714536 0 0.0040573103713193465 -0.0014043085643696998 0 0.0042854648996924873 -0.0014598841175166985 0 0.0038817853313943421 -0.0014688598692076495 0 0.0041437656683738239 -0.0015158894454714536 0 0.0040573103713193465 -0.0014043085643696998 0 0.0038817853313943421 -0.0014688598692076495 0 0.0041437656683738239 -0.0015158894454714536 0 0.004213558856588028 -0.0016801991600914473 0 0.0040936944089951582 -0.0011828534880654125 0 0.0040573103713193465 -0.0014043085643696998 0 0.0042569858638216631 -0.0012955358221263917 0 0.0040573103713193465 -0.0014043085643696998 0 0.0042569858638216631 -0.0012955358221263917 0 0.0042854648996924873 -0.0014598841175166985 0 0.0042569858638216631 -0.0012955358221263917 0 0.0044208612908115622 -0.0012534250381406207 0 0.004399436157671438 -0.0013846815426653471 0 0.0042569858638216631 -0.0012955358221263917 0 0.004399436157671438 -0.0013846815426653471 0 0.0042854648996924873 -0.0014598841175166985 0 0.0045638588689613938 -0.0012283498026820904 0 0.0044208612908115622 -0.0012534250381406207 0 0.004507578228110003 -0.0013410454416240892 0 0.0044208612908115622 -0.0012534250381406207 0 0.004399436157671438 -0.0013846815426653471 0 0.004507578228110003 -0.0013410454416240892 0 0.004399436157671438 -0.0013846815426653471 0 0.004507578228110003 -0.0013410454416240892 0 0.0045262321852786924 -0.0014438984888567915 0 0.004399436157671438 -0.0013846815426653471 0 0.0045262321852786924 -0.0014438984888567915 0 0.0044272870816976792 -0.0015222974600705335 0 0.0045262321852786924 -0.0014438984888567915 0 0.0044272870816976792 -0.0015222974600705335 0 0.0045336072009553897 -0.0015359574816932811 0 0.004399436157671438 -0.0013846815426653471 0 0.0044272870816976792 -0.0015222974600705335 0 0.0042854648996924873 -0.0014598841175166985 0 0.0043749730749954854 -0.001606124157870522 0 0.0044272870816976792 -0.0015222974600705335 0 0.0042932561502912574 -0.0015626404210555894 0 0.0043749730749954854 -0.001606124157870522 0 0.0044272870816976792 -0.0015222974600705335 0 0.0044620363577564269 -0.0015856488986871354 0 0.0044272870816976792 -0.0015222974600705335 0 0.0044620363577564269 -0.0015856488986871354 0 0.0045336072009553897 -0.0015359574816932811 0 0.0044620363577564269 -0.0015856488986871354 0 0.0045336072009553897 -0.0015359574816932811 0 0.0045272476086431679 -0.0016109487539241274 0 0.0041437656683738239 -0.0015158894454714536 0 0.0042854648996924873 -0.0014598841175166985 0 0.0042932561502912574 -0.0015626404210555894 0 0.0044272870816976792 -0.0015222974600705335 0 0.0042854648996924873 -0.0014598841175166985 0 0.0042932561502912574 -0.0015626404210555894 0 0.0041437656683738239 -0.0015158894454714536 0 0.0042932561502912574 -0.0015626404210555894 0 0.004213558856588028 -0.0016801991600914473 0 -0.0050919365482972375 -0.000532483207485194 0 -0.0053470282629459439 -0.00046227172743507441 0 -0.00548775514755069 -0.00029102659571487939 0 -0.0055820606119518553 -0.00012655124073309953 0 -0.005888580883276328 -0.00035989619037972962 0 -0.0058248698663110722 0.00050092928043377375 0 -0.0050919365482972375 -0.000532483207485194 0 -0.00548775514755069 -0.00029102659571487939 0 -0.0052860025267797064 -0.00017568698479303028 0 0.0043749730749954854 -0.001606124157870522 0 0.0042932561502912574 -0.0015626404210555894 0 0.004213558856588028 -0.0016801991600914473 0 -0.00548775514755069 -0.00029102659571487939 0 -0.0055820606119518553 -0.00012655124073309953 0 -0.005888580883276328 -0.00035989619037972962 0 0.0043749730749954854 -0.001606124157870522 0 0.004213558856588028 -0.0016801991600914473 0 0.0044523051822050116 -0.0016503291444753725 0 0.004213558856588028 -0.0016801991600914473 0 0.0044523051822050116 -0.0016503291444753725 0 0.0045330557366165926 -0.0016976332033383833 0 -0.0013611337609085073 -0.00098328717502696537 0 -0.0012940690911205203 0.00026048106554014836 0 -0.0053470282629459439 -0.00046227172743507441 0 -0.00548775514755069 -0.00029102659571487939 0 -0.005888580883276328 -0.00035989619037972962 0 0.0043749730749954854 -0.001606124157870522 0 0.0044620363577564269 -0.0015856488986871354 0 0.0044523051822050116 -0.0016503291444753725 0 0.0044620363577564269 -0.0015856488986871354 0 0.0044523051822050116 -0.0016503291444753725 0 0.0045272476086431679 -0.0016109487539241274 0 0.0044523051822050116 -0.0016503291444753725 0 0.0045209997747475226 -0.0016571294079773522 0 0.0045272476086431679 -0.0016109487539241274 0 -0.0052860025267797064 -0.00017568698479303028 0 -0.0055820606119518553 -0.00012655124073309953 0 -0.0055032667865021097 0.00018230109984570408 0 -0.00548775514755069 -0.00029102659571487939 0 -0.0052860025267797064 -0.00017568698479303028 0 -0.0055820606119518553 -0.00012655124073309953 0 -0.0053669958438125913 0.0030001968052705869 0 -0.0046933080753595903 0.0030233127993064459 0 -0.005136321787200227 0.0025952083282252281 0 -0.0012940690911205203 0.00026048106554014836 0 0.00043741083466045989 0.00067858516893558557 0 0.0044523051822050116 -0.0016503291444753725 0 0.0045330557366165926 -0.0016976332033383833 0 0.0045209997747475226 -0.0016571294079773522 0 0.0045330557366165926 -0.0016976332033383833 0 0.0045713112140953688 -0.0016619284120300269 0 0.0045209997747475226 -0.0016571294079773522 0 -0.0012940690911205203 0.00026048106554014836 0 -0.0011046713144446897 0.00012224760941196655 0 0.0045713112140953688 -0.0016619284120300269 0 0.0045209997747475226 -0.0016571294079773522 0 0.0045272476086431679 -0.0016109487539241274 0 0.0045581704803781152 -0.0017127900200827951 0 0.0047349192086989355 -0.0014925338544335654 0 0.0050910274061076602 -0.0014804141735177399 0 0.0045581704803781152 -0.0017127900200827951 0 0.0045713112140953688 -0.0016619284120300269 0 0.0047349192086989355 -0.0014925338544335654 0 0.0045713112140953688 -0.0016619284120300269 0 0.0045272476086431679 -0.0016109487539241274 0 0.004596036905407371 -0.0015555029692457267 0 0.0045336072009553897 -0.0015359574816932811 0 0.0045272476086431679 -0.0016109487539241274 0 0.004596036905407371 -0.0015555029692457267 0 0.0045336072009553897 -0.0015359574816932811 0 0.004596036905407371 -0.0015555029692457267 0 0.0046153995889854195 -0.001477599300701902 0 0.0045713112140953688 -0.0016619284120300269 0 0.004596036905407371 -0.0015555029692457267 0 0.0047349192086989355 -0.0014925338544335654 0 0.0047349192086989355 -0.0014925338544335654 0 0.0046153995889854195 -0.001477599300701902 0 0.0046517920682758382 -0.0013559390119430722 0 0.004596036905407371 -0.0015555029692457267 0 0.0047349192086989355 -0.0014925338544335654 0 0.0046153995889854195 -0.001477599300701902 0 0.0045262321852786924 -0.0014438984888567915 0 0.0046153995889854195 -0.001477599300701902 0 0.0046517920682758382 -0.0013559390119430722 0 0.0045262321852786924 -0.0014438984888567915 0 0.0045336072009553897 -0.0015359574816932811 0 0.0046153995889854195 -0.001477599300701902 0 0.0047349192086989355 -0.0014925338544335654 0 0.0046517920682758382 -0.0013559390119430722 0 0.0048539125041781941 -0.0012745474228278246 0 0.004507578228110003 -0.0013410454416240892 0 0.0045262321852786924 -0.0014438984888567915 0 0.0046517920682758382 -0.0013559390119430722 0 0.0047166784770899537 -0.001173313497784208 0 0.0046517920682758382 -0.0013559390119430722 0 0.0048539125041781941 -0.0012745474228278246 0 0.0047166784770899537 -0.001173313497784208 0 0.0045638588689613938 -0.0012283498026820904 0 0.0046517920682758382 -0.0013559390119430722 0 0.0045638588689613938 -0.0012283498026820904 0 0.004507578228110003 -0.0013410454416240892 0 0.0046517920682758382 -0.0013559390119430722 0 0.0047349192086989355 -0.0014925338544335654 0 0.0048539125041781941 -0.0012745474228278246 0 0.0050910274061076602 -0.0014804141735177399 0 0.0050576111334593825 -0.0011874457207531066 0 0.0053662444796507358 -0.0012219269763072067 0 0.0050910274061076602 -0.0014804141735177399 0 0.0053662444796507358 -0.0012219269763072067 0 0.0050910274061076602 -0.0014804141735177399 0 0.0052617498174506103 -0.001741936888379746 0 0.0050576111334593825 -0.0011874457207531066 0 0.0048539125041781941 -0.0012745474228278246 0 0.0050910274061076602 -0.0014804141735177399 0 0.005752162416439807 -0.0014080369641734317 0 0.0052617498174506103 -0.001741936888379746 0 0.0059916799895998653 -0.0017217073290423802 0 0.0053662444796507358 -0.0012219269763072067 0 0.005752162416439807 -0.0014080369641734317 0 0.0052617498174506103 -0.001741936888379746 0 0.0058629275653500961 -0.0010616364634601398 0 0.0053662444796507358 -0.0012219269763072067 0 0.005752162416439807 -0.0014080369641734317 0 0.00043741083466045989 0.00067858516893558557 0 0.0011595205684831265 0.00067771394508129342 0 -0.0046933080753595903 0.0030233127993064459 0 -0.004298869747722406 0.0024431139058439431 0 -0.0039855517919453708 0.0030403376863950239 0 0.0045581704803781152 -0.0017127900200827951 0 0.0050910274061076602 -0.0014804141735177399 0 0.0052617498174506103 -0.001741936888379746 0 -0.0046933080753595903 0.0030233127993064459 0 -0.0048356509990979705 0.0023329182324534998 0 -0.005136321787200227 0.0025952083282252281 0 -0.0046933080753595903 0.0030233127993064459 0 -0.0048356509990979705 0.0023329182324534998 0 -0.004298869747722406 0.0024431139058439431 0 -0.004298869747722406 0.0024431139058439431 0 -0.0045812156641376854 0.0020473858902847969 0 -0.0039474894321912439 0.0018404555719278399 0 -0.0048356509990979705 0.0023329182324534998 0 -0.004298869747722406 0.0024431139058439431 0 -0.0045812156641376854 0.0020473858902847969 0 -0.0048356509990979705 0.0023329182324534998 0 -0.0050067657205060184 0.0019987578072211297 0 -0.0052556663319436774 0.0021073557618169858 0 -0.0048356509990979705 0.0023329182324534998 0 -0.0045812156641376854 0.0020473858902847969 0 -0.0050067657205060184 0.0019987578072211297 0 -0.0050067657205060184 0.0019987578072211297 0 -0.0052556663319436774 0.0021073557618169858 0 -0.0052736918510188678 0.0017096501087644008 0 -0.0052556663319436774 0.0021073557618169858 0 -0.0055412449252698571 0.0023404818021144505 0 -0.0056858401618153859 0.0017364848616088443 0 -0.0061680287561547654 0.0015620502895439734 0 -0.0057007965469896092 0.0013214277060310802 0 -0.005638891402072123 0.00072162235318487099 0 -0.0055311118497894237 0.00049153394766552857 0 -0.0058248698663110722 0.00050092928043377375 0 -0.005638891402072123 0.00072162235318487099 0 -0.0058248698663110722 0.00050092928043377375 0 -0.0058289097088657978 0.00094781922744135365 0 -0.0055820606119518553 -0.00012655124073309953 0 -0.0058248698663110722 0.00050092928043377375 0 -0.0055032667865021097 0.00018230109984570408 0 -0.0055311118497894237 0.00049153394766552857 0 -0.0058248698663110722 0.00050092928043377375 0 -0.0055032667865021097 0.00018230109984570408 0 -0.0012940690911205203 0.00026048106554014836 0 -0.0061680287561547654 0.0015620502895439734 0 -0.0052556663319436774 0.0021073557618169858 0 -0.0055412449252698571 0.0023404818021144505 0 -0.005136321787200227 0.0025952083282252281 0 -0.0048356509990979705 0.0023329182324534998 0 -0.0052556663319436774 0.0021073557618169858 0 -0.005136321787200227 0.0025952083282252281 0 -0.0053669958438125913 0.0030001968052705869 0 -0.0055412449252698571 0.0023404818021144505 0 -0.005136321787200227 0.0025952083282252281 0 -0.0044573918705750042 0.0018704750243910156 0 -0.0046033246520384482 0.0018435896384639708 0 -0.004411488347969718 0.0019270706813211212 0 0.00060135651632397147 0.00058612335902120342 0 0.0014843107041773698 0.0017022989754110459 0 -0.0044573918705750042 0.0018704750243910156 0 -0.0046798833309421488 0.0018087909336648501 0 -0.0046033246520384482 0.0018435896384639708 0 0.00060135651632397147 0.00058612335902120342 0 -0.0036837916760800991 0.0023476914754157747 0 0.0070897845284170992 -0.0005404263233595673 0 0.00060135651632397147 0.00058612335902120342 0 0.0066300991011220521 0.00020928565920996228 0 0.0063202699136115283 0.0011713688399130162 0 0.006160448019353542 0.00057811265173693383 0 0.0063202699136115283 0.0011713688399130162 0 0.006160448019353542 0.00057811265173693383 0 0.0057059991379011885 0.00073425041130626941 0 0.0060472279520950136 0.00028951640841915215 0 0.006160448019353542 0.00057811265173693383 0 0.0057059991379011885 0.00073425041130626941 0 0.0062933988982872358 -0.00081686304729479539 0 0.0058193563665494804 -0.0017858059508972129 0 0.0056107329197676676 -0.0010449566290968489 0 0.0063772131748652556 -0.0012160303971095212 0 0.00079194336454582032 0.00046640901359684418 0 0.0058193563665494804 -0.0017858059508972129 0 0.0056107329197676676 -0.0010449566290968489 0 0.0048852324045694636 -0.0017885119443911217 0 -0.0044867190823279389 0.001937903419312613 0 -0.0047558451032811396 0.0019399378974913502 0 -0.0048560443514781455 0.0017756454708354253 0 0.00060135651632397147 0.00058612335902120342 0 0.00079194336454582032 0.00046640901359684418 0 -0.0044867190823279389 0.001937903419312613 0 -0.0048560443514781455 0.0017756454708354253 0 -0.0046798833309421488 0.0018087909336648501 0 -0.0032567743959233128 0.0030278535900972537 0 -0.0039855517919453708 0.0030403376863950239 0 -0.0036076994982717865 0.0024170974931300784 0 0.00079194336454582032 0.00046640901359684418 0 -0.0048172002833643725 0.0022317656074264751 0 0.00079194336454582032 0.00046640901359684418 0 0.0011595205684831265 0.00067771394508129342 0 0.0066623324625779533 -0.0010665179702316855 0 0.0069164840388572122 -0.0011045480975105915 0 0.0066988692370976068 -0.00165494430360427 0 0.0066623324625779533 -0.0010665179702316855 0 0.0066988692370976068 -0.00165494430360427 0 0.0062820062836957558 -0.0012915384901550316 0 0.005752162416439807 -0.0014080369641734317 0 0.0062820062836957558 -0.0012915384901550316 0 0.0059916799895998653 -0.0017217073290423802 0 0.0066988692370976068 -0.00165494430360427 0 0.0062820062836957558 -0.0012915384901550316 0 0.0059916799895998653 -0.0017217073290423802 0 0.0058629275653500961 -0.0010616364634601398 0 0.005752162416439807 -0.0014080369641734317 0 0.0062820062836957558 -0.0012915384901550316 0 -0.004298869747722406 0.0024431139058439431 0 -0.0039855517919453708 0.0030403376863950239 0 -0.0036076994982717865 0.0024170974931300784 0 -0.004298869747722406 0.0024431139058439431 0 -0.0036076994982717865 0.0024170974931300784 0 -0.0039474894321912439 0.0018404555719278399 0 -0.0048172002833643725 0.0022317656074264751 0 -0.0044267229637277748 0.0017230775019725646 0 -0.0051587445906834655 0.0015621220446198939 0 -0.0051009611423400011 0.0016752289962590702 0 -0.0051654321542631883 0.0015793006997205023 0 -0.0051587445906834655 0.0015621220446198939 0 -0.0051009611423400011 0.0016752289962590702 0 -0.0050354114471829791 0.0016292089416646471 0 -0.0047558451032811396 0.0019399378974913502 0 -0.0051009611423400011 0.0016752289962590702 0 -0.0048560443514781455 0.0017756454708354253 0 -0.0051009611423400011 0.0016752289962590702 0 -0.0048560443514781455 0.0017756454708354253 0 -0.0050354114471829791 0.0016292089416646471 0 -0.0048560443514781455 0.0017756454708354253 0 -0.0050354114471829791 0.0016292089416646471 0 -0.0046798833309421488 0.0018087909336648501 0 -0.0050354114471829791 0.0016292089416646471 0 -0.0049021747783326948 0.0016830001103908896 0 -0.0053886794281791375 0.0015218557463474575 0 -0.0051587445906834655 0.0015621220446198939 0 -0.0050354114471829791 0.0016292089416646471 0 -0.0053886794281791375 0.0015218557463474575 0 -0.0049021747783326948 0.0016830001103908896 0 -0.0046798833309421488 0.0018087909336648501 0 -0.0046033246520384482 0.0018435896384639708 0 -0.0050354114471829791 0.0016292089416646471 0 -0.0049021747783326948 0.0016830001103908896 0 -0.0046798833309421488 0.0018087909336648501 0 -0.0054201720134451382 0.0012618235972229556 0 -0.0050476661321561343 0.0014453057121049469 0 -0.0054321522715595769 0.0010329748324296808 0 -0.0054201720134451382 0.0012618235972229556 0 -0.0058902462337603548 0.0010027020422951299 0 -0.0054321522715595769 0.0010329748324296808 0 -0.0054201720134451382 0.0012618235972229556 0 -0.0053886794281791375 0.0015218557463474575 0 -0.0050476661321561343 0.0014453057121049469 0 -0.0049021747783326948 0.0016830001103908896 0 -0.0053886794281791375 0.0015218557463474575 0 -0.0050476661321561343 0.0014453057121049469 0 -0.0054992574771256441 0.0015006369452274936 0 -0.0054913690652336209 0.0014876253213749117 0 -0.0054201720134451382 0.0012618235972229556 0 -0.0053886794281791375 0.0015218557463474575 0 -0.0058902462337603548 0.0010027020422951299 0 -0.0053886794281791375 0.0015218557463474575 0 -0.0058902462337603548 0.0010027020422951299 0 -0.0061988289059784849 0.0013180960206433205 0 -0.0058902462337603548 0.0010027020422951299 0 -0.0062586512995941755 0.0010678847146723229 0 -0.0061988289059784849 0.0013180960206433205 0 -0.0062586512995941755 0.0010678847146723229 0 -0.0061988289059784849 0.0013180960206433205 0 -0.0066524783942641984 0.0011116696091476737 0 -0.0051587445906834655 0.0015621220446198939 0 -0.0053886794281791375 0.0015218557463474575 0 -0.005179469365622919 0.0016169919300311037 0 -0.0051587445906834655 0.0015621220446198939 0 -0.005179469365622919 0.0016169919300311037 0 -0.0051654321542631883 0.0015793006997205023 0 -0.005179469365622919 0.0016169919300311037 0 -0.0051654321542631883 0.0015793006997205023 0 -0.0051666496751074506 0.0016144088660775228 0 -0.0044267229637277748 0.0017230775019725646 0 -0.005440054003079709 0.0014085582354231724 0 -0.0054913690652336209 0.0014876253213749117 0 -0.0070877421106199752 0.0017542195643704276 0 -0.005179469365622919 0.0016169919300311037 0 -0.0051666496751074506 0.0016144088660775228 0 -0.0051707532228484334 0.0016165243017766055 0 -0.0070877421106199752 0.0017542195643704276 0 -0.0064576336836033059 0.0014581966153774336 0 -0.0061462717469809728 0.0017896398174939 0 -0.00595293882399274 0.0016330728486443136 0 -0.0062788194582520333 0.0014728859552822027 0 -0.005440054003079709 0.0014085582354231724 0 -0.0070877421106199752 0.0017542195643704276 0 -0.010400802801980255 0.0021673901576236619 0 -0.0099416717161374055 0.0006790298618289288 0 -0.0094403514081221416 0.0021920941814001288 0 -0.0062586512995941755 0.0010678847146723229 0 -0.0066524783942641984 0.0011116696091476737 0 -0.0063051794781863258 0.00083679630408897893 0 -0.010582265278557221 0.003088636853187555 0 -0.010400802801980255 0.0021673901576236619 0 -0.0094403514081221416 0.0021920941814001288 0 -0.0070877421106199752 0.0017542195643704276 0 -0.0081149114832465511 0.0016626805872063219 0 -0.010582265278557221 0.003088636853187555 0 -0.010400802801980255 0.0021673901576236619 0 -0.010992060489532876 0.0028927024482401894 0 -0.010400802801980255 0.0021673901576236619 0 -0.0099416717161374055 0.0006790298618289288 0 -0.011703079307270631 0.0012491283766230667 0 -0.0099416717161374055 0.0006790298618289288 0 -0.0094403514081221416 0.0021920941814001288 0 -0.0082270964603674158 0.001308113736822518 0 -0.0099416717161374055 0.0006790298618289288 0 -0.0082270964603674158 0.001308113736822518 0 -0.0081512733028429509 7.1860719736394879e-05 0 -0.0058902462337603548 0.0010027020422951299 0 -0.0062586512995941755 0.0010678847146723229 0 -0.0063051794781863258 0.00083679630408897893 0 -0.0081149114832465511 0.0016626805872063219 0 -0.00713656381497657 0.00088117108401057913 0 -0.0058902462337603548 0.0010027020422951299 0 -0.0061681535514061395 0.00063099054921212988 0 -0.0059612241528819582 0.00076114762191225346 0 -0.0058902462337603548 0.0010027020422951299 0 -0.0063051794781863258 0.00083679630408897893 0 -0.0061681535514061395 0.00063099054921212988 0 -0.00713656381497657 0.00088117108401057913 0 -0.0066203931105865092 0.0002976581805747964 0 -0.0061681535514061395 0.00063099054921212988 0 -0.0059612241528819582 0.00076114762191225346 0 -0.0066201715155844113 0.00021817133522370572 0 -0.0082270964603674158 0.001308113736822518 0 -0.0066201715155844113 0.00021817133522370572 0 -0.0081512733028429509 7.1860719736394879e-05 0 -0.0059612241528819582 0.00076114762191225346 0 -0.0066201715155844113 0.00021817133522370572 0 -0.0058912818647554512 0.00055230655337412898 0 -0.0059612241528819582 0.00076114762191225346 0 -0.0058912818647554512 0.00055230655337412898 0 -0.0054321522715595769 0.0010329748324296808 0 -0.0058902462337603548 0.0010027020422951299 0 -0.0059612241528819582 0.00076114762191225346 0 -0.0054321522715595769 0.0010329748324296808 0 -0.0054792590062938216 0.0013541940430726216 0 -0.0052736918510188678 0.0017096501087644008 0 -0.0051145163840850228 0.0013781821997146248 0 -0.0057195840522613851 0.0011260541606422777 0 -0.0058289097088657978 0.00094781922744135365 0 -0.0058069908911757527 0.0012508195127305492 0 -0.0057007965469896092 0.0013214277060310802 0 -0.0058124673577155811 0.0012620577563591756 0 -0.0054792590062938216 0.0013541940430726216 0 -0.0056858401618153859 0.0017364848616088443 0 -0.0058069908911757527 0.0012508195127305492 0 -0.0052556663319436774 0.0021073557618169858 0 -0.0056858401618153859 0.0017364848616088443 0 -0.0052736918510188678 0.0017096501087644008 0 -0.0054792590062938216 0.0013541940430726216 0 -0.0056858401618153859 0.0017364848616088443 0 -0.0052736918510188678 0.0017096501087644008 0 -0.0050067657205060184 0.0019987578072211297 0 -0.0052736918510188678 0.0017096501087644008 0 -0.0047602730076365396 0.0016128448499811295 0 -0.0052736918510188678 0.0017096501087644008 0 -0.0047602730076365396 0.0016128448499811295 0 -0.0051145163840850228 0.0013781821997146248 0 -0.0045812156641376854 0.0020473858902847969 0 -0.0050067657205060184 0.0019987578072211297 0 -0.0047602730076365396 0.0016128448499811295 0 -0.0039474894321912439 0.0018404555719278399 0 -0.0042650070811091675 0.0011910900962696798 0 -0.0047602730076365396 0.0016128448499811295 0 -0.0045812156641376854 0.0020473858902847969 0 -0.0039474894321912439 0.0018404555719278399 0 -0.0047602730076365396 0.0016128448499811295 0 -0.005440054003079709 0.0014085582354231724 0 -0.0044543848240907579 0.0014195695821570633 0 -0.0045743848976392771 0.0013941070333721983 0 -0.0047602730076365396 0.0016128448499811295 0 -0.0047758832155911594 0.0013735821583664624 0 -0.0047758832155911594 0.0013735821583664624 0 -0.004607053595486247 0.0012996032658645438 0 -0.0048992587423548955 0.0011617021941407646 0 -0.0045743848976392771 0.0013941070333721983 0 -0.0047758832155911594 0.0013735821583664624 0 -0.004607053595486247 0.0012996032658645438 0 -0.005440054003079709 0.0014085582354231724 0 -0.0064576336836033059 0.0014581966153774336 0 -0.0047602730076365396 0.0016128448499811295 0 -0.0047758832155911594 0.0013735821583664624 0 -0.0051145163840850228 0.0013781821997146248 0 -0.0047758832155911594 0.0013735821583664624 0 -0.0051145163840850228 0.0013781821997146248 0 -0.0048992587423548955 0.0011617021941407646 0 -0.0051145163840850228 0.0013781821997146248 0 -0.0048992587423548955 0.0011617021941407646 0 -0.0053375228505724908 0.0010752821118454007 0 -0.0052526921748237291 0.0011388316704886506 0 -0.0051962208962987328 0.0010344485603166894 0 -0.0053328648611799031 0.0010115131555965074 0 -0.0052526921748237291 0.0011388316704886506 0 -0.0053375228505724908 0.0010752821118454007 0 -0.0053328648611799031 0.0010115131555965074 0 -0.0049014671678689987 0.0012697694287037394 0 -0.0053461589355018576 0.0010535840057044328 0 -0.0064576336836033059 0.0014581966153774336 0 -0.0086123854181004954 0.0011783877526952741 0 -0.010400802801980255 0.0021673901576236619 0 -0.010992060489532876 0.0028927024482401894 0 -0.011703079307270631 0.0012491283766230667 0 -0.0051823282682730521 0.0011837873163708192 0 -0.0052526921748237291 0.0011388316704886506 0 -0.0051962208962987328 0.0010344485603166894 0 -0.0064576336836033059 0.0014581966153774336 0 -0.0049014671678689987 0.0012697694287037394 0 -0.0099416717161374055 0.0006790298618289288 0 -0.011703079307270631 0.0012491283766230667 0 -0.011247201374549638 0.00011784793375641869 0 -0.0053375228505724908 0.0010752821118454007 0 -0.0053328648611799031 0.0010115131555965074 0 -0.0055085040036495876 0.0009559766400724127 0 -0.0051962208962987328 0.0010344485603166894 0 -0.0053328648611799031 0.0010115131555965074 0 -0.0054150581285605549 0.00082623457587128481 0 -0.0053328648611799031 0.0010115131555965074 0 -0.0055085040036495876 0.0009559766400724127 0 -0.0054150581285605549 0.00082623457587128481 0 -0.0053375228505724908 0.0010752821118454007 0 -0.0055085040036495876 0.0009559766400724127 0 -0.0056127949077800551 0.0011160494546206558 0 -0.0055085040036495876 0.0009559766400724127 0 -0.0056127949077800551 0.0011160494546206558 0 -0.0056898658807235901 0.00096983147117345387 0 -0.0054792590062938216 0.0013541940430726216 0 -0.0053375228505724908 0.0010752821118454007 0 -0.0056127949077800551 0.0011160494546206558 0 -0.0054792590062938216 0.0013541940430726216 0 -0.0051145163840850228 0.0013781821997146248 0 -0.0053375228505724908 0.0010752821118454007 0 -0.0056127949077800551 0.0011160494546206558 0 -0.0058069908911757527 0.0012508195127305492 0 -0.0057951471963650645 0.001099877786907213 0 -0.0058891657770669334 0.001177992158696862 0 -0.0058069908911757527 0.0012508195127305492 0 -0.0057951471963650645 0.001099877786907213 0 -0.0054792590062938216 0.0013541940430726216 0 -0.0056127949077800551 0.0011160494546206558 0 -0.0058069908911757527 0.0012508195127305492 0 -0.0057951471963650645 0.001099877786907213 0 -0.0056898658807235901 0.00096983147117345387 0 -0.0058562491351663503 0.00096199448007787977 0 -0.0056127949077800551 0.0011160494546206558 0 -0.0057951471963650645 0.001099877786907213 0 -0.0056898658807235901 0.00096983147117345387 0 -0.0058562491351663503 0.00096199448007787977 0 -0.0057197688108901129 0.00087147725472070899 0 -0.0059486663354996203 0.00082566520391655568 0 -0.0057004102843397136 0.00096897134766406811 0 -0.005769208944355942 0.00075329649104078711 0 -0.0056898658807235901 0.00096983147117345387 0 -0.0058562491351663503 0.00096199448007787977 0 -0.0057197688108901129 0.00087147725472070899 0 -0.0052410577360412196 0.0012958062849803124 0 -0.0054715459375540964 0.00079523020296733463 0 -0.005723373066817113 0.0010773788262864366 0 -0.005769208944355942 0.00075329649104078711 0 -0.0057649285207187319 0.00099809325877611905 0 -0.0052410577360412196 0.0012958062849803124 0 -0.0054715459375540964 0.00079523020296733463 0 -0.005157919424939642 0.00057987809904372573 0 -0.005769208944355942 0.00075329649104078711 0 -0.0055657564099754493 6.1864171087994753e-05 0 -0.0064516222495973781 0.00048731218186617658 0 -0.0060477718488490869 -8.5700700647870827e-05 0 -0.0056954266125645078 0.00049180660475402985 0 -0.0064516222495973781 0.00048731218186617658 0 -0.0060477718488490869 -8.5700700647870827e-05 0 -0.0063911505394678349 -0.00077663864218415325 0 -0.0060477718488490869 -8.5700700647870827e-05 0 -0.0056954266125645078 0.00049180660475402985 0 -0.0056586624188314652 -0.00055227482504016689 0 -0.0055085040036495876 0.0009559766400724127 0 -0.0056539415626501105 0.00075307198955534165 0 -0.0054150581285605549 0.00082623457587128481 0 -0.005769208944355942 0.00075329649104078711 0 -0.0055795646515908945 0.00076712097601420385 0 -0.0064516222495973781 0.00048731218186617658 0 -0.0054150581285605549 0.00082623457587128481 0 -0.0056954266125645078 0.00049180660475402985 0 -0.0055085040036495876 0.0009559766400724127 0 -0.0056898658807235901 0.00096983147117345387 0 -0.0056539415626501105 0.00075307198955534165 0 -0.0051962208962987328 0.0010344485603166894 0 -0.0054150581285605549 0.00082623457587128481 0 -0.0052894974646571363 0.00052814417278626102 0 -0.0054150581285605549 0.00082623457587128481 0 -0.0052894974646571363 0.00052814417278626102 0 -0.0056954266125645078 0.00049180660475402985 0 -0.011703079307270631 0.0012491283766230667 0 -0.012362331492914424 -0.00039932472749317725 0 -0.011247201374549638 0.00011784793375641869 0 -0.0086123854181004954 0.0011783877526952741 0 -0.0088444854167072286 6.9336587216772415e-05 0 -0.012362331492914424 -0.00039932472749317725 0 -0.011247201374549638 0.00011784793375641869 0 -0.010780598426327339 -0.00089902303546205364 0 -0.012362331492914424 -0.00039932472749317725 0 -0.011900391863739991 -0.0017064261908257613 0 -0.010780598426327339 -0.00089902303546205364 0 -0.005165117807414606 0.0006977625928058928 0 -0.0090263188549467837 -0.0013016851595402308 0 -0.0088444854167072286 6.9336587216772415e-05 0 -0.0090263188549467837 -0.0013016851595402308 0 -0.012362331492914424 -0.00039932472749317725 0 -0.011900391863739991 -0.0017064261908257613 0 -0.012937852303076567 -0.0019608195039603161 0 -0.0052894974646571363 0.00052814417278626102 0 -0.0056954266125645078 0.00049180660475402985 0 -0.0057040426616247657 -0.00042239594242377156 0 -0.011900391863739991 -0.0017064261908257613 0 -0.012937852303076567 -0.0019608195039603161 0 -0.01221409739701578 -0.0025411618383647189 0 -0.012937852303076567 -0.0019608195039603161 0 -0.01221409739701578 -0.0025411618383647189 0 -0.012755725922193033 -0.0032540270927337283 0 -0.0090263188549467837 -0.0013016851595402308 0 -0.012577474296888828 -0.0034068778418620397 0 -0.011900391863739991 -0.0017064261908257613 0 -0.011207923320360594 -0.0026411958579197403 0 -0.010780598426327339 -0.00089902303546205364 0 -0.011900391863739991 -0.0017064261908257613 0 -0.01221409739701578 -0.0025411618383647189 0 -0.011207923320360594 -0.0026411958579197403 0 -0.011207923320360594 -0.0026411958579197403 0 -0.012068431702262402 -0.0031206137879961635 0 -0.011890561188392452 -0.0038439505913744616 0 -0.011207923320360594 -0.0026411958579197403 0 -0.010973853950215214 -0.0039952844830287524 0 -0.011890561188392452 -0.0038439505913744616 0 -0.01221409739701578 -0.0025411618383647189 0 -0.011207923320360594 -0.0026411958579197403 0 -0.012068431702262402 -0.0031206137879961635 0 -0.012068431702262402 -0.0031206137879961635 0 -0.012755725922193033 -0.0032540270927337283 0 -0.011890561188392452 -0.0038439505913744616 0 -0.01221409739701578 -0.0025411618383647189 0 -0.012068431702262402 -0.0031206137879961635 0 -0.012755725922193033 -0.0032540270927337283 0 -0.012068078949592794 -0.0033247460548759232 0 -0.012384231974813547 -0.0031349176511520868 0 -0.012636021329324692 -0.0037899440619706144 0 -0.0092971255634860996 -0.0025039709162243255 0 -0.0074938074409365346 -0.0018414574836325378 0 -0.0059816922084112208 -0.0013042133085551496 0 -0.0063911505394678349 -0.00077663864218415325 0 -0.006311499280708132 -0.0020551710747169533 0 -0.0055657564099754493 6.1864171087994753e-05 0 -0.0074938074409365346 -0.0018414574836325378 0 -0.0053667296488053842 4.8446578939141273e-05 0 -0.0054797059140689851 0.00041791909425642791 0 -0.005157919424939642 0.00057987809904372573 0 -0.0053667296488053842 4.8446578939141273e-05 0 -0.005157919424939642 0.00057987809904372573 0 -0.0050704433754817715 -0.00021864005915535404 0 -0.0053667296488053842 4.8446578939141273e-05 0 -0.0054920420818904908 -0.00029193647794767023 0 -0.0057179367613480088 6.3344987587184823e-05 0 -0.0053667296488053842 4.8446578939141273e-05 0 -0.0054797059140689851 0.00041791909425642791 0 -0.0057179367613480088 6.3344987587184823e-05 0 -0.0054797059140689851 0.00041791909425642791 0 -0.0054715459375540964 0.00079523020296733463 0 -0.0057537001499407955 0.00058857683022526966 0 -0.0054797059140689851 0.00041791909425642791 0 -0.0054715459375540964 0.00079523020296733463 0 -0.005157919424939642 0.00057987809904372573 0 -0.0060477718488490869 -8.5700700647870827e-05 0 -0.0056586624188314652 -0.00055227482504016689 0 -0.0063911505394678349 -0.00077663864218415325 0 -0.012051904779996526 -0.0024124541950940707 0 -0.012068078949592794 -0.0033247460548759232 0 -0.012384231974813547 -0.0031349176511520868 0 -0.0090263188549467837 -0.0013016851595402308 0 -0.0092971255634860996 -0.0025039709162243255 0 -0.0056586624188314652 -0.00055227482504016689 0 -0.0059816922084112208 -0.0013042133085551496 0 -0.0063911505394678349 -0.00077663864218415325 0 -0.0071751449662887387 -0.0015912510923801128 0 -0.0064597981762910097 -0.0011616245306736116 0 -0.0064630067290435246 -0.0017491681138101956 0 -0.0071751449662887387 -0.0015912510923801128 0 -0.0064597981762910097 -0.0011616245306736116 0 -0.0072935650820575319 -0.00077565749488477033 0 -0.0064597981762910097 -0.0011616245306736116 0 -0.0066201715155844113 0.00021817133522370572 0 -0.0072935650820575319 -0.00077565749488477033 0 -0.006369600353952184 -0.0010775557717581604 0 -0.005931564614446971 0.00015847957092119752 0 -0.0064597981762910097 -0.0011616245306736116 0 -0.0066201715155844113 0.00021817133522370572 0 -0.0058912818647554512 0.00055230655337412898 0 -0.0072935650820575319 -0.00077565749488477033 0 -0.0081512733028429509 7.1860719736394879e-05 0 -0.0082231532907154591 -0.0012138354814422219 0 -0.0081512733028429509 7.1860719736394879e-05 0 -0.0082231532907154591 -0.0012138354814422219 0 -0.0093409525037285012 -0.00063036241109372144 0 -0.0066201715155844113 0.00021817133522370572 0 -0.0072935650820575319 -0.00077565749488477033 0 -0.0081512733028429509 7.1860719736394879e-05 0 -0.0071751449662887387 -0.0015912510923801128 0 -0.0082231532907154591 -0.0012138354814422219 0 -0.0081082269294907739 -0.0023318568819603981 0 -0.0082231532907154591 -0.0012138354814422219 0 -0.0095419738467845041 -0.0017164244263942125 0 -0.0081082269294907739 -0.0023318568819603981 0 -0.0071751449662887387 -0.0015912510923801128 0 -0.0072935650820575319 -0.00077565749488477033 0 -0.0082231532907154591 -0.0012138354814422219 0 -0.0082231532907154591 -0.0012138354814422219 0 -0.0095419738467845041 -0.0017164244263942125 0 -0.0093409525037285012 -0.00063036241109372144 0 -0.0099416717161374055 0.0006790298618289288 0 -0.0081512733028429509 7.1860719736394879e-05 0 -0.0093409525037285012 -0.00063036241109372144 0 -0.0099416717161374055 0.0006790298618289288 0 -0.011247201374549638 0.00011784793375641869 0 -0.010780598426327339 -0.00089902303546205364 0 -0.0099416717161374055 0.0006790298618289288 0 -0.0093409525037285012 -0.00063036241109372144 0 -0.010780598426327339 -0.00089902303546205364 0 -0.0095419738467845041 -0.0017164244263942125 0 -0.0093409525037285012 -0.00063036241109372144 0 -0.010780598426327339 -0.00089902303546205364 0 -0.011207923320360594 -0.0026411958579197403 0 -0.0095419738467845041 -0.0017164244263942125 0 -0.0095302471317134287 -0.0029923334699553028 0 -0.011207923320360594 -0.0026411958579197403 0 -0.0095419738467845041 -0.0017164244263942125 0 -0.010780598426327339 -0.00089902303546205364 0 -0.011207923320360594 -0.0026411958579197403 0 -0.0095302471317134287 -0.0029923334699553028 0 -0.010973853950215214 -0.0039952844830287524 0 -0.0095419738467845041 -0.0017164244263942125 0 -0.0095302471317134287 -0.0029923334699553028 0 -0.0081082269294907739 -0.0023318568819603981 0 -0.0095302471317134287 -0.0029923334699553028 0 -0.0082547831661873086 -0.0034253613827979435 0 -0.0090276733183427497 -0.0044447270676259863 0 -0.0095302471317134287 -0.0029923334699553028 0 -0.0081082269294907739 -0.0023318568819603981 0 -0.0082547831661873086 -0.0034253613827979435 0 -0.0082547831661873086 -0.0034253613827979435 0 -0.0072230550168579993 -0.0031614870918203271 0 -0.0074815234024155812 -0.0041796270533537095 0 -0.0081082269294907739 -0.0023318568819603981 0 -0.0082547831661873086 -0.0034253613827979435 0 -0.0072230550168579993 -0.0031614870918203271 0 -0.0072230550168579993 -0.0031614870918203271 0 -0.0074815234024155812 -0.0041796270533537095 0 -0.0063961352137536969 -0.0035104563825154428 0 -0.0072230550168579993 -0.0031614870918203271 0 -0.0068804069188642594 -0.0023218257238034209 0 -0.0064099556428362089 -0.0028038648927729182 0 -0.0071751449662887387 -0.0015912510923801128 0 -0.0081082269294907739 -0.0023318568819603981 0 -0.0068804069188642594 -0.0023218257238034209 0 -0.0081082269294907739 -0.0023318568819603981 0 -0.0072230550168579993 -0.0031614870918203271 0 -0.0068804069188642594 -0.0023218257238034209 0 -0.0071751449662887387 -0.0015912510923801128 0 -0.0068804069188642594 -0.0023218257238034209 0 -0.0064630067290435246 -0.0017491681138101956 0 -0.0080599955745499861 -0.0052081962304910698 0 -0.0074815234024155812 -0.0041796270533537095 0 -0.0070133710198748206 -0.0053396950124613377 0 -0.0080599955745499861 -0.0052081962304910698 0 -0.0074815234024155812 -0.0041796270533537095 0 -0.0090276733183427497 -0.0044447270676259863 0 -0.0082547831661873086 -0.0034253613827979435 0 -0.0074815234024155812 -0.0041796270533537095 0 -0.0090276733183427497 -0.0044447270676259863 0 -0.0080599955745499861 -0.0052081962304910698 0 -0.0090276733183427497 -0.0044447270676259863 0 -0.009066493644886469 -0.005742918480575657 0 -0.0090276733183427497 -0.0044447270676259863 0 -0.01016040804172925 -0.0057007322758186275 0 -0.010973853950215214 -0.0039952844830287524 0 -0.0090276733183427497 -0.0044447270676259863 0 -0.01016040804172925 -0.0057007322758186275 0 -0.009066493644886469 -0.005742918480575657 0 -0.0095302471317134287 -0.0029923334699553028 0 -0.0090276733183427497 -0.0044447270676259863 0 -0.010973853950215214 -0.0039952844830287524 0 -0.011605658288960772 -0.0048504802785268092 0 -0.010973853950215214 -0.0039952844830287524 0 -0.011747491752745922 -0.0047615904189056762 0 -0.011103878233564545 -0.0049702666470982145 0 -0.010953890081878703 -0.0041499768171125301 0 -0.011605658288960772 -0.0048504802785268092 0 -0.011925244205479578 -0.0050524563082670094 0 -0.011747491752745922 -0.0047615904189056762 0 -0.011925244205479578 -0.0050524563082670094 0 -0.011747491752745922 -0.0047615904189056762 0 -0.012006151508511498 -0.0050749637678548657 0 -0.011925244205479578 -0.0050524563082670094 0 -0.012062864244071192 -0.0051457776525825703 0 -0.012006151508511498 -0.0050749637678548657 0 -0.012062864244071192 -0.0051457776525825703 0 -0.01218460750368516 -0.0052006210684857473 0 -0.012103664880727645 -0.0051116716017055178 0 -0.011925244205479578 -0.0050524563082670094 0 -0.012062864244071192 -0.0051457776525825703 0 -0.01218460750368516 -0.0052006210684857473 0 -0.01218460750368516 -0.0052006210684857473 0 -0.012007278037492533 -0.0052506603778359291 0 -0.012466569016216462 -0.0058672673448312198 0 -0.011925244205479578 -0.0050524563082670094 0 -0.01218460750368516 -0.0052006210684857473 0 -0.012007278037492533 -0.0052506603778359291 0 -0.011103878233564545 -0.0049702666470982145 0 -0.0095553065772375437 -0.0072249851911671209 0 -0.01016040804172925 -0.0057007322758186275 0 -0.0094972012970480479 -0.0073756457207628948 0 -0.0092751303724930931 -0.006573019437227259 0 -0.01016040804172925 -0.0057007322758186275 0 -0.009066493644886469 -0.005742918480575657 0 -0.0092751303724930931 -0.006573019437227259 0 -0.011605658288960772 -0.0048504802785268092 0 -0.011925244205479578 -0.0050524563082670094 0 -0.012007278037492533 -0.0052506603778359291 0 -0.009066493644886469 -0.005742918480575657 0 -0.0092751303724930931 -0.006573019437227259 0 -0.0087694555370772965 -0.0066997837269746749 0 -0.0080599955745499861 -0.0052081962304910698 0 -0.009066493644886469 -0.005742918480575657 0 -0.0087694555370772965 -0.0066997837269746749 0 -0.0092751303724930931 -0.006573019437227259 0 -0.009226154700005677 -0.0070717343319809858 0 -0.0087694555370772965 -0.0066997837269746749 0 -0.0094972012970480479 -0.0073756457207628948 0 -0.0092751303724930931 -0.006573019437227259 0 -0.009226154700005677 -0.0070717343319809858 0 -0.0094972012970480479 -0.0073756457207628948 0 -0.009226154700005677 -0.0070717343319809858 0 -0.0096765231857594593 -0.007321926456259664 0 -0.009226154700005677 -0.0070717343319809858 0 -0.0096765231857594593 -0.007321926456259664 0 -0.0086115083049465146 -0.0073061449305839082 0 -0.009226154700005677 -0.0070717343319809858 0 -0.0087694555370772965 -0.0066997837269746749 0 -0.0086115083049465146 -0.0073061449305839082 0 -0.0086115083049465146 -0.0073061449305839082 0 -0.0079564891892049735 -0.0073383809081330673 0 -0.0078080257833081108 -0.0064316779341301571 0 -0.0087694555370772965 -0.0066997837269746749 0 -0.0086115083049465146 -0.0073061449305839082 0 -0.0078080257833081108 -0.0064316779341301571 0 -0.0082747415116738859 -0.0049106959262352574 0 -0.0068969407568539301 -0.0071138766123488928 0 -0.0080599955745499861 -0.0052081962304910698 0 -0.0073476824894220605 -0.0061758029576976202 0 -0.0070133710198748206 -0.0053396950124613377 0 -0.0080599955745499861 -0.0052081962304910698 0 -0.0087694555370772965 -0.0066997837269746749 0 -0.0078080257833081108 -0.0064316779341301571 0 -0.0052481278147471543 -0.00073144724332161175 0 -0.0051018333157298737 -0.00030325133369518725 0 -0.0050070656951021223 -0.0011317838542844465 0 -0.012636021329324692 -0.0037899440619706144 0 -0.012118162832424477 -0.0041139145944375987 0 -0.012536195772508446 -0.004745102956115267 0 -0.0074938074409365346 -0.0018414574836325378 0 -0.0089843661675203506 -0.0029950596930154423 0 -0.0054824827940553929 -0.0010243939603630777 0 -0.0052481278147471543 -0.00073144724332161175 0 -0.0050070656951021223 -0.0011317838542844465 0 -0.0054824827940553929 -0.0010243939603630777 0 -0.0056124631934050288 -0.00067317508488966824 0 -0.0052481278147471543 -0.00073144724332161175 0 -0.0056124631934050288 -0.00067317508488966824 0 -0.0052481278147471543 -0.00073144724332161175 0 -0.0053276364615935379 -0.00046397431330543631 0 -0.0052481278147471543 -0.00073144724332161175 0 -0.0053276364615935379 -0.00046397431330543631 0 -0.0051018333157298737 -0.00030325133369518725 0 -0.0056124631934050288 -0.00067317508488966824 0 -0.0053276364615935379 -0.00046397431330543631 0 -0.0054920420818904908 -0.00029193647794767023 0 -0.0056124631934050288 -0.00067317508488966824 0 -0.0054920420818904908 -0.00029193647794767023 0 -0.005806276377625934 -0.00034345632312430071 0 -0.0053667296488053842 4.8446578939141273e-05 0 -0.0054920420818904908 -0.00029193647794767023 0 -0.0052727780576914711 -0.00024464574724079239 0 -0.0053667296488053842 4.8446578939141273e-05 0 -0.0052727780576914711 -0.00024464574724079239 0 -0.0050704433754817715 -0.00021864005915535404 0 -0.0053276364615935379 -0.00046397431330543631 0 -0.0052727780576914711 -0.00024464574724079239 0 -0.0051018333157298737 -0.00030325133369518725 0 -0.0053276364615935379 -0.00046397431330543631 0 -0.0054920420818904908 -0.00029193647794767023 0 -0.0052727780576914711 -0.00024464574724079239 0 -0.012068078949592794 -0.0033247460548759232 0 -0.012636021329324692 -0.0037899440619706144 0 -0.012118162832424477 -0.0041139145944375987 0 -0.0050673071467386621 -0.00022099959702555569 0 -0.0051018333157298737 -0.00030325133369518725 0 -0.0050070656951021223 -0.0011317838542844465 0 -0.0052727780576914711 -0.00024464574724079239 0 -0.0050704433754817715 -0.00021864005915535404 0 -0.0051018333157298737 -0.00030325133369518725 0 -0.0074938074409365346 -0.0018414574836325378 0 -0.0071445301944779889 -0.0013179557688473334 0 -0.012755725922193033 -0.0032540270927337283 0 -0.012515914504353019 -0.0042528359535748614 0 -0.011890561188392452 -0.0038439505913744616 0 -0.012515914504353019 -0.0042528359535748614 0 -0.011890561188392452 -0.0038439505913744616 0 -0.012129727211642051 -0.004548449147998704 0 -0.012577474296888828 -0.0034068778418620397 0 -0.012310769914284168 -0.0041330782532597154 0 -0.010973853950215214 -0.0039952844830287524 0 -0.011890561188392452 -0.0038439505913744616 0 -0.011747491752745922 -0.0047615904189056762 0 -0.011890561188392452 -0.0038439505913744616 0 -0.011747491752745922 -0.0047615904189056762 0 -0.012129727211642051 -0.004548449147998704 0 -0.011747491752745922 -0.0047615904189056762 0 -0.012129727211642051 -0.004548449147998704 0 -0.012083327764595158 -0.0049135601161742872 0 -0.012118162832424477 -0.0041139145944375987 0 -0.012240123858987682 -0.004766440633732388 0 -0.012536195772508446 -0.004745102956115267 0 -0.012310769914284168 -0.0041330782532597154 0 -0.012255907250520429 -0.0047026992879191784 0 -0.012129727211642051 -0.004548449147998704 0 -0.012240123858987682 -0.004766440633732388 0 -0.012083327764595158 -0.0049135601161742872 0 -0.012515914504353019 -0.0042528359535748614 0 -0.012129727211642051 -0.004548449147998704 0 -0.012240123858987682 -0.004766440633732388 0 -0.012240123858987682 -0.004766440633732388 0 -0.012255634744372768 -0.0049649641363306843 0 -0.012536195772508446 -0.004745102956115267 0 -0.012255634744372768 -0.0049649641363306843 0 -0.012083327764595158 -0.0049135601161742872 0 -0.012109667619230283 -0.0051169322561086007 0 -0.012240123858987682 -0.004766440633732388 0 -0.012255634744372768 -0.0049649641363306843 0 -0.012083327764595158 -0.0049135601161742872 0 -0.011747491752745922 -0.0047615904189056762 0 -0.012083327764595158 -0.0049135601161742872 0 -0.012006151508511498 -0.0050749637678548657 0 -0.012083327764595158 -0.0049135601161742872 0 -0.012006151508511498 -0.0050749637678548657 0 -0.012109667619230283 -0.0051169322561086007 0 -0.012006151508511498 -0.0050749637678548657 0 -0.012109667619230283 -0.0051169322561086007 0 -0.012084407377918192 -0.0051253481756112313 0 -0.012062864244071192 -0.0051457776525825703 0 -0.012006151508511498 -0.0050749637678548657 0 -0.012084407377918192 -0.0051253481756112313 0 -0.012255634744372768 -0.0049649641363306843 0 -0.012109667619230283 -0.0051169322561086007 0 -0.01240127159145352 -0.0051898408274979871 0 -0.0049678937765393364 -0.0020409428405300614 0 -0.0050070656951021223 -0.0011317838542844465 0 -0.0053318678193023045 -0.0016978721843045126 0 -0.0084157356087171398 -0.0034077028073997901 0 -0.0052677786647609927 -0.00188942645978466 0 -0.012255634744372768 -0.0049649641363306843 0 -0.01240127159145352 -0.0051898408274979871 0 -0.012536195772508446 -0.004745102956115267 0 -0.0084157356087171398 -0.0034077028073997901 0 -0.0089843661675203506 -0.0029950596930154423 0 -0.0054824827940553929 -0.0010243939603630777 0 -0.0053318678193023045 -0.0016978721843045126 0 -0.005714851737801307 -0.0013600333432009324 0 -0.0054824827940553929 -0.0010243939603630777 0 -0.0050070656951021223 -0.0011317838542844465 0 -0.0053318678193023045 -0.0016978721843045126 0 -0.0052677786647609927 -0.00188942645978466 0 -0.0057585886829321599 -0.0013565591861894443 0 -0.00551462196187439 -0.0016812211228298586 0 -0.0057761577136487439 -0.0016641975084699752 0 -0.005714851737801307 -0.0013600333432009324 0 -0.0053305948943604122 -0.0018986463273919516 0 -0.00551462196187439 -0.0016812211228298586 0 -0.0057741732495140688 -0.0020318631040373569 0 -0.00551462196187439 -0.0016812211228298586 0 -0.0057761577136487439 -0.0016641975084699752 0 -0.0057741732495140688 -0.0020318631040373569 0 -0.0065059883740511163 -0.0019546376747893095 0 -0.0061478546224290722 -0.0015569384922241856 0 -0.0057741732495140688 -0.0020318631040373569 0 -0.0078936867711447267 -0.0018928782919166831 0 -0.0078883858363981239 -0.0017325939306474399 0 -0.0057761577136487439 -0.0016641975084699752 0 -0.0061478546224290722 -0.0015569384922241856 0 -0.0057741732495140688 -0.0020318631040373569 0 -0.0065059883740511163 -0.0019546376747893095 0 -0.0061478546224290722 -0.0015569384922241856 0 -0.0068773813739681266 -0.0012751699383899365 0 -0.0061478546224290722 -0.0015569384922241856 0 -0.006359407543788 -0.001052720294287577 0 -0.0068773813739681266 -0.0012751699383899365 0 -0.0061478546224290722 -0.0015569384922241856 0 -0.0059462817620055423 -0.0010914397617138808 0 -0.006359407543788 -0.001052720294287577 0 -0.0054824827940553929 -0.0010243939603630777 0 -0.005714851737801307 -0.0013600333432009324 0 -0.0059462817620055423 -0.0010914397617138808 0 -0.0057761577136487439 -0.0016641975084699752 0 -0.0061478546224290722 -0.0015569384922241856 0 -0.005714851737801307 -0.0013600333432009324 0 -0.0061478546224290722 -0.0015569384922241856 0 -0.005714851737801307 -0.0013600333432009324 0 -0.0059462817620055423 -0.0010914397617138808 0 -0.0056124631934050288 -0.00067317508488966824 0 -0.0059462817620055423 -0.0010914397617138808 0 -0.0060769181940709014 -0.00066316963085795845 0 -0.0054824827940553929 -0.0010243939603630777 0 -0.0056124631934050288 -0.00067317508488966824 0 -0.0059462817620055423 -0.0010914397617138808 0 -0.0060769181940709014 -0.00066316963085795845 0 -0.006536845478007966 -0.00060049266488378464 0 -0.006359407543788 -0.001052720294287577 0 -0.0059462817620055423 -0.0010914397617138808 0 -0.0060769181940709014 -0.00066316963085795845 0 -0.006359407543788 -0.001052720294287577 0 -0.006536845478007966 -0.00060049266488378464 0 -0.006359407543788 -0.001052720294287577 0 -0.0068773813739681266 -0.0012751699383899365 0 -0.006536845478007966 -0.00060049266488378464 0 -0.0061548248826068883 -0.00019734938304374447 0 -0.006733632533910708 4.7216932295424024e-05 0 -0.0060769181940709014 -0.00066316963085795845 0 -0.006536845478007966 -0.00060049266488378464 0 -0.0061548248826068883 -0.00019734938304374447 0 -0.0061548248826068883 -0.00019734938304374447 0 -0.005806276377625934 -0.00034345632312430071 0 -0.0057179367613480088 6.3344987587184823e-05 0 -0.0056124631934050288 -0.00067317508488966824 0 -0.0060769181940709014 -0.00066316963085795845 0 -0.005806276377625934 -0.00034345632312430071 0 -0.0054920420818904908 -0.00029193647794767023 0 -0.005806276377625934 -0.00034345632312430071 0 -0.0057179367613480088 6.3344987587184823e-05 0 -0.0060769181940709014 -0.00066316963085795845 0 -0.0061548248826068883 -0.00019734938304374447 0 -0.005806276377625934 -0.00034345632312430071 0 -0.0072481831594781504 -0.00026724889439392116 0 -0.0070452880204406234 -0.00071493672637194567 0 -0.006733632533910708 4.7216932295424024e-05 0 -0.006536845478007966 -0.00060049266488378464 0 -0.0070452880204406234 -0.00071493672637194567 0 -0.006733632533910708 4.7216932295424024e-05 0 -0.006536845478007966 -0.00060049266488378464 0 -0.0070452880204406234 -0.00071493672637194567 0 -0.0068773813739681266 -0.0012751699383899365 0 -0.0070452880204406234 -0.00071493672637194567 0 -0.0075435859475723498 -0.0012226180040247206 0 -0.0076493305659934572 -0.00076983262684278127 0 -0.0070452880204406234 -0.00071493672637194567 0 -0.0075435859475723498 -0.0012226180040247206 0 -0.0068773813739681266 -0.0012751699383899365 0 -0.0072481831594781504 -0.00026724889439392116 0 -0.0070452880204406234 -0.00071493672637194567 0 -0.0076493305659934572 -0.00076983262684278127 0 -0.0075435859475723498 -0.0012226180040247206 0 -0.007664453365105614 -0.0017838704749605682 0 -0.0078505130116974364 -0.0015239410634857919 0 -0.0075435859475723498 -0.0012226180040247206 0 -0.0068773813739681266 -0.0012751699383899365 0 -0.007664453365105614 -0.0017838704749605682 0 -0.0065059883740511163 -0.0019546376747893095 0 -0.0068773813739681266 -0.0012751699383899365 0 -0.007664453365105614 -0.0017838704749605682 0 -0.0090721322690712099 -0.0019004531631520969 0 -0.007664453365105614 -0.0017838704749605682 0 -0.0081108393970289478 -0.0012266786216810442 0 -0.0078936867711447267 -0.0018928782919166831 0 -0.0076735336231891034 -0.0018106401042496389 0 -0.007664453365105614 -0.0017838704749605682 0 -0.0077860591520773166 -0.001804210633766213 0 -0.0081108393970289478 -0.0012266786216810442 0 -0.007664453365105614 -0.0017838704749605682 0 -0.0077860591520773166 -0.001804210633766213 0 -0.0078505130116974364 -0.0015239410634857919 0 -0.0077860591520773166 -0.001804210633766213 0 -0.0081988169079269119 -0.0014852658059475426 0 -0.0078505130116974364 -0.0015239410634857919 0 -0.015927728991935671 0.0010006405757926296 0 -0.015921559980673874 0.00089358590011181507 0 -0.01594331495457053 0.00090749260496601107 0 -0.011867073791182138 -0.00039626304249772539 0 -0.012214670079138434 -0.00059013424764944866 0 -0.015921559980673874 0.00089358590011181507 0 -0.015814793066370236 0.0007916955253202307 0 -0.016027159618189554 0.00090125750444989704 0 -0.015814793066370236 0.0007916955253202307 0 -0.01554043198497077 0.0009249365888806682 0 -0.016027159618189554 0.00090125750444989704 0 -0.015927728991935671 0.0010006405757926296 0 -0.015814793066370236 0.0007916955253202307 0 -0.015701283400328656 0.00051119159096219653 0 -0.015927728991935671 0.0010006405757926296 0 -0.015921559980673874 0.00089358590011181507 0 -0.015814793066370236 0.0007916955253202307 0 -0.0077860591520773166 -0.001804210633766213 0 -0.0081988169079269119 -0.0014852658059475426 0 -0.0088220723098888093 -0.001704900886426634 0 -0.0081988169079269119 -0.0014852658059475426 0 -0.0088220723098888093 -0.001704900886426634 0 -0.0086264114778209153 -0.0010871896966781855 0 -0.0081988169079269119 -0.0014852658059475426 0 -0.0080037494624953815 -0.0011587318593172719 0 -0.0086264114778209153 -0.0010871896966781855 0 -0.0081988169079269119 -0.0014852658059475426 0 -0.0078505130116974364 -0.0015239410634857919 0 -0.0080037494624953815 -0.0011587318593172719 0 -0.0075435859475723498 -0.0012226180040247206 0 -0.0078505130116974364 -0.0015239410634857919 0 -0.0080037494624953815 -0.0011587318593172719 0 -0.01615299602735832 0.00082497238953920275 0 -0.014765697381295633 -4.2881779836251237e-05 0 -0.016400590266886752 0.00028887702048975306 0 -0.016498398539249424 0.00020938626428247027 0 -0.016586324477648164 0.00034938526373947038 0 -0.01491599999282682 7.4432639386350202e-05 0 -0.015686128858275007 0.0011318648637005213 0 -0.013819397616045557 0.00050468046276484259 0 -0.015134378775281511 0.0005281627146756741 0 -0.015579463268878411 0.000699768167733212 0 -0.015701283400328656 0.00051119159096219653 0 -0.015143126735775685 0.00043608974894350294 0 -0.01615299602735832 0.00082497238953920275 0 -0.015134378775281511 0.0005281627146756741 0 -0.01554043198497077 0.0009249365888806682 0 -0.015579463268878411 0.000699768167733212 0 -0.015814793066370236 0.0007916955253202307 0 -0.01554043198497077 0.0009249365888806682 0 -0.015579463268878411 0.000699768167733212 0 -0.015814793066370236 0.0007916955253202307 0 -0.015579463268878411 0.000699768167733212 0 -0.015701283400328656 0.00051119159096219653 0 -0.0088220723098888093 -0.001704900886426634 0 -0.0092527894658480225 -0.0011636932624095057 0 -0.0086264114778209153 -0.0010871896966781855 0 -0.015134378775281511 0.0005281627146756741 0 -0.015701283400328656 0.00051119159096219653 0 -0.014723303622127549 -4.7832776296122056e-05 0 -0.0088220723098888093 -0.001704900886426634 0 -0.009957344179989891 -0.00130316375784204 0 -0.0092527894658480225 -0.0011636932624095057 0 -0.012214670079138434 -0.00059013424764944866 0 -0.012512221013339724 -0.000658083003955614 0 -0.01491599999282682 7.4432639386350202e-05 0 -0.014140308264806426 -0.00098401709307796201 0 -0.013819397616045557 0.00050468046276484259 0 -0.015143126735775685 0.00043608974894350294 0 -0.012512221013339724 -0.000658083003955614 0 -0.009957344179989891 -0.00130316375784204 0 -0.0096567248911708526 -0.0010072443070845431 0 -0.0092527894658480225 -0.0011636932624095057 0 -0.0097499902664711906 -0.00046083082904466508 0 -0.01162672290043675 -0.0010595255911005378 0 -0.0096567248911708526 -0.0010072443070845431 0 -0.010078376832147753 -0.00022644056287191166 0 -0.010035383851800733 -0.0011930389108884515 0 -0.009957344179989891 -0.00130316375784204 0 -0.0096567248911708526 -0.0010072443070845431 0 -0.010035383851800733 -0.0011930389108884515 0 -0.0096567248911708526 -0.0010072443070845431 0 -0.0092048190145772885 -0.00070193997149170756 0 -0.0092527894658480225 -0.0011636932624095057 0 -0.0092048190145772885 -0.00070193997149170756 0 -0.0086264114778209153 -0.0010871896966781855 0 -0.0085571478147811898 -0.0003493521752672896 0 -0.0092048190145772885 -0.00070193997149170756 0 -0.0092527894658480225 -0.0011636932624095057 0 -0.0086264114778209153 -0.0010871896966781855 0 -0.0092048190145772885 -0.00070193997149170756 0 -0.0093105567947198934 -8.6089776359997932e-05 0 -0.0085571478147811898 -0.0003493521752672896 0 -0.0093105567947198934 -8.6089776359997932e-05 0 -0.0085571478147811898 -0.0003493521752672896 0 -0.0088685165813711629 0.0004773812081744264 0 -0.0092048190145772885 -0.00070193997149170756 0 -0.0093105567947198934 -8.6089776359997932e-05 0 -0.010078376832147753 -0.00022644056287191166 0 -0.0096567248911708526 -0.0010072443070845431 0 -0.0092048190145772885 -0.00070193997149170756 0 -0.010078376832147753 -0.00022644056287191166 0 -0.0075435859475723498 -0.0012226180040247206 0 -0.0076493305659934572 -0.00076983262684278127 0 -0.0080037494624953815 -0.0011587318593172719 0 -0.0076493305659934572 -0.00076983262684278127 0 -0.0081607760838042342 -0.00075792666619518324 0 -0.007784895211415249 -0.00030261673468848612 0 -0.0076493305659934572 -0.00076983262684278127 0 -0.0080037494624953815 -0.0011587318593172719 0 -0.0081607760838042342 -0.00075792666619518324 0 -0.0086264114778209153 -0.0010871896966781855 0 -0.0081607760838042342 -0.00075792666619518324 0 -0.0085571478147811898 -0.0003493521752672896 0 -0.0080037494624953815 -0.0011587318593172719 0 -0.0086264114778209153 -0.0010871896966781855 0 -0.0081607760838042342 -0.00075792666619518324 0 -0.0085571478147811898 -0.0003493521752672896 0 -0.007784895211415249 -0.00030261673468848612 0 -0.0080847564051507795 0.00022407841543722667 0 -0.0081607760838042342 -0.00075792666619518324 0 -0.0085571478147811898 -0.0003493521752672896 0 -0.007784895211415249 -0.00030261673468848612 0 -0.0072481831594781504 -0.00026724889439392116 0 -0.0076493305659934572 -0.00076983262684278127 0 -0.007784895211415249 -0.00030261673468848612 0 -0.0072481831594781504 -0.00026724889439392116 0 -0.007784895211415249 -0.00030261673468848612 0 -0.0072473163684181495 0.00041066253443744634 0 -0.007784895211415249 -0.00030261673468848612 0 -0.0072473163684181495 0.00041066253443744634 0 -0.0080847564051507795 0.00022407841543722667 0 -0.0072473163684181495 0.00041066253443744634 0 -0.0080847564051507795 0.00022407841543722667 0 -0.0080606593581924214 0.00092549991465633134 0 -0.0080847564051507795 0.00022407841543722667 0 -0.0080606593581924214 0.00092549991465633134 0 -0.0088685165813711629 0.0004773812081744264 0 -0.0085571478147811898 -0.0003493521752672896 0 -0.0080847564051507795 0.00022407841543722667 0 -0.0088685165813711629 0.0004773812081744264 0 -0.0080606593581924214 0.00092549991465633134 0 -0.0089192677693204995 0.0012812055794045242 0 -0.0085063476278138608 0.0019262416486340033 0 -0.0072473163684181495 0.00041066253443744634 0 -0.0080606593581924214 0.00092549991465633134 0 -0.0069321376054348452 0.0014378644912175396 0 -0.0098923946455994546 0.00050513969701729928 0 -0.0088685165813711629 0.0004773812081744264 0 -0.0096317795230074967 0.0011824209038077006 0 -0.0093105567947198934 -8.6089776359997932e-05 0 -0.010078376832147753 -0.00022644056287191166 0 -0.0098923946455994546 0.00050513969701729928 0 -0.0093105567947198934 -8.6089776359997932e-05 0 -0.0098923946455994546 0.00050513969701729928 0 -0.0088685165813711629 0.0004773812081744264 0 -0.0080606593581924214 0.00092549991465633134 0 -0.0088685165813711629 0.0004773812081744264 0 -0.0089192677693204995 0.0012812055794045242 0 -0.0088685165813711629 0.0004773812081744264 0 -0.0089192677693204995 0.0012812055794045242 0 -0.0096317795230074967 0.0011824209038077006 0 -0.0089192677693204995 0.0012812055794045242 0 -0.0096317795230074967 0.0011824209038077006 0 -0.0095433405130956658 0.0019314128295027599 0 -0.0096317795230074967 0.0011824209038077006 0 -0.010060471090354465 0.0017006481853555722 0 -0.0095433405130956658 0.0019314128295027599 0 -0.0096317795230074967 0.0011824209038077006 0 -0.010060471090354465 0.0017006481853555722 0 -0.010532691136286866 0.0011743782343288085 0 -0.0098923946455994546 0.00050513969701729928 0 -0.0096317795230074967 0.0011824209038077006 0 -0.010532691136286866 0.0011743782343288085 0 -0.010060471090354465 0.0017006481853555722 0 -0.0099790601178094095 0.0023071132553480157 0 -0.0095433405130956658 0.0019314128295027599 0 -0.010060471090354465 0.0017006481853555722 0 -0.0099790601178094095 0.0023071132553480157 0 -0.010675196524252806 0.0018602578348763694 0 -0.0080767119674640397 0.0019842115464504986 0 -0.0094394825574797246 0.0023909079387696062 0 -0.0089192677693204995 0.0012812055794045242 0 -0.0095433405130956658 0.0019314128295027599 0 -0.0085063476278138608 0.0019262416486340033 0 -0.0080767119674640397 0.0019842115464504986 0 -0.0070059027174312703 0.0019152884644659379 0 -0.0099163941812391992 0.0022209152508884003 0 -0.0095433405130956658 0.0019314128295027599 0 -0.0085063476278138608 0.0019262416486340033 0 -0.0046981992327040497 0.0021243546122456992 0 -0.0052912913114085899 0.0015751062845665294 0 -0.0058862605413546563 0.0019346006962153255 0 -0.0051692263285717877 0.0009754145077733703 0 -0.0052912913114085899 0.0015751062845665294 0 -0.0059915408870735562 0.0012120974177725343 0 -0.0052912913114085899 0.0015751062845665294 0 -0.0058862605413546563 0.0019346006962153255 0 -0.0059915408870735562 0.0012120974177725343 0 -0.0051692263285717877 0.0009754145077733703 0 -0.0052912913114085899 0.0015751062845665294 0 -0.0045335472666328796 0.0013499663203585504 0 -0.0046981992327040497 0.0021243546122456992 0 -0.0052912913114085899 0.0015751062845665294 0 -0.0045335472666328796 0.0013499663203585504 0 -0.0069321376054348452 0.0014378644912175396 0 -0.0058862605413546563 0.0019346006962153255 0 -0.0066213160526994337 0.0012693860758568693 0 -0.0080606593581924214 0.00092549991465633134 0 -0.0069321376054348452 0.0014378644912175396 0 -0.0085063476278138608 0.0019262416486340033 0 -0.0070097739115284781 0.0015264171988838714 0 -0.0070059027174312703 0.0019152884644659379 0 -0.0058862605413546563 0.0019346006962153255 0 -0.0059915408870735562 0.0012120974177725343 0 -0.0066213160526994337 0.0012693860758568693 0 -0.0065468631719352525 0.0011295537730390858 0 -0.0066213160526994337 0.0012693860758568693 0 -0.0066044976634214011 0.001148010496395697 0 -0.0069321376054348452 0.0014378644912175396 0 -0.0066213160526994337 0.0012693860758568693 0 -0.0066044976634214011 0.001148010496395697 0 -0.0069321376054348452 0.0014378644912175396 0 -0.0066044976634214011 0.001148010496395697 0 -0.0065852105598637823 0.00077605693034378011 0 -0.0066044976634214011 0.001148010496395697 0 -0.0063102760825641171 0.001045175703547135 0 -0.0062310306329738038 0.00081466947173833239 0 -0.0066044976634214011 0.001148010496395697 0 -0.0062310306329738038 0.00081466947173833239 0 -0.0065852105598637823 0.00077605693034378011 0 -0.0064322763587473701 0.0011123155389410738 0 -0.0066044976634214011 0.001148010496395697 0 -0.0063102760825641171 0.001045175703547135 0 -0.0064322763587473701 0.0011123155389410738 0 -0.0065468631719352525 0.0011295537730390858 0 -0.0066044976634214011 0.001148010496395697 0 -0.0063102760825641171 0.001045175703547135 0 -0.0060637140765302383 0.00097771493950081782 0 -0.0062310306329738038 0.00081466947173833239 0 -0.006174072959469909 0.0010811528076226239 0 -0.0063102760825641171 0.001045175703547135 0 -0.0060637140765302383 0.00097771493950081782 0 -0.0058562491351663503 0.00096199448007787977 0 -0.0060637140765302383 0.00097771493950081782 0 -0.0059486663354996203 0.00082566520391655568 0 -0.0059548615945539613 0.0010680206880779215 0 -0.0058562491351663503 0.00096199448007787977 0 -0.0060637140765302383 0.00097771493950081782 0 -0.0057649285207187319 0.00099809325877611905 0 -0.0062295725458230682 0.00084252603748385328 0 -0.0054715459375540964 0.00079523020296733463 0 -0.005723373066817113 0.0010773788262864366 0 -0.0057537001499407955 0.00058857683022526966 0 -0.0060637140765302383 0.00097771493950081782 0 -0.0059486663354996203 0.00082566520391655568 0 -0.0062310306329738038 0.00081466947173833239 0 -0.005723373066817113 0.0010773788262864366 0 -0.0061934447493117127 0.00087512716264880649 0 -0.0057537001499407955 0.00058857683022526966 0 -0.0061934447493117127 0.00087512716264880649 0 -0.0057537001499407955 0.00058857683022526966 0 -0.006192588798324219 0.00037904210512197125 0 -0.0061934447493117127 0.00087512716264880649 0 -0.006192588798324219 0.00037904210512197125 0 -0.0065852105598637823 0.00077605693034378011 0 -0.0057537001499407955 0.00058857683022526966 0 -0.0057179367613480088 6.3344987587184823e-05 0 -0.006192588798324219 0.00037904210512197125 0 -0.0054797059140689851 0.00041791909425642791 0 -0.0057537001499407955 0.00058857683022526966 0 -0.0057179367613480088 6.3344987587184823e-05 0 -0.0061548248826068883 -0.00019734938304374447 0 -0.0057179367613480088 6.3344987587184823e-05 0 -0.006192588798324219 0.00037904210512197125 0 -0.0061548248826068883 -0.00019734938304374447 0 -0.006192588798324219 0.00037904210512197125 0 -0.006733632533910708 4.7216932295424024e-05 0 -0.006192588798324219 0.00037904210512197125 0 -0.006733632533910708 4.7216932295424024e-05 0 -0.0065852105598637823 0.00077605693034378011 0 -0.0072473163684181495 0.00041066253443744634 0 -0.006733632533910708 4.7216932295424024e-05 0 -0.0065852105598637823 0.00077605693034378011 0 -0.0072481831594781504 -0.00026724889439392116 0 -0.0072473163684181495 0.00041066253443744634 0 -0.006733632533910708 4.7216932295424024e-05 0 -0.0072473163684181495 0.00041066253443744634 0 -0.0069321376054348452 0.0014378644912175396 0 -0.0065852105598637823 0.00077605693034378011 0 -0.0062295725458230682 0.00084252603748385328 0 -0.0065381748364783882 0.00077004142413773606 0 -0.0043581351925924263 0.0025975881678527843 0 -0.0048581762730611237 0.00087363472946637346 0 -0.0034119914937199799 0.0014917151370506391 0 -0.0087875280635437477 0.0002866249219933478 0 -0.0075999324372009987 0.00015219270002198382 0 -0.0064944046736950933 0.0002856280756875708 0 -0.0068658745794457675 0.0008953119377254087 0 -0.0064753351402540337 0.00064170813737244301 0 -0.0043581351925924263 0.0025975881678527843 0 -0.0048581762730611237 0.00087363472946637346 0 -0.0064944046736950933 0.0002856280756875708 0 -0.0075999324372009987 0.00015219270002198382 0 -0.0072192008992771218 1.8228974107292076e-06 0 -0.0064944046736950933 0.0002856280756875708 0 -0.0075999324372009987 0.00015219270002198382 0 -0.0072192008992771218 1.8228974107292076e-06 0 -0.0085434158934065904 1.203284694265284e-05 0 -0.0092126783875450431 0.00048632700245389185 0 -0.0075999324372009987 0.00015219270002198382 0 -0.0085434158934065904 1.203284694265284e-05 0 -0.0068658745794457675 0.0008953119377254087 0 -0.0084319116329216511 0.00026407721884533241 0 -0.0085434158934065904 1.203284694265284e-05 0 -0.0096009485441735758 -0.00014934424656912399 0 -0.0091446186359002112 -9.2434065968296149e-07 0 -0.0072192008992771218 1.8228974107292076e-06 0 -0.0085434158934065904 1.203284694265284e-05 0 -0.0091446186359002112 -9.2434065968296149e-07 0 -0.0092126783875450431 0.00048632700245389185 0 -0.010186837160513565 0.000110208587246258 0 -0.0096009485441735758 -0.00014934424656912399 0 -0.0092126783875450431 0.00048632700245389185 0 -0.0085434158934065904 1.203284694265284e-05 0 -0.0096009485441735758 -0.00014934424656912399 0 -0.0068658745794457675 0.0008953119377254087 0 -0.0081923083840659307 0.00038414817373358254 0 -0.0061591317976121126 0.00071947114275090719 0 -0.0059737733336122341 0.00081793524641247375 0 -0.0059587187971095615 0.00073314142929516092 0 -0.0059136121035364446 0.00079612399951902346 0 -0.0059737733336122341 0.00081793524641247375 0 -0.0059587187971095615 0.00073314142929516092 0 -0.0059136121035364446 0.00079612399951902346 0 -0.0059737733336122341 0.00081793524641247375 0 -0.0059150407945027092 0.00080893077057764143 0 -0.0059136121035364446 0.00079612399951902346 0 -0.0059022616080939552 0.00080839021428082722 0 -0.0059150407945027092 0.00080893077057764143 0 -0.0059136121035364446 0.00079612399951902346 0 -0.0059587187971095615 0.00073314142929516092 0 -0.005583750183373256 0.00074628710070109925 0 -0.0081923083840659307 0.00038414817373358254 0 -0.0082904652323087576 0.00024409700900375424 0 -0.0065679377420443247 0.00087004247784039455 0 -0.0036800191063641658 0.0011604904065977272 0 -0.0014220432946740295 0.0024464279395090163 0 -0.0022858046647467353 0.003010704294779537 0 -0.00045225241952372706 0.0032144012602621395 0 -0.0036594094214035117 0.0019944135460427453 0 -0.0036800191063641658 0.0011604904065977272 0 -0.0014220432946740295 0.0024464279395090163 0 -0.00086066796807194429 0.0021821691825192535 0 -0.00045225241952372706 0.0032144012602621395 0 -0.00078439807030542062 0.00076467993355530661 0 -0.00066829950435178843 0.00083062225806576368 0 -0.00071765864738636894 0.00094896134482527446 0 -0.00081835057829144969 0.0019876912553562533 0 -0.0036800191063641658 0.0011604904065977272 0 -0.0012629467908192352 0.0020140147964282551 0 -0.0014220432946740295 0.0024464279395090163 0 -0.0018389022710611435 0.0018036610161854363 0 -0.0014220432946740295 0.0024464279395090163 0 -0.0023263192665953537 0.0020350856328971911 0 -0.0018389022710611435 0.0018036610161854363 0 -0.0012629467908192352 0.0020140147964282551 0 -0.0014220432946740295 0.0024464279395090163 0 -0.00089903233810356155 0.0022151209733295655 0 -0.0012629467908192352 0.0020140147964282551 0 -0.00089903233810356155 0.0022151209733295655 0 -0.00097765391995827036 0.0016684427645299641 0 -0.0012226217803485485 0.0022460794278801165 0 -0.00081835057829144969 0.0019876912553562533 0 -0.0043581351925924263 0.0025975881678527843 0 -0.0022858046647467353 0.003010704294779537 0 -0.0034119914937199799 0.0014917151370506391 0 -0.0068658745794457675 0.0008953119377254087 0 -0.0036594094214035117 0.0019944135460427453 0 -0.0014220432946740295 0.0024464279395090163 0 -0.0022858046647467353 0.003010704294779537 0 -0.0023263192665953537 0.0020350856328971911 0 -0.0022858046647467353 0.003010704294779537 0 -0.0023263192665953537 0.0020350856328971911 0 -0.0034119914937199799 0.0014917151370506391 0 -0.002742138286727432 0.0013957534161608827 0 -0.0032508630438793902 0.00044182051482139254 0 -0.0034119914937199799 0.0014917151370506391 0 -0.0023263192665953537 0.0020350856328971911 0 -0.002742138286727432 0.0013957534161608827 0 -0.0034119914937199799 0.0014917151370506391 0 -0.002742138286727432 0.0013957534161608827 0 -0.0018389022710611435 0.0018036610161854363 0 -0.0019297160190593005 0.0008381819001444192 0 -0.0023263192665953537 0.0020350856328971911 0 -0.002742138286727432 0.0013957534161608827 0 -0.0018389022710611435 0.0018036610161854363 0 -0.002742138286727432 0.0013957534161608827 0 -0.0032508630438793902 0.00044182051482139254 0 -0.0019297160190593005 0.0008381819001444192 0 -0.00097765391995827036 0.0016684427645299641 0 -0.00035718496843482406 0.0012165130259060451 0 2.6052792295994668e-05 0.0017948185276582043 0 -0.00081835057829144969 0.0019876912553562533 0 -0.00088829924055245258 0.0018720731708368374 0 -0.00055272727711978993 0.0025630551632678193 0 -0.00097765391995827036 0.0016684427645299641 0 2.6052792295994668e-05 0.0017948185276582043 0 -0.00097765391995827036 0.0016684427645299641 0 -0.0018389022710611435 0.0018036610161854363 0 -0.0019297160190593005 0.0008381819001444192 0 -0.0012629467908192352 0.0020140147964282551 0 -0.00097765391995827036 0.0016684427645299641 0 -0.0018389022710611435 0.0018036610161854363 0 -0.00097765391995827036 0.0016684427645299641 0 -0.0019297160190593005 0.0008381819001444192 0 -0.00035718496843482406 0.0012165130259060451 0 -0.00050282835260347884 0.00062391708376246992 0 0.00087716607181581444 0.0012385879714792553 0 0.0011553676186729013 0.0016494227033320629 0 0.0012822959182478559 0.0014428033467882933 0 0.00098087250205009641 0.0012767865482010996 0 -0.00035718496843482406 0.0012165130259060451 0 -0.0021699259006315677 -0.0005599573440045007 0 0.00098087250205009641 0.0012767865482010996 0 -0.0019297160190593005 0.0008381819001444192 0 -0.00035718496843482406 0.0012165130259060451 0 -0.0021699259006315677 -0.0005599573440045007 0 -0.0032508630438793902 0.00044182051482139254 0 -0.0021699259006315677 -0.0005599573440045007 0 -0.0037641261200044517 -0.0001917421503606459 0 -0.0021699259006315677 -0.0005599573440045007 0 -0.0037641261200044517 -0.0001917421503606459 0 -0.0039617934660091097 -0.00055697673471925618 0 -0.0032508630438793902 0.00044182051482139254 0 -0.0019297160190593005 0.0008381819001444192 0 -0.0021699259006315677 -0.0005599573440045007 0 -0.0037641261200044517 -0.0001917421503606459 0 -0.004385043095437512 0.00019194619977678048 0 -0.0043397185611997241 -0.00026762756934649317 0 -0.0032508630438793902 0.00044182051482139254 0 -0.0037641261200044517 -0.0001917421503606459 0 -0.004385043095437512 0.00019194619977678048 0 -0.0032508630438793902 0.00044182051482139254 0 -0.004385043095437512 0.00019194619977678048 0 -0.0034119914937199799 0.0014917151370506391 0 -0.004385043095437512 0.00019194619977678048 0 -0.0048581762730611237 0.00087363472946637346 0 -0.0034119914937199799 0.0014917151370506391 0 -0.0064944046736950933 0.0002856280756875708 0 -0.0053447534073399238 0.00022707841257572971 0 -0.0052930979643572582 -2.1373058051356424e-07 0 -0.0072192008992771218 1.8228974107292076e-06 0 -0.0064944046736950933 0.0002856280756875708 0 -0.0052930979643572582 -2.1373058051356424e-07 0 -0.0048581762730611237 0.00087363472946637346 0 -0.0064944046736950933 0.0002856280756875708 0 -0.0053447534073399238 0.00022707841257572971 0 -0.004385043095437512 0.00019194619977678048 0 -0.0048581762730611237 0.00087363472946637346 0 -0.0053447534073399238 0.00022707841257572971 0 -0.004385043095437512 0.00019194619977678048 0 -0.0053447534073399238 0.00022707841257572971 0 -0.0043397185611997241 -0.00026762756934649317 0 -0.0043397185611997241 -0.00026762756934649317 0 -0.0052930979643572582 -2.1373058051356424e-07 0 -0.003367566974644764 3.7899851354799283e-07 0 -0.0053447534073399238 0.00022707841257572971 0 -0.0043397185611997241 -0.00026762756934649317 0 -0.0052930979643572582 -2.1373058051356424e-07 0 -0.0043397185611997241 -0.00026762756934649317 0 -0.003367566974644764 3.7899851354799283e-07 0 -0.0039617934660091097 -0.00055697673471925618 0 -0.0037641261200044517 -0.0001917421503606459 0 -0.0043397185611997241 -0.00026762756934649317 0 -0.0039617934660091097 -0.00055697673471925618 0 9.0524577796344111e-05 0.0017571797603236027 0 -0.00033981252026906372 0.00055292172855713677 0 0.00075190465204292894 0.00090535603612661999 0 -0.00033981252026906372 0.00055292172855713677 0 0.00026285532206829769 0.00024533011406234126 0 0.00075190465204292894 0.00090535603612661999 0 9.0524577796344111e-05 0.0017571797603236027 0 -0.00033981252026906372 0.00055292172855713677 0 -0.0026123371646940602 0.00021489752451086803 0 -0.0018948830016117274 0.00053090120304131799 0 -0.0025990351962007982 0.00023312791255704473 0 -0.003367566974644764 3.7899851354799283e-07 0 -0.0039617934660091097 -0.00055697673471925618 0 -0.0026123371646940602 0.00021489752451086803 0 -0.003367566974644764 3.7899851354799283e-07 0 -0.0026123371646940602 0.00021489752451086803 0 -0.0014419992964906721 2.6965701584130453e-07 0 -0.00033981252026906372 0.00055292172855713677 0 -0.0026123371646940602 0.00021489752451086803 0 -0.00090108183445396879 8.906726415186357e-05 0 -0.0026123371646940602 0.00021489752451086803 0 -0.0014419992964906721 2.6965701584130453e-07 0 -0.00090108183445396879 8.906726415186357e-05 0 -0.0014419992964906721 2.6965701584130453e-07 0 -0.00090108183445396879 8.906726415186357e-05 0 -9.9778909518685225e-05 -0.00010602534750923337 0 -0.00033981252026906372 0.00055292172855713677 0 -0.00090108183445396879 8.906726415186357e-05 0 0.00026285532206829769 0.00024533011406234126 0 0.00026285532206829769 0.00024533011406234126 0 -9.9778909518685225e-05 -0.00010602534750923337 0 0.00078140781230160556 4.2711329246693662e-05 0 -0.00090108183445396879 8.906726415186357e-05 0 0.00026285532206829769 0.00024533011406234126 0 -9.9778909518685225e-05 -0.00010602534750923337 0 0.00085025713137047341 -0.00019325616174928559 0 -9.9778909518685225e-05 -0.00010602534750923337 0 0.00078140781230160556 4.2711329246693662e-05 0 0.00048256054546974233 -5.3470963954810027e-07 0 0.00085025713137047341 -0.00019325616174928559 0 -9.9778909518685225e-05 -0.00010602534750923337 0 0.00048256054546974233 -5.3470963954810027e-07 0 -0.0014419992964906721 2.6965701584130453e-07 0 -9.9778909518685225e-05 -0.00010602534750923337 0 0.0019748555895465637 -7.0837272960373108e-05 0 0.0014164786552781949 9.3132884531206122e-06 0 0.0018911530176085494 0.00050664811652953478 0 0.0014164786552781949 9.3132884531206122e-06 0 0.0012136615483678867 0.00041716168949730575 0 0.0018911530176085494 0.00050664811652953478 0 0.0014164786552781949 9.3132884531206122e-06 0 0.00078140781230160556 4.2711329246693662e-05 0 0.0012136615483678867 0.00041716168949730575 0 0.00085025713137047341 -0.00019325616174928559 0 0.0014164786552781949 9.3132884531206122e-06 0 0.00078140781230160556 4.2711329246693662e-05 0 0.00026285532206829769 0.00024533011406234126 0 0.00078140781230160556 4.2711329246693662e-05 0 0.0012136615483678867 0.00041716168949730575 0 0.00026285532206829769 0.00024533011406234126 0 0.0012136615483678867 0.00041716168949730575 0 0.00075190465204292894 0.00090535603612661999 0 0.0012136615483678867 0.00041716168949730575 0 0.0014421566532953716 0.00099301310497567578 0 0.0018911530176085494 0.00050664811652953478 0 0.0014421566532953716 0.00099301310497567578 0 0.0011991466623982438 0.0013944885720858495 0 0.0016168129331980954 0.0012909976108614776 0 0.0012136615483678867 0.00041716168949730575 0 0.0014421566532953716 0.00099301310497567578 0 0.00075190465204292894 0.00090535603612661999 0 0.0014421566532953716 0.00099301310497567578 0 0.00075190465204292894 0.00090535603612661999 0 0.0011991466623982438 0.0013944885720858495 0 -0.00050282835260347884 0.00062391708376246992 0 -0.0018948830016117274 0.00053090120304131799 0 9.0524577796344111e-05 0.0017571797603236027 0 0.00075190465204292894 0.00090535603612661999 0 0.0011991466623982438 0.0013944885720858495 0 0.0011553676186729013 0.0016494227033320629 0 9.0524577796344111e-05 0.0017571797603236027 0 0.0011991466623982438 0.0013944885720858495 0 0.0011991466623982438 0.0013944885720858495 0 0.0016168129331980954 0.0012909976108614776 0 0.0012822959182478559 0.0014428033467882933 0 0.0011553676186729013 0.0016494227033320629 0 0.0011991466623982438 0.0013944885720858495 0 0.0012822959182478559 0.0014428033467882933 0 0.0016168129331980954 0.0012909976108614776 0 0.0015245307197552336 0.0013152348952236608 0 0.0012822959182478559 0.0014428033467882933 0 0.0016168129331980954 0.0012909976108614776 0 0.0020606923194851981 0.0012893768873979315 0 0.0015245307197552336 0.0013152348952236608 0 0.0029850117884736263 0.0012311846114026763 0 0.0031731349714300603 0.0012835297358952417 0 0.0029949557515484685 0.0013379385726367294 0 0.0025331357963261567 0.0011849883730079714 0 0.0023369427638373556 0.0013979876142290316 0 0.0020606923194851981 0.0012893768873979315 0 0.0019581777455467638 0.0010525815782600752 0 0.0027946049579716426 0.000953785325615053 0 0.0025331357963261567 0.0011849883730079714 0 0.0027534865556241347 0.000927154701579067 0 0.0029850117884736263 0.0012311846114026763 0 0.0027946049579716426 0.000953785325615053 0 0.0032180421270316009 0.0011979867703701401 0 0.0016168129331980954 0.0012909976108614776 0 0.0020606923194851981 0.0012893768873979315 0 0.0019581777455467638 0.0010525815782600752 0 0.0014421566532953716 0.00099301310497567578 0 0.0016168129331980954 0.0012909976108614776 0 0.0019581777455467638 0.0010525815782600752 0 0.0014421566532953716 0.00099301310497567578 0 0.0019581777455467638 0.0010525815782600752 0 0.0018911530176085494 0.00050664811652953478 0 0.0019581777455467638 0.0010525815782600752 0 0.0018911530176085494 0.00050664811652953478 0 0.0027946049579716426 0.000953785325615053 0 0.0018911530176085494 0.00050664811652953478 0 0.0027946049579716426 0.000953785325615053 0 0.0026058941793006747 0.00034770029079450989 0 0.0027946049579716426 0.000953785325615053 0 0.0026058941793006747 0.00034770029079450989 0 0.0033170019620852656 0.00046542949413596392 0 0.0030670002266367973 7.4951368920514439e-05 0 0.0026058941793006747 0.00034770029079450989 0 0.0033170019620852656 0.00046542949413596392 0 0.0019748555895465637 -7.0837272960373108e-05 0 0.0018911530176085494 0.00050664811652953478 0 0.0026058941793006747 0.00034770029079450989 0 0.0041568358247709497 0.00029695085306318626 0 0.0033170019620852656 0.00046542949413596392 0 0.003951330994399295 0.00087359371863249659 0 0.0027946049579716426 0.000953785325615053 0 0.0033170019620852656 0.00046542949413596392 0 0.0033819924011048918 0.00093622856569368601 0 0.0033819924011048918 0.00093622856569368601 0 0.003951330994399295 0.00087359371863249659 0 0.0035009203206049565 0.0011519349957862899 0 0.0033170019620852656 0.00046542949413596392 0 0.0033819924011048918 0.00093622856569368601 0 0.003951330994399295 0.00087359371863249659 0 0.0035009203206049565 0.0011519349957862899 0 0.0032180421270316009 0.0011979867703701401 0 0.0033571873695241099 0.0012198203955977895 0 0.0035009203206049565 0.0011519349957862899 0 0.0033571873695241099 0.0012198203955977895 0 0.0033788855310495506 0.0012688626052138722 0 0.0033819924011048918 0.00093622856569368601 0 0.0035009203206049565 0.0011519349957862899 0 0.0032180421270316009 0.0011979867703701401 0 0.0027946049579716426 0.000953785325615053 0 0.0033819924011048918 0.00093622856569368601 0 0.0032180421270316009 0.0011979867703701401 0 0.0029850117884736263 0.0012311846114026763 0 0.0032180421270316009 0.0011979867703701401 0 0.0031731349714300603 0.0012835297358952417 0 0.0032180421270316009 0.0011979867703701401 0 0.0031731349714300603 0.0012835297358952417 0 0.0033571873695241099 0.0012198203955977895 0 0.0033571873695241099 0.0012198203955977895 0 0.0032960535826483885 0.0012696661506057388 0 0.0031539769214545977 0.001090375759921036 0 0.0031731349714300603 0.0012835297358952417 0 0.0033571873695241099 0.0012198203955977895 0 0.0032960535826483885 0.0012696661506057388 0 0.0035948009275717668 0.00072807778818262403 0 0.0033621138804965458 0.00042365227766495695 0 0.0032055093755312641 0.00066194352041697635 0 0.0033621138804965458 0.00042365227766495695 0 0.003602304764395286 0.00020701683373772805 0 0.0031290418588397397 8.1796252627249903e-07 0 0.0035948009275717668 0.00072807778818262403 0 0.0033621138804965458 0.00042365227766495695 0 0.003602304764395286 0.00020701683373772805 0 0.0035948009275717668 0.00072807778818262403 0 0.003602304764395286 0.00020701683373772805 0 0.004063382854216104 0.00044636173834024299 0 0.003602304764395286 0.00020701683373772805 0 0.004063382854216104 0.00044636173834024299 0 0.0039861071385092874 -7.1909472259853464e-06 0 0.0033518781503746814 0.001032383057714721 0 0.0039405689429754176 0.00083193072335108686 0 0.0031731349714300603 0.0012835297358952417 0 0.0032960535826483885 0.0012696661506057388 0 0.0031341039432987304 0.001414131887267858 0 0.0031731349714300603 0.0012835297358952417 0 0.0031341039432987304 0.001414131887267858 0 0.0029949557515484685 0.0013379385726367294 0 0.0015245307197552336 0.0013152348952236608 0 0.0012822959182478559 0.0014428033467882933 0 0.00098087250205009641 0.0012767865482010996 0 0.0029949557515484685 0.0013379385726367294 0 0.002946141068673597 0.0014879653806181749 0 0.0029585126003306432 0.0014928424100039432 0 0.0015245307197552336 0.0013152348952236608 0 0.00098087250205009641 0.0012767865482010996 0 0.0015210757739636959 0.0017680802040131887 0 0.0023369427638373556 0.0013979876142290316 0 0.0013314467859999661 0.0011360338897739061 0 -0.00055272727711978993 0.0025630551632678193 0 0.0009070486155780185 0.0018362330852056239 0 2.6052792295994668e-05 0.0017948185276582043 0 -0.00012820756332177847 0.0012480521610059754 0 0.0013314467859999661 0.0011360338897739061 0 -0.00035718496843482406 0.0012165130259060451 0 0.00098087250205009641 0.0012767865482010996 0 0.0015210757739636959 0.0017680802040131887 0 0.00093409799617504344 0.0017030373425078349 0 0.0009070486155780185 0.0018362330852056239 0 2.6052792295994668e-05 0.0017948185276582043 0 -0.00033165687159469388 0.00023041003373815112 0 -0.00040135678180760418 0.00026173526425652381 0 -0.00032443697372526908 0.00063789372220431333 0 0.0012053254654574297 0.00090542766879367765 0 0.00079763406236132083 0.00073748372360220066 0 0.0013140384214689457 0.00049767168739648651 0 0.0013314467859999661 0.0011360338897739061 0 0.00090244245899307851 0.0010726990276785956 0 0.001781446925256842 0.00085155499765734023 0 0.00090244245899307851 0.0010726990276785956 0 0.0013314467859999661 0.0011360338897739061 0 0.001781446925256842 0.00085155499765734023 0 -0.00035718496843482406 0.0012165130259060451 0 0.00093409799617504344 0.0017030373425078349 0 2.6052792295994668e-05 0.0017948185276582043 0 0.0039405689429754176 0.00083193072335108686 0 0.001781446925256842 0.00085155499765734023 0 0.0031341039432987304 0.001414131887267858 0 0.0029949557515484685 0.0013379385726367294 0 0.0029585126003306432 0.0014928424100039432 0 0.004063382854216104 0.00044636173834024299 0 0.0044678624065962666 0.00023728062105670005 0 0.0039861071385092874 -7.1909472259853464e-06 0 -0.00033165687159469388 0.00023041003373815112 0 1.480738124750691e-05 0.00066650388764002793 0 0.00047738249943048524 0.00056032044344249139 0 0.001781446925256842 0.00085155499765734023 0 0.0025493420004788665 0.00028867356584728036 0 1.480738124750691e-05 0.00066650388764002793 0 -0.00055524811977142622 0.00099199912010299236 0 0.00037616712454400321 0.00092944835069777815 0 -0.00033165687159469388 0.00023041003373815112 0 1.480738124750691e-05 0.00066650388764002793 0 -0.00032443697372526908 0.00063789372220431333 0 -0.00078439807030542062 0.00076467993355530661 0 -0.00052507605496742056 0.00064566308045209669 0 -0.00066829950435178843 0.00083062225806576368 0 -0.00052507605496742056 0.00064566308045209669 0 -0.00066829950435178843 0.00083062225806576368 0 -0.00060655658629811082 0.00094611268862496959 0 0.00090244245899307851 0.0010726990276785956 0 -0.00068908440419806149 0.00078598603542194274 0 -0.00040135678180760418 0.00026173526425652381 0 -0.00032443697372526908 0.00063789372220431333 0 -0.00060655658629811082 0.00094611268862496959 0 -0.00081835057829144969 0.0019876912553562533 0 0.00090244245899307851 0.0010726990276785956 0 -0.00032443697372526908 0.00063789372220431333 0 -0.00060655658629811082 0.00094611268862496959 0 -0.00055524811977142622 0.00099199912010299236 0 1.480738124750691e-05 0.00066650388764002793 0 -0.00032443697372526908 0.00063789372220431333 0 -0.00055524811977142622 0.00099199912010299236 0 -0.00066829950435178843 0.00083062225806576368 0 -0.00060655658629811082 0.00094611268862496959 0 -0.00064036954948063938 0.00096480880265653103 0 -0.00066829950435178843 0.00083062225806576368 0 -0.00071765864738636894 0.00094896134482527446 0 -0.00065386304311918777 0.00095509842547683598 0 -0.0014086284678029358 0.0010300325261789558 0 -0.0022262870717496938 0.00067920478866981206 0 -0.0030361172387309747 -0.0001490052633866311 0 -0.0026325368610028224 0.00025572903794266914 0 -0.0028366655260201601 0.00078997351512364352 0 -0.0037364858810326586 0.0013615629575987704 0 -0.0039103448495049651 0.0013410554274976749 0 -0.004144571573346508 0.00039869688291721501 0 -0.0059022616080939552 0.00080839021428082722 0 -0.0059288373409460329 0.00080291724214451266 0 -0.0059150407945027092 0.00080893077057764143 0 -0.0022262870717496938 0.00067920478866981206 0 -0.0051284121340423117 0.00074225908152189557 0 -0.0036800191063641658 0.0011604904065977272 0 -0.0051284121340423117 0.00074225908152189557 0 -0.0036800191063641658 0.0011604904065977272 0 -0.0022262870717496938 0.00067920478866981206 0 -0.00060655658629811082 0.00094611268862496959 0 -0.00064036954948063938 0.00096480880265653103 0 -0.00055524811977142622 0.00099199912010299236 0 -0.0022262870717496938 0.00067920478866981206 0 -0.0020676889649870775 0.00039213513945912551 0 -0.0030361172387309747 -0.0001490052633866311 0 -0.0029163698703306893 -0.00013544895152729175 0 -0.0026325368610028224 0.00025572903794266914 0 -0.0020676889649870775 0.00039213513945912551 0 -0.00082548004882194721 0.00039176819480996668 0 -0.0028687073510507122 -9.9711955557380816e-05 0 -0.0022503670809491884 -6.3941986535345904e-05 0 -0.0019174632029331734 -0.0002062534681292499 0 -0.0029163698703306893 -0.00013544895152729175 0 -0.0026325368610028224 0.00025572903794266914 0 -0.0022503670809491884 -6.3941986535345904e-05 0 -0.0020676889649870775 0.00039213513945912551 0 -0.002613955072125561 -9.3028905302832486e-05 0 -0.0022503670809491884 -6.3941986535345904e-05 0 -0.0019730197029299732 0.00021200162443464279 0 -0.0019174632029331734 -0.0002062534681292499 0 -0.0026325368610028224 0.00025572903794266914 0 -0.0022503670809491884 -6.3941986535345904e-05 0 -0.0022598482320879626 0.00038079236257574067 0 -0.0022503670809491884 -6.3941986535345904e-05 0 -0.0022598482320879626 0.00038079236257574067 0 -0.0019730197029299732 0.00021200162443464279 0 -0.0019174632029331734 -0.0002062534681292499 0 -0.0015605766732993452 0.00035082433050706238 0 -0.0008241876321880713 -0.00034656952592994718 0 -0.0019730197029299732 0.00021200162443464279 0 -0.0015605766732993452 0.00035082433050706238 0 -0.0019796788792998056 0.00070985343255289572 0 -0.0019730197029299732 0.00021200162443464279 0 -0.0019174632029331734 -0.0002062534681292499 0 -0.0015605766732993452 0.00035082433050706238 0 -0.0015605766732993452 0.00035082433050706238 0 -0.0008241876321880713 -0.00034656952592994718 0 -0.00097331436818193272 0.00063011294391130377 0 -0.0008241876321880713 -0.00034656952592994718 0 -0.00044728162728269627 0.00052134438973766562 0 -0.00097331436818193272 0.00063011294391130377 0 0.003602304764395286 0.00020701683373772805 0 0.0033874893518188042 -0.00034940894346300829 0 0.0039861071385092874 -7.1909472259853464e-06 0 0.003602304764395286 0.00020701683373772805 0 0.0033874893518188042 -0.00034940894346300829 0 0.0031290418588397397 8.1796252627249903e-07 0 0.00084766336116445925 3.7295850185959991e-05 0 0.0025493420004788665 0.00028867356584728036 0 0.00037616712454400321 0.00092944835069777815 0 0.001252164128121974 0.00086203497917283919 0 0.00047738249943048524 0.00056032044344249139 0 -0.00082548004882194721 0.00039176819480996668 0 0.00084766336116445925 3.7295850185959991e-05 0 1.480738124750691e-05 0.00066650388764002793 0 0.00037616712454400321 0.00092944835069777815 0 0.00047738249943048524 0.00056032044344249139 0 0.0016403063145518906 -0.00046661402104350089 0 0.0016835842350650717 -0.00037137102643784492 0 0.00038301100734839874 -0.00050697943544723812 0 0.0010868118494537005 -8.5009189171966285e-05 0 0.001755889345609739 -0.00034232447620839712 0 0.0026986228806215227 -0.00041737776690284404 0 0.0023168467280353048 -2.9739835451247779e-06 0 0.001755889345609739 -0.00034232447620839712 0 0.0026986228806215227 -0.00041737776690284404 0 0.0023168467280353048 -2.9739835451247779e-06 0 0.0027381999923191346 6.7153731843354685e-06 0 0.0033874893518188042 -0.00034940894346300829 0 0.0026986228806215227 -0.00041737776690284404 0 0.0031290418588397397 8.1796252627249903e-07 0 0.00084766336116445925 3.7295850185959991e-05 0 0.0016403063145518906 -0.00046661402104350089 0 0.0026986228806215227 -0.00041737776690284404 0 0.0027381999923191346 6.7153731843354685e-06 0 0.0031290418588397397 8.1796252627249903e-07 0 -0.00071908922001701558 -0.00043351763631330995 0 0.00038301100734839874 -0.00050697943544723812 0 0.00028768053016481375 1.9077781745021931e-06 0 -0.0008241876321880713 -0.00034656952592994718 0 7.0706739006086452e-05 0.00023031530301225329 0 -0.00044728162728269627 0.00052134438973766562 0 -0.0008241876321880713 -0.00034656952592994718 0 7.0706739006086452e-05 0.00023031530301225329 0 0.00028768053016481375 1.9077781745021931e-06 0 0.00084766336116445925 3.7295850185959991e-05 0 -0.00039287139265073467 -0.00023482078476595288 0 7.0706739006086452e-05 0.00023031530301225329 0 0.0006750269967116981 0.00022147147665825941 0 0.00028768053016481375 1.9077781745021931e-06 0 7.0706739006086452e-05 0.00023031530301225329 0 0.0006750269967116981 0.00022147147665825941 0 0.00086631938107461972 0.00089289913024141038 0 0.00038301100734839874 -0.00050697943544723812 0 0.00028768053016481375 1.9077781745021931e-06 0 0.00060979754908681392 -8.7948235697711977e-05 0 0.00038301100734839874 -0.00050697943544723812 0 0.00060979754908681392 -8.7948235697711977e-05 0 0.0010868118494537005 -8.5009189171966285e-05 0 0.0006750269967116981 0.00022147147665825941 0 0.00028768053016481375 1.9077781745021931e-06 0 0.00060979754908681392 -8.7948235697711977e-05 0 0.0006750269967116981 0.00022147147665825941 0 0.00060979754908681392 -8.7948235697711977e-05 0 0.0010868118494537005 -8.5009189171966285e-05 0 0.0006750269967116981 0.00022147147665825941 0 0.0010868118494537005 -8.5009189171966285e-05 0 0.0010568608963993646 0.00050091926459173151 0 0.0010868118494537005 -8.5009189171966285e-05 0 0.001755889345609739 -0.00034232447620839712 0 0.0017476270543682836 0.00052571664924539407 0 0.0010868118494537005 -8.5009189171966285e-05 0 0.0017476270543682836 0.00052571664924539407 0 0.0010568608963993646 0.00050091926459173151 0 0.0017857969788639778 -0.00033966180699352452 0 0.001755889345609739 -0.00034232447620839712 0 0.0017476270543682836 0.00052571664924539407 0 0.00040538721361267806 0.00037613150445920198 0 -0.00047493479038886502 0.00012360556877846654 0 -0.0033096981232262385 -8.4611615720689163e-05 0 -0.002966883486471911 0.00043823335674174921 0 -0.0026176479469081533 -0.00051871713599796812 0 -0.0031720359683965419 -0.00063531086662190004 0 0.00040538721361267806 0.00037613150445920198 0 -0.003110600138089975 0.00033764299523157416 0 -0.0035437061470999865 0.0011635424465663616 0 -0.0035349857681714432 0.00037295402666259069 0 -0.0033096981232262385 -8.4611615720689163e-05 0 -0.003110600138089975 0.00033764299523157416 0 -0.0035349857681714432 0.00037295402666259069 0 0.00040538721361267806 0.00037613150445920198 0 0.0036696114410740802 0.00082731507968050288 0 0.0017857969788639778 -0.00033966180699352452 0 0.001755889345609739 -0.00034232447620839712 0 0.0020104536837609634 0.00036872121683678249 0 0.0023168467280353048 -2.9739835451247779e-06 0 0.001755889345609739 -0.00034232447620839712 0 0.0020104536837609634 0.00036872121683678249 0 0.00040538721361267806 0.00037613150445920198 0 0.00037340588127153832 0.0011410734855573684 0 0.004480546138060388 0.0010201722407058244 0 0.004529514619772702 0.0010391902091680212 0 0.0045337074069838595 0.0010374357496889181 0 0.0045337074069838595 0.0010374357496889181 0 0.0045530650965684566 0.0010408139772632734 0 0.0045802385177450677 0.0010413430059979432 0 0.004529514619772702 0.0010391902091680212 0 0.0045337074069838595 0.0010374357496889181 0 0.0045530650965684566 0.0010408139772632734 0 0.004529514619772702 0.0010391902091680212 0 0.0045530650965684566 0.0010408139772632734 0 0.0045499946092204925 0.0010333935941563566 0 0.004529514619772702 0.0010391902091680212 0 0.0045199726925784283 0.0010374939853516464 0 0.0045499946092204925 0.0010333935941563566 0 0.0036696114410740802 0.00082731507968050288 0 0.0035629112549009144 0.0010114003276968481 0 0.0020104536837609634 0.00036872121683678249 0 0.0028352410368109402 0.00069693621712570641 0 0.0027422974775344559 0.0011198985735014796 0 0.0028352410368109402 0.00069693621712570641 0 0.0031539769214545977 0.001090375759921036 0 0.0027422974775344559 0.0011198985735014796 0 0.0020104536837609634 0.00036872121683678249 0 0.0028352410368109402 0.00069693621712570641 0 0.0025778202484732114 0.000274890142085982 0 0.0028352410368109402 0.00069693621712570641 0 0.0025778202484732114 0.000274890142085982 0 0.0029873072049676685 0.00034037804862996021 0 0.0023168467280353048 -2.9739835451247779e-06 0 0.0027381999923191346 6.7153731843354685e-06 0 0.0025778202484732114 0.000274890142085982 0 0.0027381999923191346 6.7153731843354685e-06 0 0.0025778202484732114 0.000274890142085982 0 0.0029873072049676685 0.00034037804862996021 0 0.0023168467280353048 -2.9739835451247779e-06 0 0.0020104536837609634 0.00036872121683678249 0 0.0025778202484732114 0.000274890142085982 0 0.0033621138804965458 0.00042365227766495695 0 0.0031290418588397397 8.1796252627249903e-07 0 0.0029873072049676685 0.00034037804862996021 0 0.0027381999923191346 6.7153731843354685e-06 0 0.0031290418588397397 8.1796252627249903e-07 0 0.0029873072049676685 0.00034037804862996021 0 0.0028352410368109402 0.00069693621712570641 0 0.0029873072049676685 0.00034037804862996021 0 0.0032055093755312641 0.00066194352041697635 0 0.0033621138804965458 0.00042365227766495695 0 0.0029873072049676685 0.00034037804862996021 0 0.0032055093755312641 0.00066194352041697635 0 0.0035948009275717668 0.00072807778818262403 0 0.0032055093755312641 0.00066194352041697635 0 0.0031539769214545977 0.001090375759921036 0 0.0033518781503746814 0.001032383057714721 0 0.0031872106103681629 0.0010869285880382945 0 0.0028352410368109402 0.00069693621712570641 0 0.0032055093755312641 0.00066194352041697635 0 0.0031539769214545977 0.001090375759921036 0 0.0031539769214545977 0.001090375759921036 0 0.0027422974775344559 0.0011198985735014796 0 0.0033788855310495506 0.0012688626052138722 0 0.0033571873695241099 0.0012198203955977895 0 0.0031539769214545977 0.001090375759921036 0 0.0033788855310495506 0.0012688626052138722 0 0.0035629112549009144 0.0010114003276968481 0 0.0038922944718658421 0.0011203287429465596 0 0.0045199726925784283 0.0010374939853516464 0 0.0045173412285499093 0.0010102798430267998 0 0.0045371874898934928 0.0010191474124249898 0 0.0045199726925784283 0.0010374939853516464 0 0.0045173412285499093 0.0010102798430267998 0 0.0044354192682751585 0.001040977916182512 0 0.0045173412285499093 0.0010102798430267998 0 0.0044354192682751585 0.001040977916182512 0 0.0045496849057280273 0.00084810855482022696 0 0.003951330994399295 0.00087359371863249659 0 0.0044354192682751585 0.001040977916182512 0 0.0044288219189117925 0.00087923007747258775 0 0.003951330994399295 0.00087359371863249659 0 0.0035009203206049565 0.0011519349957862899 0 0.0033788855310495506 0.0012688626052138722 0 0.0038979242913048783 0.00085536084987103704 0 0.0038922944718658421 0.0011203287429465596 0 0.003951330994399295 0.00087359371863249659 0 0.0044288219189117925 0.00087923007747258775 0 0.0046157368801414142 0.00068923914269148582 0 0.0044288219189117925 0.00087923007747258775 0 0.0045496849057280273 0.00084810855482022696 0 0.0046157368801414142 0.00068923914269148582 0 0.0044354192682751585 0.001040977916182512 0 0.0044288219189117925 0.00087923007747258775 0 0.0045496849057280273 0.00084810855482022696 0 0.0045496849057280273 0.00084810855482022696 0 0.0046157368801414142 0.00068923914269148582 0 0.0046040207307349911 0.00070268356135521476 0 0.0045690649285366905 0.00055053637429804125 0 0.0046157368801414142 0.00068923914269148582 0 0.0046040207307349911 0.00070268356135521476 0 0.0041568358247709497 0.00029695085306318626 0 0.003951330994399295 0.00087359371863249659 0 0.0046157368801414142 0.00068923914269148582 0 0.0046894333694108619 0.00056371251127065143 0 0.0046040207307349911 0.00070268356135521476 0 0.0046892516559178367 0.0008221592527663578 0 0.0048653063967286098 0.00048344139427771826 0 0.0046894333694108619 0.00056371251127065143 0 0.0046892516559178367 0.0008221592527663578 0 0.0045690649285366905 0.00055053637429804125 0 0.0046894333694108619 0.00056371251127065143 0 0.0046040207307349911 0.00070268356135521476 0 0.0045496849057280273 0.00084810855482022696 0 0.0046040207307349911 0.00070268356135521476 0 0.0046892516559178367 0.0008221592527663578 0 0.0045496849057280273 0.00084810855482022696 0 0.0046892516559178367 0.0008221592527663578 0 0.00458123652918291 0.00097060383907095736 0 0.0046394334852224465 0.00096130818576702884 0 0.00458123652918291 0.00097060383907095736 0 0.0045839128122111081 0.0010123722130837242 0 0.0046892516559178367 0.0008221592527663578 0 0.0046394334852224465 0.00096130818576702884 0 0.00458123652918291 0.00097060383907095736 0 0.0045173412285499093 0.0010102798430267998 0 0.0045496849057280273 0.00084810855482022696 0 0.00458123652918291 0.00097060383907095736 0 0.0045173412285499093 0.0010102798430267998 0 0.00458123652918291 0.00097060383907095736 0 0.0045371874898934928 0.0010191474124249898 0 0.0045199726925784283 0.0010374939853516464 0 0.0045371874898934928 0.0010191474124249898 0 0.0045499946092204925 0.0010333935941563566 0 0.00458123652918291 0.00097060383907095736 0 0.0045499946092204925 0.0010333935941563566 0 0.0045839128122111081 0.0010123722130837242 0 0.00458123652918291 0.00097060383907095736 0 0.0045371874898934928 0.0010191474124249898 0 0.0045499946092204925 0.0010333935941563566 0 0.0046394334852224465 0.00096130818576702884 0 0.0045839128122111081 0.0010123722130837242 0 0.0045802385177450677 0.0010413430059979432 0 0.0045530650965684566 0.0010408139772632734 0 0.0045839128122111081 0.0010123722130837242 0 0.0045802385177450677 0.0010413430059979432 0 0.0045530650965684566 0.0010408139772632734 0 0.0045499946092204925 0.0010333935941563566 0 0.0045839128122111081 0.0010123722130837242 0 0.0049644441149394149 0.00040242339308208712 0 0.0014307604323566801 0.0015470095968666577 0 0.0045337074069838595 0.0010374357496889181 0 0.0045802385177450677 0.0010413430059979432 0 0.0045570387067361134 0.0010497527034939484 0 0.0046394334852224465 0.00096130818576702884 0 0.0045802385177450677 0.0010413430059979432 0 0.0046788299426497914 0.00099981909853837266 0 -0.00391303614635931 0.0017424676897362357 0 -0.0044528576773444203 0.001610979007076479 0 -0.0041325561972843702 0.0013812876950883633 0 -0.00391303614635931 0.0017424676897362357 0 -0.0043508355854204811 0.0019064148946970438 0 -0.0044528576773444203 0.001610979007076479 0 0.0014307604323566801 0.0015470095968666577 0 -0.0025288566495889541 0.0020996996153947785 0 0.0014679412669338766 0.0015417390010526229 0 0.0012922585612942527 0.0016691037709783295 0 0.0014233393460882295 0.0016670006966300066 0 0.0046892516559178367 0.0008221592527663578 0 0.0046394334852224465 0.00096130818576702884 0 0.0047237556088809158 0.00091197628783495205 0 0.0046394334852224465 0.00096130818576702884 0 0.0046788299426497914 0.00099981909853837266 0 0.0047237556088809158 0.00091197628783495205 0 0.0014307604323566801 0.0015470095968666577 0 0.0030847333343467088 0.0012328074175252271 0 0.0046892516559178367 0.0008221592527663578 0 0.0047237556088809158 0.00091197628783495205 0 0.0047387419314708001 0.00086532027729555429 0 0.0050187631730130361 0.00071902393334918858 0 0.0041749990692914454 0.0012526733311204565 0 0.0046892516559178367 0.0008221592527663578 0 0.0051050661602192529 0.00081401794220300095 0 0.0049750771022472424 0.00065893112415375832 0 0.0012922585612942527 0.0016691037709783295 0 0.0014233393460882295 0.0016670006966300066 0 0.0013836841313510015 0.001793675248592764 0 0.0030847333343467088 0.0012328074175252271 0 0.0041749990692914454 0.0012526733311204565 0 0.0050960053108164097 0.00083103323803039619 0 0.0051384430735289983 0.00072836999200003429 0 0.0056034599864933634 0.00082370604068314772 0 0.0041749990692914454 0.0012526733311204565 0 0.0045857215833622934 0.00076963744436525801 0 0.0051050661602192529 0.00081401794220300095 0 0.0051384430735289983 0.00072836999200003429 0 0.0049750771022472424 0.00065893112415375832 0 0.0050941380718155238 0.00045213622381077331 0 0.0051384430735289983 0.00072836999200003429 0 0.0049750771022472424 0.00065893112415375832 0 0.0050941380718155238 0.00045213622381077331 0 0.0051384430735289983 0.00072836999200003429 0 0.0054328578970536875 0.00055141553353098901 0 0.0048653063967286098 0.00048344139427771826 0 0.0046892516559178367 0.0008221592527663578 0 0.0049750771022472424 0.00065893112415375832 0 0.0048653063967286098 0.00048344139427771826 0 0.0050941380718155238 0.00045213622381077331 0 0.0049750771022472424 0.00065893112415375832 0 0.0057059991379011885 0.00073425041130626941 0 0.0056780483626187057 0.0005701781833361031 0 0.0056034599864933634 0.00082370604068314772 0 0.0062856778407788128 5.8635034993014241e-05 0 0.0014843107041773698 0.0017022989754110459 0 0.0060472279520950136 0.00028951640841915215 0 0.0057059991379011885 0.00073425041130626941 0 0.0056780483626187057 0.0005701781833361031 0 0.0056763136727053911 0.00023288534224597747 0 0.0056780483626187057 0.0005701781833361031 0 0.0054328578970536875 0.00055141553353098901 0 0.0051384430735289983 0.00072836999200003429 0 0.0054328578970536875 0.00055141553353098901 0 0.0056034599864933634 0.00082370604068314772 0 0.0056780483626187057 0.0005701781833361031 0 0.0054328578970536875 0.00055141553353098901 0 0.0056034599864933634 0.00082370604068314772 0 0.0041749990692914454 0.0012526733311204565 0 0.0014843107041773698 0.0017022989754110459 0 0.0012922585612942527 0.0016691037709783295 0 0.0013836841313510015 0.001793675248592764 0 0.0011264862387028701 0.0017935232787688153 0 -0.0025288566495889541 0.0020996996153947785 0 0.0014843107041773698 0.0017022989754110459 0 0.0063202699136115283 0.0011713688399130162 0 0.0057059991379011885 0.00073425041130626941 0 0.004801574998470377 0.0012584473194995843 0 -0.0046033246520384482 0.0018435896384639708 0 -0.004411488347969718 0.0019270706813211212 0 -0.0046249324092675365 0.0017835822050812772 0 -0.0049021747783326948 0.0016830001103908896 0 -0.0046033246520384482 0.0018435896384639708 0 -0.0046249324092675365 0.0017835822050812772 0 -0.0043508355854204811 0.0019064148946970438 0 -0.004411488347969718 0.0019270706813211212 0 -0.0046249324092675365 0.0017835822050812772 0 -0.0043508355854204811 0.0019064148946970438 0 -0.0046249324092675365 0.0017835822050812772 0 -0.0044528576773444203 0.001610979007076479 0 -0.0046249324092675365 0.0017835822050812772 0 -0.0044528576773444203 0.001610979007076479 0 -0.0050476661321561343 0.0014453057121049469 0 -0.0049021747783326948 0.0016830001103908896 0 -0.0046249324092675365 0.0017835822050812772 0 -0.0050476661321561343 0.0014453057121049469 0 -0.0051195065002792878 0.0014107034317936661 0 -0.0054526401895299247 0.00088826268545071888 0 -0.0050476661321561343 0.0014453057121049469 0 -0.0054870321540359326 0.00071648458122386654 0 -0.0048975581393377954 0.00070226064887549881 0 -0.0045906345534628967 0.001192570546905522 0 -0.0042551331537130539 0.00088924454540800389 0 -0.0048975581393377954 0.00070226064887549881 0 -0.0050476661321561343 0.0014453057121049469 0 -0.0045906345534628967 0.001192570546905522 0 -0.0048975581393377954 0.00070226064887549881 0 -0.0044528576773444203 0.001610979007076479 0 -0.0050476661321561343 0.0014453057121049469 0 -0.0045906345534628967 0.001192570546905522 0 -0.0045906345534628967 0.001192570546905522 0 -0.0041325561972843702 0.0013812876950883633 0 -0.0042551331537130539 0.00088924454540800389 0 -0.0044528576773444203 0.001610979007076479 0 -0.0045906345534628967 0.001192570546905522 0 -0.0041325561972843702 0.0013812876950883633 0 -0.0035437061470999865 0.0011635424465663616 0 -0.00391303614635931 0.0017424676897362357 0 -0.0041325561972843702 0.0013812876950883633 0 0.00037340588127153832 0.0011410734855573684 0 0.0014307604323566801 0.0015470095968666577 0 -0.0035437061470999865 0.0011635424465663616 0 -0.0041325561972843702 0.0013812876950883633 0 -0.0042551331537130539 0.00088924454540800389 0 -0.0035437061470999865 0.0011635424465663616 0 -0.0042551331537130539 0.00088924454540800389 0 -0.0039157850575755656 0.00049496695409608101 0 -0.0042551331537130539 0.00088924454540800389 0 -0.0045164026258569349 0.00024156557129112496 0 -0.0039157850575755656 0.00049496695409608101 0 -0.0045164026258569349 0.00024156557129112496 0 -0.0039157850575755656 0.00049496695409608101 0 -0.0038948207855428211 -9.7381282065572973e-07 0 -0.0042551331537130539 0.00088924454540800389 0 -0.0045164026258569349 0.00024156557129112496 0 -0.0048975581393377954 0.00070226064887549881 0 -0.0035437061470999865 0.0011635424465663616 0 -0.0039157850575755656 0.00049496695409608101 0 -0.0035349857681714432 0.00037295402666259069 0 -0.0039157850575755656 0.00049496695409608101 0 -0.0035349857681714432 0.00037295402666259069 0 -0.0038948207855428211 -9.7381282065572973e-07 0 -0.0033096981232262385 -8.4611615720689163e-05 0 -0.0038948207855428211 -9.7381282065572973e-07 0 -0.0038919597126011131 -0.00063102156694609549 0 -0.0033096981232262385 -8.4611615720689163e-05 0 -0.0035349857681714432 0.00037295402666259069 0 -0.0038948207855428211 -9.7381282065572973e-07 0 -0.0045164026258569349 0.00024156557129112496 0 -0.0038948207855428211 -9.7381282065572973e-07 0 -0.0045443006758120333 -0.00034741195828720171 0 -0.0038948207855428211 -9.7381282065572973e-07 0 -0.0045443006758120333 -0.00034741195828720171 0 -0.0038919597126011131 -0.00063102156694609549 0 -0.0052480136737044084 9.6689541738442051e-05 0 -0.0055493755290021516 -0.00029580957593636627 0 -0.0051739268525386366 -0.00053881148705841057 0 -0.0045164026258569349 0.00024156557129112496 0 -0.0045443006758120333 -0.00034741195828720171 0 -0.0052480136737044084 9.6689541738442051e-05 0 -0.0045443006758120333 -0.00034741195828720171 0 -0.0052480136737044084 9.6689541738442051e-05 0 -0.0051739268525386366 -0.00053881148705841057 0 -0.0052480136737044084 9.6689541738442051e-05 0 -0.0055493755290021516 -0.00029580957593636627 0 -0.0059395858633871507 -0.00015881497567967278 0 -0.0052480136737044084 9.6689541738442051e-05 0 -0.0059395858633871507 -0.00015881497567967278 0 -0.0054870321540359326 0.00071648458122386654 0 -0.0052480136737044084 9.6689541738442051e-05 0 -0.0054870321540359326 0.00071648458122386654 0 -0.0048975581393377954 0.00070226064887549881 0 -0.005931564614446971 0.00015847957092119752 0 -0.0054526401895299247 0.00088826268545071888 0 -0.0045164026258569349 0.00024156557129112496 0 -0.0052480136737044084 9.6689541738442051e-05 0 -0.0048975581393377954 0.00070226064887549881 0 -0.0059893866797363707 -0.0014636020732383005 0 -0.0050114739035808653 -0.001706167637703575 0 -0.0059532438544452346 -0.0021816532271365565 0 -0.0059893866797363707 -0.0014636020732383005 0 -0.0053613495203034787 -0.0010376971365971556 0 -0.0044942306599289926 -0.001434879750619769 0 -0.0059594078238616932 -0.0014840532740892762 0 -0.0047271491936910753 -0.0015477565614919369 0 -0.0064630067290435246 -0.0017491681138101956 0 -0.0059893866797363707 -0.0014636020732383005 0 -0.0059532438544452346 -0.0021816532271365565 0 -0.0064597981762910097 -0.0011616245306736116 0 -0.0064630067290435246 -0.0017491681138101956 0 -0.0059893866797363707 -0.0014636020732383005 0 -0.0064597981762910097 -0.0011616245306736116 0 -0.0059893866797363707 -0.0014636020732383005 0 -0.0057741235768298173 -0.00074290811965269739 0 -0.0059893866797363707 -0.0014636020732383005 0 -0.0057741235768298173 -0.00074290811965269739 0 -0.0053613495203034787 -0.0010376971365971556 0 -0.0064597981762910097 -0.0011616245306736116 0 -0.0059395858633871507 -0.00015881497567967278 0 -0.0057741235768298173 -0.00074290811965269739 0 -0.0055493755290021516 -0.00029580957593636627 0 -0.0059395858633871507 -0.00015881497567967278 0 -0.0057741235768298173 -0.00074290811965269739 0 -0.0055493755290021516 -0.00029580957593636627 0 -0.0057741235768298173 -0.00074290811965269739 0 -0.0051739268525386366 -0.00053881148705841057 0 -0.0051739268525386366 -0.00053881148705841057 0 -0.0053613495203034787 -0.0010376971365971556 0 -0.0044942306599289926 -0.001434879750619769 0 -0.0045443006758120333 -0.00034741195828720171 0 -0.0051739268525386366 -0.00053881148705841057 0 -0.0044942306599289926 -0.001434879750619769 0 -0.0057741235768298173 -0.00074290811965269739 0 -0.0051739268525386366 -0.00053881148705841057 0 -0.0053613495203034787 -0.0010376971365971556 0 -0.0045443006758120333 -0.00034741195828720171 0 -0.0038919597126011131 -0.00063102156694609549 0 -0.0044942306599289926 -0.001434879750619769 0 -0.0038919597126011131 -0.00063102156694609549 0 -0.0033957572161389107 -0.0014268916536857839 0 -0.0032201595342268999 -0.00077716641270562058 0 -0.0033096981232262385 -8.4611615720689163e-05 0 -0.0038919597126011131 -0.00063102156694609549 0 -0.0032201595342268999 -0.00077716641270562058 0 -0.0050114739035808653 -0.001706167637703575 0 -0.0045247258213242979 -0.0024594816356891158 0 -0.003864218261886028 -0.0017917135622200252 0 -0.0047271491936910753 -0.0015477565614919369 0 -0.0038508350541879765 -0.0017281053940038714 0 -0.0038919597126011131 -0.00063102156694609549 0 -0.0044942306599289926 -0.001434879750619769 0 -0.0033957572161389107 -0.0014268916536857839 0 -0.0050114739035808653 -0.001706167637703575 0 -0.0045247258213242979 -0.0024594816356891158 0 -0.0055107402258885172 -0.0027571851098697709 0 -0.0045247258213242979 -0.0024594816356891158 0 -0.003745607451850215 -0.0030401283529498161 0 -0.003864218261886028 -0.0017917135622200252 0 -0.0045247258213242979 -0.0024594816356891158 0 -0.0046669183959220329 -0.0033085222073427809 0 -0.003745607451850215 -0.0030401283529498161 0 -0.0046669183959220329 -0.0033085222073427809 0 -0.0042219549384420515 -0.0040221327823931081 0 -0.003745607451850215 -0.0030401283529498161 0 -0.0045247258213242979 -0.0024594816356891158 0 -0.0046669183959220329 -0.0033085222073427809 0 -0.0055107402258885172 -0.0027571851098697709 0 -0.0046669183959220329 -0.0033085222073427809 0 -0.0055107402258885172 -0.0027571851098697709 0 -0.0055678086070896117 -0.0038057850721494369 0 -0.0055107402258885172 -0.0027571851098697709 0 -0.0063961352137536969 -0.0035104563825154428 0 -0.0055678086070896117 -0.0038057850721494369 0 -0.0055107402258885172 -0.0027571851098697709 0 -0.0059532438544452346 -0.0021816532271365565 0 -0.0064099556428362089 -0.0028038648927729182 0 -0.0050114739035808653 -0.001706167637703575 0 -0.0055107402258885172 -0.0027571851098697709 0 -0.0059532438544452346 -0.0021816532271365565 0 -0.0068804069188642594 -0.0023218257238034209 0 -0.0064630067290435246 -0.0017491681138101956 0 -0.0059532438544452346 -0.0021816532271365565 0 -0.0068804069188642594 -0.0023218257238034209 0 -0.0059532438544452346 -0.0021816532271365565 0 -0.0064099556428362089 -0.0028038648927729182 0 -0.0072230550168579993 -0.0031614870918203271 0 -0.0064099556428362089 -0.0028038648927729182 0 -0.0063961352137536969 -0.0035104563825154428 0 -0.0055107402258885172 -0.0027571851098697709 0 -0.0064099556428362089 -0.0028038648927729182 0 -0.0063961352137536969 -0.0035104563825154428 0 -0.0074815234024155812 -0.0041796270533537095 0 -0.0063961352137536969 -0.0035104563825154428 0 -0.0064012669393685422 -0.0044610476343914674 0 -0.0063961352137536969 -0.0035104563825154428 0 -0.0064012669393685422 -0.0044610476343914674 0 -0.0055678086070896117 -0.0038057850721494369 0 -0.0055678086070896117 -0.0038057850721494369 0 -0.0057356270489128825 -0.004766376489599362 0 -0.0049486395448979821 -0.0044115569595455104 0 -0.0064012669393685422 -0.0044610476343914674 0 -0.0055678086070896117 -0.0038057850721494369 0 -0.0057356270489128825 -0.004766376489599362 0 -0.0064012669393685422 -0.0044610476343914674 0 -0.0057356270489128825 -0.004766376489599362 0 -0.00619947189088523 -0.0056061062278527883 0 -0.0074815234024155812 -0.0041796270533537095 0 -0.0064012669393685422 -0.0044610476343914674 0 -0.0070133710198748206 -0.0053396950124613377 0 -0.0064012669393685422 -0.0044610476343914674 0 -0.0070133710198748206 -0.0053396950124613377 0 -0.00619947189088523 -0.0056061062278527883 0 -0.0073476824894220605 -0.0061758029576976202 0 -0.0070133710198748206 -0.0053396950124613377 0 -0.0066220349073513943 -0.0062629978072933686 0 -0.0070133710198748206 -0.0053396950124613377 0 -0.0066220349073513943 -0.0062629978072933686 0 -0.00619947189088523 -0.0056061062278527883 0 -0.0057356270489128825 -0.004766376489599362 0 -0.00619947189088523 -0.0056061062278527883 0 -0.005277682781473449 -0.0062350075589409845 0 -0.00619947189088523 -0.0056061062278527883 0 -0.0060637544902433097 -0.0067452493005468817 0 -0.005277682781473449 -0.0062350075589409845 0 -0.0066220349073513943 -0.0062629978072933686 0 -0.00619947189088523 -0.0056061062278527883 0 -0.0060637544902433097 -0.0067452493005468817 0 -0.016301651754041638 -0.0012612481834620901 0 -0.0174072348614767 -0.0020207722873073716 0 -0.017141250618474383 -0.00018232944337186937 0 -0.011144328747487818 -0.0039351852289728614 0 -0.011296581663993424 -0.0029237620564990627 0 -0.016301651754041638 -0.0012612481834620901 0 -0.015125054700408909 -0.00050021244985121464 0 -0.016184214125645458 -0.00014036223116268797 0 -0.011144328747487818 -0.0039351852289728614 0 -0.012023171182664247 -0.0043050752262520234 0 -0.0066220349073513943 -0.0062629978072933686 0 -0.0060637544902433097 -0.0067452493005468817 0 -0.0068180963522339278 -0.0072083901737223207 0 -0.0079564891892049735 -0.0073383809081330673 0 -0.0078080257833081108 -0.0064316779341301571 0 -0.007324023352888745 -0.0075379010144417929 0 -0.0073476824894220605 -0.0061758029576976202 0 -0.0066220349073513943 -0.0062629978072933686 0 -0.0068180963522339278 -0.0072083901737223207 0 -0.0068969407568539301 -0.0071138766123488928 0 -0.012023171182664247 -0.0043050752262520234 0 -0.018227027388681143 0.0019599776555713662 0 -0.017973065976265669 0.0027317716205404003 0 -0.01765284214966684 0.0020986396553299555 0 -0.018227027388681143 0.0019599776555713662 0 -0.01765284214966684 0.0020986396553299555 0 -0.017904334728941658 0.0015251152315240548 0 -0.018227027388681143 0.0019599776555713662 0 -0.018638901223509148 0.0022769824867261033 0 -0.018798263179770191 0.0016796298261267447 0 -0.011296581663993424 -0.0029237620564990627 0 -0.01805178765891766 0.0012067870574344697 0 -0.0052651650237122028 -0.0055059627105896675 0 -0.0043650461494090728 -0.0049727167408153902 0 -0.0049486395448979821 -0.0044115569595455104 0 -0.018227027388681143 0.0019599776555713662 0 -0.018638901223509148 0.0022769824867261033 0 -0.017973065976265669 0.0027317716205404003 0 -0.011296581663993424 -0.0029237620564990627 0 -0.0033098602434890054 -0.0055785871791978747 0 -0.011296581663993424 -0.0029237620564990627 0 -0.01120845280888399 -0.00093409357063348262 0 -0.0043650461494090728 -0.0049727167408153902 0 -0.0042219549384420515 -0.0040221327823931081 0 -0.003405925533990229 -0.0043178270198171529 0 -0.0043650461494090728 -0.0049727167408153902 0 -0.0049486395448979821 -0.0044115569595455104 0 -0.0042219549384420515 -0.0040221327823931081 0 -0.0057356270489128825 -0.004766376489599362 0 -0.005277682781473449 -0.0062350075589409845 0 -0.0049486395448979821 -0.0044115569595455104 0 -0.0046669183959220329 -0.0033085222073427809 0 -0.0055678086070896117 -0.0038057850721494369 0 -0.0049486395448979821 -0.0044115569595455104 0 -0.0046669183959220329 -0.0033085222073427809 0 -0.0049486395448979821 -0.0044115569595455104 0 -0.0042219549384420515 -0.0040221327823931081 0 -0.0042219549384420515 -0.0040221327823931081 0 -0.003405925533990229 -0.0043178270198171529 0 -0.003745607451850215 -0.0030401283529498161 0 -0.003405925533990229 -0.0043178270198171529 0 -0.0029948792099765507 -0.0032891109963476923 0 -0.003745607451850215 -0.0030401283529498161 0 -0.003405925533990229 -0.0043178270198171529 0 -0.0024703791986941028 -0.0036411430040812105 0 -0.0029948792099765507 -0.0032891109963476923 0 -0.010364744498635827 -0.00075981800078909513 0 -0.0096208610639804213 0.001298487973764555 0 -0.01668326824957064 0.0030000305846767756 0 -0.01724971547531394 0.0031981804777203829 0 -0.017409204452725174 0.0026190561127498405 0 -0.01668326824957064 0.0030000305846767756 0 -0.01724971547531394 0.0031981804777203829 0 -0.016470890342348155 0.0036573586079628726 0 -0.01120845280888399 -0.00093409357063348262 0 -0.010364744498635827 -0.00075981800078909513 0 -0.017973065976265669 0.0027317716205404003 0 -0.01724971547531394 0.0031981804777203829 0 -0.017409204452725174 0.0026190561127498405 0 -0.017973065976265669 0.0027317716205404003 0 -0.017409204452725174 0.0026190561127498405 0 -0.01765284214966684 0.0020986396553299555 0 -0.017409204452725174 0.0026190561127498405 0 -0.0168907447094966 0.0023736360210921191 0 -0.01765284214966684 0.0020986396553299555 0 -0.01668326824957064 0.0030000305846767756 0 -0.017409204452725174 0.0026190561127498405 0 -0.0168907447094966 0.0023736360210921191 0 -0.016999175928557431 0.0034640244017881436 0 -0.016867026530042583 0.0023670010853493345 0 -0.0168907447094966 0.0023736360210921191 0 -0.01765284214966684 0.0020986396553299555 0 -0.017068402035209321 0.0017753748709918697 0 -0.016867026530042583 0.0023670010853493345 0 -0.017039256573692246 0.0018473355680544861 0 -0.016860232058557002 0.0024812546176514881 0 -0.016557432346866463 0.002050079901123754 0 -0.017068402035209321 0.0017753748709918697 0 -0.01765284214966684 0.0020986396553299555 0 -0.017521681074843753 0.0016948651611403637 0 -0.017068402035209321 0.0017753748709918697 0 -0.016013982373462663 0.0019782018027956019 0 -0.015667237876440913 0.0024454008679727938 0 -0.015539880318731637 0.0018081045336423923 0 -0.015970837226662187 0.002009476931780896 0 -0.015469650323940052 0.0025955435115163988 0 -0.016013982373462663 0.0019782018027956019 0 -0.015539880318731637 0.0018081045336423923 0 -0.015696257191076934 0.0016664755808550229 0 -0.016013982373462663 0.0019782018027956019 0 -0.016557432346866463 0.002050079901123754 0 -0.016420820773333008 0.0016091273609510433 0 -0.016860232058557002 0.0024812546176514881 0 -0.016557432346866463 0.002050079901123754 0 -0.016205203882122741 0.0026019174148847468 0 -0.016013982373462663 0.0019782018027956019 0 -0.016557432346866463 0.002050079901123754 0 -0.016205203882122741 0.0026019174148847468 0 -0.016655256358482338 0.0032901662374678741 0 -0.016860232058557002 0.0024812546176514881 0 -0.016205203882122741 0.0026019174148847468 0 -0.016013982373462663 0.0019782018027956019 0 -0.016205203882122741 0.0026019174148847468 0 -0.015330452579147454 0.0026928052781377341 0 -0.016205203882122741 0.0026019174148847468 0 -0.015874078230678809 0.0032439662256331294 0 -0.015330452579147454 0.0026928052781377341 0 -0.015874078230678809 0.0032439662256331294 0 -0.015459588726235322 0.0039432522033900699 0 -0.014711849172881545 0.0034446217889286565 0 -0.016655256358482338 0.0032901662374678741 0 -0.016205203882122741 0.0026019174148847468 0 -0.015874078230678809 0.0032439662256331294 0 -0.016655256358482338 0.0032901662374678741 0 -0.015874078230678809 0.0032439662256331294 0 -0.016424091476413969 0.0041355096227831713 0 -0.016999175928557431 0.0034640244017881436 0 -0.0096208610639804213 0.001298487973764555 0 -0.016424091476413969 0.0041355096227831713 0 -0.015459588726235322 0.0039432522033900699 0 -0.015325730192171332 0.004828701990801613 0 -0.015874078230678809 0.0032439662256331294 0 -0.016424091476413969 0.0041355096227831713 0 -0.015459588726235322 0.0039432522033900699 0 -0.0096208610639804213 0.001298487973764555 0 -0.0074553783336847226 0.0027311157479253658 0 -0.0013740082657979797 0.0013494668817577082 0 -0.001268427277596668 0.0012927707511932573 0 -0.0017786066010615801 0.0011364796183150933 0 -0.0013740082657979797 0.0013494668817577082 0 -0.0015322813598735189 0.0014177299233906907 0 -0.0017786066010615801 0.0011364796183150933 0 -0.0041306747735572694 0.0013946892100516275 0 -0.0074553783336847226 0.0027311157479253658 0 -0.0013740082657979797 0.0013494668817577082 0 -0.0012983921657361034 0.0013720104355595603 0 -0.0012680033962442765 0.0015106730720457183 0 -0.0013740082657979797 0.0013494668817577082 0 -0.0012680033962442765 0.0015106730720457183 0 -0.0013748653726419369 0.0014586932278061137 0 -0.0015322813598735189 0.0014177299233906907 0 -0.0013456483920522967 0.0015394499427941462 0 -0.0015612103133758408 0.0017380433277760679 0 -0.0015322813598735189 0.0014177299233906907 0 -0.0013748653726419369 0.0014586932278061137 0 -0.0013456483920522967 0.0015394499427941462 0 -0.0013740082657979797 0.0013494668817577082 0 -0.0015322813598735189 0.0014177299233906907 0 -0.0013748653726419369 0.0014586932278061137 0 -0.0012680033962442765 0.0015106730720457183 0 -0.0013456483920522967 0.0015394499427941462 0 -0.0010782277120348965 0.001526985720869258 0 -0.0012680033962442765 0.0015106730720457183 0 -0.0013748653726419369 0.0014586932278061137 0 -0.0013456483920522967 0.0015394499427941462 0 -0.0018548676907014846 -0.00068915473614731876 0 -0.0014783931021990022 -0.0006726954349734847 0 -0.0015322813598735189 0.0014177299233906907 0 -0.0017828505195411923 0.0012451788700244073 0 -0.0015612103133758408 0.0017380433277760679 0 -0.0012427634863406349 -0.00055122018073929012 0 -0.0015256506989571985 0.000227471194404643 0 -0.001084192729070718 0.00022393164713108981 0 -0.0018548676907014846 -0.00068915473614731876 0 -0.00032221657228752028 0.0013741356458135063 0 -0.0096208610639804213 0.001298487973764555 0 -0.0018548676907014846 -0.00068915473614731876 0 -0.0024703791986941028 -0.0036411430040812105 0 -0.0023094310419095269 -0.002919307835193462 0 -0.0029948792099765507 -0.0032891109963476923 0 -0.001947766778859941 0.00081510204251280453 0 -0.0018265574836183322 0.0012701112188031949 0 -0.0017786066010615801 0.0011364796183150933 0 -0.001947766778859941 0.00081510204251280453 0 -0.001268427277596668 0.0012927707511932573 0 -0.0017786066010615801 0.0011364796183150933 0 -0.0018548676907014846 -0.00068915473614731876 0 -0.0020783958836242482 0.00038153188375272595 0 -0.0015322813598735189 0.0014177299233906907 0 -0.0017828505195411923 0.0012451788700244073 0 -0.0017786066010615801 0.0011364796183150933 0 -0.0023094310419095269 -0.002919307835193462 0 -0.0029948792099765507 -0.0032891109963476923 0 -0.0030518989333364584 -0.0025510357452395013 0 -0.0029948792099765507 -0.0032891109963476923 0 -0.003745607451850215 -0.0030401283529498161 0 -0.0030518989333364584 -0.0025510357452395013 0 -0.003745607451850215 -0.0030401283529498161 0 -0.0030518989333364584 -0.0025510357452395013 0 -0.003864218261886028 -0.0017917135622200252 0 -0.0023094310419095269 -0.002919307835193462 0 -0.0030518989333364584 -0.0025510357452395013 0 -0.0026964609784376399 -0.0018212588541688403 0 -0.0030518989333364584 -0.0025510357452395013 0 -0.0026964609784376399 -0.0018212588541688403 0 -0.003864218261886028 -0.0017917135622200252 0 -0.0014783931021990022 -0.0006726954349734847 0 -0.0038508350541879765 -0.0017281053940038714 0 -0.0022638301190311175 -0.0014451564953567723 0 -0.0033957572161389107 -0.0014268916536857839 0 -0.0032201595342268999 -0.00077716641270562058 0 -0.0033096981232262385 -8.4611615720689163e-05 0 -0.0032201595342268999 -0.00077716641270562058 0 -0.0026176479469081533 -0.00051871713599796812 0 -0.0022638301190311175 -0.0014451564953567723 0 -0.0032201595342268999 -0.00077716641270562058 0 -0.0026176479469081533 -0.00051871713599796812 0 0.0012612268341962211 0.0018566651924180667 0 0.0017476270543682836 0.00052571664924539407 0 0.00086631938107461972 0.00089289913024141038 0 -0.0014783931021990022 -0.0006726954349734847 0 -0.00047493479038886502 0.00012360556877846654 0 0.0017476270543682836 0.00052571664924539407 0 0.0010568608963993646 0.00050091926459173151 0 0.00086631938107461972 0.00089289913024141038 0 7.0706739006086452e-05 0.00023031530301225329 0 0.00086631938107461972 0.00089289913024141038 0 0.00045913407702910937 0.0018805903969722588 0 0.0006750269967116981 0.00022147147665825941 0 0.0010568608963993646 0.00050091926459173151 0 0.00086631938107461972 0.00089289913024141038 0 0.0002664238447667932 0.0004519717203400765 0 -0.00032221657228752028 0.0013741356458135063 0 7.0706739006086452e-05 0.00023031530301225329 0 -0.00041644973598961522 0.00091898267045150068 0 0.00015766400795085594 0.0015880393425688007 0 7.0706739006086452e-05 0.00023031530301225329 0 -0.00044728162728269627 0.00052134438973766562 0 -0.00041644973598961522 0.00091898267045150068 0 -0.00044728162728269627 0.00052134438973766562 0 -0.00041644973598961522 0.00091898267045150068 0 -0.00097331436818193272 0.00063011294391130377 0 -0.00041644973598961522 0.00091898267045150068 0 0.00015766400795085594 0.0015880393425688007 0 -0.0010782277120348965 0.001526985720869258 0 -0.00032221657228752028 0.0013741356458135063 0 -0.0012173094261675058 0.0016105797807325361 0 -0.0013456483920522967 0.0015394499427941462 0 -0.0015612103133758408 0.0017380433277760679 0 -0.0010782277120348965 0.001526985720869258 0 0.0012612268341962211 0.0018566651924180667 0 0.00086631938107461972 0.00089289913024141038 0 0.00045913407702910937 0.0018805903969722588 0 -0.0014783931021990022 -0.0006726954349734847 0 -0.00032221657228752028 0.0013741356458135063 0 -0.0015061667444623676 0.0011231041489520549 0 -0.0019796788792998056 0.00070985343255289572 0 -0.0020002384042233676 0.0014601712158297713 0 -0.0015061667444623676 0.0011231041489520549 0 -0.0020002384042233676 0.0014601712158297713 0 -0.001326535983609118 0.0016937839012701105 0 -0.0015061667444623676 0.0011231041489520549 0 -0.0010782277120348965 0.001526985720869258 0 -0.001326535983609118 0.0016937839012701105 0 -0.00041644973598961522 0.00091898267045150068 0 -0.0010782277120348965 0.001526985720869258 0 -0.00097331436818193272 0.00063011294391130377 0 -0.0015061667444623676 0.0011231041489520549 0 -0.0010782277120348965 0.001526985720869258 0 -0.00097331436818193272 0.00063011294391130377 0 -0.0015605766732993452 0.00035082433050706238 0 -0.0015061667444623676 0.0011231041489520549 0 -0.00097331436818193272 0.00063011294391130377 0 -0.0015605766732993452 0.00035082433050706238 0 -0.0015061667444623676 0.0011231041489520549 0 -0.0019796788792998056 0.00070985343255289572 0 -0.0022598482320879626 0.00038079236257574067 0 -0.0019730197029299732 0.00021200162443464279 0 -0.0019796788792998056 0.00070985343255289572 0 -0.0022598482320879626 0.00038079236257574067 0 -0.0019796788792998056 0.00070985343255289572 0 -0.0024084162461586313 0.00077690442707141906 0 -0.0019796788792998056 0.00070985343255289572 0 -0.0024084162461586313 0.00077690442707141906 0 -0.0020002384042233676 0.0014601712158297713 0 -0.0026325368610028224 0.00025572903794266914 0 -0.0022598482320879626 0.00038079236257574067 0 -0.0024084162461586313 0.00077690442707141906 0 -0.0076116033579987745 0.00093773537309915051 0 -0.0082904652323087576 0.00024409700900375424 0 -0.0059288373409460329 0.00080291724214451266 0 -0.0059352509826649672 0.00079551864449995389 0 -0.0059150407945027092 0.00080893077057764143 0 -0.010376195595675729 -0.00021698611664302042 0 -0.010481458940773821 -0.00021085055263211954 0 -0.010472708675027764 -0.00014444676765607708 0 -0.0026325368610028224 0.00025572903794266914 0 -0.0024084162461586313 0.00077690442707141906 0 -0.0028366655260201601 0.00078997351512364352 0 -0.0024084162461586313 0.00077690442707141906 0 -0.0028366655260201601 0.00078997351512364352 0 -0.0027396748341257495 0.0010380817731963277 0 -0.0051284121340423117 0.00074225908152189557 0 -0.0076116033579987745 0.00093773537309915051 0 -0.010376195595675729 -0.00021698611664302042 0 -0.010255108212138377 -1.1971568549902877e-06 0 -0.010411306535880094 -9.8921671765565453e-05 0 -0.0076116033579987745 0.00093773537309915051 0 -0.0097366597682854005 0.00086051250374302463 0 -0.010376195595675729 -0.00021698611664302042 0 -0.010411306535880094 -9.8921671765565453e-05 0 -0.010481458940773821 -0.00021085055263211954 0 -0.0076116033579987745 0.00093773537309915051 0 -0.0050819578121937981 0.0020150292809505183 0 -0.008837226617507939 0.0021693080576127184 0 -0.0086951459988881211 0.0022848617253125982 0 -0.0087889069000586083 0.0023749493079830535 0 -0.0076116033579987745 0.00093773537309915051 0 -0.0090370718944939987 0.0021982882236010674 0 -0.0024084162461586313 0.00077690442707141906 0 -0.0027396748341257495 0.0010380817731963277 0 -0.0020002384042233676 0.0014601712158297713 0 -0.0087889069000586083 0.0023749493079830535 0 -0.008746182128345454 0.0024576294925151543 0 -0.0087734580171574747 0.0026169026621054412 0 -0.0091799370447967141 0.002070545383720868 0 -0.0090510781370431396 0.00185662534193322 0 -0.0087734580171574747 0.0026169026621054412 0 -0.009301381419602562 0.001103184746912914 0 -0.0091799370447967141 0.002070545383720868 0 -0.0090510781370431396 0.00185662534193322 0 -0.0086951459988881211 0.0022848617253125982 0 -0.0087889069000586083 0.0023749493079830535 0 -0.0086961517600431804 0.002383838374112982 0 -0.0087889069000586083 0.0023749493079830535 0 -0.008746182128345454 0.0024576294925151543 0 -0.0086961517600431804 0.002383838374112982 0 -0.010255108212138377 -1.1971568549902877e-06 0 -0.010411306535880094 -9.8921671765565453e-05 0 -0.010422164636780584 0.00011112557419614525 0 -0.010282222514830694 0.00023291834969877236 0 -0.010422164636780584 0.00011112557419614525 0 -0.010380687781565635 0.00036303967277550187 0 -0.010255108212138377 -1.1971568549902877e-06 0 -0.010282222514830694 0.00023291834969877236 0 -0.010422164636780584 0.00011112557419614525 0 -0.010422164636780584 0.00011112557419614525 0 -0.010380687781565635 0.00036303967277550187 0 -0.010538361215121238 0.00030492932091199268 0 -0.010255108212138377 -1.1971568549902877e-06 0 -0.010282222514830694 0.00023291834969877236 0 -0.010152845842069075 0.00043370458722712758 0 -0.0090370718944939987 0.0021982882236010674 0 -0.008758020751189026 0.002563532598746835 0 -0.0097366597682854005 0.00086051250374302463 0 -0.011549401122159816 0.0021574833721669001 0 -0.0091799370447967141 0.002070545383720868 0 -0.0087734580171574747 0.0026169026621054412 0 -0.0089831023620727517 0.0030572235834866249 0 -0.008746182128345454 0.0024576294925151543 0 -0.0087734580171574747 0.0026169026621054412 0 -0.0087583853352452539 0.0025938545082004874 0 -0.008746182128345454 0.0024576294925151543 0 -0.0087583853352452539 0.0025938545082004874 0 -0.0086955949580732762 0.0025254804571441633 0 -0.0086143847702038617 0.0025310198271551085 0 -0.0085215153090221797 0.0023972527379961047 0 -0.0085043343156647709 0.0026233046061078982 0 -0.0087583853352452539 0.0025938545082004874 0 -0.0086577982200782087 0.0026038575233920608 0 -0.0086923319168135133 0.0027152593297690513 0 -0.0087734580171574747 0.0026169026621054412 0 -0.0087583853352452539 0.0025938545082004874 0 -0.0085835827315668758 0.0028309884575107662 0 -0.009553639020732951 0.0034166905931040338 0 -0.011864512395132074 0.0032589603059450778 0 -0.0086577982200782087 0.0026038575233920608 0 -0.0086143847702038617 0.0025310198271551085 0 -0.0085043343156647709 0.0026233046061078982 0 -0.0086577982200782087 0.0026038575233920608 0 -0.0085043343156647709 0.0026233046061078982 0 -0.0086923319168135133 0.0027152593297690513 0 -0.012170383694485873 0.0038728124404502004 0 -0.011864512395132074 0.0032589603059450778 0 -0.0087583853352452539 0.0025938545082004874 0 -0.0086577982200782087 0.0026038575233920608 0 -0.0086955949580732762 0.0025254804571441633 0 -0.0086577982200782087 0.0026038575233920608 0 -0.0086143847702038617 0.0025310198271551085 0 -0.0086955949580732762 0.0025254804571441633 0 -0.0086143847702038617 0.0025310198271551085 0 -0.0086955949580732762 0.0025254804571441633 0 -0.0086639504586159752 0.0024548462885882103 0 -0.008746182128345454 0.0024576294925151543 0 -0.0086955949580732762 0.0025254804571441633 0 -0.0086639504586159752 0.0024548462885882103 0 -0.0086639504586159752 0.0024548462885882103 0 -0.0086961517600431804 0.002383838374112982 0 -0.0085215153090221797 0.0023972527379961047 0 -0.0086951459988881211 0.0022848617253125982 0 -0.0086961517600431804 0.002383838374112982 0 -0.0085215153090221797 0.0023972527379961047 0 -0.0050819578121937981 0.0020150292809505183 0 -0.0046467448920867183 0.0020745300768905909 0 -0.008746182128345454 0.0024576294925151543 0 -0.0086639504586159752 0.0024548462885882103 0 -0.0086961517600431804 0.002383838374112982 0 -0.0086143847702038617 0.0025310198271551085 0 -0.0086639504586159752 0.0024548462885882103 0 -0.0085215153090221797 0.0023972527379961047 0 -0.0012983921657361034 0.0013720104355595603 0 -0.0012680033962442765 0.0015106730720457183 0 -0.001326535983609118 0.0016937839012701105 0 -0.0074553783336847226 0.0027311157479253658 0 -0.0046467448920867183 0.0020745300768905909 0 -0.0012680033962442765 0.0015106730720457183 0 -0.0010782277120348965 0.001526985720869258 0 -0.001326535983609118 0.0016937839012701105 0 -0.0074553783336847226 0.0027311157479253658 0 -0.012170383694485873 0.0038728124404502004 0 -0.0083172379985349421 0.002535386860764312 0 -0.0085215153090221797 0.0023972527379961047 0 -0.0085043343156647709 0.0026233046061078982 0 -0.015459588726235322 0.0039432522033900699 0 -0.015325730192171332 0.004828701990801613 0 -0.014738853548394007 0.0045219107529532012 0 -0.015459588726235322 0.0039432522033900699 0 -0.014738853548394007 0.0045219107529532012 0 -0.014711849172881545 0.0034446217889286565 0 -0.011864512395132074 0.0032589603059450778 0 -0.015245181924658102 0.0031778500433232849 0 -0.014801531578397012 0.0035923768080293938 0 -0.014794743468804413 0.0031379999098696096 0 -0.015243829900603868 0.0030165407308532055 0 -0.014738853548394007 0.0045219107529532012 0 -0.014122336559234781 0.0042059855813370781 0 -0.014711849172881545 0.0034446217889286565 0 -0.014801531578397012 0.0035923768080293938 0 -0.014794743468804413 0.0031379999098696096 0 -0.014407819773749926 0.0033864567826348618 0 -0.014794743468804413 0.0031379999098696096 0 -0.015243829900603868 0.0030165407308532055 0 -0.015021428607217613 0.002633711872074767 0 -0.014794743468804413 0.0031379999098696096 0 -0.015021428607217613 0.002633711872074767 0 -0.01456397243398001 0.0028114825783335266 0 -0.015874078230678809 0.0032439662256331294 0 -0.014711849172881545 0.0034446217889286565 0 -0.015330452579147454 0.0026928052781377341 0 -0.015245181924658102 0.0031778500433232849 0 -0.015469650323940052 0.0025955435115163988 0 -0.015243829900603868 0.0030165407308532055 0 -0.015667237876440913 0.0024454008679727938 0 -0.015021428607217613 0.002633711872074767 0 -0.015667237876440913 0.0024454008679727938 0 -0.015233958524722162 0.0022746470201099383 0 -0.015021428607217613 0.002633711872074767 0 -0.015021428607217613 0.002633711872074767 0 -0.014714358020604982 0.0022383159823679138 0 -0.01456397243398001 0.0028114825783335266 0 -0.015233958524722162 0.0022746470201099383 0 -0.015021428607217613 0.002633711872074767 0 -0.014714358020604982 0.0022383159823679138 0 -0.015388078399915397 0.0017927759568707486 0 -0.015393181951611502 0.0017592625229229048 0 -0.015539880318731637 0.0018081045336423923 0 -0.015233958524722162 0.0022746470201099383 0 -0.014714358020604982 0.0022383159823679138 0 -0.015539880318731637 0.0018081045336423923 0 -0.014637212419175536 0.0017703410286217555 0 -0.015655326729137987 0.0018615982917552527 0 -0.015376024297817412 0.001816545374708461 0 -0.015388078399915397 0.0017927759568707486 0 -0.015539880318731637 0.0018081045336423923 0 -0.014637212419175536 0.0017703410286217555 0 -0.014878864652443036 0.0017155799783153938 0 -0.015385389758080821 0.0017715993408278789 0 -0.015388078399915397 0.0017927759568707486 0 -0.015400831561804842 0.0017860157202340785 0 -0.015388078399915397 0.0017927759568707486 0 -0.015393181951611502 0.0017592625229229048 0 -0.015400831561804842 0.0017860157202340785 0 -0.015667237876440913 0.0024454008679727938 0 -0.015233958524722162 0.0022746470201099383 0 -0.015539880318731637 0.0018081045336423923 0 -0.017731861076381174 0.00033741851948111256 0 -0.019087237568737671 0.00017737407450710564 0 -0.019117748057253973 0.00078027431177448282 0 -0.019147825611062666 0.00077519118910966949 0 -0.019152867474709366 0.00076839194519705137 0 -0.016330361373974488 -0.00017214650508313328 0 -0.016573813785452522 -7.0971479402321276e-05 0 -0.01637808201980424 0.00012897722035307458 0 -0.019117748057253973 0.00078027431177448282 0 -0.019128392655196516 0.00077848424670101429 0 -0.01911985630423629 0.00078368421608286654 0 -0.019117748057253973 0.00078027431177448282 0 -0.019128392655196516 0.00077848424670101429 0 -0.019147825611062666 0.00077519118910966949 0 -0.017041796921884216 0.0013771315667526793 0 -0.018049436418786043 0.0012165582490956688 0 -0.015393181951611502 0.0017592625229229048 0 -0.015400831561804842 0.0017860157202340785 0 -0.015420373801990349 0.0017887982568785678 0 -0.01911462182938372 0.0008260192505672153 0 -0.019110676837435212 0.00083240759382377418 0 -0.019123549126315843 0.00083100430490841003 0 -0.019128392655196516 0.00077848424670101429 0 -0.019147825611062666 0.00077519118910966949 0 -0.019129187587850854 0.00077762605643878974 0 -0.015400831561804842 0.0017860157202340785 0 -0.015406795363516473 0.0017774004520562047 0 -0.015420373801990349 0.0017887982568785678 0 -0.015385389758080821 0.0017715993408278789 0 -0.015400831561804842 0.0017860157202340785 0 -0.015406795363516473 0.0017774004520562047 0 -0.019128392655196516 0.00077848424670101429 0 -0.019129187587850854 0.00077762605643878974 0 -0.01911985630423629 0.00078368421608286654 0 -0.015406795363516473 0.0017774004520562047 0 -0.015420373801990349 0.0017887982568785678 0 -0.015418068537631075 0.0017617399482504372 0 -0.018049436418786043 0.0012165582490956688 0 -0.018317612703594038 0.0010670339582021233 0 -0.019123301693405891 0.00078243673637395548 0 -0.01911985630423629 0.00078368421608286654 0 -0.019091228127452346 0.0008001596472721578 0 -0.014637212419175536 0.0017703410286217555 0 -0.014203965558923951 0.0020838798337978292 0 -0.013812215508129591 0.0011204034895781435 0 -0.013568250795089557 0.0012610948073731715 0 -0.013738375472512148 0.0013962576040383848 0 -0.018049436418786043 0.0012165582490956688 0 -0.015406349598644196 0.00097990251289718083 0 -0.015420373801990349 0.0017887982568785678 0 -0.015418068537631075 0.0017617399482504372 0 -0.015436609045302562 0.0017328661114176512 0 -0.015385389758080821 0.0017715993408278789 0 -0.015406795363516473 0.0017774004520562047 0 -0.015418068537631075 0.0017617399482504372 0 -0.015385389758080821 0.0017715993408278789 0 -0.015418068537631075 0.0017617399482504372 0 -0.015436609045302562 0.0017328661114176512 0 -0.014637212419175536 0.0017703410286217555 0 -0.015406349598644196 0.00097990251289718083 0 -0.017731861076381174 0.00033741851948111256 0 -0.016124295319430187 0.00027862071610971416 0 -0.016284112098581847 -0.00047172205697138556 0 -0.016518350113278381 -0.0006306294291791607 0 -0.016596100197455131 -0.00031784698187051013 0 -0.019117748057253973 0.00078027431177448282 0 -0.019091228127452346 0.0008001596472721578 0 -0.019078344112224227 0.00080307975136448902 0 -0.015406349598644196 0.00097990251289718083 0 -0.016124295319430187 0.00027862071610971416 0 -0.016330361373974488 -0.00017214650508313328 0 -0.016284112098581847 -0.00047172205697138556 0 -0.016596100197455131 -0.00031784698187051013 0 -0.019117748057253973 0.00078027431177448282 0 -0.01911985630423629 0.00078368421608286654 0 -0.019091228127452346 0.0008001596472721578 0 -0.014613555763408797 0.0004028760674780263 0 -0.014474220289169065 0.00048625183247534239 0 -0.014501260901217504 0.00094633781603605709 0 -0.010467365058250178 0.00048604078288463942 0 -0.01030413065593952 0.00049576067696073349 0 -0.010557556212233749 0.0006409824169366663 0 -0.014016138740194162 0.00070248223419840051 0 -0.014007338609157345 0.00074902601378662133 0 -0.013500661998746798 0.00048791689353664053 0 -0.016124295319430187 0.00027862071610971416 0 -0.013095465581714743 0.00027303789033230838 0 -0.013979602989372675 0.00019933920390761135 0 -0.014016138740194162 0.00070248223419840051 0 -0.013500661998746798 0.00048791689353664053 0 -0.016124295319430187 0.00027862071610971416 0 -0.0128946938676536 0.00086659903509357509 0 -0.01219939416919694 0.00078359702108487844 0 -0.013095465581714743 0.00027303789033230838 0 -0.015406349598644196 0.00097990251289718083 0 -0.0128946938676536 0.00086659903509357509 0 -0.014203965558923951 0.0020838798337978292 0 -0.011549401122159816 0.0021574833721669001 0 -0.013568250795089557 0.0012610948073731715 0 -0.01350074373858753 0.0015605284802437205 0 -0.013738375472512148 0.0013962576040383848 0 -0.014794743468804413 0.0031379999098696096 0 -0.01456397243398001 0.0028114825783335266 0 -0.014407819773749926 0.0033864567826348618 0 -0.01350074373858753 0.0015605284802437205 0 -0.013738375472512148 0.0013962576040383848 0 -0.013659455867560651 0.0016732587696240608 0 -0.010282222514830694 0.00023291834969877236 0 -0.010152845842069075 0.00043370458722712758 0 -0.010342294618321677 0.00053151020970361993 0 -0.01350074373858753 0.0015605284802437205 0 -0.013659455867560651 0.0016732587696240608 0 -0.01349572540234386 0.001583678483702281 0 -0.011549401122159816 0.0021574833721669001 0 -0.01219939416919694 0.00078359702108487844 0 -0.011864512395132074 0.0032589603059450778 0 -0.011549401122159816 0.0021574833721669001 0 -0.0087734580171574747 0.0026169026621054412 0 -0.0085835827315668758 0.0028309884575107662 0 -0.0089831023620727517 0.0030572235834866249 0 -0.010282222514830694 0.00023291834969877236 0 -0.01030413065593952 0.00049576067696073349 0 -0.010380687781565635 0.00036303967277550187 0 -0.010212599701835573 0.00010260839058707159 0 -0.01219939416919694 0.00078359702108487844 0 -0.010467365058250178 0.00048604078288463942 0 -0.010364499815487812 0.00045694475496991919 0 -0.010380687781565635 0.00036303967277550187 0 -0.010364499815487812 0.00045694475496991919 0 -0.01030413065593952 0.00049576067696073349 0 -0.010380687781565635 0.00036303967277550187 0 -0.010467365058250178 0.00048604078288463942 0 -0.010364499815487812 0.00045694475496991919 0 -0.01030413065593952 0.00049576067696073349 0 -0.0128946938676536 0.00086659903509357509 0 -0.01219939416919694 0.00078359702108487844 0 -0.010467365058250178 0.00048604078288463942 0 -0.010380687781565635 0.00036303967277550187 0 -0.010538361215121238 0.00030492932091199268 0 -0.010538361215121238 0.00030492932091199268 0 -0.010592151809574351 0.00044562600930967311 0 -0.010787978005670084 0.00028564393774969623 0 -0.010592151809574351 0.00044562600930967311 0 -0.010787978005670084 0.00028564393774969623 0 -0.010695112371559453 0.00056606119743442718 0 -0.010467365058250178 0.00048604078288463942 0 -0.010538361215121238 0.00030492932091199268 0 -0.010592151809574351 0.00044562600930967311 0 -0.010787978005670084 0.00028564393774969623 0 -0.010951363787784234 0.00049447478347064454 0 -0.010695112371559453 0.00056606119743442718 0 -0.010787978005670084 0.00028564393774969623 0 -0.010951363787784234 0.00049447478347064454 0 -0.011124992452886338 0.00026188424694812063 0 -0.010880246308697047 0.00067066498860067242 0 -0.01054245350914396 0.0006645658287753823 0 -0.010966420521708061 0.00090250889782234945 0 -0.010880246308697047 0.00067066498860067242 0 -0.010966420521708061 0.00090250889782234945 0 -0.011298936121605053 0.00067345792545908916 0 -0.010951363787784234 0.00049447478347064454 0 -0.010880246308697047 0.00067066498860067242 0 -0.010695112371559453 0.00056606119743442718 0 -0.013095465581714743 0.00027303789033230838 0 -0.013899060955349235 0.00017788316924914751 0 -0.010880246308697047 0.00067066498860067242 0 -0.01054245350914396 0.0006645658287753823 0 -0.010695112371559453 0.00056606119743442718 0 -0.010467365058250178 0.00048604078288463942 0 -0.010592151809574351 0.00044562600930967311 0 -0.010557556212233749 0.0006409824169366663 0 -0.010592151809574351 0.00044562600930967311 0 -0.010557556212233749 0.0006409824169366663 0 -0.010695112371559453 0.00056606119743442718 0 -0.013095465581714743 0.00027303789033230838 0 -0.010609139699299743 0.0010478723820962943 0 -0.016518350113278381 -0.0006306294291791607 0 -0.016596100197455131 -0.00031784698187051013 0 -0.016911149348276165 -0.00046048781054080449 0 -0.016596100197455131 -0.00031784698187051013 0 -0.016911149348276165 -0.00046048781054080449 0 -0.01683284311172728 -0.00012586158358831369 0 -0.016911149348276165 -0.00046048781054080449 0 -0.01683284311172728 -0.00012586158358831369 0 -0.017107262754431946 -0.00013160773213954772 0 -0.01683284311172728 -0.00012586158358831369 0 -0.016573813785452522 -7.0971479402321276e-05 0 -0.016755613803057776 0.0001369683759744276 0 -0.016596100197455131 -0.00031784698187051013 0 -0.01683284311172728 -0.00012586158358831369 0 -0.016573813785452522 -7.0971479402321276e-05 0 -0.016330361373974488 -0.00017214650508313328 0 -0.016596100197455131 -0.00031784698187051013 0 -0.016573813785452522 -7.0971479402321276e-05 0 -0.016848453844796586 3.9397693877241111e-08 0 -0.017407650519255975 -0.00013040527326818228 0 -0.018003408016671222 -7.8954005659726657e-09 0 -0.016371011703768087 0.00016740743589775138 0 -0.015015900056897848 0.0004485958390147704 0 -0.016848453844796586 3.9397693877241111e-08 0 -0.017407650519255975 -0.00013040527326818228 0 -0.017505477319812519 0.00034036017956329159 0 -0.016845682355966337 6.1569312676221248e-07 0 -0.015015900056897848 0.0004485958390147704 0 -0.01683284311172728 -0.00012586158358831369 0 -0.017107262754431946 -0.00013160773213954772 0 -0.017162381964663 0.00015738537107082699 0 -0.017407650519255975 -0.00013040527326818228 0 -0.017107262754431946 -0.00013160773213954772 0 -0.017162381964663 0.00015738537107082699 0 -0.017407650519255975 -0.00013040527326818228 0 -0.017107262754431946 -0.00013160773213954772 0 -0.017347075748737614 -0.00028373655621307818 0 -0.016911149348276165 -0.00046048781054080449 0 -0.017107262754431946 -0.00013160773213954772 0 -0.017347075748737614 -0.00028373655621307818 0 -0.013899060955349235 0.00017788316924914751 0 -0.015015900056897848 0.0004485958390147704 0 -0.010966420521708061 0.00090250889782234945 0 -0.011462992379183632 0.0011437179773676857 0 -0.011298936121605053 0.00067345792545908916 0 -0.015015900056897848 0.0004485958390147704 0 -0.012486839664186801 0.00028284864969379154 0 -0.015489538465406641 0.00015323043135723042 0 -0.014919922975662376 -3.1980459911328573e-07 0 -0.014029812767508211 5.14679807777819e-05 0 -0.016843056616045314 1.1887186814979421e-06 0 -0.015489538465406641 0.00015323043135723042 0 -0.014919922975662376 -3.1980459911328573e-07 0 -0.014919922975662376 -3.1980459911328573e-07 0 -0.014029812767508211 5.14679807777819e-05 0 -0.013541226454072405 -3.7504494938448895e-06 0 -0.010951363787784234 0.00049447478347064454 0 -0.010880246308697047 0.00067066498860067242 0 -0.011298936121605053 0.00067345792545908916 0 -0.012486839664186801 0.00028284864969379154 0 -0.011779501960012682 6.4519064660504053e-05 0 -0.014029812767508211 5.14679807777819e-05 0 -0.013541226454072405 -3.7504494938448895e-06 0 -0.012457131084604254 7.6956174265616446e-06 0 -0.010951363787784234 0.00049447478347064454 0 -0.011298936121605053 0.00067345792545908916 0 -0.011124992452886338 0.00026188424694812063 0 -0.014919922975662376 -3.1980459911328573e-07 0 -0.013541226454072405 -3.7504494938448895e-06 0 -0.012994346901338856 -2.3682354816882572e-09 0 -0.013541226454072405 -3.7504494938448895e-06 0 -0.012994346901338856 -2.3682354816882572e-09 0 -0.012457131084604254 7.6956174265616446e-06 0 -0.012994346901338856 -2.3682354816882572e-09 0 -0.01179074192497076 -7.2325114414764023e-05 0 -0.012457131084604254 7.6956174265616446e-06 0 -0.01179074192497076 -7.2325114414764023e-05 0 -0.011069357110603742 -3.0322931788779271e-07 0 -0.01049504421428114 -0.00022784817530301606 0 -0.012994346901338856 -2.3682354816882572e-09 0 -0.01179074192497076 -7.2325114414764023e-05 0 -0.011069357110603742 -3.0322931788779271e-07 0 -0.01179074192497076 -7.2325114414764023e-05 0 -0.010952810497062168 -0.00013799586477457077 0 -0.01049504421428114 -0.00022784817530301606 0 -0.01179074192497076 -7.2325114414764023e-05 0 -0.010952810497062168 -0.00013799586477457077 0 -0.012457131084604254 7.6956174265616446e-06 0 -0.011094256133657655 -0.00021440315425833904 0 -0.011779501960012682 6.4519064660504053e-05 0 -0.010787978005670084 0.00028564393774969623 0 -0.010952810497062168 -0.00013799586477457077 0 -0.011124992452886338 0.00026188424694812063 0 -0.010787978005670084 0.00028564393774969623 0 -0.010952810497062168 -0.00013799586477457077 0 -0.010626802606680781 0.00010246540731747938 0 -0.010422164636780584 0.00011112557419614525 0 -0.010626802606680781 0.00010246540731747938 0 -0.010520922443749818 -7.2985346223599154e-05 0 -0.010538361215121238 0.00030492932091199268 0 -0.010787978005670084 0.00028564393774969623 0 -0.010626802606680781 0.00010246540731747938 0 -0.010422164636780584 0.00011112557419614525 0 -0.010538361215121238 0.00030492932091199268 0 -0.010626802606680781 0.00010246540731747938 0 -0.010411306535880094 -9.8921671765565453e-05 0 -0.010422164636780584 0.00011112557419614525 0 -0.010520922443749818 -7.2985346223599154e-05 0 -0.010411306535880094 -9.8921671765565453e-05 0 -0.010520922443749818 -7.2985346223599154e-05 0 -0.010481458940773821 -0.00021085055263211954 0 -0.010952810497062168 -0.00013799586477457077 0 -0.010626802606680781 0.00010246540731747938 0 -0.010520922443749818 -7.2985346223599154e-05 0 -0.010952810497062168 -0.00013799586477457077 0 -0.010520922443749818 -7.2985346223599154e-05 0 -0.010562733788703035 -0.00021134952810494085 0 -0.010952810497062168 -0.00013799586477457077 0 -0.010562733788703035 -0.00021134952810494085 0 -0.010367097228213008 -0.00028446057525726652 0 -0.010562733788703035 -0.00021134952810494085 0 -0.010481458940773821 -0.00021085055263211954 0 -0.010367097228213008 -0.00028446057525726652 0 -0.010520922443749818 -7.2985346223599154e-05 0 -0.010562733788703035 -0.00021134952810494085 0 -0.010481458940773821 -0.00021085055263211954 0 -0.010481458940773821 -0.00021085055263211954 0 -0.010472708675027764 -0.00014444676765607708 0 -0.010367097228213008 -0.00028446057525726652 0 -0.010186837160513565 0.000110208587246258 0 -0.010472708675027764 -0.00014444676765607708 0 -0.010367097228213008 -0.00028446057525726652 0 -0.010186837160513565 0.000110208587246258 0 -0.010367097228213008 -0.00028446057525726652 0 -0.0096009485441735758 -0.00014934424656912399 0 -0.010367097228213008 -0.00028446057525726652 0 -0.0096009485441735758 -0.00014934424656912399 0 -0.01049504421428114 -0.00022784817530301606 0 -0.0096009485441735758 -0.00014934424656912399 0 -0.0091446186359002112 -9.2434065968296149e-07 0 -0.01049504421428114 -0.00022784817530301606 0 -0.011069357110603742 -3.0322931788779271e-07 0 -0.0091446186359002112 -9.2434065968296149e-07 0 -0.01049504421428114 -0.00022784817530301606 0 -0.010952810497062168 -0.00013799586477457077 0 -0.010367097228213008 -0.00028446057525726652 0 -0.01049504421428114 -0.00022784817530301606 0 -0.024072253945601797 -0.00012403437090440213 0 -0.024399805743155655 1.469529371781075e-05 0 -0.023936347199354939 -0.00014296674608001251 0 -0.027094188460207624 0.00082039724593661227 0 -0.026658368048684523 0.00052565471607773321 0 -0.02715703410050329 0.00028983823120308061 0 -0.025389187162662891 -2.0032639719313401e-05 0 -0.025590853212344073 0.00024029067183050745 0 -0.024044932415110978 -0.00013953166028397778 0 -0.024072253945601797 -0.00012403437090440213 0 -0.024399805743155655 1.469529371781075e-05 0 -0.024290507008276018 -1.1240177873487525e-06 0 -0.024399805743155655 1.469529371781075e-05 0 -0.023936347199354939 -0.00014296674608001251 0 -0.024290507008276018 -1.1240177873487525e-06 0 -0.024399805743155655 1.469529371781075e-05 0 -0.025968091837556335 1.1822276032056655e-06 0 -0.026658368048684523 0.00052565471607773321 0 -0.025974449626820762 -4.6300013600109203e-08 0 -0.026847308436669704 6.6904944342499538e-05 0 -0.025590853212344073 0.00024029067183050745 0 -0.025969689997830718 3.1388793015989614e-08 0 -0.026658368048684523 0.00052565471607773321 0 -0.02715703410050329 0.00028983823120308061 0 -0.026847308436669704 6.6904944342499538e-05 0 -0.022369870962380627 -0.00041089035117414946 0 -0.022319284048711998 -0.00043087495702531174 0 -0.02229724493896134 -0.00044455691448111462 0 -0.022398719722104717 -0.00043600474972731331 0 -0.022369870962380627 -0.00041089035117414946 0 -0.022376077070186497 -0.00036782713592861292 0 -0.022398719722104717 -0.00043600474972731331 0 -0.022369870962380627 -0.00041089035117414946 0 -0.022398544664714581 -0.0004581864747404476 0 -0.026361655819793123 0.00019394685892802049 0 -0.026468622039767502 0.00024300918070506271 0 -0.026320843126073416 0.00048337269955066553 0 -0.024301328136726575 -5.9214189884348302e-05 0 -0.027831177167977287 0.00061337875441782827 0 -0.026468793023610823 -5.0487784808518424e-05 0 -0.026361655819793123 0.00019394685892802049 0 -0.026468622039767502 0.00024300918070506271 0 -0.022363484524396467 -0.00039866379908620227 0 -0.022365151611148881 -0.00047469395201963933 0 -0.022369870962380627 -0.00041089035117414946 0 -0.022312356725789049 -0.00043015593180201098 0 -0.022376077070186497 -0.00036782713592861292 0 -0.022312356725789049 -0.00043015593180201098 0 -0.022309074464136616 -0.00044936678986560416 0 -0.022376077070186497 -0.00036782713592861292 0 -0.022369870962380627 -0.00041089035117414946 0 -0.022319284048711998 -0.00043087495702531174 0 -0.022312356725789049 -0.00043015593180201098 0 -0.022319284048711998 -0.00043087495702531174 0 -0.022312356725789049 -0.00043015593180201098 0 -0.022277421868545224 -0.00044347974161189184 0 -0.022238015481899322 -0.00045453452310515607 0 -0.02229724493896134 -0.00044455691448111462 0 -0.022251204977692476 -0.00047420529694369192 0 -0.022312356725789049 -0.00043015593180201098 0 -0.022277421868545224 -0.00044347974161189184 0 -0.022250130620719188 -0.00044637264880907293 0 -0.022277421868545224 -0.00044347974161189184 0 -0.022238015481899322 -0.00045453452310515607 0 -0.022250130620719188 -0.00044637264880907293 0 -0.022319284048711998 -0.00043087495702531174 0 -0.022277421868545224 -0.00044347974161189184 0 -0.02229724493896134 -0.00044455691448111462 0 -0.022277421868545224 -0.00044347974161189184 0 -0.022238015481899322 -0.00045453452310515607 0 -0.02229724493896134 -0.00044455691448111462 0 -0.022238015481899322 -0.00045453452310515607 0 -0.022176819999422691 -0.00047088600484088616 0 -0.022250130620719188 -0.00044637264880907293 0 -0.022398544664714581 -0.0004581864747404476 0 -0.022432771549056832 -0.00047998200135979471 0 -0.022410626345170499 -0.00049486263196730205 0 -0.022365151611148881 -0.00047469395201963933 0 -0.022867677598914383 -0.00030237982400370731 0 -0.026468793023610823 -5.0487784808518424e-05 0 -0.026361655819793123 0.00019394685892802049 0 -0.026402902535234644 -9.5211277318226631e-05 0 -0.025389187162662891 -2.0032639719313401e-05 0 -0.026796482022251267 0.00027454924045016045 0 -0.022398719722104717 -0.00043600474972731331 0 -0.022398544664714581 -0.0004581864747404476 0 -0.022432771549056832 -0.00047998200135979471 0 -0.024301328136726575 -5.9214189884348302e-05 0 -0.024500530616126354 -0.00049089859237359671 0 -0.025389187162662891 -2.0032639719313401e-05 0 -0.024500530616126354 -0.00049089859237359671 0 -0.024246771605285215 -0.00081166001431409089 0 -0.02440387314552989 -0.00069865697168384176 0 -0.024135913694431049 0.00010290035739207688 0 -0.024500530616126354 -0.00049089859237359671 0 -0.024167572909514219 0.00012591328282607721 0 -0.024284441240351867 -0.00032836527775061868 0 -0.024496787187603425 -0.00017531971091768421 0 -0.024175571961278969 0.00017915545993426636 0 -0.024500530616126354 -0.00049089859237359671 0 -0.022867677598914383 -0.00030237982400370731 0 -0.022238015481899322 -0.00045453452310515607 0 -0.022147138207058326 -0.00048737431770512355 0 -0.022176819999422691 -0.00047088600484088616 0 -0.022212443597887106 -0.00041371004744502341 0 -0.022147138207058326 -0.00048737431770512355 0 -0.022097637169274671 -0.00053856006011368464 0 -0.022238015481899322 -0.00045453452310515607 0 -0.022251204977692476 -0.00047420529694369192 0 -0.022147138207058326 -0.00048737431770512355 0 -0.022867677598914383 -0.00030237982400370731 0 -0.022089573643584812 -0.00059950671110588834 0 -0.022147138207058326 -0.00048737431770512355 0 -0.022063104979345487 -0.00052621094213591273 0 -0.022176819999422691 -0.00047088600484088616 0 -0.022212443597887106 -0.00041371004744502341 0 -0.022097637169274671 -0.00053856006011368464 0 -0.022198108907277556 -0.00061750175491004952 0 -0.022097637169274671 -0.00053856006011368464 0 -0.022198108907277556 -0.00061750175491004952 0 -0.021854519019356113 -0.0006169580990054665 0 -0.022240159518558601 -0.00037320380196548963 0 -0.021639795450055649 -0.00068037670562958558 0 -0.022147138207058326 -0.00048737431770512355 0 -0.022097637169274671 -0.00053856006011368464 0 -0.022063104979345487 -0.00052621094213591273 0 -0.022097637169274671 -0.00053856006011368464 0 -0.021854519019356113 -0.0006169580990054665 0 -0.022063104979345487 -0.00052621094213591273 0 -0.024496787187603425 -0.00017531971091768421 0 -0.024521399226882824 0.00041196277687468365 0 -0.024175571961278969 0.00017915545993426636 0 -0.024521399226882824 0.00041196277687468365 0 -0.023985367911480742 0.00042202362292168623 0 -0.024175571961278969 0.00017915545993426636 0 -0.022867677598914383 -0.00030237982400370731 0 -0.022240159518558601 -0.00037320380196548963 0 -0.020738304497728233 -0.00014966986687244626 0 -0.020912657551321257 0.00013690225145450264 0 -0.02076820980823537 -0.00020645760635954404 0 -0.022240159518558601 -0.00037320380196548963 0 -0.022549830691400874 0.00027567345536417523 0 -0.023985367911480742 0.00042202362292168623 0 -0.02403627343086236 0.00015688823410431487 0 -0.0238425946198936 1.8066763967691916e-05 0 -0.02403627343086236 0.00015688823410431487 0 -0.024009617763282462 5.6102048515864231e-05 0 -0.0238425946198936 1.8066763967691916e-05 0 -0.023985367911480742 0.00042202362292168623 0 -0.02403627343086236 0.00015688823410431487 0 -0.024175571961278969 0.00017915545993426636 0 -0.02403627343086236 0.00015688823410431487 0 -0.024135913694431049 0.00010290035739207688 0 -0.024009617763282462 5.6102048515864231e-05 0 -0.02403627343086236 0.00015688823410431487 0 -0.024175571961278969 0.00017915545993426636 0 -0.024135913694431049 0.00010290035739207688 0 -0.024044932415110978 -0.00013953166028397778 0 -0.024135913694431049 0.00010290035739207688 0 -0.024028998560937927 -5.4341058466592109e-05 0 -0.02440387314552989 -0.00069865697168384176 0 -0.024175571961278969 0.00017915545993426636 0 -0.024135913694431049 0.00010290035739207688 0 -0.024135913694431049 0.00010290035739207688 0 -0.024009617763282462 5.6102048515864231e-05 0 -0.024028998560937927 -5.4341058466592109e-05 0 -0.025389187162662891 -2.0032639719313401e-05 0 -0.023949381748183767 -7.8745887188940605e-05 0 -0.024009617763282462 5.6102048515864231e-05 0 -0.0238425946198936 1.8066763967691916e-05 0 -0.024028998560937927 -5.4341058466592109e-05 0 -0.0238425946198936 1.8066763967691916e-05 0 -0.024028998560937927 -5.4341058466592109e-05 0 -0.023936347199354939 -0.00014296674608001251 0 -0.024072253945601797 -0.00012403437090440213 0 -0.024028998560937927 -5.4341058466592109e-05 0 -0.023936347199354939 -0.00014296674608001251 0 -0.024044932415110978 -0.00013953166028397778 0 -0.024072253945601797 -0.00012403437090440213 0 -0.024028998560937927 -5.4341058466592109e-05 0 -0.0238425946198936 1.8066763967691916e-05 0 -0.023936347199354939 -0.00014296674608001251 0 -0.022613856885417852 1.0560062748714656e-06 0 -0.024290507008276018 -1.1240177873487525e-06 0 -0.023936347199354939 -0.00014296674608001251 0 -0.022613856885417852 1.0560062748714656e-06 0 -0.020912657551321257 0.00013690225145450264 0 -0.022608661768579182 1.023977397015061e-06 0 -0.020982597263092463 -0.0001739355288925511 0 -0.023985367911480742 0.00042202362292168623 0 -0.0238425946198936 1.8066763967691916e-05 0 -0.022613856885417852 1.0560062748714656e-06 0 -0.022549830691400874 0.00027567345536417523 0 -0.022611173234854589 1.0372978107186676e-07 0 -0.02107684772185376 -6.8246428849602395e-07 0 -0.020982597263092463 -0.0001739355288925511 0 -0.020460595264839346 -0.00022868857581755068 0 -0.022608661768579182 1.023977397015061e-06 0 -0.02107684772185376 -6.8246428849602395e-07 0 -0.020982597263092463 -0.0001739355288925511 0 -0.020912657551321257 0.00013690225145450264 0 -0.020982597263092463 -0.0001739355288925511 0 -0.02076820980823537 -0.00020645760635954404 0 -0.020982597263092463 -0.0001739355288925511 0 -0.02076820980823537 -0.00020645760635954404 0 -0.020460595264839346 -0.00022868857581755068 0 -0.02107684772185376 -6.8246428849602395e-07 0 -0.020460595264839346 -0.00022868857581755068 0 -0.019541173723815114 -7.2423218037790633e-07 0 -0.019541173723815114 -7.2423218037790633e-07 0 -0.019822481362320604 7.9919155050169808e-06 0 -0.018009490527294437 2.0008231824650842e-06 0 -0.020460595264839346 -0.00022868857581755068 0 -0.019541173723815114 -7.2423218037790633e-07 0 -0.019822481362320604 7.9919155050169808e-06 0 -0.019822481362320604 7.9919155050169808e-06 0 -0.020169766347620788 0.00075096691228015457 0 -0.020648933877295203 0.00014055947956511075 0 -0.020460595264839346 -0.00022868857581755068 0 -0.019822481362320604 7.9919155050169808e-06 0 -0.020648933877295203 0.00014055947956511075 0 -0.018677065609030232 0.00040272333898739633 0 -0.018006766767564557 2.1234867825612991e-07 0 -0.017407650519255975 -0.00013040527326818228 0 -0.017162381964663 0.00015738537107082699 0 -0.018003408016671222 -7.8954005659726657e-09 0 -0.019822481362320604 7.9919155050169808e-06 0 -0.020169766347620788 0.00075096691228015457 0 -0.018009490527294437 2.0008231824650842e-06 0 -0.018915893377069889 0.00047318683826154758 0 -0.019087237568737671 0.00017737407450710564 0 -0.021089099315345063 0.00075288570658505036 0 -0.021779424457611107 0.00074394349117890696 0 -0.021708178920107946 0.00070635161914949732 0 -0.021089099315345063 0.00075288570658505036 0 -0.021517595157986857 0.0004844104919357106 0 -0.021708178920107946 0.00070635161914949732 0 -0.016573813785452522 -7.0971479402321276e-05 0 -0.016755613803057776 0.0001369683759744276 0 -0.01637808201980424 0.00012897722035307458 0 -0.018677065609030232 0.00040272333898739633 0 -0.018915893377069889 0.00047318683826154758 0 -0.020169766347620788 0.00075096691228015457 0 -0.021089099315345063 0.00075288570658505036 0 -0.020648933877295203 0.00014055947956511075 0 -0.01683284311172728 -0.00012586158358831369 0 -0.017162381964663 0.00015738537107082699 0 -0.016755613803057776 0.0001369683759744276 0 -0.020648933877295203 0.00014055947956511075 0 -0.02121818281324115 0.00023811684412095767 0 -0.021014555846495305 -0.00016300544938633812 0 -0.021089099315345063 0.00075288570658505036 0 -0.020648933877295203 0.00014055947956511075 0 -0.02121818281324115 0.00023811684412095767 0 -0.021089099315345063 0.00075288570658505036 0 -0.02121818281324115 0.00023811684412095767 0 -0.021517595157986857 0.0004844104919357106 0 -0.02121818281324115 0.00023811684412095767 0 -0.021517595157986857 0.0004844104919357106 0 -0.021530761713557046 0.00028140339599557959 0 -0.02121818281324115 0.00023811684412095767 0 -0.021530761713557046 0.00028140339599557959 0 -0.021644475398916157 3.016607520415488e-05 0 -0.02121818281324115 0.00023811684412095767 0 -0.021014555846495305 -0.00016300544938633812 0 -0.021644475398916157 3.016607520415488e-05 0 -0.021014555846495305 -0.00016300544938633812 0 -0.021778246375939499 -0.00032811862212370278 0 -0.021644475398916157 3.016607520415488e-05 0 -0.020460595264839346 -0.00022868857581755068 0 -0.020648933877295203 0.00014055947956511075 0 -0.021014555846495305 -0.00016300544938633812 0 -0.02076820980823537 -0.00020645760635954404 0 -0.020460595264839346 -0.00022868857581755068 0 -0.021014555846495305 -0.00016300544938633812 0 -0.020738304497728233 -0.00014966986687244626 0 -0.02076820980823537 -0.00020645760635954404 0 -0.021014555846495305 -0.00016300544938633812 0 -0.022240159518558601 -0.00037320380196548963 0 -0.020750473522051019 -0.00019299099915228864 0 -0.02119615494399852 -0.00078712389025138957 0 -0.021014555846495305 -0.00016300544938633812 0 -0.021854519019356113 -0.0006169580990054665 0 -0.021014555846495305 -0.00016300544938633812 0 -0.021854519019356113 -0.0006169580990054665 0 -0.021778246375939499 -0.00032811862212370278 0 -0.021778246375939499 -0.00032811862212370278 0 -0.021983614536732511 -0.00015737766662146939 0 -0.022121609023311683 -0.00055187492010762263 0 -0.021854519019356113 -0.0006169580990054665 0 -0.021778246375939499 -0.00032811862212370278 0 -0.022121609023311683 -0.00055187492010762263 0 -0.020587447962035526 0.00038517491046362095 0 -0.020643975743737702 0.00023217182063800873 0 -0.019187523055408995 0.00090312609281375622 0 -0.019247247888401625 0.00089877778226739086 0 -0.019256065609219466 0.0010236616771763362 0 -0.019187523055408995 0.00090312609281375622 0 -0.019170619985644254 0.00095379583382125945 0 -0.019256065609219466 0.0010236616771763362 0 -0.019187523055408995 0.00090312609281375622 0 -0.019247247888401625 0.00089877778226739086 0 -0.019208757944405838 0.00083397102236337729 0 -0.021778246375939499 -0.00032811862212370278 0 -0.021983614536732511 -0.00015737766662146939 0 -0.021644475398916157 3.016607520415488e-05 0 -0.021983614536732511 -0.00015737766662146939 0 -0.021760005034144693 0.00038755941518363313 0 -0.021766514375366634 0.00051218089339715746 0 -0.021530761713557046 0.00028140339599557959 0 -0.021644475398916157 3.016607520415488e-05 0 -0.021760005034144693 0.00038755941518363313 0 -0.020587447962035526 0.00038517491046362095 0 -0.020751306614044819 0.00063375377042547746 0 -0.021983614536732511 -0.00015737766662146939 0 -0.021644475398916157 3.016607520415488e-05 0 -0.021760005034144693 0.00038755941518363313 0 -0.019247247888401625 0.00089877778226739086 0 -0.019208757944405838 0.00083397102236337729 0 -0.01922510738273138 0.00079070267847750617 0 -0.021517595157986857 0.0004844104919357106 0 -0.021760005034144693 0.00038755941518363313 0 -0.021767139858843623 0.00052374108364152262 0 -0.021517595157986857 0.0004844104919357106 0 -0.021530761713557046 0.00028140339599557959 0 -0.021760005034144693 0.00038755941518363313 0 -0.020941227624498054 0.00055699909009568154 0 -0.020751306614044819 0.00063375377042547746 0 -0.019208757944405838 0.00083397102236337729 0 -0.01922510738273138 0.00079070267847750617 0 -0.019193359604317443 0.00079350953507334866 0 -0.0191443168043781 0.00094879279120019938 0 -0.019292640447793399 0.0006991376755440523 0 -0.019187523055408995 0.00090312609281375622 0 -0.019208757944405838 0.00083397102236337729 0 -0.019172058149604446 0.00078309930595697145 0 -0.019187523055408995 0.00090312609281375622 0 -0.019139458771200473 0.00083519622328649202 0 -0.01914487307331126 0.00085832031463259318 0 -0.019139458771200473 0.00083519622328649202 0 -0.019124021723345219 0.00083647155705895786 0 -0.01914487307331126 0.00085832031463259318 0 -0.019208757944405838 0.00083397102236337729 0 -0.019172058149604446 0.00078309930595697145 0 -0.019193359604317443 0.00079350953507334866 0 -0.019172058149604446 0.00078309930595697145 0 -0.019168421837190013 0.00077309230935659846 0 -0.019193359604317443 0.00079350953507334866 0 -0.019110676837435212 0.00083240759382377418 0 -0.019139458771200473 0.00083519622328649202 0 -0.019123549126315843 0.00083100430490841003 0 -0.019147825611062666 0.00077519118910966949 0 -0.019129187587850854 0.00077762605643878974 0 -0.019172058149604446 0.00078309930595697145 0 -0.018049436418786043 0.0012165582490956688 0 -0.019292640447793399 0.0006991376755440523 0 -0.019139458771200473 0.00083519622328649202 0 -0.019123549126315843 0.00083100430490841003 0 -0.019124021723345219 0.00083647155705895786 0 -0.019147825611062666 0.00077519118910966949 0 -0.019172058149604446 0.00078309930595697145 0 -0.019168421837190013 0.00077309230935659846 0 -0.019147825611062666 0.00077519118910966949 0 -0.019168421837190013 0.00077309230935659846 0 -0.019152867474709366 0.00076839194519705137 0 -0.01916220342517666 0.000404758260238882 0 -0.019087237568737671 0.00017737407450710564 0 -0.021108613451746961 0.00052360183667697602 0 -0.020751306614044819 0.00063375377042547746 0 -0.021779424457611107 0.00074394349117890696 0 -0.021708178920107946 0.00070635161914949732 0 -0.021749456040884713 0.00052823168520849096 0 -0.021517595157986857 0.0004844104919357106 0 -0.021708178920107946 0.00070635161914949732 0 -0.021767139858843623 0.00052374108364152262 0 -0.019209258759328406 0.00076791959976715667 0 -0.01922510738273138 0.00079070267847750617 0 -0.019193359604317443 0.00079350953507334866 0 -0.019168421837190013 0.00077309230935659846 0 -0.019209258759328406 0.00076791959976715667 0 -0.019193359604317443 0.00079350953507334866 0 -0.019087237568737671 0.00017737407450710564 0 -0.020751306614044819 0.00063375377042547746 0 -0.015393181951611502 0.0017592625229229048 0 -0.015539880318731637 0.0018081045336423923 0 -0.015532930848000049 0.0015428414500677765 0 -0.01781147142266706 0.0010872519387019235 0 -0.019187927706924381 0.00069629703683066722 0 -0.019076250778994271 0.00081974376792407692 0 -0.019093009686900111 0.00082866734374887436 0 -0.019106931525213242 0.00083791249799557122 0 -0.015539880318731637 0.0018081045336423923 0 -0.015532930848000049 0.0015428414500677765 0 -0.015696257191076934 0.0016664755808550229 0 -0.017041796921884216 0.0013771315667526793 0 -0.01781147142266706 0.0010872519387019235 0 -0.01911462182938372 0.0008260192505672153 0 -0.019064517460657647 0.00082612282354931532 0 -0.019093009686900111 0.00082866734374887436 0 -0.01911462182938372 0.0008260192505672153 0 -0.019093009686900111 0.00082866734374887436 0 -0.019124021723345219 0.00083647155705895786 0 -0.01911462182938372 0.0008260192505672153 0 -0.019123549126315843 0.00083100430490841003 0 -0.019124021723345219 0.00083647155705895786 0 -0.019093009686900111 0.00082866734374887436 0 -0.019124021723345219 0.00083647155705895786 0 -0.019106931525213242 0.00083791249799557122 0 -0.019106931525213242 0.00083791249799557122 0 -0.01912773145545112 0.00085817535221298022 0 -0.019095271078908887 0.00084484174258835803 0 -0.019124021723345219 0.00083647155705895786 0 -0.019106931525213242 0.00083791249799557122 0 -0.01912773145545112 0.00085817535221298022 0 -0.019124021723345219 0.00083647155705895786 0 -0.01914487307331126 0.00085832031463259318 0 -0.01912773145545112 0.00085817535221298022 0 -0.01914487307331126 0.00085832031463259318 0 -0.019150537469998213 0.00087934984729448129 0 -0.01912773145545112 0.00085817535221298022 0 -0.019150537469998213 0.00087934984729448129 0 -0.01912773145545112 0.00085817535221298022 0 -0.019141208287177695 0.00090003468045225939 0 -0.01912773145545112 0.00085817535221298022 0 -0.019112265525657365 0.00087361677794303922 0 -0.019095271078908887 0.00084484174258835803 0 -0.01912773145545112 0.00085817535221298022 0 -0.019112265525657365 0.00087361677794303922 0 -0.019141208287177695 0.00090003468045225939 0 -0.019112265525657365 0.00087361677794303922 0 -0.019095271078908887 0.00084484174258835803 0 -0.019081380346193024 0.00086124386527177787 0 -0.019076250778994271 0.00081974376792407692 0 -0.019106931525213242 0.00083791249799557122 0 -0.019095271078908887 0.00084484174258835803 0 -0.019095271078908887 0.00084484174258835803 0 -0.019064278406199071 0.00083703595409597212 0 -0.019081380346193024 0.00086124386527177787 0 -0.019076250778994271 0.00081974376792407692 0 -0.019095271078908887 0.00084484174258835803 0 -0.019064278406199071 0.00083703595409597212 0 -0.019064278406199071 0.00083703595409597212 0 -0.019081380346193024 0.00086124386527177787 0 -0.019047981949420121 0.00084896472237487 0 -0.019081380346193024 0.00086124386527177787 0 -0.019057388169379238 0.00088119016136679862 0 -0.019047981949420121 0.00084896472237487 0 -0.019057388169379238 0.00088119016136679862 0 -0.019097997887322138 0.00089835171976757468 0 -0.019070240250815315 0.00093414948066831299 0 -0.019081380346193024 0.00086124386527177787 0 -0.019057388169379238 0.00088119016136679862 0 -0.019097997887322138 0.00089835171976757468 0 -0.019112265525657365 0.00087361677794303922 0 -0.019081380346193024 0.00086124386527177787 0 -0.019097997887322138 0.00089835171976757468 0 -0.019097997887322138 0.00089835171976757468 0 -0.019122248818283481 0.0009471577115557913 0 -0.019141208287177695 0.00090003468045225939 0 -0.019097997887322138 0.00089835171976757468 0 -0.019122248818283481 0.0009471577115557913 0 -0.019070240250815315 0.00093414948066831299 0 -0.019187523055408995 0.00090312609281375622 0 -0.01914487307331126 0.00085832031463259318 0 -0.019150537469998213 0.00087934984729448129 0 -0.019187523055408995 0.00090312609281375622 0 -0.019150537469998213 0.00087934984729448129 0 -0.019141208287177695 0.00090003468045225939 0 -0.019112265525657365 0.00087361677794303922 0 -0.019097997887322138 0.00089835171976757468 0 -0.019141208287177695 0.00090003468045225939 0 -0.019122248818283481 0.0009471577115557913 0 -0.019141208287177695 0.00090003468045225939 0 -0.019170619985644254 0.00095379583382125945 0 -0.019187523055408995 0.00090312609281375622 0 -0.019141208287177695 0.00090003468045225939 0 -0.019170619985644254 0.00095379583382125945 0 -0.019170619985644254 0.00095379583382125945 0 -0.019152387173855031 0.0010025356097964912 0 -0.019256065609219466 0.0010236616771763362 0 -0.019122248818283481 0.0009471577115557913 0 -0.019170619985644254 0.00095379583382125945 0 -0.019152387173855031 0.0010025356097964912 0 -0.019122248818283481 0.0009471577115557913 0 -0.019070240250815315 0.00093414948066831299 0 -0.019088855651235779 0.0010116011798486683 0 -0.019122248818283481 0.0009471577115557913 0 -0.019152387173855031 0.0010025356097964912 0 -0.019088855651235779 0.0010116011798486683 0 -0.019152387173855031 0.0010025356097964912 0 -0.019088855651235779 0.0010116011798486683 0 -0.019132947670371457 0.001106162772201637 0 -0.023645596287403363 0.0013371857152265408 0 -0.024217981170640814 -9.3166498336256045e-05 0 -0.023013416050929179 0.00015493006799041566 0 -0.023645596287403363 0.0013371857152265408 0 -0.024217981170640814 -9.3166498336256045e-05 0 -0.024770400533859704 0.0009392670238552056 0 -0.023645596287403363 0.0013371857152265408 0 -0.022186173622616059 0.00062393437001820741 0 -0.023013416050929179 0.00015493006799041566 0 -0.021374958786045239 0.0012871973854075276 0 -0.021158874285044902 0.00042160973588682016 0 -0.019132947670371457 0.001106162772201637 0 -0.019256065609219466 0.0010236616771763362 0 -0.019249688665072345 0.0011412505890917711 0 -0.019152387173855031 0.0010025356097964912 0 -0.019132947670371457 0.001106162772201637 0 -0.019256065609219466 0.0010236616771763362 0 -0.022121609023311683 -0.00055187492010762263 0 -0.022074286393529194 -0.00054611538855253738 0 -0.022186039618771143 -0.00048356099105649459 0 -0.020643975743737702 0.00023217182063800873 0 -0.021158874285044902 0.00042160973588682016 0 -0.021854519019356113 -0.0006169580990054665 0 -0.022121609023311683 -0.00055187492010762263 0 -0.022074286393529194 -0.00054611538855253738 0 -0.022074286393529194 -0.00054611538855253738 0 -0.022063104979345487 -0.00052621094213591273 0 -0.022142034017324595 -0.00049864542812269055 0 -0.021854519019356113 -0.0006169580990054665 0 -0.022074286393529194 -0.00054611538855253738 0 -0.022063104979345487 -0.00052621094213591273 0 -0.022063104979345487 -0.00052621094213591273 0 -0.022142034017324595 -0.00049864542812269055 0 -0.022176819999422691 -0.00047088600484088616 0 -0.022074286393529194 -0.00054611538855253738 0 -0.022142034017324595 -0.00049864542812269055 0 -0.022186039618771143 -0.00048356099105649459 0 -0.022142034017324595 -0.00049864542812269055 0 -0.022186039618771143 -0.00048356099105649459 0 -0.022223580017400494 -0.00044985266512166747 0 -0.022142034017324595 -0.00049864542812269055 0 -0.022176819999422691 -0.00047088600484088616 0 -0.022223580017400494 -0.00044985266512166747 0 -0.022121609023311683 -0.00055187492010762263 0 -0.022186039618771143 -0.00048356099105649459 0 -0.022207095826242192 -0.00044949916504414753 0 -0.022186039618771143 -0.00048356099105649459 0 -0.022233329427241929 -0.00044362648941816097 0 -0.022223580017400494 -0.00044985266512166747 0 -0.022186039618771143 -0.00048356099105649459 0 -0.022233329427241929 -0.00044362648941816097 0 -0.022242651745487719 -0.00042713587704121237 0 -0.022233329427241929 -0.00044362648941816097 0 -0.022242651745487719 -0.00042713587704121237 0 -0.022280268104556064 -0.00042341997179951409 0 -0.022242651745487719 -0.00042713587704121237 0 -0.022262971858349773 -0.00041062168750634906 0 -0.022280268104556064 -0.00042341997179951409 0 -0.022186039618771143 -0.00048356099105649459 0 -0.022242651745487719 -0.00042713587704121237 0 -0.022207095826242192 -0.00044949916504414753 0 -0.021492292448977379 0.00037668124859103694 0 -0.021158874285044902 0.00042160973588682016 0 -0.022262971858349773 -0.00041062168750634906 0 -0.022357201512857965 -0.00041697265372560245 0 -0.022498461507880263 -0.00040605135650536071 0 -0.021158874285044902 0.00042160973588682016 0 -0.022519977812088598 -0.0005667662615557944 0 -0.022262971858349773 -0.00041062168750634906 0 -0.022357201512857965 -0.00041697265372560245 0 -0.022280268104556064 -0.00042341997179951409 0 -0.022357201512857965 -0.00041697265372560245 0 -0.022280268104556064 -0.00042341997179951409 0 -0.022277267263219293 -0.0004306083795621794 0 -0.022233329427241929 -0.00044362648941816097 0 -0.022277267263219293 -0.0004306083795621794 0 -0.022223580017400494 -0.00044985266512166747 0 -0.022233329427241929 -0.00044362648941816097 0 -0.022280268104556064 -0.00042341997179951409 0 -0.022277267263219293 -0.0004306083795621794 0 -0.022277267263219293 -0.0004306083795621794 0 -0.022314787682213705 -0.0004383114161122262 0 -0.022223580017400494 -0.00044985266512166747 0 -0.022357201512857965 -0.00041697265372560245 0 -0.022277267263219293 -0.0004306083795621794 0 -0.022314787682213705 -0.0004383114161122262 0 -0.022357201512857965 -0.00041697265372560245 0 -0.022314787682213705 -0.0004383114161122262 0 -0.022498461507880263 -0.00040605135650536071 0 -0.022314787682213705 -0.0004383114161122262 0 -0.02253933786677086 -0.00057002271296580412 0 -0.022498461507880263 -0.00040605135650536071 0 -0.022314787682213705 -0.0004383114161122262 0 -0.022223580017400494 -0.00044985266512166747 0 -0.022250130620719188 -0.00044637264880907293 0 -0.022176819999422691 -0.00047088600484088616 0 -0.022223580017400494 -0.00044985266512166747 0 -0.022250130620719188 -0.00044637264880907293 0 -0.022314787682213705 -0.0004383114161122262 0 -0.022250130620719188 -0.00044637264880907293 0 -0.022309074464136616 -0.00044936678986560416 0 -0.022312356725789049 -0.00043015593180201098 0 -0.022250130620719188 -0.00044637264880907293 0 -0.022309074464136616 -0.00044936678986560416 0 -0.022314787682213705 -0.0004383114161122262 0 -0.022309074464136616 -0.00044936678986560416 0 -0.02253933786677086 -0.00057002271296580412 0 -0.026994587042575017 0.00040657881911439729 0 -0.027665467437539403 0.00043047720763117838 0 -0.032077194595014021 0.0013875979185631955 0 -0.032686860514594469 0.0014143900232375568 0 -0.032568421621972231 0.0010757525676390782 0 -0.032686860514594469 0.0014143900232375568 0 -0.03274566042699039 0.0010354946353444726 0 -0.032960250456101688 0.001366536912116261 0 -0.027665467437539403 0.00043047720763117838 0 -0.028453722592572315 0.00049199772174301657 0 -0.02253933786677086 -0.00057002271296580412 0 -0.024217981170640814 -9.3166498336256045e-05 0 -0.023013416050929179 0.00015493006799041566 0 -0.022186173622616059 0.00062393437001820741 0 -0.023013416050929179 0.00015493006799041566 0 -0.022498461507880263 -0.00040605135650536071 0 -0.02253933786677086 -0.00057002271296580412 0 -0.023013416050929179 0.00015493006799041566 0 -0.022498461507880263 -0.00040605135650536071 0 -0.03274566042699039 0.0010354946353444726 0 -0.03223499287034113 0.0012783083257526886 0 -0.032960250456101688 0.001366536912116261 0 -0.03274566042699039 0.0010354946353444726 0 -0.03223499287034113 0.0012783083257526886 0 -0.032162025294472464 0.00072306614018092358 0 -0.028453722592572315 0.00049199772174301657 0 -0.029035858909359551 0.00051833958367481089 0 -0.03223499287034113 0.0012783083257526886 0 -0.031784106157861917 0.0012078267645663403 0 -0.031844742293654339 0.00097190520607850735 0 -0.03223499287034113 0.0012783083257526886 0 -0.031784106157861917 0.0012078267645663403 0 -0.031899501364035326 0.0013557710190124728 0 -0.031597403833297684 0.0011750179733516469 0 -0.031510460034962801 0.0012757744285522665 0 -0.03164302244735958 0.0012657715244442751 0 -0.031784106157861917 0.0012078267645663403 0 -0.031597403833297684 0.0011750179733516469 0 -0.03164302244735958 0.0012657715244442751 0 -0.031784106157861917 0.0012078267645663403 0 -0.031597403833297684 0.0011750179733516469 0 -0.031659865380012205 0.0010648599432730864 0 -0.031784106157861917 0.0012078267645663403 0 -0.031659865380012205 0.0010648599432730864 0 -0.031844742293654339 0.00097190520607850735 0 -0.031597403833297684 0.0011750179733516469 0 -0.031546836844736789 0.0010598314042190491 0 -0.031430746052593779 0.0011718719198284514 0 -0.031597403833297684 0.0011750179733516469 0 -0.031659865380012205 0.0010648599432730864 0 -0.031546836844736789 0.0010598314042190491 0 -0.031659865380012205 0.0010648599432730864 0 -0.031546836844736789 0.0010598314042190491 0 -0.031611562010685518 0.00094769696899243885 0 -0.029111330268817258 0.0026871006246912675 0 -0.029635976216448132 0.002443065780961816 0 -0.029891139016659067 0.0022733939287705044 0 -0.031672696003801112 0.00080158932136935334 0 -0.031650606856039168 0.0005425627766811414 0 -0.031458167584032054 0.00093364150402010845 0 -0.031611562010685518 0.00094769696899243885 0 -0.031672696003801112 0.00080158932136935334 0 -0.031458167584032054 0.00093364150402010845 0 -0.031546836844736789 0.0010598314042190491 0 -0.031611562010685518 0.00094769696899243885 0 -0.031458167584032054 0.00093364150402010845 0 -0.031611562010685518 0.00094769696899243885 0 -0.031672696003801112 0.00080158932136935334 0 -0.031844742293654339 0.00097190520607850735 0 -0.031659865380012205 0.0010648599432730864 0 -0.031611562010685518 0.00094769696899243885 0 -0.031844742293654339 0.00097190520607850735 0 -0.031672696003801112 0.00080158932136935334 0 -0.031844742293654339 0.00097190520607850735 0 -0.032162025294472464 0.00072306614018092358 0 -0.03223499287034113 0.0012783083257526886 0 -0.031844742293654339 0.00097190520607850735 0 -0.032162025294472464 0.00072306614018092358 0 -0.027603029169895221 0.0011325050042351144 0 -0.026196767633126245 0.0015635401699425891 0 -0.025908534417815751 0.00051123258697489732 0 -0.031672696003801112 0.00080158932136935334 0 -0.031650606856039168 0.0005425627766811414 0 -0.032162025294472464 0.00072306614018092358 0 -0.029550133865115812 0.0015420442456405791 0 -0.029035858909359551 0.00051833958367481089 0 -0.029550133865115812 0.0015420442456405791 0 -0.030797879575127918 0.0016012205932718442 0 -0.029111330268817258 0.0026871006246912675 0 -0.029241406462706687 0.0025590079515310561 0 -0.029635976216448132 0.002443065780961816 0 -0.029111330268817258 0.0026871006246912675 0 -0.029065038289139582 0.0025215606313290684 0 -0.029241406462706687 0.0025590079515310561 0 -0.029550133865115812 0.0015420442456405791 0 -0.029038253572491863 0.0024194929614104305 0 -0.028912808320683891 0.0024647465398276733 0 -0.028855449349217951 0.0025016399946392307 0 -0.028882092841047435 0.0025253413524177707 0 -0.028912808320683891 0.0024647465398276733 0 -0.028882092841047435 0.0025253413524177707 0 -0.029065038289139582 0.0025215606313290684 0 -0.029550133865115812 0.0015420442456405791 0 -0.027906789769357454 0.0021429075697229458 0 -0.027603029169895221 0.0011325050042351144 0 -0.027125264655769209 0.001959971523308296 0 -0.026196767633126245 0.0015635401699425891 0 -0.027125264655769209 0.001959971523308296 0 -0.026196767633126245 0.0015635401699425891 0 -0.026644641567677759 0.0027827705317925253 0 -0.026196767633126245 0.0015635401699425891 0 -0.025137389450690422 0.0020578162493272716 0 -0.026644641567677759 0.0027827705317925253 0 -0.026196767633126245 0.0015635401699425891 0 -0.024770400533859704 0.0009392670238552056 0 -0.025137389450690422 0.0020578162493272716 0 -0.026196767633126245 0.0015635401699425891 0 -0.025908534417815751 0.00051123258697489732 0 -0.024770400533859704 0.0009392670238552056 0 -0.024217981170640814 -9.3166498336256045e-05 0 -0.025908534417815751 0.00051123258697489732 0 -0.024770400533859704 0.0009392670238552056 0 -0.019088855651235779 0.0010116011798486683 0 -0.019132947670371457 0.001106162772201637 0 -0.019007412371406584 0.0011008312831084677 0 -0.021374958786045239 0.0012871973854075276 0 -0.021790672380858071 0.0015258931128826565 0 -0.023645596287403363 0.0013371857152265408 0 -0.024770400533859704 0.0009392670238552056 0 -0.025137389450690422 0.0020578162493272716 0 -0.019088855651235779 0.0010116011798486683 0 -0.019007412371406584 0.0011008312831084677 0 -0.019020742867498937 0.00097996747504761061 0 -0.019007412371406584 0.0011008312831084677 0 -0.019020742867498937 0.00097996747504761061 0 -0.018927124004452844 0.00097640616344127546 0 -0.019070240250815315 0.00093414948066831299 0 -0.019088855651235779 0.0010116011798486683 0 -0.019020742867498937 0.00097996747504761061 0 -0.021790672380858071 0.0015258931128826565 0 -0.024098412384897686 0.0018752463273541734 0 -0.019007412371406584 0.0011008312831084677 0 -0.018927124004452844 0.00097640616344127546 0 -0.018717200575248248 0.0010726747163038602 0 -0.018927124004452844 0.00097640616344127546 0 -0.018814425430238663 0.00095175411137478144 0 -0.018717200575248248 0.0010726747163038602 0 -0.0188763343742318 0.00090211465494480691 0 -0.018813621370016891 0.00082148722407060699 0 -0.018814425430238663 0.00095175411137478144 0 -0.018927124004452844 0.00097640616344127546 0 -0.0188763343742318 0.00090211465494480691 0 -0.018814425430238663 0.00095175411137478144 0 -0.018927124004452844 0.00097640616344127546 0 -0.018934094009646418 0.00085773742114507077 0 -0.019012977560880669 0.00089829721124339631 0 -0.018927124004452844 0.00097640616344127546 0 -0.0188763343742318 0.00090211465494480691 0 -0.018934094009646418 0.00085773742114507077 0 -0.0188763343742318 0.00090211465494480691 0 -0.018934094009646418 0.00085773742114507077 0 -0.018813621370016891 0.00082148722407060699 0 -0.019070240250815315 0.00093414948066831299 0 -0.019020742867498937 0.00097996747504761061 0 -0.019012977560880669 0.00089829721124339631 0 -0.019020742867498937 0.00097996747504761061 0 -0.018927124004452844 0.00097640616344127546 0 -0.019012977560880669 0.00089829721124339631 0 -0.018934094009646418 0.00085773742114507077 0 -0.018990266604114507 0.00085518742514601484 0 -0.019012977560880669 0.00089829721124339631 0 -0.018990266604114507 0.00085518742514601484 0 -0.019012977560880669 0.00089829721124339631 0 -0.0190201620834053 0.00085607867267898893 0 -0.019057388169379238 0.00088119016136679862 0 -0.019070240250815315 0.00093414948066831299 0 -0.019012977560880669 0.00089829721124339631 0 -0.019057388169379238 0.00088119016136679862 0 -0.019012977560880669 0.00089829721124339631 0 -0.0190201620834053 0.00085607867267898893 0 -0.0190201620834053 0.00085607867267898893 0 -0.019047981949420121 0.00084896472237487 0 -0.018994051482776029 0.00081593201367857152 0 -0.01781147142266706 0.0010872519387019235 0 -0.018789193673524232 0.00078619917264493569 0 -0.018107201279546046 0.0010180020824210804 0 -0.018305081436177602 0.00088180697641301756 0 -0.018346016870081951 0.00090368258885526029 0 -0.019076250778994271 0.00081974376792407692 0 -0.019064278406199071 0.00083703595409597212 0 -0.018994051482776029 0.00081593201367857152 0 -0.01781147142266706 0.0010872519387019235 0 -0.017089416047481425 0.0010931163678939587 0 -0.019064278406199071 0.00083703595409597212 0 -0.019047981949420121 0.00084896472237487 0 -0.018994051482776029 0.00081593201367857152 0 -0.019057388169379238 0.00088119016136679862 0 -0.0190201620834053 0.00085607867267898893 0 -0.019047981949420121 0.00084896472237487 0 -0.018990266604114507 0.00085518742514601484 0 -0.0190201620834053 0.00085607867267898893 0 -0.018994051482776029 0.00081593201367857152 0 -0.018934094009646418 0.00085773742114507077 0 -0.018990266604114507 0.00085518742514601484 0 -0.018994051482776029 0.00081593201367857152 0 -0.016247117615855716 0.0011519316899577718 0 -0.016868296790942497 0.0013486168912743601 0 -0.017208682578534733 0.00086350340460684266 0 -0.018346016870081951 0.00090368258885526029 0 -0.018460713695191127 0.00081901630892518848 0 -0.018440592499527751 0.00081553974814507779 0 -0.018934094009646418 0.00085773742114507077 0 -0.018994051482776029 0.00081593201367857152 0 -0.018813621370016891 0.00082148722407060699 0 -0.017089416047481425 0.0010931163678939587 0 -0.01787652038618719 0.00084697175023385146 0 -0.018789193673524232 0.00078619917264493569 0 -0.018583278324069016 0.00084752464496585286 0 -0.018305081436177602 0.00088180697641301756 0 -0.018346016870081951 0.00090368258885526029 0 -0.018440592499527751 0.00081553974814507779 0 -0.016247117615855716 0.0011519316899577718 0 -0.016420820773333008 0.0016091273609510433 0 -0.016868296790942497 0.0013486168912743601 0 -0.016557432346866463 0.002050079901123754 0 -0.016420820773333008 0.0016091273609510433 0 -0.017068402035209321 0.0017753748709918697 0 -0.016247117615855716 0.0011519316899577718 0 -0.016420820773333008 0.0016091273609510433 0 -0.015954507616551619 0.0015683184181141674 0 -0.015532930848000049 0.0015428414500677765 0 -0.016247117615855716 0.0011519316899577718 0 -0.015954507616551619 0.0015683184181141674 0 -0.016013982373462663 0.0019782018027956019 0 -0.016420820773333008 0.0016091273609510433 0 -0.015954507616551619 0.0015683184181141674 0 -0.016013982373462663 0.0019782018027956019 0 -0.015696257191076934 0.0016664755808550229 0 -0.015954507616551619 0.0015683184181141674 0 -0.015532930848000049 0.0015428414500677765 0 -0.015696257191076934 0.0016664755808550229 0 -0.015954507616551619 0.0015683184181141674 0 -0.01765284214966684 0.0020986396553299555 0 -0.017521681074843753 0.0016948651611403637 0 -0.017904334728941658 0.0015251152315240548 0 -0.017521681074843753 0.0016948651611403637 0 -0.017410503286993586 0.0013714827201806647 0 -0.017904334728941658 0.0015251152315240548 0 -0.017521681074843753 0.0016948651611403637 0 -0.017068402035209321 0.0017753748709918697 0 -0.017410503286993586 0.0013714827201806647 0 -0.016420820773333008 0.0016091273609510433 0 -0.017068402035209321 0.0017753748709918697 0 -0.016868296790942497 0.0013486168912743601 0 -0.017068402035209321 0.0017753748709918697 0 -0.016868296790942497 0.0013486168912743601 0 -0.017410503286993586 0.0013714827201806647 0 -0.016868296790942497 0.0013486168912743601 0 -0.017208682578534733 0.00086350340460684266 0 -0.017410503286993586 0.0013714827201806647 0 -0.017208682578534733 0.00086350340460684266 0 -0.017410503286993586 0.0013714827201806647 0 -0.017828095776886044 0.0011333876558472877 0 -0.017410503286993586 0.0013714827201806647 0 -0.017828095776886044 0.0011333876558472877 0 -0.017904334728941658 0.0015251152315240548 0 -0.01787652038618719 0.00084697175023385146 0 -0.01821261460579273 0.00084782357937178768 0 -0.017208682578534733 0.00086350340460684266 0 -0.017828095776886044 0.0011333876558472877 0 -0.018288386531838556 0.00085912194090145355 0 -0.018460713695191127 0.00081901630892518848 0 -0.01831031544652854 0.00086558720166806779 0 -0.018288386531838556 0.00085912194090145355 0 -0.018460713695191127 0.00081901630892518848 0 -0.01831031544652854 0.00086558720166806779 0 -0.018452637458084446 0.00091683445875533596 0 -0.018460713695191127 0.00081901630892518848 0 -0.018440592499527751 0.00081553974814507779 0 -0.018452637458084446 0.00091683445875533596 0 -0.018583278324069016 0.00084752464496585286 0 -0.018469611565165151 0.00090841582722117229 0 -0.018813621370016891 0.00082148722407060699 0 -0.018814425430238663 0.00095175411137478144 0 -0.018452637458084446 0.00091683445875533596 0 -0.018814425430238663 0.00095175411137478144 0 -0.018717200575248248 0.0010726747163038602 0 -0.018452637458084446 0.00091683445875533596 0 -0.027906789769357454 0.0021429075697229458 0 -0.024098412384897686 0.0018752463273541734 0 -0.01831031544652854 0.00086558720166806779 0 -0.018717200575248248 0.0010726747163038602 0 -0.018452637458084446 0.00091683445875533596 0 -0.028855449349217951 0.0025016399946392307 0 -0.028828293477404669 0.0025002860307384057 0 -0.028882092841047435 0.0025253413524177707 0 -0.023446796448952971 0.0016224946890606368 0 -0.024098412384897686 0.0018752463273541734 0 -0.028789666965823781 0.0024489632154132473 0 -0.028828293477404669 0.0025002860307384057 0 -0.028882092841047435 0.0025253413524177707 0 -0.028789666965823781 0.0024489632154132473 0 -0.028771786449414121 0.0025119169024662193 0 -0.028660734621523149 0.0025247866926509759 0 -0.028789666965823781 0.0024489632154132473 0 -0.028882092841047435 0.0025253413524177707 0 -0.028771786449414121 0.0025119169024662193 0 -0.028882092841047435 0.0025253413524177707 0 -0.028771786449414121 0.0025119169024662193 0 -0.028848072793947563 0.0025093380028920901 0 -0.028771786449414121 0.0025119169024662193 0 -0.028680133018524848 0.0025177862920533565 0 -0.028848072793947563 0.0025093380028920901 0 -0.028771786449414121 0.0025119169024662193 0 -0.028680133018524848 0.0025177862920533565 0 -0.028660734621523149 0.0025247866926509759 0 -0.028680133018524848 0.0025177862920533565 0 -0.028660734621523149 0.0025247866926509759 0 -0.028553871142421746 0.0026141275355742503 0 -0.028639459676533682 0.0024243398124579553 0 -0.028429468723117305 0.0024494330721162388 0 -0.028553871142421746 0.0026141275355742503 0 -0.028660734621523149 0.0025247866926509759 0 -0.028639459676533682 0.0024243398124579553 0 -0.028553871142421746 0.0026141275355742503 0 -0.028639459676533682 0.0024243398124579553 0 -0.028424334801190141 0.0023686767520944649 0 -0.028429468723117305 0.0024494330721162388 0 -0.028789666965823781 0.0024489632154132473 0 -0.028660734621523149 0.0025247866926509759 0 -0.028639459676533682 0.0024243398124579553 0 -0.01831031544652854 0.00086558720166806779 0 -0.018411209158009586 0.00091225229607486298 0 -0.018288386531838556 0.00085912194090145355 0 -0.023446796448952971 0.0016224946890606368 0 -0.023779485501310905 0.0017354484540545794 0 -0.018411209158009586 0.00091225229607486298 0 -0.018288386531838556 0.00085912194090145355 0 -0.018228750901110494 0.0011502221510729142 0 -0.017828095776886044 0.0011333876558472877 0 -0.018288386531838556 0.00085912194090145355 0 -0.018228750901110494 0.0011502221510729142 0 -0.017828095776886044 0.0011333876558472877 0 -0.018228750901110494 0.0011502221510729142 0 -0.017904334728941658 0.0015251152315240548 0 -0.018559400724742995 0.0012174883421412295 0 -0.018798263179770191 0.0016796298261267447 0 -0.018932591928595727 0.0011353257732272558 0 -0.023779485501310905 0.0017354484540545794 0 -0.022396935884676204 0.0017947429242651583 0 -0.018411209158009586 0.00091225229607486298 0 -0.018559400724742995 0.0012174883421412295 0 -0.018932591928595727 0.0011353257732272558 0 -0.018411209158009586 0.00091225229607486298 0 -0.018228750901110494 0.0011502221510729142 0 -0.018559400724742995 0.0012174883421412295 0 -0.018228750901110494 0.0011502221510729142 0 -0.018559400724742995 0.0012174883421412295 0 -0.018354988534673617 0.0014988961519941822 0 -0.018559400724742995 0.0012174883421412295 0 -0.018354988534673617 0.0014988961519941822 0 -0.018798263179770191 0.0016796298261267447 0 -0.018227027388681143 0.0019599776555713662 0 -0.018354988534673617 0.0014988961519941822 0 -0.018798263179770191 0.0016796298261267447 0 -0.018228750901110494 0.0011502221510729142 0 -0.018354988534673617 0.0014988961519941822 0 -0.017904334728941658 0.0015251152315240548 0 -0.018227027388681143 0.0019599776555713662 0 -0.018354988534673617 0.0014988961519941822 0 -0.017904334728941658 0.0015251152315240548 0 -0.020191125489058173 -0.0034938177124584774 0 -0.023418752695236213 0.0026172323542139404 0 -0.016234201033372239 -0.00085459795566358832 0 -0.015125054700408909 -0.00050021244985121464 0 -0.016184214125645458 -0.00014036223116268797 0 -0.016162716169474792 0.0014073147933095806 0 -0.012023171182664247 -0.0043050752262520234 0 -0.024951807308511952 0.0032647849287288627 0 -0.012023171182664247 -0.0043050752262520234 0 -0.01779926510214698 -0.0028619457553827905 0 -0.01805178765891766 0.0012067870574344697 0 -0.022396935884676204 0.0017947429242651583 0 -0.016184214125645458 -0.00014036223116268797 0 -0.017141250618474383 -0.00018232944337186937 0 -0.016162716169474792 0.0014073147933095806 0 -0.016301651754041638 -0.0012612481834620901 0 -0.016184214125645458 -0.00014036223116268797 0 -0.017141250618474383 -0.00018232944337186937 0 -0.017141250618474383 -0.00018232944337186937 0 -0.016162716169474792 0.0014073147933095806 0 -0.016853193239638218 0.001738144706789105 0 -0.022396935884676204 0.0017947429242651583 0 -0.026159934520035105 0.0028734295853825443 0 -0.028668987679192633 0.0039493479183586389 0 -0.028501252089159504 0.003290632281974318 0 -0.028823268291771977 0.0033933630963578804 0 -0.024766492409161362 0.0024063631018352793 0 -0.02483011424134883 0.0024371640275632641 0 -0.024819772123657009 0.002507940644671313 0 -0.024951807308511952 0.0032647849287288627 0 -0.026159934520035105 0.0028734295853825443 0 -0.024951807308511952 0.0032647849287288627 0 -0.022396935884676204 0.0017947429242651583 0 -0.028668987679192633 0.0039493479183586389 0 -0.029228999992513112 0.0037603400715574276 0 -0.028823268291771977 0.0033933630963578804 0 -0.024951807308511952 0.0032647849287288627 0 -0.01779926510214698 -0.0028619457553827905 0 -0.028668987679192633 0.0039493479183586389 0 -0.029228999992513112 0.0037603400715574276 0 -0.029824085233889398 0.0047866758965431034 0 -0.029228999992513112 0.0037603400715574276 0 -0.029387323259004169 0.0033980937612002643 0 -0.029736907979202719 0.0038294305760030916 0 -0.029228999992513112 0.0037603400715574276 0 -0.029387323259004169 0.0033980937612002643 0 -0.02910978587514846 0.0032827626405711381 0 -0.030502713962562513 0.0032056510606113132 0 -0.031059692203008075 0.0034281705121316729 0 -0.029387323259004169 0.0033980937612002643 0 -0.029736907979202719 0.0038294305760030916 0 -0.029639152961659213 0.0033386710001281259 0 -0.029555690580554204 0.0028951007718759792 0 -0.029040742810678605 0.0024831628110573174 0 -0.030090594882968988 0.0030227023339363334 0 -0.029462973707872056 0.0031249152993748641 0 -0.029639152961659213 0.0033386710001281259 0 -0.029677373885011491 0.0031097137071858794 0 -0.029462973707872056 0.0031249152993748641 0 -0.029387323259004169 0.0033980937612002643 0 -0.029639152961659213 0.0033386710001281259 0 -0.029462973707872056 0.0031249152993748641 0 -0.029329506301814905 0.0032161992438262776 0 -0.029387323259004169 0.0033980937612002643 0 -0.029329506301814905 0.0032161992438262776 0 -0.029387323259004169 0.0033980937612002643 0 -0.02910978587514846 0.0032827626405711381 0 -0.029329506301814905 0.0032161992438262776 0 -0.02920869689583773 0.0031442358484677331 0 -0.029303169538395884 0.0030894660780830217 0 -0.029462973707872056 0.0031249152993748641 0 -0.029329506301814905 0.0032161992438262776 0 -0.029303169538395884 0.0030894660780830217 0 -0.029228999992513112 0.0037603400715574276 0 -0.02910978587514846 0.0032827626405711381 0 -0.028823268291771977 0.0033933630963578804 0 -0.028875713802577849 0.0032002719647059958 0 -0.02910978587514846 0.0032827626405711381 0 -0.028823268291771977 0.0033933630963578804 0 -0.028875713802577849 0.0032002719647059958 0 -0.028974617287713538 0.0031084732987050542 0 -0.02910978587514846 0.0032827626405711381 0 -0.028875713802577849 0.0032002719647059958 0 -0.028974617287713538 0.0031084732987050542 0 -0.028861882950772806 0.0030369760994030577 0 -0.028974617287713538 0.0031084732987050542 0 -0.02910978587514846 0.0032827626405711381 0 -0.029094096607796719 0.0030808306390602939 0 -0.029329506301814905 0.0032161992438262776 0 -0.02910978587514846 0.0032827626405711381 0 -0.02920869689583773 0.0031442358484677331 0 -0.02910978587514846 0.0032827626405711381 0 -0.02920869689583773 0.0031442358484677331 0 -0.029094096607796719 0.0030808306390602939 0 -0.02920869689583773 0.0031442358484677331 0 -0.029205551362768693 0.0030439565963373567 0 -0.029094096607796719 0.0030808306390602939 0 -0.029205551362768693 0.0030439565963373567 0 -0.029094096607796719 0.0030808306390602939 0 -0.029127123318895443 0.0029585167922508938 0 -0.029094096607796719 0.0030808306390602939 0 -0.029127123318895443 0.0029585167922508938 0 -0.028978244757543351 0.0029265300891557645 0 -0.029205551362768693 0.0030439565963373567 0 -0.029127123318895443 0.0029585167922508938 0 -0.029299761650379456 0.002946270375669796 0 -0.028974617287713538 0.0031084732987050542 0 -0.028978244757543351 0.0029265300891557645 0 -0.028861882950772806 0.0030369760994030577 0 -0.028974617287713538 0.0031084732987050542 0 -0.029094096607796719 0.0030808306390602939 0 -0.028978244757543351 0.0029265300891557645 0 -0.028978244757543351 0.0029265300891557645 0 -0.029100462812256631 0.0027856364345897637 0 -0.028881541648691524 0.0026945211560980963 0 -0.028978244757543351 0.0029265300891557645 0 -0.028833085891717829 0.0028658567154136397 0 -0.028881541648691524 0.0026945211560980963 0 -0.029127123318895443 0.0029585167922508938 0 -0.028978244757543351 0.0029265300891557645 0 -0.029100462812256631 0.0027856364345897637 0 -0.029127123318895443 0.0029585167922508938 0 -0.029100462812256631 0.0027856364345897637 0 -0.029299761650379456 0.002946270375669796 0 -0.029100462812256631 0.0027856364345897637 0 -0.029555690580554204 0.0028951007718759792 0 -0.029299761650379456 0.002946270375669796 0 -0.029462973707872056 0.0031249152993748641 0 -0.029555690580554204 0.0028951007718759792 0 -0.029299761650379456 0.002946270375669796 0 -0.029462973707872056 0.0031249152993748641 0 -0.029555690580554204 0.0028951007718759792 0 -0.029677373885011491 0.0031097137071858794 0 -0.029462973707872056 0.0031249152993748641 0 -0.029303169538395884 0.0030894660780830217 0 -0.029299761650379456 0.002946270375669796 0 -0.029205551362768693 0.0030439565963373567 0 -0.029303169538395884 0.0030894660780830217 0 -0.029299761650379456 0.002946270375669796 0 -0.02920869689583773 0.0031442358484677331 0 -0.029205551362768693 0.0030439565963373567 0 -0.029303169538395884 0.0030894660780830217 0 -0.028501252089159504 0.003290632281974318 0 -0.028670592799873103 0.0031005666527232946 0 -0.028650509266299345 0.0029095103930150005 0 -0.028670592799873103 0.0031005666527232946 0 -0.028765555045303693 0.0031553566499756855 0 -0.028749143529495366 0.0029664575247718684 0 -0.028670592799873103 0.0031005666527232946 0 -0.028653077534787526 0.0032339327468100475 0 -0.028765555045303693 0.0031553566499756855 0 -0.028501252089159504 0.003290632281974318 0 -0.028670592799873103 0.0031005666527232946 0 -0.028653077534787526 0.0032339327468100475 0 -0.028501252089159504 0.003290632281974318 0 -0.028653077534787526 0.0032339327468100475 0 -0.028823268291771977 0.0033933630963578804 0 -0.028875713802577849 0.0032002719647059958 0 -0.028823268291771977 0.0033933630963578804 0 -0.028765555045303693 0.0031553566499756855 0 -0.028653077534787526 0.0032339327468100475 0 -0.028823268291771977 0.0033933630963578804 0 -0.028765555045303693 0.0031553566499756855 0 -0.028765555045303693 0.0031553566499756855 0 -0.028861882950772806 0.0030369760994030577 0 -0.028749143529495366 0.0029664575247718684 0 -0.028875713802577849 0.0032002719647059958 0 -0.028765555045303693 0.0031553566499756855 0 -0.028861882950772806 0.0030369760994030577 0 -0.028978244757543351 0.0029265300891557645 0 -0.028861882950772806 0.0030369760994030577 0 -0.028833085891717829 0.0028658567154136397 0 -0.028861882950772806 0.0030369760994030577 0 -0.028833085891717829 0.0028658567154136397 0 -0.028749143529495366 0.0029664575247718684 0 -0.028833085891717829 0.0028658567154136397 0 -0.028730976449595352 0.0027302262332345984 0 -0.028749143529495366 0.0029664575247718684 0 -0.028833085891717829 0.0028658567154136397 0 -0.028730976449595352 0.0027302262332345984 0 -0.028881541648691524 0.0026945211560980963 0 -0.028730976449595352 0.0027302262332345984 0 -0.028749143529495366 0.0029664575247718684 0 -0.028650509266299345 0.0029095103930150005 0 -0.028670592799873103 0.0031005666527232946 0 -0.028749143529495366 0.0029664575247718684 0 -0.028650509266299345 0.0029095103930150005 0 -0.028501252089159504 0.003290632281974318 0 -0.028650509266299345 0.0029095103930150005 0 -0.028553871142421746 0.0026141275355742503 0 -0.028730976449595352 0.0027302262332345984 0 -0.028650509266299345 0.0029095103930150005 0 -0.028553871142421746 0.0026141275355742503 0 -0.026159934520035105 0.0028734295853825443 0 -0.028263726945686324 0.0031253951484149674 0 -0.028723972530690416 0.0025628052401733339 0 -0.029040742810678605 0.0024831628110573174 0 -0.0286844599221707 0.0024810322569125418 0 -0.030502713962562513 0.0032056510606113132 0 -0.030052548100872864 0.0030054020845322084 0 -0.028730976449595352 0.0027302262332345984 0 -0.028553871142421746 0.0026141275355742503 0 -0.028723972530690416 0.0025628052401733339 0 -0.028680133018524848 0.0025177862920533565 0 -0.028553871142421746 0.0026141275355742503 0 -0.028723972530690416 0.0025628052401733339 0 -0.028723972530690416 0.0025628052401733339 0 -0.028881541648691524 0.0026945211560980963 0 -0.029040742810678605 0.0024831628110573174 0 -0.028730976449595352 0.0027302262332345984 0 -0.028723972530690416 0.0025628052401733339 0 -0.028881541648691524 0.0026945211560980963 0 -0.028680133018524848 0.0025177862920533565 0 -0.028723972530690416 0.0025628052401733339 0 -0.0286844599221707 0.0024810322569125418 0 -0.031880585518301439 0.0038418933372455773 0 -0.032046507321811427 0.0036529040088718362 0 -0.031409550075695195 0.0035409702388145485 0 -0.031880585518301439 0.0038418933372455773 0 -0.032046507321811427 0.0036529040088718362 0 -0.032213686057534809 0.0041110529236106346 0 -0.029100462812256631 0.0027856364345897637 0 -0.029555690580554204 0.0028951007718759792 0 -0.029040742810678605 0.0024831628110573174 0 -0.029100462812256631 0.0027856364345897637 0 -0.028881541648691524 0.0026945211560980963 0 -0.029040742810678605 0.0024831628110573174 0 -0.031555968210915435 0.0031298259463618224 0 -0.031421158945408527 0.0023912327277609371 0 -0.030920970088720478 0.0024452242375990812 0 -0.031013978972959762 0.0017947660043664362 0 -0.031143307512061846 0.0020565819957305848 0 -0.032046507321811427 0.0036529040088718362 0 -0.031838548044712547 0.0029989020406174442 0 -0.031409550075695195 0.0035409702388145485 0 -0.031013978972959762 0.0017947660043664362 0 -0.031386897506495565 0.0017668440966978709 0 -0.031143307512061846 0.0020565819957305848 0 -0.031013978972959762 0.0017947660043664362 0 -0.031283335916111571 0.0014408696006764051 0 -0.031386897506495565 0.0017668440966978709 0 -0.031838548044712547 0.0029989020406174442 0 -0.031409550075695195 0.0035409702388145485 0 -0.031223495289732593 0.0027627234025410954 0 -0.0286844599221707 0.0024810322569125418 0 -0.028848072793947563 0.0025093380028920901 0 -0.02890735444349838 0.0026193794662301129 0 -0.030052548100872864 0.0030054020845322084 0 -0.029810189832114697 0.0028397380958141037 0 -0.028680133018524848 0.0025177862920533565 0 -0.0286844599221707 0.0024810322569125418 0 -0.028848072793947563 0.0025093380028920901 0 -0.028882092841047435 0.0025253413524177707 0 -0.028848072793947563 0.0025093380028920901 0 -0.029065038289139582 0.0025215606313290684 0 -0.028848072793947563 0.0025093380028920901 0 -0.029065038289139582 0.0025215606313290684 0 -0.02890735444349838 0.0026193794662301129 0 -0.029241406462706687 0.0025590079515310561 0 -0.02890735444349838 0.0026193794662301129 0 -0.029635976216448132 0.002443065780961816 0 -0.03072603996535566 0.0031654107710918358 0 -0.029635976216448132 0.002443065780961816 0 -0.030492596541212166 0.0025767839984501021 0 -0.029810189832114697 0.0028397380958141037 0 -0.029589588658790671 0.0024815550833449701 0 -0.029065038289139582 0.0025215606313290684 0 -0.029241406462706687 0.0025590079515310561 0 -0.02890735444349838 0.0026193794662301129 0 -0.031409550075695195 0.0035409702388145485 0 -0.031223495289732593 0.0027627234025410954 0 -0.03072603996535566 0.0031654107710918358 0 -0.031223495289732593 0.0027627234025410954 0 -0.03072603996535566 0.0031654107710918358 0 -0.030492596541212166 0.0025767839984501021 0 -0.030961833443128316 0.0023303541489626128 0 -0.030914454298520438 0.0019655310007362517 0 -0.031568688484272495 0.0020956364151627506 0 -0.031223495289732593 0.0027627234025410954 0 -0.030961833443128316 0.0023303541489626128 0 -0.031568688484272495 0.0020956364151627506 0 -0.031223495289732593 0.0027627234025410954 0 -0.030961833443128316 0.0023303541489626128 0 -0.030492596541212166 0.0025767839984501021 0 -0.030961833443128316 0.0023303541489626128 0 -0.030492596541212166 0.0025767839984501021 0 -0.030473455640680065 0.0023086018801123614 0 -0.030961833443128316 0.0023303541489626128 0 -0.030473455640680065 0.0023086018801123614 0 -0.030914454298520438 0.0019655310007362517 0 -0.029635976216448132 0.002443065780961816 0 -0.030107738000903422 0.0023787775830288564 0 -0.029891139016659067 0.0022733939287705044 0 -0.029635976216448132 0.002443065780961816 0 -0.030107738000903422 0.0023787775830288564 0 -0.030492596541212166 0.0025767839984501021 0 -0.030107738000903422 0.0023787775830288564 0 -0.030492596541212166 0.0025767839984501021 0 -0.030473455640680065 0.0023086018801123614 0 -0.030473455640680065 0.0023086018801123614 0 -0.029891139016659067 0.0022733939287705044 0 -0.030914454298520438 0.0019655310007362517 0 -0.030107738000903422 0.0023787775830288564 0 -0.030473455640680065 0.0023086018801123614 0 -0.029891139016659067 0.0022733939287705044 0 -0.031458167584032054 0.00093364150402010845 0 -0.031430746052593779 0.0011718719198284514 0 -0.031202540845484083 0.0013408280117500259 0 -0.029891139016659067 0.0022733939287705044 0 -0.030914454298520438 0.0019655310007362517 0 -0.031202540845484083 0.0013408280117500259 0 -0.030797879575127918 0.0016012205932718442 0 -0.03108079474883331 0.0013868863882219012 0 -0.031546836844736789 0.0010598314042190491 0 -0.031458167584032054 0.00093364150402010845 0 -0.031430746052593779 0.0011718719198284514 0 -0.031430746052593779 0.0011718719198284514 0 -0.031202540845484083 0.0013408280117500259 0 -0.03140401314367184 0.0012913486966450666 0 -0.031597403833297684 0.0011750179733516469 0 -0.031430746052593779 0.0011718719198284514 0 -0.031510460034962801 0.0012757744285522665 0 -0.031430746052593779 0.0011718719198284514 0 -0.031510460034962801 0.0012757744285522665 0 -0.03140401314367184 0.0012913486966450666 0 -0.030914454298520438 0.0019655310007362517 0 -0.031253532297204921 0.0016730124665483678 0 -0.031202540845484083 0.0013408280117500259 0 -0.031253532297204921 0.0016730124665483678 0 -0.031568688484272495 0.0020956364151627506 0 -0.031399036230595971 0.0013403611716002431 0 -0.030914454298520438 0.0019655310007362517 0 -0.031253532297204921 0.0016730124665483678 0 -0.031568688484272495 0.0020956364151627506 0 -0.031393278096788123 0.001772530214347922 0 -0.031374497458913679 0.0013728574914941328 0 -0.03120891166669577 0.0014281822260924129 0 -0.031356283183211486 0.0013428763410180207 0 -0.031399036230595971 0.0013403611716002431 0 -0.031283335916111571 0.0014408696006764051 0 -0.03120891166669577 0.0014281822260924129 0 -0.031356283183211486 0.0013428763410180207 0 -0.031283335916111571 0.0014408696006764051 0 -0.031356283183211486 0.0013428763410180207 0 -0.031368921257673793 0.0013099492102192629 0 -0.031013978972959762 0.0017947660043664362 0 -0.031283335916111571 0.0014408696006764051 0 -0.03120891166669577 0.0014281822260924129 0 -0.031838548044712547 0.0029989020406174442 0 -0.031223495289732593 0.0027627234025410954 0 -0.031568688484272495 0.0020956364151627506 0 -0.031421158945408527 0.0023912327277609371 0 -0.031393278096788123 0.001772530214347922 0 -0.032101013270778141 0.0013850853780668611 0 -0.031969937820120115 0.001232052098749432 0 -0.031447662328721565 0.0013705576217723223 0 -0.031464676677287709 0.001345727837281973 0 -0.031631353005687243 0.0013791984266074654 0 -0.031447662328721565 0.0013705576217723223 0 -0.031631353005687243 0.0013791984266074654 0 -0.032001188336016 0.0012563429953881329 0 -0.032791283160711296 0.0014717210359962774 0 -0.032757556329538799 0.0010892460785980351 0 -0.03315758909858444 0.001146274522193859 0 -0.031447662328721565 0.0013705576217723223 0 -0.031356283183211486 0.0013428763410180207 0 -0.031368921257673793 0.0013099492102192629 0 -0.032101013270778141 0.0013850853780668611 0 -0.032166252951577337 0.001372494182342251 0 -0.032791283160711296 0.0014717210359962774 0 -0.033087043792228654 0.0013286525272370908 0 -0.03296333208643018 0.0014231184161783708 0 -0.031447662328721565 0.0013705576217723223 0 -0.031464676677287709 0.001345727837281973 0 -0.031356283183211486 0.0013428763410180207 0 -0.031464676677287709 0.001345727837281973 0 -0.031356283183211486 0.0013428763410180207 0 -0.031399036230595971 0.0013403611716002431 0 -0.031399036230595971 0.0013403611716002431 0 -0.031445559308198083 0.0014031661219826895 0 -0.031631353005687243 0.0013791984266074654 0 -0.031464676677287709 0.001345727837281973 0 -0.031399036230595971 0.0013403611716002431 0 -0.031631353005687243 0.0013791984266074654 0 -0.031253532297204921 0.0016730124665483678 0 -0.031399036230595971 0.0013403611716002431 0 -0.031202540845484083 0.0013408280117500259 0 -0.031399036230595971 0.0013403611716002431 0 -0.031202540845484083 0.0013408280117500259 0 -0.031445559308198083 0.0014031661219826895 0 -0.031510460034962801 0.0012757744285522665 0 -0.031451988752389207 0.0013692224456661915 0 -0.031593605131277687 0.0013569238699062305 0 -0.031510460034962801 0.0012757744285522665 0 -0.03140401314367184 0.0012913486966450666 0 -0.031451988752389207 0.0013692224456661915 0 -0.031202540845484083 0.0013408280117500259 0 -0.03140401314367184 0.0012913486966450666 0 -0.031451988752389207 0.0013692224456661915 0 -0.031202540845484083 0.0013408280117500259 0 -0.031451988752389207 0.0013692224456661915 0 -0.031445559308198083 0.0014031661219826895 0 -0.031451988752389207 0.0013692224456661915 0 -0.031559323076741419 0.0014253899331141155 0 -0.031593605131277687 0.0013569238699062305 0 -0.031451988752389207 0.0013692224456661915 0 -0.031445559308198083 0.0014031661219826895 0 -0.031559323076741419 0.0014253899331141155 0 -0.031445559308198083 0.0014031661219826895 0 -0.03154051730491024 0.0014352123344758747 0 -0.031559323076741419 0.0014253899331141155 0 -0.031445559308198083 0.0014031661219826895 0 -0.031559094746091865 0.0014031507775743414 0 -0.03154051730491024 0.0014352123344758747 0 -0.03154051730491024 0.0014352123344758747 0 -0.031575356248368339 0.0014542893899812883 0 -0.031559323076741419 0.0014253899331141155 0 -0.031559094746091865 0.0014031507775743414 0 -0.03154051730491024 0.0014352123344758747 0 -0.031560835141857493 0.0014334629281422941 0 -0.03154051730491024 0.0014352123344758747 0 -0.031560835141857493 0.0014334629281422941 0 -0.031575356248368339 0.0014542893899812883 0 -0.031559094746091865 0.0014031507775743414 0 -0.031631353005687243 0.0013791984266074654 0 -0.032001188336016 0.0012563429953881329 0 -0.031445559308198083 0.0014031661219826895 0 -0.031559094746091865 0.0014031507775743414 0 -0.031631353005687243 0.0013791984266074654 0 -0.031559094746091865 0.0014031507775743414 0 -0.032001188336016 0.0012563429953881329 0 -0.031953003737105065 0.00086010523990092238 0 -0.031593918704462043 0.0013953385534408069 0 -0.031869951215746158 0.0010846240239152807 0 -0.032001188336016 0.0012563429953881329 0 -0.031953003737105065 0.00086010523990092238 0 -0.032348140026179327 0.00097809092643883779 0 -0.031577538308384528 0.0013880113539515148 0 -0.031552193511407541 0.0012484613752737838 0 -0.031550373207670929 0.0014621700866171423 0 -0.031559094746091865 0.0014031507775743414 0 -0.031577538308384528 0.0013880113539515148 0 -0.031756015218742398 0.0013252190370080926 0 -0.031560835141857493 0.0014334629281422941 0 -0.031577538308384528 0.0013880113539515148 0 -0.031550373207670929 0.0014621700866171423 0 -0.031559094746091865 0.0014031507775743414 0 -0.031560835141857493 0.0014334629281422941 0 -0.031577538308384528 0.0013880113539515148 0 -0.031577538308384528 0.0013880113539515148 0 -0.031552193511407541 0.0012484613752737838 0 -0.031756015218742398 0.0013252190370080926 0 -0.032024518133796129 0.0010791203168557266 0 -0.031820103007525379 0.0014002125539493359 0 -0.032441212192215671 0.00096734747530998952 0 -0.032418320135614985 0.00065309144258369556 0 -0.032205043687389114 0.00097584009328223009 0 -0.031756015218742398 0.0013252190370080926 0 -0.032027458552207101 0.00095998856852168453 0 -0.031754630087932847 0.0011089001797823005 0 -0.031552193511407541 0.0012484613752737838 0 -0.031756015218742398 0.0013252190370080926 0 -0.031754630087932847 0.0011089001797823005 0 -0.031869951215746158 0.0010846240239152807 0 -0.032145347582600875 0.00067525724601407507 0 -0.031953003737105065 0.00086010523990092238 0 -0.032691194170229712 0.00074041661091919829 0 -0.032509970394920644 0.00030276967002701319 0 -0.031953003737105065 0.00086010523990092238 0 -0.032691194170229712 0.00074041661091919829 0 -0.032348140026179327 0.00097809092643883779 0 -0.032691194170229712 0.00074041661091919829 0 -0.032348140026179327 0.00097809092643883779 0 -0.032757556329538799 0.0010892460785980351 0 -0.032791283160711296 0.0014717210359962774 0 -0.032001188336016 0.0012563429953881329 0 -0.032757556329538799 0.0010892460785980351 0 -0.032001188336016 0.0012563429953881329 0 -0.032348140026179327 0.00097809092643883779 0 -0.032757556329538799 0.0010892460785980351 0 -0.032757556329538799 0.0010892460785980351 0 -0.033151258796776058 0.00085934908880273982 0 -0.03315758909858444 0.001146274522193859 0 -0.032691194170229712 0.00074041661091919829 0 -0.033151258796776058 0.00085934908880273982 0 -0.033111278865089078 0.0005930335845495975 0 -0.032691194170229712 0.00074041661091919829 0 -0.032757556329538799 0.0010892460785980351 0 -0.033151258796776058 0.00085934908880273982 0 -0.032691194170229712 0.00074041661091919829 0 -0.033111278865089078 0.0005930335845495975 0 -0.03295333504985324 0.00042307061035037322 0 -0.033151258796776058 0.00085934908880273982 0 -0.033111278865089078 0.0005930335845495975 0 -0.033416527821972068 0.00054838354238693251 0 -0.034855106538431713 1.5147238159031981e-05 0 -0.035000427799381811 -1.0351528755634247e-07 0 -0.034997010419333612 3.4582302410124926e-07 0 -0.033111278865089078 0.0005930335845495975 0 -0.033408734302905439 0.00028748997924926001 0 -0.033416527821972068 0.00054838354238693251 0 -0.033111278865089078 0.0005930335845495975 0 -0.033408734302905439 0.00028748997924926001 0 -0.03295333504985324 0.00042307061035037322 0 -0.033408734302905439 0.00028748997924926001 0 -0.03295333504985324 0.00042307061035037322 0 -0.033092071846354147 9.2228352977012404e-05 0 -0.032691194170229712 0.00074041661091919829 0 -0.03295333504985324 0.00042307061035037322 0 -0.032509970394920644 0.00030276967002701319 0 -0.03295333504985324 0.00042307061035037322 0 -0.032509970394920644 0.00030276967002701319 0 -0.033092071846354147 9.2228352977012404e-05 0 -0.032509970394920644 0.00030276967002701319 0 -0.033092071846354147 9.2228352977012404e-05 0 -0.033009284790466609 -0.00049210533485731349 0 -0.032027458552207101 0.00095998856852168453 0 -0.03229748291216946 0.00043663368310830096 0 -0.032074473660241243 0.00040131822945576332 0 -0.032145347582600875 0.00067525724601407507 0 -0.033666608201224441 -2.0711345349664598e-05 0 -0.033408734302905439 0.00028748997924926001 0 -0.034034221625611469 -0.00019494617826059735 0 -0.033887738397224768 0.00016076356798073378 0 -0.033666608201224441 -2.0711345349664598e-05 0 -0.034075075249918083 -0.00023142741049299878 0 -0.033092071846354147 9.2228352977012404e-05 0 -0.033009284790466609 -0.00049210533485731349 0 -0.034034221625611469 -0.00019494617826059735 0 -0.033408734302905439 0.00028748997924926001 0 -0.033092071846354147 9.2228352977012404e-05 0 -0.034034221625611469 -0.00019494617826059735 0 -0.034034221625611469 -0.00019494617826059735 0 -0.034716432297920652 1.3339777624519766e-05 0 -0.034587163081022117 -2.326730617280334e-05 0 -0.034716432297920652 1.3339777624519766e-05 0 -0.034855106538431713 1.5147238159031981e-05 0 -0.034587163081022117 -2.326730617280334e-05 0 -0.034755637530423142 -0.00026751400620428638 0 -0.034034221625611469 -0.00019494617826059735 0 -0.034716432297920652 1.3339777624519766e-05 0 -0.033628383847148377 8.2127262716015373e-05 0 -0.035128712444620666 -0.00013622866818199884 0 -0.033666608201224441 -2.0711345349664598e-05 0 -0.034586094555388844 -0.00018913768533848583 0 -0.034716432297920652 1.3339777624519766e-05 0 -0.034583388294445183 3.9480061046022615e-05 0 -0.034855106538431713 1.5147238159031981e-05 0 -0.034905906755023502 -7.8510723988996364e-05 0 -0.034913529036108747 -3.6753420546422033e-05 0 -0.034855106538431713 1.5147238159031981e-05 0 -0.034653376420378391 6.497337160737389e-05 0 -0.034716432297920652 1.3339777624519766e-05 0 -0.034583388294445183 3.9480061046022615e-05 0 -0.033666608201224441 -2.0711345349664598e-05 0 -0.033628383847148377 8.2127262716015373e-05 0 -0.034913529036108747 -3.6753420546422033e-05 0 -0.034855106538431713 1.5147238159031981e-05 0 -0.034928710589326305 -1.6637487661783019e-05 0 -0.034855106538431713 1.5147238159031981e-05 0 -0.035000427799381811 -1.0351528755634247e-07 0 -0.034928710589326305 -1.6637487661783019e-05 0 -0.035000427799381811 -1.0351528755634247e-07 0 -0.034975185920166366 -1.5586048352139075e-05 0 -0.034958958661183058 -3.1106901420232942e-05 0 -0.035000427799381811 -1.0351528755634247e-07 0 -0.034928710589326305 -1.6637487661783019e-05 0 -0.034975185920166366 -1.5586048352139075e-05 0 -0.034928710589326305 -1.6637487661783019e-05 0 -0.034975185920166366 -1.5586048352139075e-05 0 -0.034948434759590391 -4.6373678761406013e-05 0 -0.034975185920166366 -1.5586048352139075e-05 0 -0.034948434759590391 -4.6373678761406013e-05 0 -0.034988907519585187 -5.9208371671036266e-05 0 -0.033628383847148377 8.2127262716015373e-05 0 -0.034337958847853629 6.1527912634846393e-05 0 -0.034905906755023502 -7.8510723988996364e-05 0 -0.034948434759590391 -4.6373678761406013e-05 0 -0.034988907519585187 -5.9208371671036266e-05 0 -0.033229014548415765 -4.4808141860071428e-05 0 -0.032587783918970992 -0.00015655377626530917 0 -0.032857289686931447 0.00010353296988995766 0 -0.034913529036108747 -3.6753420546422033e-05 0 -0.034928710589326305 -1.6637487661783019e-05 0 -0.034948434759590391 -4.6373678761406013e-05 0 -0.034905906755023502 -7.8510723988996364e-05 0 -0.034913529036108747 -3.6753420546422033e-05 0 -0.034948434759590391 -4.6373678761406013e-05 0 -0.034975185920166366 -1.5586048352139075e-05 0 -0.034972634277926296 -5.8009461667889059e-06 0 -0.034958958661183058 -3.1106901420232942e-05 0 -0.035024819131250981 -0.00012616991132013297 0 -0.034337958847853629 6.1527912634846393e-05 0 -0.032587783918970992 -0.00015655377626530917 0 -0.032624630029912442 0.00026934037454202968 0 -0.032336358376022604 0.00034813381349951025 0 -0.034337958847853629 6.1527912634846393e-05 0 -0.033647152679096397 9.1625991102143014e-05 0 -0.032587783918970992 -0.00015655377626530917 0 -0.032624630029912442 0.00026934037454202968 0 -0.032857289686931447 0.00010353296988995766 0 -0.033229014548415765 -4.4808141860071428e-05 0 -0.032857289686931447 0.00010353296988995766 0 -0.032840787440239452 0.00047275627333018386 0 -0.033628383847148377 8.2127262716015373e-05 0 -0.032159549782030637 0.00074435748824806119 0 -0.032027458552207101 0.00095998856852168453 0 -0.032074473660241243 0.00040131822945576332 0 -0.031736656325897797 0.00087679214496494602 0 -0.032624630029912442 0.00026934037454202968 0 -0.032857289686931447 0.00010353296988995766 0 -0.032840787440239452 0.00047275627333018386 0 -0.031552193511407541 0.0012484613752737838 0 -0.031736656325897797 0.00087679214496494602 0 -0.031754630087932847 0.0011089001797823005 0 -0.032027458552207101 0.00095998856852168453 0 -0.031736656325897797 0.00087679214496494602 0 -0.031754630087932847 0.0011089001797823005 0 -0.032024518133796129 0.0010791203168557266 0 -0.032159549782030637 0.00074435748824806119 0 -0.032441212192215671 0.00096734747530998952 0 -0.032840787440239452 0.00047275627333018386 0 -0.032418320135614985 0.00065309144258369556 0 -0.032336358376022604 0.00034813381349951025 0 -0.032418320135614985 0.00065309144258369556 0 -0.03213536970683304 0.0008065585471006562 0 -0.032624630029912442 0.00026934037454202968 0 -0.032336358376022604 0.00034813381349951025 0 -0.032418320135614985 0.00065309144258369556 0 -0.032624630029912442 0.00026934037454202968 0 -0.032840787440239452 0.00047275627333018386 0 -0.032418320135614985 0.00065309144258369556 0 -0.033647152679096397 9.1625991102143014e-05 0 -0.033059840938587153 0.00084977109158461633 0 -0.034919368269639463 -2.3646648120826302e-05 0 -0.034870646580385418 5.61917881853682e-05 0 -0.034926928259512463 0.00014322703575325138 0 -0.034919368269639463 -2.3646648120826302e-05 0 -0.034870646580385418 5.61917881853682e-05 0 -0.03482260131777646 -2.4045762391969923e-05 0 -0.032336358376022604 0.00034813381349951025 0 -0.03213536970683304 0.0008065585471006562 0 -0.03209630274033342 0.00084333870719510479 0 -0.032418320135614985 0.00065309144258369556 0 -0.03213536970683304 0.0008065585471006562 0 -0.032205043687389114 0.00097584009328223009 0 -0.032971358729764859 0.00089692844220613311 0 -0.033059840938587153 0.00084977109158461633 0 -0.034844515436634999 0.00013279189748151347 0 -0.034870646580385418 5.61917881853682e-05 0 -0.034783966003989919 0.00011092940036973507 0 -0.034844515436634999 0.00013279189748151347 0 -0.034870646580385418 5.61917881853682e-05 0 -0.034926928259512463 0.00014322703575325138 0 -0.034870646580385418 5.61917881853682e-05 0 -0.034783966003989919 0.00011092940036973507 0 -0.03482260131777646 -2.4045762391969923e-05 0 -0.034625104966682488 8.6742504543238356e-05 0 -0.03482260131777646 -2.4045762391969923e-05 0 -0.034694434587186095 -0.00010507974764897535 0 -0.034625104966682488 8.6742504543238356e-05 0 -0.034783966003989919 0.00011092940036973507 0 -0.034650698076314254 0.00025866980188750984 0 -0.034844515436634999 0.00013279189748151347 0 -0.034783966003989919 0.00011092940036973507 0 -0.034768682170593694 0.00023275163978337448 0 -0.034625104966682488 8.6742504543238356e-05 0 -0.034783966003989919 0.00011092940036973507 0 -0.03482260131777646 -2.4045762391969923e-05 0 -0.03482260131777646 -2.4045762391969923e-05 0 -0.034898757432720848 -6.2836249777260933e-05 0 -0.034694434587186095 -0.00010507974764897535 0 -0.034919368269639463 -2.3646648120826302e-05 0 -0.03482260131777646 -2.4045762391969923e-05 0 -0.034898757432720848 -6.2836249777260933e-05 0 -0.035000427799381811 -1.0351528755634247e-07 0 -0.034958958661183058 -3.1106901420232942e-05 0 -0.034999485962759917 -6.4477820188898075e-09 0 -0.034898757432720848 -6.2836249777260933e-05 0 -0.034958958661183058 -3.1106901420232942e-05 0 -0.034999485962759917 -6.4477820188898075e-09 0 -0.034926285592308051 -4.8927834657745101e-05 0 -0.034919368269639463 -2.3646648120826302e-05 0 -0.034898757432720848 -6.2836249777260933e-05 0 -0.034972634277926296 -5.8009461667889059e-06 0 -0.034898757432720848 -6.2836249777260933e-05 0 -0.034958958661183058 -3.1106901420232942e-05 0 -0.034337958847853629 6.1527912634846393e-05 0 -0.035160043428057633 -6.2827774581209882e-05 0 -0.034898757432720848 -6.2836249777260933e-05 0 -0.034787706759844585 -7.8619980104704698e-05 0 -0.034694434587186095 -0.00010507974764897535 0 -0.034999485962759917 -6.4477820188898075e-09 0 -0.034787706759844585 -7.8619980104704698e-05 0 -0.034893994878177563 -9.6516756082620075e-06 0 -0.034898757432720848 -6.2836249777260933e-05 0 -0.034999485962759917 -6.4477820188898075e-09 0 -0.034787706759844585 -7.8619980104704698e-05 0 -0.034787706759844585 -7.8619980104704698e-05 0 -0.034533029762497947 -0.0001949951014898549 0 -0.034893994878177563 -9.6516756082620075e-06 0 -0.034787706759844585 -7.8619980104704698e-05 0 -0.034533029762497947 -0.0001949951014898549 0 -0.034694434587186095 -0.00010507974764897535 0 -0.034625104966682488 8.6742504543238356e-05 0 -0.034694434587186095 -0.00010507974764897535 0 -0.034340602658779584 5.6793165072121218e-05 0 -0.034533029762497947 -0.0001949951014898549 0 -0.034694434587186095 -0.00010507974764897535 0 -0.034340602658779584 5.6793165072121218e-05 0 -0.034533029762497947 -0.0001949951014898549 0 -0.034340602658779584 5.6793165072121218e-05 0 -0.033909403019855178 3.8936162117515119e-05 0 -0.034533029762497947 -0.0001949951014898549 0 -0.033909403019855178 3.8936162117515119e-05 0 -0.033390541624493272 -0.00041053804101089266 0 -0.033903423511814836 0.00036455726301119578 0 -0.034085229884906039 0.00060440219941629931 0 -0.034383711886206036 0.00030685572647279157 0 -0.034340602658779584 5.6793165072121218e-05 0 -0.033903423511814836 0.00036455726301119578 0 -0.034383711886206036 0.00030685572647279157 0 -0.034340602658779584 5.6793165072121218e-05 0 -0.033909403019855178 3.8936162117515119e-05 0 -0.033903423511814836 0.00036455726301119578 0 -0.034085229884906039 0.00060440219941629931 0 -0.033938162615792092 0.0010552032308184505 0 -0.033524324588861842 0.00078463238241215712 0 -0.033903423511814836 0.00036455726301119578 0 -0.034085229884906039 0.00060440219941629931 0 -0.033524324588861842 0.00078463238241215712 0 -0.034085229884906039 0.00060440219941629931 0 -0.034383711886206036 0.00030685572647279157 0 -0.034636888927255791 0.00054892051280904419 0 -0.034085229884906039 0.00060440219941629931 0 -0.034636888927255791 0.00054892051280904419 0 -0.033938162615792092 0.0010552032308184505 0 -0.033538509082301292 0.001142200170732929 0 -0.033182831291220447 0.0013530745430750772 0 -0.034383711886206036 0.00030685572647279157 0 -0.034650698076314254 0.00025866980188750984 0 -0.034636888927255791 0.00054892051280904419 0 -0.034625104966682488 8.6742504543238356e-05 0 -0.034340602658779584 5.6793165072121218e-05 0 -0.034383711886206036 0.00030685572647279157 0 -0.034625104966682488 8.6742504543238356e-05 0 -0.034383711886206036 0.00030685572647279157 0 -0.034650698076314254 0.00025866980188750984 0 -0.032260312779118595 0.0017061118247153314 0 -0.032256341179602362 0.0017615582421892813 0 -0.032240955785138851 0.0017490636728813027 0 -0.033059840938587153 0.00084977109158461633 0 -0.033538509082301292 0.001142200170732929 0 -0.034768682170593694 0.00023275163978337448 0 -0.034926928259512463 0.00014322703575325138 0 -0.034636888927255791 0.00054892051280904419 0 -0.034650698076314254 0.00025866980188750984 0 -0.034768682170593694 0.00023275163978337448 0 -0.034636888927255791 0.00054892051280904419 0 -0.034783966003989919 0.00011092940036973507 0 -0.034650698076314254 0.00025866980188750984 0 -0.034768682170593694 0.00023275163978337448 0 -0.032441212192215671 0.00096734747530998952 0 -0.032205043687389114 0.00097584009328223009 0 -0.032058245992138142 0.001360832891718088 0 -0.033059840938587153 0.00084977109158461633 0 -0.031945933399852279 0.0016533573767457544 0 -0.032095709809739338 0.00084672114656509636 0 -0.032072961879061848 0.0011283078605448947 0 -0.031897287190475583 0.0013282028583920936 0 -0.032205043687389114 0.00097584009328223009 0 -0.032072961879061848 0.0011283078605448947 0 -0.032058245992138142 0.001360832891718088 0 -0.032205043687389114 0.00097584009328223009 0 -0.032095709809739338 0.00084672114656509636 0 -0.032072961879061848 0.0011283078605448947 0 -0.03213536970683304 0.0008065585471006562 0 -0.032205043687389114 0.00097584009328223009 0 -0.032095709809739338 0.00084672114656509636 0 -0.034844515436634999 0.00013279189748151347 0 -0.034768682170593694 0.00023275163978337448 0 -0.034926928259512463 0.00014322703575325138 0 -0.032058245992138142 0.001360832891718088 0 -0.031897287190475583 0.0013282028583920936 0 -0.031835519016809456 0.0014893532490897309 0 -0.032072961879061848 0.0011283078605448947 0 -0.032058245992138142 0.001360832891718088 0 -0.031897287190475583 0.0013282028583920936 0 -0.031560835141857493 0.0014334629281422941 0 -0.031550373207670929 0.0014621700866171423 0 -0.031575356248368339 0.0014542893899812883 0 -0.032256341179602362 0.0017615582421892813 0 -0.032240955785138851 0.0017490636728813027 0 -0.032224159847815216 0.0016259430516774498 0 -0.031897287190475583 0.0013282028583920936 0 -0.031835519016809456 0.0014893532490897309 0 -0.031862893552845377 0.0015061285688470294 0 -0.031945933399852279 0.0016533573767457544 0 -0.032083795671494712 0.0015124597829056197 0 -0.031835519016809456 0.0014893532490897309 0 -0.031862893552845377 0.0015061285688470294 0 -0.031813977165749484 0.0014271631749956722 0 -0.031835519016809456 0.0014893532490897309 0 -0.031744214268559945 0.0014469595808855313 0 -0.031813977165749484 0.0014271631749956722 0 -0.031550373207670929 0.0014621700866171423 0 -0.031835519016809456 0.0014893532490897309 0 -0.03166065511804577 0.001459607164082015 0 -0.031550373207670929 0.0014621700866171423 0 -0.031575356248368339 0.0014542893899812883 0 -0.03166065511804577 0.001459607164082015 0 -0.031820103007525379 0.0014002125539493359 0 -0.031835075883156337 0.0014621528435224266 0 -0.031835519016809456 0.0014893532490897309 0 -0.03166065511804577 0.001459607164082015 0 -0.031744214268559945 0.0014469595808855313 0 -0.03166065511804577 0.001459607164082015 0 -0.031744214268559945 0.0014469595808855313 0 -0.031689266050374094 0.001407961087313782 0 -0.03166065511804577 0.001459607164082015 0 -0.031559323076741419 0.0014253899331141155 0 -0.031689266050374094 0.001407961087313782 0 -0.031575356248368339 0.0014542893899812883 0 -0.03166065511804577 0.001459607164082015 0 -0.031559323076741419 0.0014253899331141155 0 -0.031559323076741419 0.0014253899331141155 0 -0.031689266050374094 0.001407961087313782 0 -0.031593605131277687 0.0013569238699062305 0 -0.031689266050374094 0.001407961087313782 0 -0.031748068699413858 0.0013283633542030371 0 -0.031593605131277687 0.0013569238699062305 0 -0.031744214268559945 0.0014469595808855313 0 -0.031689266050374094 0.001407961087313782 0 -0.031813977165749484 0.0014271631749956722 0 -0.031689266050374094 0.001407961087313782 0 -0.031748068699413858 0.0013283633542030371 0 -0.031813977165749484 0.0014271631749956722 0 -0.031784106157861917 0.0012078267645663403 0 -0.031748068699413858 0.0013283633542030371 0 -0.03164302244735958 0.0012657715244442751 0 -0.031748068699413858 0.0013283633542030371 0 -0.031593605131277687 0.0013569238699062305 0 -0.03164302244735958 0.0012657715244442751 0 -0.031510460034962801 0.0012757744285522665 0 -0.031593605131277687 0.0013569238699062305 0 -0.03164302244735958 0.0012657715244442751 0 -0.03223499287034113 0.0012783083257526886 0 -0.031862893552845377 0.0015061285688470294 0 -0.031899501364035326 0.0013557710190124728 0 -0.031862893552845377 0.0015061285688470294 0 -0.031813977165749484 0.0014271631749956722 0 -0.031899501364035326 0.0013557710190124728 0 -0.031784106157861917 0.0012078267645663403 0 -0.031748068699413858 0.0013283633542030371 0 -0.031899501364035326 0.0013557710190124728 0 -0.031748068699413858 0.0013283633542030371 0 -0.031813977165749484 0.0014271631749956722 0 -0.031899501364035326 0.0013557710190124728 0 -0.032214965682511323 0.0012909631766726054 0 -0.032083795671494712 0.0015124597829056197 0 -0.03223499287034113 0.0012783083257526886 0 -0.032224159847815216 0.0016259430516774498 0 -0.032371802493082552 0.0015119797282053564 0 -0.03223499287034113 0.0012783083257526886 0 -0.032371802493082552 0.0015119797282053564 0 -0.032960250456101688 0.001366536912116261 0 -0.032371802493082552 0.0015119797282053564 0 -0.032457446093726902 0.0016864944396573205 0 -0.032960250456101688 0.001366536912116261 0 -0.033182831291220447 0.0013530745430750772 0 -0.033012222136247583 0.0013613054611838085 0 -0.033938162615792092 0.0010552032308184505 0 -0.032960250456101688 0.001366536912116261 0 -0.033524324588861842 0.00078463238241215712 0 -0.032256341179602362 0.0017615582421892813 0 -0.032224159847815216 0.0016259430516774498 0 -0.032457446093726902 0.0016864944396573205 0 -0.032224159847815216 0.0016259430516774498 0 -0.032371802493082552 0.0015119797282053564 0 -0.032457446093726902 0.0016864944396573205 0 -0.033005813812819466 0.00085540999917207104 0 -0.032960250456101688 0.001366536912116261 0 -0.032568421621972231 0.0010757525676390782 0 -0.033005813812819466 0.00085540999917207104 0 -0.032568421621972231 0.0010757525676390782 0 -0.032730723120607416 0.00061361726555333616 0 -0.033005813812819466 0.00085540999917207104 0 -0.032960250456101688 0.001366536912116261 0 -0.033524324588861842 0.00078463238241215712 0 -0.032686860514594469 0.0014143900232375568 0 -0.032960250456101688 0.001366536912116261 0 -0.032568421621972231 0.0010757525676390782 0 -0.032077194595014021 0.0013875979185631955 0 -0.031947525767824045 0.0009879434348654347 0 -0.032568421621972231 0.0010757525676390782 0 -0.031947525767824045 0.0009879434348654347 0 -0.031929676903767308 0.00066032145922592027 0 -0.032290940257128961 0.00059367121956149934 0 -0.031947525767824045 0.0009879434348654347 0 -0.032568421621972231 0.0010757525676390782 0 -0.032290940257128961 0.00059367121956149934 0 -0.032568421621972231 0.0010757525676390782 0 -0.032730723120607416 0.00061361726555333616 0 -0.032290940257128961 0.00059367121956149934 0 -0.032730723120607416 0.00061361726555333616 0 -0.032290940257128961 0.00059367121956149934 0 -0.032707754776477208 0.00017742601358396184 0 -0.032290940257128961 0.00059367121956149934 0 -0.031995060953263453 8.6604107287748319e-05 0 -0.031891959108932333 0.00040591640220459692 0 -0.031929676903767308 0.00066032145922592027 0 -0.032290940257128961 0.00059367121956149934 0 -0.031891959108932333 0.00040591640220459692 0 -0.032295073158864734 0.00060204081413056654 0 -0.031960519151537102 4.8798288630803166e-05 0 -0.032290940257128961 0.00059367121956149934 0 -0.032132990204936922 0.00018173102214171489 0 -0.032707754776477208 0.00017742601358396184 0 -0.032730723120607416 0.00061361726555333616 0 -0.032707754776477208 0.00017742601358396184 0 -0.033289861186855806 0.00033013414452704668 0 -0.033005813812819466 0.00085540999917207104 0 -0.032730723120607416 0.00061361726555333616 0 -0.033289861186855806 0.00033013414452704668 0 -0.033005813812819466 0.00085540999917207104 0 -0.033524324588861842 0.00078463238241215712 0 -0.033289861186855806 0.00033013414452704668 0 -0.033903423511814836 0.00036455726301119578 0 -0.033524324588861842 0.00078463238241215712 0 -0.033289861186855806 0.00033013414452704668 0 -0.033909403019855178 3.8936162117515119e-05 0 -0.033903423511814836 0.00036455726301119578 0 -0.033289861186855806 0.00033013414452704668 0 -0.033909403019855178 3.8936162117515119e-05 0 -0.033289861186855806 0.00033013414452704668 0 -0.033390541624493272 -0.00041053804101089266 0 -0.034999485962759917 -6.4477820188898075e-09 0 -0.034893994878177563 -9.6516756082620075e-06 0 -0.034999552356928178 -2.6483503161728358e-07 0 -0.032707754776477208 0.00017742601358396184 0 -0.033289861186855806 0.00033013414452704668 0 -0.033390541624493272 -0.00041053804101089266 0 -0.032707754776477208 0.00017742601358396184 0 -0.033390541624493272 -0.00041053804101089266 0 -0.032596353556002065 -0.00035875293421515245 0 -0.03490382972125531 -0.00010231123370494356 0 -0.034928069571764621 -1.3349800710077298e-05 0 -0.034881681299048971 5.7583495364678422e-05 0 -0.034128658076677643 -0.00023586954591569447 0 -0.033769547214772634 -0.00016582967946660718 0 -0.034533029762497947 -0.0001949951014898549 0 -0.03490382972125531 -0.00010231123370494356 0 -0.034893994878177563 -9.6516756082620075e-06 0 -0.03490382972125531 -0.00010231123370494356 0 -0.034893994878177563 -9.6516756082620075e-06 0 -0.034928069571764621 -1.3349800710077298e-05 0 -0.034489490788656728 -0.00021281952824490645 0 -0.034128658076677643 -0.00023586954591569447 0 -0.034893994878177563 -9.6516756082620075e-06 0 -0.034928069571764621 -1.3349800710077298e-05 0 -0.034999552356928178 -2.6483503161728358e-07 0 -0.034999552356928178 -2.6483503161728358e-07 0 -0.034802065039750016 1.1478808556596435e-05 0 -0.034475347969195415 -0.00014630627602485626 0 -0.034928069571764621 -1.3349800710077298e-05 0 -0.034999552356928178 -2.6483503161728358e-07 0 -0.034802065039750016 1.1478808556596435e-05 0 -0.034802065039750016 1.1478808556596435e-05 0 -0.034881681299048971 5.7583495364678422e-05 0 -0.034689808678226706 0.00014971075016248636 0 -0.034928069571764621 -1.3349800710077298e-05 0 -0.034802065039750016 1.1478808556596435e-05 0 -0.034881681299048971 5.7583495364678422e-05 0 -0.032132990204936922 0.00018173102214171489 0 -0.032707754776477208 0.00017742601358396184 0 -0.032596353556002065 -0.00035875293421515245 0 -0.031960519151537102 4.8798288630803166e-05 0 -0.033149929243940009 1.5768736187830063e-05 0 -0.033769547214772634 -0.00016582967946660718 0 -0.033149929243940009 1.5768736187830063e-05 0 -0.032132990204936922 0.00018173102214171489 0 -0.032596353556002065 -0.00035875293421515245 0 -0.031938810153448481 -0.00028637164122385586 0 -0.031995060953263453 8.6604107287748319e-05 0 -0.031759296664722554 -9.2931047076459384e-05 0 -0.031720406826277268 -1.3483707896850855e-05 0 -0.031759296664722554 -9.2931047076459384e-05 0 -0.031709099689797265 5.1681358935171402e-05 0 -0.031720406826277268 -1.3483707896850855e-05 0 -0.034999552356928178 -2.6483503161728358e-07 0 -0.034475347969195415 -0.00014630627602485626 0 -0.034996996924733091 -2.0532998546031142e-07 0 -0.033149929243940009 1.5768736187830063e-05 0 -0.032639576314182392 0.00015301212181141551 0 -0.033625369060660722 0.00032610238421518407 0 -0.033577394413286991 -0.00012662298533960297 0 -0.032270527708194732 8.2065894503413595e-05 0 -0.032639576314182392 0.00015301212181141551 0 -0.03237859037530879 0.00012328440997453512 0 -0.031709099689797265 5.1681358935171402e-05 0 -0.032270527708194732 8.2065894503413595e-05 0 -0.031595085217596443 -8.0998812527405682e-05 0 -0.031709099689797265 5.1681358935171402e-05 0 -0.031595085217596443 -8.0998812527405682e-05 0 -0.031720406826277268 -1.3483707896850855e-05 0 -0.033625369060660722 0.00032610238421518407 0 -0.033577394413286991 -0.00012662298533960297 0 -0.033979085653459529 -0.00015167404174781817 0 -0.033149929243940009 1.5768736187830063e-05 0 -0.034377848588778542 3.9895533262799305e-05 0 -0.034802065039750016 1.1478808556596435e-05 0 -0.034689808678226706 0.00014971075016248636 0 -0.034597159659362754 4.1870585714437621e-05 0 -0.034124830284578633 0.00029678047333840798 0 -0.033625369060660722 0.00032610238421518407 0 -0.033979085653459529 -0.00015167404174781817 0 -0.034377848588778542 3.9895533262799305e-05 0 -0.034378200744159315 -0.0001982782644378876 0 -0.034802065039750016 1.1478808556596435e-05 0 -0.034597159659362754 4.1870585714437621e-05 0 -0.034475347969195415 -0.00014630627602485626 0 -0.033577394413286991 -0.00012662298533960297 0 -0.033979085653459529 -0.00015167404174781817 0 -0.034475347969195415 -0.00014630627602485626 0 -0.033577394413286991 -0.00012662298533960297 0 -0.034475347969195415 -0.00014630627602485626 0 -0.03343719849378083 -0.00013556935857022802 0 -0.034996996924733091 -2.0532998546031142e-07 0 -0.03343719849378083 -0.00013556935857022802 0 -0.031988045070397694 -1.1042708300451712e-06 0 -0.034475347969195415 -0.00014630627602485626 0 -0.034996996924733091 -2.0532998546031142e-07 0 -0.03343719849378083 -0.00013556935857022802 0 -0.033577394413286991 -0.00012662298533960297 0 -0.03343719849378083 -0.00013556935857022802 0 -0.032270527708194732 8.2065894503413595e-05 0 -0.03343719849378083 -0.00013556935857022802 0 -0.031988045070397694 -1.1042708300451712e-06 0 -0.032270527708194732 8.2065894503413595e-05 0 -0.031988045070397694 -1.1042708300451712e-06 0 -0.032270527708194732 8.2065894503413595e-05 0 -0.030751776603451294 -7.3047275982400284e-05 0 -0.031988045070397694 -1.1042708300451712e-06 0 -0.030751776603451294 -7.3047275982400284e-05 0 -0.027859682515970499 2.9083034479650107e-06 0 -0.030751776603451294 -7.3047275982400284e-05 0 -0.030441863861504864 0.00017313558637808038 0 -0.027859682515970499 2.9083034479650107e-06 0 -0.030441863861504864 0.00017313558637808038 0 -0.031414586399847164 5.6855025287242701e-05 0 -0.030670672693175433 0.00077042532329439336 0 -0.030751776603451294 -7.3047275982400284e-05 0 -0.030441863861504864 0.00017313558637808038 0 -0.031303447720204804 -6.9730064996836972e-05 0 -0.030441863861504864 0.00017313558637808038 0 -0.031303447720204804 -6.9730064996836972e-05 0 -0.031414586399847164 5.6855025287242701e-05 0 -0.032270527708194732 8.2065894503413595e-05 0 -0.030751776603451294 -7.3047275982400284e-05 0 -0.031303447720204804 -6.9730064996836972e-05 0 -0.031303447720204804 -6.9730064996836972e-05 0 -0.031595085217596443 -8.0998812527405682e-05 0 -0.031414586399847164 5.6855025287242701e-05 0 -0.032270527708194732 8.2065894503413595e-05 0 -0.031303447720204804 -6.9730064996836972e-05 0 -0.031595085217596443 -8.0998812527405682e-05 0 -0.031578339433648989 2.5086341440046094e-05 0 -0.032097490312897582 0.00035447384039873607 0 -0.031995060953263453 8.6604107287748319e-05 0 -0.031720406826277268 -1.3483707896850855e-05 0 -0.031891959108932333 0.00040591640220459692 0 -0.031595085217596443 -8.0998812527405682e-05 0 -0.031720406826277268 -1.3483707896850855e-05 0 -0.031579115350607562 0.00012601183823159206 0 -0.031720406826277268 -1.3483707896850855e-05 0 -0.031891959108932333 0.00040591640220459692 0 -0.031614039025918708 0.00063757275825498179 0 -0.031929676903767308 0.00066032145922592027 0 -0.031891959108932333 0.00040591640220459692 0 -0.031614039025918708 0.00063757275825498179 0 -0.031595085217596443 -8.0998812527405682e-05 0 -0.031579115350607562 0.00012601183823159206 0 -0.031414586399847164 5.6855025287242701e-05 0 -0.031414586399847164 5.6855025287242701e-05 0 -0.031122690051106669 0.0016322074071058248 0 -0.030670672693175433 0.00077042532329439336 0 -0.031579115350607562 0.00012601183823159206 0 -0.031414586399847164 5.6855025287242701e-05 0 -0.031308917494267424 0.00048314089679175431 0 -0.031579115350607562 0.00012601183823159206 0 -0.031308917494267424 0.00048314089679175431 0 -0.031436280305561067 0.00053374544208575079 0 -0.032097490312897582 0.00035447384039873607 0 -0.027831177167977287 0.00061337875441782827 0 -0.03203219652250916 0.0002282041113728263 0 -0.028991817928797813 0.0006742617843345873 0 -0.031947525767824045 0.0009879434348654347 0 -0.031929676903767308 0.00066032145922592027 0 -0.031614039025918708 0.00063757275825498179 0 -0.031947525767824045 0.0009879434348654347 0 -0.031614039025918708 0.00063757275825498179 0 -0.031473031992465039 0.0012255106170289138 0 -0.032077194595014021 0.0013875979185631955 0 -0.031947525767824045 0.0009879434348654347 0 -0.031473031992465039 0.0012255106170289138 0 -0.026994587042575017 0.00040657881911439729 0 -0.027831177167977287 0.00061337875441782827 0 -0.026796482022251267 0.00027454924045016045 0 -0.028991817928797813 0.0006742617843345873 0 -0.026468622039767502 0.00024300918070506271 0 -0.026468436121490017 0.00053684976690934934 0 -0.026320843126073416 0.00048337269955066553 0 -0.028991817928797813 0.0006742617843345873 0 -0.027831177167977287 0.00061337875441782827 0 -0.02715703410050329 0.00028983823120308061 0 -0.027166092911597824 -0.00010702575755803047 0 -0.026847308436669704 6.6904944342499538e-05 0 -0.028991817928797813 0.0006742617843345873 0 -0.028525270375464963 0.00052766115813867003 0 -0.027166092911597824 -0.00010702575755803047 0 -0.026847308436669704 6.6904944342499538e-05 0 -0.026971077752840158 -0.00016857741143940319 0 -0.025974449626820762 -4.6300013600109203e-08 0 -0.027850735529091498 4.9875957945624822e-08 0 -0.026971077752840158 -0.00016857741143940319 0 -0.025974449626820762 -4.6300013600109203e-08 0 -0.026847308436669704 6.6904944342499538e-05 0 -0.026971077752840158 -0.00016857741143940319 0 -0.030441863861504864 0.00017313558637808038 0 -0.027859682515970499 2.9083034479650107e-06 0 -0.029967899706288721 0.0013045243196599218 0 -0.027855272196233703 2.5968986509314885e-07 0 -0.028525270375464963 0.00052766115813867003 0 -0.031122690051106669 0.0016322074071058248 0 -0.029967899706288721 0.0013045243196599218 0 -0.030670672693175433 0.00077042532329439336 0 -0.030441863861504864 0.00017313558637808038 0 -0.029967899706288721 0.0013045243196599218 0 -0.030670672693175433 0.00077042532329439336 0 -0.016496418650921458 -0.0011410372333593515 0 -0.016693729965637265 -0.00096571699834892407 0 -0.016435030944571036 -0.00091373171908116406 0 -0.016496418650921458 -0.0011410372333593515 0 -0.016184283490921363 -0.0011866070712683915 0 -0.016435030944571036 -0.00091373171908116406 0 -0.016184283490921363 -0.0011866070712683915 0 -0.016435030944571036 -0.00091373171908116406 0 -0.016247137991233843 -0.0011603126085198041 0 -0.016184283490921363 -0.0011866070712683915 0 -0.015989537569903067 -0.0011730986573275765 0 -0.016483527647877673 -0.0014563496290744043 0 -0.016496418650921458 -0.0011410372333593515 0 -0.016709079800784142 -0.0011861401092898077 0 -0.016483527647877673 -0.0014563496290744043 0 -0.016496418650921458 -0.0011410372333593515 0 -0.016184283490921363 -0.0011866070712683915 0 -0.016483527647877673 -0.0014563496290744043 0 -0.016982786600128977 -0.001300930251456158 0 -0.016483527647877673 -0.0014563496290744043 0 -0.017115462501735516 -0.0015214416417408641 0 -0.016709079800784142 -0.0011861401092898077 0 -0.016982786600128977 -0.001300930251456158 0 -0.016483527647877673 -0.0014563496290744043 0 -0.016982786600128977 -0.001300930251456158 0 -0.017132377304529968 -0.0011457147858419427 0 -0.017115462501735516 -0.0015214416417408641 0 -0.017132377304529968 -0.0011457147858419427 0 -0.017115462501735516 -0.0015214416417408641 0 -0.017451012839979952 -0.0010525078271634387 0 -0.016982786600128977 -0.001300930251456158 0 -0.017132377304529968 -0.0011457147858419427 0 -0.016905921241894942 -0.0010799098084856812 0 -0.016634932125914926 -0.0018864483336904084 0 -0.021000807713377014 -0.00013149563447103821 0 -0.017132377304529968 -0.0011457147858419427 0 -0.016905921241894942 -0.0010799098084856812 0 -0.017134728564670361 -0.00084374124153723201 0 -0.021000807713377014 -0.00013149563447103821 0 -0.020716069483632204 -0.00044385693830019721 0 -0.017132377304529968 -0.0011457147858419427 0 -0.017134728564670361 -0.00084374124153723201 0 -0.017451012839979952 -0.0010525078271634387 0 -0.016905921241894942 -0.0010799098084856812 0 -0.016693729965637265 -0.00096571699834892407 0 -0.016835603832731132 -0.00073393481084638775 0 -0.016496418650921458 -0.0011410372333593515 0 -0.016709079800784142 -0.0011861401092898077 0 -0.016693729965637265 -0.00096571699834892407 0 -0.016709079800784142 -0.0011861401092898077 0 -0.016905921241894942 -0.0010799098084856812 0 -0.016693729965637265 -0.00096571699834892407 0 -0.016709079800784142 -0.0011861401092898077 0 -0.016982786600128977 -0.001300930251456158 0 -0.016905921241894942 -0.0010799098084856812 0 -0.02642118004236968 -0.00053721944054721505 0 -0.026067962406501177 -0.0003058058865101019 0 -0.021580478692505709 -0.0018044908225723062 0 -0.016693729965637265 -0.00096571699834892407 0 -0.016835603832731132 -0.00073393481084638775 0 -0.016435030944571036 -0.00091373171908116406 0 -0.02465524479282517 0.0004256204514960577 0 -0.025329052652325244 0.00059990153710402663 0 -0.024492597817117115 0.0005336045580296401 0 -0.023448590694483497 0.00010274914585632012 0 -0.028089675694696122 -0.00099688752059181305 0 -0.023448590694483497 0.00010274914585632012 0 -0.024739990769788806 0.00043342990339737252 0 -0.016905921241894942 -0.0010799098084856812 0 -0.016835603832731132 -0.00073393481084638775 0 -0.017119441696516111 -0.00089944899948497629 0 -0.025329052652325244 0.00059990153710402663 0 -0.024492597817117115 0.0005336045580296401 0 -0.027025555341945232 0.0013600512606389684 0 -0.028089675694696122 -0.00099688752059181305 0 -0.030642378299401932 0.0008537891737243476 0 -0.021000807713377014 -0.00013149563447103821 0 -0.026035739665124111 0.0014822682993317134 0 -0.023448590694483497 0.00010274914585632012 0 -0.021000807713377014 -0.00013149563447103821 0 -0.024656164961654806 0.00043234792822885085 0 -0.025329052652325244 0.00059990153710402663 0 -0.026268174057202106 -0.00063478399431181505 0 -0.025329052652325244 0.00059990153710402663 0 -0.026268174057202106 -0.00063478399431181505 0 -0.026594954550886313 0.00098037505528126602 0 -0.026268174057202106 -0.00063478399431181505 0 -0.026594954550886313 0.00098037505528126602 0 -0.027520984584621631 0.00064596464650325714 0 -0.025329052652325244 0.00059990153710402663 0 -0.026594954550886313 0.00098037505528126602 0 -0.027025555341945232 0.0013600512606389684 0 -0.026594954550886313 0.00098037505528126602 0 -0.027017892605348929 0.0013499436704626699 0 -0.027520984584621631 0.00064596464650325714 0 -0.034441910810096225 -1.0807276113000841e-06 0 -0.034431149317553644 -8.085970860114367e-05 0 -0.034446713542982781 -6.792831384267562e-05 0 -0.028922149158925527 0.00018080120242688555 0 -0.030642378299401932 0.0008537891737243476 0 -0.034441910810096225 -1.0807276113000841e-06 0 -0.03466573259234644 -5.6285763672906766e-05 0 -0.034477778326060929 -0.00010392265830186704 0 -0.034441910810096225 -1.0807276113000841e-06 0 -0.034477778326060929 -0.00010392265830186704 0 -0.034446713542982781 -6.792831384267562e-05 0 -0.028089675694696122 -0.00099688752059181305 0 -0.032051493570237448 -0.0013935190572145677 0 -0.03466573259234644 -5.6285763672906766e-05 0 -0.034684695990950518 -6.1382024650869117e-05 0 -0.034477778326060929 -0.00010392265830186704 0 -0.027539761238479753 -0.0019217189376950611 0 -0.028328650659775197 -0.0024355207307771194 0 -0.028231945617865829 -0.0017101411643288065 0 -0.028089675694696122 -0.00099688752059181305 0 -0.02169296707724009 -0.0017174086154844396 0 -0.023448590694483497 0.00010274914585632012 0 -0.02169296707724009 -0.0017174086154844396 0 -0.02169296707724009 -0.0017174086154844396 0 -0.019165978928486729 -0.0015824892760913632 0 -0.02169296707724009 -0.0017174086154844396 0 -0.026525953569644892 -0.0016607512415243567 0 -0.028231945617865829 -0.0017101411643288065 0 -0.028810804317701184 -0.0021626743213601627 0 -0.028968711909118119 -0.0015458891161818111 0 -0.021477862938863477 -0.0021879617605411131 0 -0.022778455742466376 -0.0019869055210084419 0 -0.022802340683879374 -0.001885405696775079 0 -0.028328650659775197 -0.0024355207307771194 0 -0.028810804317701184 -0.0021626743213601627 0 -0.029111662895977889 -0.0029149936871870888 0 -0.028328650659775197 -0.0024355207307771194 0 -0.028231945617865829 -0.0017101411643288065 0 -0.028810804317701184 -0.0021626743213601627 0 -0.03466573259234644 -5.6285763672906766e-05 0 -0.034684695990950518 -6.1382024650869117e-05 0 -0.034732208482094781 -6.9261189120828373e-05 0 -0.028810804317701184 -0.0021626743213601627 0 -0.029397428279303497 -0.0021927762365404288 0 -0.029111662895977889 -0.0029149936871870888 0 -0.029397428279303497 -0.0021927762365404288 0 -0.029705784334985573 -0.0027961628589584183 0 -0.029111662895977889 -0.0029149936871870888 0 -0.029397428279303497 -0.0021927762365404288 0 -0.030170392946888312 -0.002239398954683839 0 -0.029705784334985573 -0.0027961628589584183 0 -0.029397428279303497 -0.0021927762365404288 0 -0.030170392946888312 -0.002239398954683839 0 -0.029683399459378024 -0.0013866989554365973 0 -0.030170392946888312 -0.002239398954683839 0 -0.030380423779872486 -0.0012254966987822269 0 -0.029683399459378024 -0.0013866989554365973 0 -0.028810804317701184 -0.0021626743213601627 0 -0.029397428279303497 -0.0021927762365404288 0 -0.028968711909118119 -0.0015458891161818111 0 -0.029397428279303497 -0.0021927762365404288 0 -0.028968711909118119 -0.0015458891161818111 0 -0.029683399459378024 -0.0013866989554365973 0 -0.034667399139651021 -0.0012808785394244097 0 -0.035251294878491594 -0.0012553065061886074 0 -0.034917794974386053 -0.0021342864712363178 0 -0.035124897787808772 -0.0018657803923953146 0 -0.034548926036757091 -0.0026668662433299486 0 -0.034687856921645013 -0.0029450314597750998 0 -0.034555103298591523 -0.0027493543394883331 0 -0.034323781373881673 -0.0030849278936535313 0 -0.034687856921645013 -0.0029450314597750998 0 -0.034457168450440917 -0.0032816783142835884 0 -0.034587014912785791 -0.0034962987567207534 0 -0.03258835099059576 -0.002776593850754449 0 -0.030066645842806338 -0.0022799015779219208 0 -0.034687856921645013 -0.0029450314597750998 0 -0.034323781373881673 -0.0030849278936535313 0 -0.034457168450440917 -0.0032816783142835884 0 -0.034548926036757091 -0.0026668662433299486 0 -0.034127710197271698 -0.0032793724057810555 0 -0.034323781373881673 -0.0030849278936535313 0 -0.034319647548937425 -0.0033869841377651218 0 -0.034076279110384841 -0.0033490311910530602 0 -0.034323781373881673 -0.0030849278936535313 0 -0.034457168450440917 -0.0032816783142835884 0 -0.034319647548937425 -0.0033869841377651218 0 -0.034319647548937425 -0.0033869841377651218 0 -0.034285033515577039 -0.0038236310030500963 0 -0.034076279110384841 -0.0033490311910530602 0 -0.034319647548937425 -0.0033869841377651218 0 -0.034439030857666364 -0.0035571409573279087 0 -0.034285033515577039 -0.0038236310030500963 0 -0.034457168450440917 -0.0032816783142835884 0 -0.034319647548937425 -0.0033869841377651218 0 -0.034439030857666364 -0.0035571409573279087 0 -0.026013019175436407 -0.0010002438897162803 0 -0.025924576227296658 -0.0013781298231115549 0 -0.024316755078847913 -0.001486922992876004 0 -0.034439030857666364 -0.0035571409573279087 0 -0.03451999660117936 -0.0035687956912304011 0 -0.03452008525595901 -0.0035184766764342623 0 -0.034250237307182282 -0.0024444431583523609 0 -0.030066645842806338 -0.0022799015779219208 0 -0.025659974488416695 -0.0025690300033196492 0 -0.030066645842806338 -0.0022799015779219208 0 -0.034457168450440917 -0.0032816783142835884 0 -0.034439030857666364 -0.0035571409573279087 0 -0.034587014912785791 -0.0034962987567207534 0 -0.016892297741020242 -0.0013640323670604756 0 -0.017044812467689276 -0.00099797804598408032 0 -0.016509383355577101 -0.0011494071697097257 0 -0.025659974488416695 -0.0025690300033196492 0 -0.021012667645956579 -0.0015189381074442003 0 -0.034439030857666364 -0.0035571409573279087 0 -0.03451999660117936 -0.0035687956912304011 0 -0.034285033515577039 -0.0038236310030500963 0 -0.024476267365090142 -0.003806957692468959 0 -0.024951235998074129 -0.0016921327811154137 0 -0.026924373556272824 -0.0030377882289102241 0 -0.025659974488416695 -0.0025690300033196492 0 -0.031467097467759941 -0.0032827762158260032 0 -0.024951235998074129 -0.0016921327811154137 0 -0.026924373556272824 -0.0030377882289102241 0 -0.027408059658083232 -0.00090544090490517887 0 -0.022802340683879374 -0.001885405696775079 0 -0.024316755078847913 -0.001486922992876004 0 -0.024262478568152664 -0.0017220753396963121 0 -0.022778455742466376 -0.0019869055210084419 0 -0.022802340683879374 -0.001885405696775079 0 -0.024262478568152664 -0.0017220753396963121 0 -0.016184283490921363 -0.0011866070712683915 0 -0.016247137991233843 -0.0011603126085198041 0 -0.016352433527809296 -0.0013420891650901725 0 -0.019165978928486729 -0.0015824892760913632 0 -0.019715167362078227 -0.0014404190758280397 0 -0.026525953569644892 -0.0016607512415243567 0 -0.026545656795001506 -0.0015783549304837295 0 -0.025659974488416695 -0.0025690300033196492 0 -0.019715167362078227 -0.0014404190758280397 0 -0.030066645842806338 -0.0022799015779219208 0 -0.026545656795001506 -0.0015783549304837295 0 -0.025924576227296658 -0.0013781298231115549 0 -0.024316755078847913 -0.001486922992876004 0 -0.024262478568152664 -0.0017220753396963121 0 -0.016352433527809296 -0.0013420891650901725 0 -0.016509383355577101 -0.0011494071697097257 0 -0.015989537569903067 -0.0011730986573275765 0 -0.016892297741020242 -0.0013640323670604756 0 -0.016352433527809296 -0.0013420891650901725 0 -0.016509383355577101 -0.0011494071697097257 0 -0.016184283490921363 -0.0011866070712683915 0 -0.016352433527809296 -0.0013420891650901725 0 -0.015989537569903067 -0.0011730986573275765 0 -0.015989537569903067 -0.0011730986573275765 0 -0.016379112794694114 -0.00091166197386945147 0 -0.016332461425271755 -0.00050387152706801556 0 -0.016509383355577101 -0.0011494071697097257 0 -0.016379112794694114 -0.00091166197386945147 0 -0.01680686280807794 -0.00068664658713989092 0 -0.016379112794694114 -0.00091166197386945147 0 -0.016332461425271755 -0.00050387152706801556 0 -0.01680686280807794 -0.00068664658713989092 0 -0.016509383355577101 -0.0011494071697097257 0 -0.015989537569903067 -0.0011730986573275765 0 -0.016379112794694114 -0.00091166197386945147 0 -0.016332461425271755 -0.00050387152706801556 0 -0.01680686280807794 -0.00068664658713989092 0 -0.0168286313798463 -0.00026821628389936256 0 -0.016332461425271755 -0.00050387152706801556 0 -0.0168286313798463 -0.00026821628389936256 0 -0.016261620453833756 0.00011322232810424086 0 -0.015989537569903067 -0.0011730986573275765 0 -0.016332461425271755 -0.00050387152706801556 0 -0.015737978014309883 1.9227560902030226e-06 0 -0.016332461425271755 -0.00050387152706801556 0 -0.015737978014309883 1.9227560902030226e-06 0 -0.016261620453833756 0.00011322232810424086 0 -0.024951235998074129 -0.0016921327811154137 0 -0.025425484514129751 0.00044126424816776051 0 -0.027408059658083232 -0.00090544090490517887 0 -0.021689165778961395 -0.00061115316095445833 0 -0.024826319186898035 -0.0012703346547825762 0 -0.024247280062919745 -0.0023606730848861326 0 -0.02156451464094061 -0.00016258895793966782 0 -0.025862784713490367 -0.0016551149890657003 0 -0.017044812467689276 -0.00099797804598408032 0 -0.01680686280807794 -0.00068664658713989092 0 -0.017225944282098015 -0.00055591253040349401 0 -0.017044812467689276 -0.00099797804598408032 0 -0.016509383355577101 -0.0011494071697097257 0 -0.01680686280807794 -0.00068664658713989092 0 -0.021012667645956579 -0.0015189381074442003 0 -0.02156451464094061 -0.00016258895793966782 0 -0.01680686280807794 -0.00068664658713989092 0 -0.017162290035419914 -0.00050762124545048685 0 -0.017225944282098015 -0.00055591253040349401 0 -0.01680686280807794 -0.00068664658713989092 0 -0.0168286313798463 -0.00026821628389936256 0 -0.016966304025233608 -0.00043854303469031768 0 -0.0168286313798463 -0.00026821628389936256 0 -0.017293786098789787 -1.5994141669482707e-05 0 -0.016750891399653932 0.00011414486351580274 0 -0.0168286313798463 -0.00026821628389936256 0 -0.017095814133094748 -0.00029455448928176998 0 -0.017202391986689273 -6.8725663158403778e-05 0 -0.01676639575304056 -0.000377782909688764 0 -0.018096749181338478 -3.111063529955458e-05 0 -0.01680686280807794 -0.00068664658713989092 0 -0.016966304025233608 -0.00043854303469031768 0 -0.017162290035419914 -0.00050762124545048685 0 -0.017095814133094748 -0.00029455448928176998 0 -0.016966304025233608 -0.00043854303469031768 0 -0.017162290035419914 -0.00050762124545048685 0 -0.0168286313798463 -0.00026821628389936256 0 -0.017095814133094748 -0.00029455448928176998 0 -0.016966304025233608 -0.00043854303469031768 0 -0.02041112557670537 -0.00037953441434183558 0 -0.023219416918708102 -0.0014856679482892592 0 -0.021689165778961395 -0.00061115316095445833 0 -0.022133052853784679 0.0013222566977342323 0 -0.024826319186898035 -0.0012703346547825762 0 -0.021186044237127402 -0.0012784326806624159 0 -0.021702748607040172 -0.00097325126872057656 0 -0.022038331982138133 -0.0012859198986292415 0 -0.02156451464094061 -0.00016258895793966782 0 -0.02041112557670537 -0.00037953441434183558 0 -0.017095814133094748 -0.00029455448928176998 0 -0.017162290035419914 -0.00050762124545048685 0 -0.01733649710261171 -0.00019245759394785107 0 -0.017162290035419914 -0.00050762124545048685 0 -0.017243003108639247 -0.00055960475090165911 0 -0.01733649710261171 -0.00019245759394785107 0 -0.020724586706722028 0.00016582491010079533 0 -0.02156451464094061 -0.00016258895793966782 0 -0.017095814133094748 -0.00029455448928176998 0 -0.01733649710261171 -0.00019245759394785107 0 -0.017202391986689273 -6.8725663158403778e-05 0 -0.019618328046445099 -0.00011288662047612557 0 -0.019582097564050018 -0.00026333248345965227 0 -0.019702296854695101 -0.00019712999067637613 0 -0.02041112557670537 -0.00037953441434183558 0 -0.018096749181338478 -3.111063529955458e-05 0 -0.02041112557670537 -0.00037953441434183558 0 -0.019566732836940205 -0.00020607407855611251 0 -0.018304981349385682 0.00016793194539984865 0 -0.018098014884158044 -0.00017957863835333184 0 -0.018942369954340444 0.00027014972275174779 0 -0.019566732836940205 -0.00020607407855611251 0 -0.020160217022235808 -0.00046451351405101275 0 -0.021252563977230333 -0.00097833595190974622 0 -0.021949275351182233 -0.00060058485016483429 0 -0.021702748607040172 -0.00097325126872057656 0 -0.01843567772776528 0.00038554105702329113 0 -0.018304981349385682 0.00016793194539984865 0 -0.018942369954340444 0.00027014972275174779 0 -0.01843567772776528 0.00038554105702329113 0 -0.018304981349385682 0.00016793194539984865 0 -0.018016830352551288 0.00027088949419972283 0 -0.021186044237127402 -0.0012784326806624159 0 -0.021252563977230333 -0.00097833595190974622 0 -0.021702748607040172 -0.00097325126872057656 0 -0.018098014884158044 -0.00017957863835333184 0 -0.017937426041543247 -5.9578580410387582e-07 0 -0.018091669816767589 7.4863017048968728e-05 0 -0.018304981349385682 0.00016793194539984865 0 -0.018098014884158044 -0.00017957863835333184 0 -0.018091669816767589 7.4863017048968728e-05 0 -0.019566732836940205 -0.00020607407855611251 0 -0.018096749181338478 -3.111063529955458e-05 0 -0.018098014884158044 -0.00017957863835333184 0 -0.01780239677345349 -0.00033719966012187876 0 -0.017937426041543247 -5.9578580410387582e-07 0 -0.017937426041543247 -5.9578580410387582e-07 0 -0.018016830352551288 0.00027088949419972283 0 -0.017578005310449518 0.00032898785682993013 0 -0.017937426041543247 -5.9578580410387582e-07 0 -0.018091669816767589 7.4863017048968728e-05 0 -0.018016830352551288 0.00027088949419972283 0 -0.018304981349385682 0.00016793194539984865 0 -0.018091669816767589 7.4863017048968728e-05 0 -0.018016830352551288 0.00027088949419972283 0 -0.018096749181338478 -3.111063529955458e-05 0 -0.016586251944200436 0.00059048648479167922 0 -0.01780239677345349 -0.00033719966012187876 0 -0.017578005310449518 0.00032898785682993013 0 -0.016902907666975216 0.00053387944597024794 0 -0.017293786098789787 -1.5994141669482707e-05 0 -0.016750891399653932 0.00011414486351580274 0 -0.016629994007145404 0.00062547030378021793 0 -0.01780239677345349 -0.00033719966012187876 0 -0.017937426041543247 -5.9578580410387582e-07 0 -0.017578005310449518 0.00032898785682993013 0 -0.016980352326013259 0.0012251122347762895 0 -0.016737872753824275 0.0010688097391610334 0 -0.016027159618189554 0.00090125750444989704 0 -0.017578005310449518 0.00032898785682993013 0 -0.017309807628688847 0.0010997729061810809 0 -0.016902907666975216 0.00053387944597024794 0 -0.016843126598238337 0.00086594950393964205 0 -0.016586251944200436 0.00059048648479167922 0 -0.016737872753824275 0.0010688097391610334 0 -0.016837818338238449 0.0010309792882508704 0 -0.016478633558896772 0.00053354594677181748 0 -0.016980352326013259 0.0012251122347762895 0 -0.016737872753824275 0.0010688097391610334 0 -0.016840463876119781 0.0010296875869157136 0 -0.016821548022234255 0.00088293842269586268 0 -0.016843126598238337 0.00086594950393964205 0 -0.016400590266886752 0.00028887702048975306 0 -0.016378817907236769 0.00025804250850899174 0 -0.016498398539249424 0.00020938626428247027 0 -0.016843126598238337 0.00086594950393964205 0 -0.017212680093583409 0.00053858769366598987 0 -0.01615299602735832 0.00082497238953920275 0 -0.016843126598238337 0.00086594950393964205 0 -0.017578005310449518 0.00032898785682993013 0 -0.017309807628688847 0.0010997729061810809 0 -0.018111354258777662 0.00079801315843161383 0 -0.018016830352551288 0.00027088949419972283 0 -0.017578005310449518 0.00032898785682993013 0 -0.018111354258777662 0.00079801315843161383 0 -0.01843567772776528 0.00038554105702329113 0 -0.018016830352551288 0.00027088949419972283 0 -0.018111354258777662 0.00079801315843161383 0 -0.017212680093583409 0.00053858769366598987 0 -0.018350394414925315 -7.6876085011386142e-05 0 -0.01843567772776528 0.00038554105702329113 0 -0.018111354258777662 0.00079801315843161383 0 -0.018916373674516831 0.0004930026440772157 0 -0.015737978014309883 1.9227560902030226e-06 0 -0.015998944750103418 0.00049110580599867702 0 -0.016261620453833756 0.00011322232810424086 0 -0.015737978014309883 1.9227560902030226e-06 0 -0.015998944750103418 0.00049110580599867702 0 -0.015592206231163908 0.00064549611170577382 0 -0.015998944750103418 0.00049110580599867702 0 -0.016261620453833756 0.00011322232810424086 0 -0.016437442973430978 0.00060972617741696003 0 -0.0168286313798463 -0.00026821628389936256 0 -0.016750891399653932 0.00011414486351580274 0 -0.016261620453833756 0.00011322232810424086 0 -0.016269369960560408 0.00016597285506742744 0 -0.016586251944200436 0.00059048648479167922 0 -0.016750891399653932 0.00011414486351580274 0 -0.016261620453833756 0.00011322232810424086 0 -0.016629994007145404 0.00062547030378021793 0 -0.015998944750103418 0.00049110580599867702 0 -0.016095147780779601 0.00070900884784754674 0 -0.016437442973430978 0.00060972617741696003 0 -0.016095147780779601 0.00070900884784754674 0 -0.016027159618189554 0.00090125750444989704 0 -0.01588074360335686 0.00079250484028786227 0 -0.01615299602735832 0.00082497238953920275 0 -0.016084278698340969 0.00097306353932428004 0 -0.016095147780779601 0.00070900884784754674 0 -0.016224679218575049 0.00078110898170536498 0 -0.016027159618189554 0.00090125750444989704 0 -0.016737872753824275 0.0010688097391610334 0 -0.016478633558896772 0.00053354594677181748 0 -0.016224679218575049 0.00078110898170536498 0 -0.016095147780779601 0.00070900884784754674 0 -0.016437442973430978 0.00060972617741696003 0 -0.016224679218575049 0.00078110898170536498 0 -0.016586251944200436 0.00059048648479167922 0 -0.016363206358361027 0.00074006685355873882 0 -0.016737872753824275 0.0010688097391610334 0 -0.016224679218575049 0.00078110898170536498 0 -0.016027159618189554 0.00090125750444989704 0 -0.015921559980673874 0.00089358590011181507 0 -0.016027159618189554 0.00090125750444989704 0 -0.01594331495457053 0.00090749260496601107 0 -0.016027159618189554 0.00090125750444989704 0 -0.01594331495457053 0.00090749260496601107 0 -0.01588074360335686 0.00079250484028786227 0 -0.015927728991935671 0.0010006405757926296 0 -0.01594331495457053 0.00090749260496601107 0 -0.01588074360335686 0.00079250484028786227 0 -0.015927728991935671 0.0010006405757926296 0 -0.01588074360335686 0.00079250484028786227 0 -0.015592206231163908 0.00064549611170577382 0 -0.015998944750103418 0.00049110580599867702 0 -0.016095147780779601 0.00070900884784754674 0 -0.01588074360335686 0.00079250484028786227 0 -0.015998944750103418 0.00049110580599867702 0 -0.01588074360335686 0.00079250484028786227 0 -0.015592206231163908 0.00064549611170577382 0 -0.011867073791182138 -0.00039626304249772539 0 -0.011521369689605441 -0.00015682733831942785 0 -0.015927728991935671 0.0010006405757926296 0 -0.015592206231163908 0.00064549611170577382 0 -0.01492536744889222 0.00094245505310669604 0 -0.0090721322690712099 -0.0019004531631520969 0 -0.0081108393970289478 -0.0012266786216810442 0 -0.0091901261449254933 -0.001210665964732864 0 -0.014964885905507177 0.00024184254712806538 0 -0.014345767986278631 -0.00027373444742714138 0 -0.014016576906189617 0.0004718160385567251 0 -0.01492536744889222 0.00094245505310669604 0 -0.014964885905507177 0.00024184254712806538 0 -0.014016576906189617 0.0004718160385567251 0 -0.01492536744889222 0.00094245505310669604 0 -0.014016576906189617 0.0004718160385567251 0 -0.013261416916986572 0.0004856199807117616 0 -0.011521369689605441 -0.00015682733831942785 0 -0.011460893507297379 -5.9989938352530305e-05 0 -0.015737978014309883 1.9227560902030226e-06 0 -0.015592206231163908 0.00064549611170577382 0 -0.014964885905507177 0.00024184254712806538 0 -0.015592206231163908 0.00064549611170577382 0 -0.01492536744889222 0.00094245505310669604 0 -0.014964885905507177 0.00024184254712806538 0 -0.015989537569903067 -0.0011730986573275765 0 -0.015737978014309883 1.9227560902030226e-06 0 -0.015090114055819635 -0.00047425822349519406 0 -0.015737978014309883 1.9227560902030226e-06 0 -0.014964885905507177 0.00024184254712806538 0 -0.015090114055819635 -0.00047425822349519406 0 -0.014964885905507177 0.00024184254712806538 0 -0.015090114055819635 -0.00047425822349519406 0 -0.014345767986278631 -0.00027373444742714138 0 -0.015090114055819635 -0.00047425822349519406 0 -0.014345767986278631 -0.00027373444742714138 0 -0.014427445211567269 -0.0013530924328146493 0 -0.015989537569903067 -0.0011730986573275765 0 -0.015090114055819635 -0.00047425822349519406 0 -0.014427445211567269 -0.0013530924328146493 0 -0.015918155431628129 -0.0012247413183475357 0 -0.015591393234356231 -0.0013362586005944857 0 -0.012238469104913349 -0.0017313647630375539 0 -0.013035094379672827 -0.00069575772485239976 0 -0.011781294155395848 -0.0010457156745915081 0 -0.014605426120928716 -0.0017881122954162261 0 -0.013103018619934821 -0.00061188398244939411 0 -0.015591393234356231 -0.0013362586005944857 0 -0.014605426120928716 -0.0017881122954162261 0 -0.014345767986278631 -0.00027373444742714138 0 -0.014427445211567269 -0.0013530924328146493 0 -0.013616649800427788 -0.0004601652897818217 0 -0.014427445211567269 -0.0013530924328146493 0 -0.013086469213716546 -0.0013914845855372356 0 -0.013616649800427788 -0.0004601652897818217 0 -0.013103018619934821 -0.00061188398244939411 0 -0.014040536015764497 0.00046910673246422193 0 -0.014345767986278631 -0.00027373444742714138 0 -0.013616649800427788 -0.0004601652897818217 0 -0.014016576906189617 0.0004718160385567251 0 -0.012340021829724671 -0.00043883992057238032 0 -0.013261416916986572 0.0004856199807117616 0 -0.011335960929354459 -0.00034982608779906475 0 -0.013035094379672827 -0.00069575772485239976 0 -0.012340021829724671 -0.00043883992057238032 0 -0.011781294155395848 -0.0010457156745915081 0 -0.013035094379672827 -0.00069575772485239976 0 -0.012340021829724671 -0.00043883992057238032 0 -0.013261416916986572 0.0004856199807117616 0 -0.01067008282660571 -0.00082914391707646681 0 -0.009697117362443837 -0.0005175923301711158 0 -0.011335960929354459 -0.00034982608779906475 0 -0.01067008282660571 -0.00082914391707646681 0 -0.009697117362443837 -0.0005175923301711158 0 -0.009893332251296752 -0.0011831380989191257 0 -0.011460893507297379 -5.9989938352530305e-05 0 -0.011302746787341359 -0.00031779022970813769 0 -0.013035094379672827 -0.00069575772485239976 0 -0.014016576906189617 0.0004718160385567251 0 -0.013261416916986572 0.0004856199807117616 0 -0.0081108393970289478 -0.0012266786216810442 0 -0.009697117362443837 -0.0005175923301711158 0 -0.0091901261449254933 -0.001210665964732864 0 -0.009697117362443837 -0.0005175923301711158 0 -0.0091901261449254933 -0.001210665964732864 0 -0.009893332251296752 -0.0011831380989191257 0 -0.0090721322690712099 -0.0019004531631520969 0 -0.0091901261449254933 -0.001210665964732864 0 -0.009893332251296752 -0.0011831380989191257 0 -0.0090721322690712099 -0.0019004531631520969 0 -0.009893332251296752 -0.0011831380989191257 0 -0.010710519666986962 -0.0014913366157644011 0 -0.01067008282660571 -0.00082914391707646681 0 -0.009893332251296752 -0.0011831380989191257 0 -0.010710519666986962 -0.0014913366157644011 0 -0.0078883858363981239 -0.0017325939306474399 0 -0.01010709799728764 -0.0020916881358601343 0 -0.01067008282660571 -0.00082914391707646681 0 -0.010710519666986962 -0.0014913366157644011 0 -0.011234170791748585 -0.00073001615347303267 0 -0.010710519666986962 -0.0014913366157644011 0 -0.011234170791748585 -0.00073001615347303267 0 -0.011617486196637992 -0.0010277791432418868 0 -0.01067008282660571 -0.00082914391707646681 0 -0.011234170791748585 -0.00073001615347303267 0 -0.011335960929354459 -0.00034982608779906475 0 -0.011234170791748585 -0.00073001615347303267 0 -0.011335960929354459 -0.00034982608779906475 0 -0.011310663709798809 -0.00051545440368119442 0 -0.011234170791748585 -0.00073001615347303267 0 -0.011506282944315938 -0.00056148757642604985 0 -0.011617486196637992 -0.0010277791432418868 0 -0.013447465976283421 -0.0021334455703097333 0 -0.013393820827313649 -0.0025508698679049513 0 -0.013627250514232752 -0.0024830440958003653 0 -0.01522294846483176 -0.0020354870577211637 0 -0.01010709799728764 -0.0020916881358601343 0 -0.011234170791748585 -0.00073001615347303267 0 -0.011506282944315938 -0.00056148757642604985 0 -0.011310663709798809 -0.00051545440368119442 0 -0.01522294846483176 -0.0020354870577211637 0 -0.01540305980073178 -0.0034205888493153394 0 -0.0053305948943604122 -0.0018986463273919516 0 -0.0057741732495140688 -0.0020318631040373569 0 -0.0053374141245471577 -0.0021377687955951344 0 -0.01010709799728764 -0.0020916881358601343 0 -0.01540305980073178 -0.0034205888493153394 0 -0.011080991268841212 -0.0030291337781187489 0 -0.011609631936729911 -0.0034310082684453052 0 -0.012046363108832125 -0.0027370793912593651 0 -0.010924429126785925 -0.0045773403669769185 0 -0.011609631936729911 -0.0034310082684453052 0 -0.012386885039096556 -0.0033799995496608375 0 -0.0084157356087171398 -0.0034077028073997901 0 -0.01010709799728764 -0.0020916881358601343 0 -0.010924429126785925 -0.0045773403669769185 0 -0.011080991268841212 -0.0030291337781187489 0 -0.011609631936729911 -0.0034310082684453052 0 -0.014375632969938894 -0.0038482833869608003 0 -0.014537171141210873 -0.0041555959570979267 0 -0.015219840091989765 -0.0035891235304268566 0 -0.012109667619230283 -0.0051169322561086007 0 -0.012096446230669121 -0.0051036174249200761 0 -0.012084407377918192 -0.0051253481756112313 0 -0.012109667619230283 -0.0051169322561086007 0 -0.01240127159145352 -0.0051898408274979871 0 -0.012222326324615514 -0.0053284011680923438 0 -0.0084157356087171398 -0.0034077028073997901 0 -0.013225145712340848 -0.0043931368626915698 0 -0.012165365220580713 -0.0051838978362576272 0 -0.013225145712340848 -0.0043931368626915698 0 -0.013225145712340848 -0.0043931368626915698 0 -0.015657382020036536 -0.0040563921483779321 0 -0.01540305980073178 -0.0034205888493153394 0 -0.013225145712340848 -0.0043931368626915698 0 -0.011609631936729911 -0.0034310082684453052 0 -0.012046363108832125 -0.0027370793912593651 0 -0.012386885039096556 -0.0033799995496608375 0 -0.012096446230669121 -0.0051036174249200761 0 -0.012084407377918192 -0.0051253481756112313 0 -0.012101014509150495 -0.0050913819798295862 0 -0.012096446230669121 -0.0051036174249200761 0 -0.012101014509150495 -0.0050913819798295862 0 -0.01210522008309811 -0.0050676352801265305 0 -0.012062864244071192 -0.0051457776525825703 0 -0.012084407377918192 -0.0051253481756112313 0 -0.012103664880727645 -0.0051116716017055178 0 -0.012084407377918192 -0.0051253481756112313 0 -0.012101014509150495 -0.0050913819798295862 0 -0.012103664880727645 -0.0051116716017055178 0 -0.012101014509150495 -0.0050913819798295862 0 -0.012124894778279523 -0.005068547870472429 0 -0.012103664880727645 -0.0051116716017055178 0 -0.012124894778279523 -0.005068547870472429 0 -0.01211680166538257 -0.0050569868136297264 0 -0.012163108172627694 -0.0050056289299463506 0 -0.01211680166538257 -0.0050569868136297264 0 -0.012106809931458573 -0.0050617782911778018 0 -0.012163108172627694 -0.0050056289299463506 0 -0.015657382020036536 -0.0040563921483779321 0 -0.015561220327055789 -0.0045764272653652498 0 -0.020285974356246902 -0.003667623783779861 0 -0.020410631428740836 -0.0032357286552492743 0 -0.020916240329105412 -0.0031622307365400111 0 -0.012101014509150495 -0.0050913819798295862 0 -0.012124894778279523 -0.005068547870472429 0 -0.01211680166538257 -0.0050569868136297264 0 -0.012101014509150495 -0.0050913819798295862 0 -0.01211680166538257 -0.0050569868136297264 0 -0.01210522008309811 -0.0050676352801265305 0 -0.014224636779653056 -0.0044878681306567041 0 -0.015657382020036536 -0.0040563921483779321 0 -0.020285974356246902 -0.003667623783779861 0 -0.020410631428740836 -0.0032357286552492743 0 -0.020170226923809022 -0.0033398699212270734 0 -0.01540305980073178 -0.0034205888493153394 0 -0.015657382020036536 -0.0040563921483779321 0 -0.019650630530860157 -0.0038544225668105613 0 -0.020285974356246902 -0.003667623783779861 0 -0.019885822056309083 -0.0034417049002646561 0 -0.01938947744200906 -0.0033247164601868757 0 -0.019650630530860157 -0.0038544225668105613 0 -0.019885822056309083 -0.0034417049002646561 0 -0.020285974356246902 -0.003667623783779861 0 -0.020170226923809022 -0.0033398699212270734 0 -0.019885822056309083 -0.0034417049002646561 0 -0.020170226923809022 -0.0033398699212270734 0 -0.019885822056309083 -0.0034417049002646561 0 -0.02009824263176295 -0.0030165029680571803 0 -0.01938947744200906 -0.0033247164601868757 0 -0.019885822056309083 -0.0034417049002646561 0 -0.019770315718031912 -0.0029289950994519256 0 -0.019885822056309083 -0.0034417049002646561 0 -0.019770315718031912 -0.0029289950994519256 0 -0.02009824263176295 -0.0030165029680571803 0 -0.019770315718031912 -0.0029289950994519256 0 -0.02009824263176295 -0.0030165029680571803 0 -0.01998867531640049 -0.0026683809189042549 0 -0.02009824263176295 -0.0030165029680571803 0 -0.01998867531640049 -0.0026683809189042549 0 -0.02028145620563078 -0.0026027022742250595 0 -0.019770315718031912 -0.0029289950994519256 0 -0.01998867531640049 -0.0026683809189042549 0 -0.019799790500848145 -0.0025312795385468816 0 -0.019770315718031912 -0.0029289950994519256 0 -0.019799790500848145 -0.0025312795385468816 0 -0.019495104738586136 -0.0026379987837862554 0 -0.020410631428740836 -0.0032357286552492743 0 -0.020493360795621744 -0.0029160765943103627 0 -0.020916240329105412 -0.0031622307365400111 0 -0.020410631428740836 -0.0032357286552492743 0 -0.02009824263176295 -0.0030165029680571803 0 -0.020493360795621744 -0.0029160765943103627 0 -0.020410631428740836 -0.0032357286552492743 0 -0.020170226923809022 -0.0033398699212270734 0 -0.02009824263176295 -0.0030165029680571803 0 -0.02009824263176295 -0.0030165029680571803 0 -0.020493360795621744 -0.0029160765943103627 0 -0.02028145620563078 -0.0026027022742250595 0 -0.020493360795621744 -0.0029160765943103627 0 -0.02028145620563078 -0.0026027022742250595 0 -0.020778695505225944 -0.0025582599271923205 0 -0.020493360795621744 -0.0029160765943103627 0 -0.020778695505225944 -0.0025582599271923205 0 -0.020916240329105412 -0.0031622307365400111 0 -0.024905333121901536 -0.0013821268748319317 0 -0.033758089945577281 0.0024793992553228854 0 -0.02028145620563078 -0.0026027022742250595 0 -0.020778695505225944 -0.0025582599271923205 0 -0.020073846819997295 -0.0020419582810561718 0 -0.024905333121901536 -0.0013821268748319317 0 -0.02724806818255341 -0.00026713542512470383 0 -0.03268001328580647 0.001846650812020367 0 -0.032916319541827457 0.0017647078298511471 0 -0.032862672036670683 0.0016910356482698063 0 -0.019807622292642168 -0.0022283326849697332 0 -0.019495104738586136 -0.0026379987837862554 0 -0.01960607361991289 -0.0019321976066159702 0 -0.019799790500848145 -0.0025312795385468816 0 -0.019807622292642168 -0.0022283326849697332 0 -0.019495104738586136 -0.0026379987837862554 0 -0.019799790500848145 -0.0025312795385468816 0 -0.02003107444048972 -0.0023115231145747271 0 -0.019807622292642168 -0.0022283326849697332 0 -0.01998867531640049 -0.0026683809189042549 0 -0.02028145620563078 -0.0026027022742250595 0 -0.02003107444048972 -0.0023115231145747271 0 -0.02028145620563078 -0.0026027022742250595 0 -0.02003107444048972 -0.0023115231145747271 0 -0.020073846819997295 -0.0020419582810561718 0 -0.01998867531640049 -0.0026683809189042549 0 -0.019799790500848145 -0.0025312795385468816 0 -0.02003107444048972 -0.0023115231145747271 0 -0.02003107444048972 -0.0023115231145747271 0 -0.020070265655727049 -0.002021983053398642 0 -0.019807622292642168 -0.0022283326849697332 0 -0.024471737299434432 -0.0022066813858356718 0 -0.02724806818255341 -0.00026713542512470383 0 -0.020070265655727049 -0.002021983053398642 0 -0.019807622292642168 -0.0022283326849697332 0 -0.019841449142207132 -0.0019284052538418386 0 -0.019807622292642168 -0.0022283326849697332 0 -0.01960607361991289 -0.0019321976066159702 0 -0.019841449142207132 -0.0019284052538418386 0 -0.016657733001060309 -0.0013557887967027896 0 -0.016511828751187303 -0.0016365099183624674 0 -0.016231943609391567 -0.0011163156401318645 0 -0.016657733001060309 -0.0013557887967027896 0 -0.016231943609391567 -0.0011163156401318645 0 -0.016912680627293616 -0.0010983584099976823 0 -0.016657733001060309 -0.0013557887967027896 0 -0.016839996840804519 -0.001629839546065966 0 -0.016912680627293616 -0.0010983584099976823 0 -0.018163511824306974 -0.0022491367580782053 0 -0.020381403022679927 -0.0014728993487955642 0 -0.016657733001060309 -0.0013557887967027896 0 -0.016839996840804519 -0.001629839546065966 0 -0.016511828751187303 -0.0016365099183624674 0 -0.011781294155395848 -0.0010457156745915081 0 -0.011132695426601811 -0.00070288581405471458 0 -0.011477854991315052 -0.0016758004702954858 0 -0.013600229358611035 -0.00090828597983960929 0 -0.015698991431621706 -0.001511454686078838 0 -0.012238469104913349 -0.0017313647630375539 0 -0.011781294155395848 -0.0010457156745915081 0 -0.011477854991315052 -0.0016758004702954858 0 -0.011781294155395848 -0.0010457156745915081 0 -0.011335960929354459 -0.00034982608779906475 0 -0.011132695426601811 -0.00070288581405471458 0 -0.012340021829724671 -0.00043883992057238032 0 -0.011781294155395848 -0.0010457156745915081 0 -0.011335960929354459 -0.00034982608779906475 0 -0.011335960929354459 -0.00034982608779906475 0 -0.011310663709798809 -0.00051545440368119442 0 -0.011132695426601811 -0.00070288581405471458 0 -0.011506282944315938 -0.00056148757642604985 0 -0.011310663709798809 -0.00051545440368119442 0 -0.011132695426601811 -0.00070288581405471458 0 -0.016773567021528078 -0.0021438205843098621 0 -0.016839996840804519 -0.001629839546065966 0 -0.016511828751187303 -0.0016365099183624674 0 -0.01522294846483176 -0.0020354870577211637 0 -0.018163511824306974 -0.0022491367580782053 0 -0.01522294846483176 -0.0020354870577211637 0 -0.013600229358611035 -0.00090828597983960929 0 -0.01938947744200906 -0.0033247164601868757 0 -0.019770315718031912 -0.0029289950994519256 0 -0.019495104738586136 -0.0026379987837862554 0 -0.029736907979202719 0.0038294305760030916 0 -0.030316109437036436 0.0041097573981604685 0 -0.029824085233889398 0.0047866758965431034 0 -0.01779926510214698 -0.0028619457553827905 0 -0.018515299583883729 -0.0034152987533912658 0 -0.030316109437036436 0.0041097573981604685 0 -0.029824085233889398 0.0047866758965431034 0 -0.030835029312947859 0.0042593775532538203 0 -0.029228999992513112 0.0037603400715574276 0 -0.029736907979202719 0.0038294305760030916 0 -0.029824085233889398 0.0047866758965431034 0 -0.029736907979202719 0.0038294305760030916 0 -0.030099574511533361 0.0037437996725873707 0 -0.030316109437036436 0.0041097573981604685 0 -0.029736907979202719 0.0038294305760030916 0 -0.030099574511533361 0.0037437996725873707 0 -0.029884555277489729 0.003514218657102997 0 -0.030099574511533361 0.0037437996725873707 0 -0.030491729282043613 0.0038760884033343579 0 -0.030399636624105948 0.0035675571660968488 0 -0.030491729282043613 0.0038760884033343579 0 -0.030710598930294535 0.0035886307287718499 0 -0.030399636624105948 0.0035675571660968488 0 -0.030099574511533361 0.0037437996725873707 0 -0.030491729282043613 0.0038760884033343579 0 -0.030316109437036436 0.0041097573981604685 0 -0.0079564891892049735 -0.0073383809081330673 0 -0.007324023352888745 -0.0075379010144417929 0 -0.0081044135738444299 -0.0081388377860172056 0 -0.0086115083049465146 -0.0073061449305839082 0 -0.0079564891892049735 -0.0073383809081330673 0 -0.0081044135738444299 -0.0081388377860172056 0 -0.0096765231857594593 -0.007321926456259664 0 -0.011132020947586248 -0.0071926692461349645 0 -0.010304372716829933 -0.0067515076444066933 0 -0.0094972012970480479 -0.0073756457207628948 0 -0.0096765231857594593 -0.007321926456259664 0 -0.010304372716829933 -0.0067515076444066933 0 -0.006256621508501415 -0.0092105585334187143 0 -0.01779926510214698 -0.0028619457553827905 0 -0.0095553065772375437 -0.0072249851911671209 0 -0.018515299583883729 -0.0034152987533912658 0 -0.012007278037492533 -0.0052506603778359291 0 -0.01193469819223862 -0.006392731747492531 0 -0.012331053733701242 -0.006220264370435595 0 -0.0096765231857594593 -0.007321926456259664 0 -0.0086115083049465146 -0.0073061449305839082 0 -0.0081044135738444299 -0.0081388377860172056 0 -0.030840220021397666 0.0042431578120619602 0 -0.031972603522635423 0.0035645813220976925 0 -0.031286948900714318 0.0034560404726367861 0 -0.030316109437036436 0.0041097573981604685 0 -0.030835029312947859 0.0042593775532538203 0 -0.03082271575373605 0.0041195748309001464 0 -0.018515299583883729 -0.0034152987533912658 0 -0.019840883719424062 -0.0014612142127812388 0 -0.03082271575373605 0.0041195748309001464 0 -0.030768642960243644 0.003861887241571904 0 -0.030970894215995273 0.0036982170603221676 0 -0.030491729282043613 0.0038760884033343579 0 -0.030316109437036436 0.0041097573981604685 0 -0.03082271575373605 0.0041195748309001464 0 -0.030840220021397666 0.0042431578120619602 0 -0.03082271575373605 0.0041195748309001464 0 -0.030970894215995273 0.0036982170603221676 0 -0.030491729282043613 0.0038760884033343579 0 -0.03082271575373605 0.0041195748309001464 0 -0.030768642960243644 0.003861887241571904 0 -0.030491729282043613 0.0038760884033343579 0 -0.030768642960243644 0.003861887241571904 0 -0.030710598930294535 0.0035886307287718499 0 -0.030768642960243644 0.003861887241571904 0 -0.030970894215995273 0.0036982170603221676 0 -0.030710598930294535 0.0035886307287718499 0 -0.030840220021397666 0.0042431578120619602 0 -0.030970894215995273 0.0036982170603221676 0 -0.031286948900714318 0.0034560404726367861 0 -0.01193469819223862 -0.006392731747492531 0 -0.012331053733701242 -0.006220264370435595 0 -0.012816204623974224 -0.0070376544719271128 0 -0.018515299583883729 -0.0034152987533912658 0 -0.022567972038359065 -0.0016197058764591636 0 -0.01272334915751587 -0.0064438887041024014 0 -0.012331053733701242 -0.006220264370435595 0 -0.012816204623974224 -0.0070376544719271128 0 -0.01272334915751587 -0.0064438887041024014 0 -0.012331053733701242 -0.006220264370435595 0 -0.012466569016216462 -0.0058672673448312198 0 -0.012007278037492533 -0.0052506603778359291 0 -0.012331053733701242 -0.006220264370435595 0 -0.012466569016216462 -0.0058672673448312198 0 -0.01218460750368516 -0.0052006210684857473 0 -0.012466569016216462 -0.0058672673448312198 0 -0.013321560189212168 -0.0063496754573265967 0 -0.012178648372496707 -0.0052563644965626776 0 -0.013073206264382955 -0.0056597461732656841 0 -0.01218460750368516 -0.0052006210684857473 0 -0.012103664880727645 -0.0051116716017055178 0 -0.012156910087883228 -0.0050433888775575642 0 -0.012124894778279523 -0.005068547870472429 0 -0.012103664880727645 -0.0051116716017055178 0 -0.012156910087883228 -0.0050433888775575642 0 -0.012124894778279523 -0.005068547870472429 0 -0.012156910087883228 -0.0050433888775575642 0 -0.012163108172627694 -0.0050056289299463506 0 -0.013321560189212168 -0.0063496754573265967 0 -0.013619291659440799 -0.0069155467569907581 0 -0.012816204623974224 -0.0070376544719271128 0 -0.01272334915751587 -0.0064438887041024014 0 -0.012466569016216462 -0.0058672673448312198 0 -0.013321560189212168 -0.0063496754573265967 0 -0.01272334915751587 -0.0064438887041024014 0 -0.013321560189212168 -0.0063496754573265967 0 -0.012816204623974224 -0.0070376544719271128 0 -0.013073206264382955 -0.0056597461732656841 0 -0.015561220327055789 -0.0045764272653652498 0 -0.032864214607569622 0.0029601906432448945 0 -0.032229268335405035 0.0027259224611503952 0 -0.031972603522635423 0.0035645813220976925 0 -0.024905333121901536 -0.0013821268748319317 0 -0.022567972038359065 -0.0016197058764591636 0 -0.013968029613554369 -0.0076616432028612262 0 -0.013619291659440799 -0.0069155467569907581 0 -0.012816204623974224 -0.0070376544719271128 0 -0.024905333121901536 -0.0013821268748319317 0 -0.015561220327055789 -0.0045764272653652498 0 -0.032864214607569622 0.0029601906432448945 0 -0.032229268335405035 0.0027259224611503952 0 -0.032625425130514127 0.0023307861435581849 0 -0.032864214607569622 0.0029601906432448945 0 -0.032625425130514127 0.0023307861435581849 0 -0.033107478269091842 0.0021207411069515012 0 -0.032229268335405035 0.0027259224611503952 0 -0.031719545319243973 0.0025115558202263941 0 -0.032269023503831956 0.0021709781766293614 0 -0.032229268335405035 0.0027259224611503952 0 -0.031638924114813317 0.0030083410924430284 0 -0.031719545319243973 0.0025115558202263941 0 -0.032229268335405035 0.0027259224611503952 0 -0.031638924114813317 0.0030083410924430284 0 -0.031972603522635423 0.0035645813220976925 0 -0.031638924114813317 0.0030083410924430284 0 -0.031972603522635423 0.0035645813220976925 0 -0.031286948900714318 0.0034560404726367861 0 -0.030970894215995273 0.0036982170603221676 0 -0.031286948900714318 0.0034560404726367861 0 -0.030938040708841725 0.003329447103637093 0 -0.031286948900714318 0.0034560404726367861 0 -0.030938040708841725 0.003329447103637093 0 -0.031222184047693963 0.0031354671328881032 0 -0.030970894215995273 0.0036982170603221676 0 -0.030710598930294535 0.0035886307287718499 0 -0.030938040708841725 0.003329447103637093 0 -0.030710598930294535 0.0035886307287718499 0 -0.030938040708841725 0.003329447103637093 0 -0.030634988999632184 0.0033309265790753412 0 -0.031222184047693963 0.0031354671328881032 0 -0.031315020932826093 0.0028472796848466146 0 -0.030972805645143115 0.00307831677602282 0 -0.030938040708841725 0.003329447103637093 0 -0.031222184047693963 0.0031354671328881032 0 -0.030972805645143115 0.00307831677602282 0 -0.031638924114813317 0.0030083410924430284 0 -0.031286948900714318 0.0034560404726367861 0 -0.031222184047693963 0.0031354671328881032 0 -0.031638924114813317 0.0030083410924430284 0 -0.031719545319243973 0.0025115558202263941 0 -0.031315020932826093 0.0028472796848466146 0 -0.031638924114813317 0.0030083410924430284 0 -0.031222184047693963 0.0031354671328881032 0 -0.031315020932826093 0.0028472796848466146 0 -0.031719545319243973 0.0025115558202263941 0 -0.031315020932826093 0.0028472796848466146 0 -0.031238373635351039 0.0026158750737115101 0 -0.031315020932826093 0.0028472796848466146 0 -0.031072409064128323 0.0028503730113196824 0 -0.031238373635351039 0.0026158750737115101 0 -0.031315020932826093 0.0028472796848466146 0 -0.031072409064128323 0.0028503730113196824 0 -0.030972805645143115 0.00307831677602282 0 -0.031555968210915435 0.0031298259463618224 0 -0.031059692203008075 0.0034281705121316729 0 -0.031072409064128323 0.0028503730113196824 0 -0.030901461495867262 0.002987011844000857 0 -0.030972805645143115 0.00307831677602282 0 -0.030920970088720478 0.0024452242375990812 0 -0.030957775983388159 0.0027680533461631406 0 -0.030779349414428041 0.0031881483019889998 0 -0.031072409064128323 0.0028503730113196824 0 -0.031238373635351039 0.0026158750737115101 0 -0.030957775983388159 0.0027680533461631406 0 -0.031072409064128323 0.0028503730113196824 0 -0.030957775983388159 0.0027680533461631406 0 -0.030901461495867262 0.002987011844000857 0 -0.031238373635351039 0.0026158750737115101 0 -0.030957775983388159 0.0027680533461631406 0 -0.031103785768756338 0.0024664422988350649 0 -0.030920970088720478 0.0024452242375990812 0 -0.030957775983388159 0.0027680533461631406 0 -0.031103785768756338 0.0024664422988350649 0 -0.029555690580554204 0.0028951007718759792 0 -0.02986659728337893 0.0030158014077574596 0 -0.030090594882968988 0.0030227023339363334 0 -0.029555690580554204 0.0028951007718759792 0 -0.02986659728337893 0.0030158014077574596 0 -0.029677373885011491 0.0031097137071858794 0 -0.02986659728337893 0.0030158014077574596 0 -0.030090594882968988 0.0030227023339363334 0 -0.030017911860141955 0.0031458866255078492 0 -0.030957775983388159 0.0027680533461631406 0 -0.030901461495867262 0.002987011844000857 0 -0.030779349414428041 0.0031881483019889998 0 -0.030901461495867262 0.002987011844000857 0 -0.030972805645143115 0.00307831677602282 0 -0.03085311263465574 0.0031208581372290426 0 -0.030972805645143115 0.00307831677602282 0 -0.03079644266983449 0.0032019598142835654 0 -0.03085311263465574 0.0031208581372290426 0 -0.030938040708841725 0.003329447103637093 0 -0.030972805645143115 0.00307831677602282 0 -0.03079644266983449 0.0032019598142835654 0 -0.030901461495867262 0.002987011844000857 0 -0.03085311263465574 0.0031208581372290426 0 -0.030779349414428041 0.0031881483019889998 0 -0.03079644266983449 0.0032019598142835654 0 -0.03085311263465574 0.0031208581372290426 0 -0.030779349414428041 0.0031881483019889998 0 -0.03079644266983449 0.0032019598142835654 0 -0.030779349414428041 0.0031881483019889998 0 -0.030634988999632184 0.0033309265790753412 0 -0.030088852951341335 0.0029352096031355548 0 -0.030192564117147033 0.0031349481566046544 0 -0.030634988999632184 0.0033309265790753412 0 -0.031059692203008075 0.0034281705121316729 0 -0.030989208399526139 0.003345178470758786 0 -0.031059692203008075 0.0034281705121316729 0 -0.0307662816213332 0.0032534584120507857 0 -0.030192564117147033 0.0031349481566046544 0 -0.030634988999632184 0.0033309265790753412 0 -0.030316672967862595 0.0033678661655940916 0 -0.030192564117147033 0.0031349481566046544 0 -0.030316672967862595 0.0033678661655940916 0 -0.030095438472976948 0.0034274785191054746 0 -0.030938040708841725 0.003329447103637093 0 -0.03079644266983449 0.0032019598142835654 0 -0.030634988999632184 0.0033309265790753412 0 -0.030710598930294535 0.0035886307287718499 0 -0.030634988999632184 0.0033309265790753412 0 -0.030399636624105948 0.0035675571660968488 0 -0.030099574511533361 0.0037437996725873707 0 -0.030399636624105948 0.0035675571660968488 0 -0.030095438472976948 0.0034274785191054746 0 -0.030316672967862595 0.0033678661655940916 0 -0.030399636624105948 0.0035675571660968488 0 -0.030095438472976948 0.0034274785191054746 0 -0.030634988999632184 0.0033309265790753412 0 -0.030316672967862595 0.0033678661655940916 0 -0.030399636624105948 0.0035675571660968488 0 -0.030099574511533361 0.0037437996725873707 0 -0.029884555277489729 0.003514218657102997 0 -0.030095438472976948 0.0034274785191054746 0 -0.029736907979202719 0.0038294305760030916 0 -0.029884555277489729 0.003514218657102997 0 -0.029639152961659213 0.0033386710001281259 0 -0.029884555277489729 0.003514218657102997 0 -0.030095438472976948 0.0034274785191054746 0 -0.029868438028467809 0.0032143109778631457 0 -0.029884555277489729 0.003514218657102997 0 -0.029639152961659213 0.0033386710001281259 0 -0.029868438028467809 0.0032143109778631457 0 -0.029639152961659213 0.0033386710001281259 0 -0.029677373885011491 0.0031097137071858794 0 -0.029868438028467809 0.0032143109778631457 0 -0.02986659728337893 0.0030158014077574596 0 -0.029677373885011491 0.0031097137071858794 0 -0.029868438028467809 0.0032143109778631457 0 -0.02986659728337893 0.0030158014077574596 0 -0.030017911860141955 0.0031458866255078492 0 -0.029868438028467809 0.0032143109778631457 0 -0.030090594882968988 0.0030227023339363334 0 -0.030192564117147033 0.0031349481566046544 0 -0.030017911860141955 0.0031458866255078492 0 -0.030095438472976948 0.0034274785191054746 0 -0.030017911860141955 0.0031458866255078492 0 -0.029868438028467809 0.0032143109778631457 0 -0.030192564117147033 0.0031349481566046544 0 -0.030095438472976948 0.0034274785191054746 0 -0.030017911860141955 0.0031458866255078492 0 -0.031386897506495565 0.0017668440966978709 0 -0.031143307512061846 0.0020565819957305848 0 -0.031349197285082404 0.0022729099684047115 0 -0.030920970088720478 0.0024452242375990812 0 -0.031143307512061846 0.0020565819957305848 0 -0.031103785768756338 0.0024664422988350649 0 -0.031143307512061846 0.0020565819957305848 0 -0.031103785768756338 0.0024664422988350649 0 -0.031349197285082404 0.0022729099684047115 0 -0.031238373635351039 0.0026158750737115101 0 -0.031103785768756338 0.0024664422988350649 0 -0.031349197285082404 0.0022729099684047115 0 -0.031386897506495565 0.0017668440966978709 0 -0.031349197285082404 0.0022729099684047115 0 -0.031807957821389357 0.0020812624839688402 0 -0.031719545319243973 0.0025115558202263941 0 -0.031238373635351039 0.0026158750737115101 0 -0.031349197285082404 0.0022729099684047115 0 -0.031719545319243973 0.0025115558202263941 0 -0.031349197285082404 0.0022729099684047115 0 -0.031807957821389357 0.0020812624839688402 0 -0.031386897506495565 0.0017668440966978709 0 -0.031807957821389357 0.0020812624839688402 0 -0.03229273400671432 0.0016488212973884066 0 -0.03229273400671432 0.0016488212973884066 0 -0.032269023503831956 0.0021709781766293614 0 -0.032675104223169792 0.0019012972730818572 0 -0.031807957821389357 0.0020812624839688402 0 -0.03229273400671432 0.0016488212973884066 0 -0.032269023503831956 0.0021709781766293614 0 -0.031719545319243973 0.0025115558202263941 0 -0.031807957821389357 0.0020812624839688402 0 -0.032269023503831956 0.0021709781766293614 0 -0.032229268335405035 0.0027259224611503952 0 -0.032269023503831956 0.0021709781766293614 0 -0.032625425130514127 0.0023307861435581849 0 -0.032269023503831956 0.0021709781766293614 0 -0.032625425130514127 0.0023307861435581849 0 -0.032675104223169792 0.0019012972730818572 0 -0.032625425130514127 0.0023307861435581849 0 -0.032675104223169792 0.0019012972730818572 0 -0.033107478269091842 0.0021207411069515012 0 -0.03229273400671432 0.0016488212973884066 0 -0.032675104223169792 0.0019012972730818572 0 -0.03283493609908314 0.001566137724903319 0 -0.032675104223169792 0.0019012972730818572 0 -0.03283493609908314 0.001566137724903319 0 -0.032965317739476252 0.0017212093816901461 0 -0.03283493609908314 0.001566137724903319 0 -0.032965317739476252 0.0017212093816901461 0 -0.033029358789071893 0.0015408141287637739 0 -0.03283493609908314 0.001566137724903319 0 -0.033005722210277401 0.0014175133940398281 0 -0.033029358789071893 0.0015408141287637739 0 -0.03283493609908314 0.001566137724903319 0 -0.032816910881968316 0.001428705796095714 0 -0.033005722210277401 0.0014175133940398281 0 -0.033005722210277401 0.0014175133940398281 0 -0.033007686800815624 0.001319585277130209 0 -0.03312614347541757 0.0012772883890523226 0 -0.033007686800815624 0.001319585277130209 0 -0.03312614347541757 0.0012772883890523226 0 -0.03313766140765529 0.0012314977301421781 0 -0.032816910881968316 0.001428705796095714 0 -0.033005722210277401 0.0014175133940398281 0 -0.033007686800815624 0.001319585277130209 0 -0.032816910881968316 0.001428705796095714 0 -0.033007686800815624 0.001319585277130209 0 -0.032826475458697109 0.00138241877821656 0 -0.033007686800815624 0.001319585277130209 0 -0.032826475458697109 0.00138241877821656 0 -0.033125255877659542 0.001236990573886288 0 -0.03229273400671432 0.0016488212973884066 0 -0.032816910881968316 0.001428705796095714 0 -0.032826475458697109 0.00138241877821656 0 -0.03229273400671432 0.0016488212973884066 0 -0.03283493609908314 0.001566137724903319 0 -0.032816910881968316 0.001428705796095714 0 -0.031386897506495565 0.0017668440966978709 0 -0.03229273400671432 0.0016488212973884066 0 -0.031607939692096618 0.001336850578223637 0 -0.03229273400671432 0.0016488212973884066 0 -0.032826475458697109 0.00138241877821656 0 -0.032813147216327047 0.001417114397153558 0 -0.032333077914409383 0.0016515669253119687 0 -0.0322243299527252 0.0014178487037201711 0 -0.032826475458697109 0.00138241877821656 0 -0.032813147216327047 0.001417114397153558 0 -0.032959668120375804 0.0013784295649386623 0 -0.0322243299527252 0.0014178487037201711 0 -0.032166252951577337 0.001372494182342251 0 -0.032813147216327047 0.001417114397153558 0 -0.03296333208643018 0.0014231184161783708 0 -0.032959668120375804 0.0013784295649386623 0 -0.031283335916111571 0.0014408696006764051 0 -0.031607939692096618 0.001336850578223637 0 -0.031368921257673793 0.0013099492102192629 0 -0.031283335916111571 0.0014408696006764051 0 -0.031386897506495565 0.0017668440966978709 0 -0.031607939692096618 0.001336850578223637 0 -0.025738821039691693 9.4860991615101412e-06 0 -0.024362626056210167 -0.0004000385921204504 0 -0.026809268968342015 -0.002011955054721128 0 -0.025738821039691693 9.4860991615101412e-06 0 -0.026809268968342015 -0.002011955054721128 0 -0.027111195153107056 0.00081072787718379383 0 -0.022877849901197674 0.0005658368728450006 0 -0.02466165792436428 8.8797549230945755e-05 0 -0.024356934476130798 -0.00040985867288246208 0 -0.025738821039691693 9.4860991615101412e-06 0 -0.02466165792436428 8.8797549230945755e-05 0 -0.024362626056210167 -0.0004000385921204504 0 -0.022224594159225598 0.00048922394094330038 0 -0.020716069483632204 -0.00044385693830019721 0 -0.016259824640398754 -0.0024786479124118375 0 -0.018098312504977475 0.00055004939084388074 0 -0.017961160583213044 -0.0017099175274349423 0 -0.018098312504977475 0.00055004939084388074 0 -0.017961160583213044 -0.0017099175274349423 0 -0.021425685852003773 -0.0016457884539576306 0 -0.017961160583213044 -0.0017099175274349423 0 -0.018341739633600071 -0.0024258987341559033 0 -0.021425685852003773 -0.0016457884539576306 0 -0.014605426120928716 -0.0017881122954162261 0 -0.020716069483632204 -0.00044385693830019721 0 -0.016259824640398754 -0.0024786479124118375 0 -0.017961160583213044 -0.0017099175274349423 0 -0.018335524366915695 -0.0024202677985121061 0 -0.014605426120928716 -0.0017881122954162261 0 -0.015698991431621706 -0.001511454686078838 0 -0.016685252334365283 -0.0022192891750043037 0 -0.015698991431621706 -0.001511454686078838 0 -0.015698991431621706 -0.001511454686078838 0 -0.020381403022679927 -0.0014728993487955642 0 -0.018341739633600071 -0.0024258987341559033 0 -0.021357577853041227 -0.0023446410349382291 0 -0.021425685852003773 -0.0016457884539576306 0 -0.020716069483632204 -0.00044385693830019721 0 -0.024633487747185209 -0.0013103148499345962 0 -0.020381403022679927 -0.0014728993487955642 0 -0.024633487747185209 -0.0013103148499345962 0 -0.032732459180322568 -7.4347855048188609e-05 0 -0.032527581788543876 7.3455218766539749e-05 0 -0.032872981154772503 0.00040288957797461166 0 -0.020070265655727049 -0.002021983053398642 0 -0.019667257871236323 -0.001744664000922169 0 -0.019841449142207132 -0.0019284052538418386 0 -0.020381403022679927 -0.0014728993487955642 0 -0.01997034892208889 -0.0015936483951678477 0 -0.02724806818255341 -0.00026713542512470383 0 -0.033511538706081333 0.0012917293397408263 0 -0.02724806818255341 -0.00026713542512470383 0 -0.024633487747185209 -0.0013103148499345962 0 -0.01965135380596009 -0.0019284009024408842 0 -0.019667257871236323 -0.001744664000922169 0 -0.019841449142207132 -0.0019284052538418386 0 -0.032916319541827457 0.0017647078298511471 0 -0.032862672036670683 0.0016910356482698063 0 -0.033060871484521061 0.0016093171305824514 0 -0.033107478269091842 0.0021207411069515012 0 -0.032965317739476252 0.0017212093816901461 0 -0.033125972335176182 0.0015383879539634594 0 -0.032675104223169792 0.0019012972730818572 0 -0.033107478269091842 0.0021207411069515012 0 -0.032965317739476252 0.0017212093816901461 0 -0.032862672036670683 0.0016910356482698063 0 -0.033060871484521061 0.0016093171305824514 0 -0.033125972335176182 0.0015383879539634594 0 -0.033758089945577281 0.0024793992553228854 0 -0.032966868740764071 0.0013983630804139189 0 -0.032527581788543876 7.3455218766539749e-05 0 -0.032872981154772503 0.00040288957797461166 0 -0.032720546783456816 0.00062050633793108855 0 -0.024633487747185209 -0.0013103148499345962 0 -0.030649407553440835 0.00086541559492766585 0 -0.033511538706081333 0.0012917293397408263 0 -0.033054114869391429 0.0010610197285605967 0 -0.032872981154772503 0.00040288957797461166 0 -0.032720546783456816 0.00062050633793108855 0 -0.03302843447279228 0.00083120805592524897 0 -0.033060871484521061 0.0016093171305824514 0 -0.033200699710097654 0.0014290865344367212 0 -0.033125972335176182 0.0015383879539634594 0 -0.033005722210277401 0.0014175133940398281 0 -0.033200699710097654 0.0014290865344367212 0 -0.033029358789071893 0.0015408141287637739 0 -0.032965317739476252 0.0017212093816901461 0 -0.033029358789071893 0.0015408141287637739 0 -0.033125972335176182 0.0015383879539634594 0 -0.033200699710097654 0.0014290865344367212 0 -0.033029358789071893 0.0015408141287637739 0 -0.033125972335176182 0.0015383879539634594 0 -0.033005722210277401 0.0014175133940398281 0 -0.033200699710097654 0.0014290865344367212 0 -0.03312614347541757 0.0012772883890523226 0 -0.033200699710097654 0.0014290865344367212 0 -0.03312614347541757 0.0012772883890523226 0 -0.033194342854763095 0.0011721656384047691 0 -0.033054114869391429 0.0010610197285605967 0 -0.033191733640661421 0.0012086616437028326 0 -0.032720546783456816 0.00062050633793108855 0 -0.03302843447279228 0.00083120805592524897 0 -0.032966074573635658 0.0010692855470766027 0 -0.03302843447279228 0.00083120805592524897 0 -0.032966074573635658 0.0010692855470766027 0 -0.033194342854763095 0.0011721656384047691 0 -0.030649407553440835 0.00086541559492766585 0 -0.029644319936511818 0.0021605125884630702 0 -0.03067461997530966 0.0014228767306797426 0 -0.029295684821247791 0.00098488411937614731 0 -0.030040422149426819 0.0017404098510220938 0 -0.02741034540831733 0.0036450325812238779 0 -0.025750064621898949 0.001568907587810107 0 -0.025257754767166612 0.0029699145858608604 0 -0.029644319936511818 0.0021605125884630702 0 -0.028326579332912084 0.001481610921060663 0 -0.028326579332912084 0.001481610921060663 0 -0.030963328974976102 0.0014977282096366575 0 -0.027111195153107056 0.00081072787718379383 0 -0.02741034540831733 0.0036450325812238779 0 -0.025750064621898949 0.001568907587810107 0 -0.025738821039691693 9.4860991615101412e-06 0 -0.02466165792436428 8.8797549230945755e-05 0 -0.025750064621898949 0.001568907587810107 0 -0.025738821039691693 9.4860991615101412e-06 0 -0.027111195153107056 0.00081072787718379383 0 -0.025750064621898949 0.001568907587810107 0 -0.022877849901197674 0.0005658368728450006 0 -0.02466165792436428 8.8797549230945755e-05 0 -0.024070026169746402 0.001772945058442007 0 -0.025750064621898949 0.001568907587810107 0 -0.024070026169746402 0.001772945058442007 0 -0.025257754767166612 0.0029699145858608604 0 -0.02466165792436428 8.8797549230945755e-05 0 -0.025750064621898949 0.001568907587810107 0 -0.024070026169746402 0.001772945058442007 0 -0.030642378299401932 0.0008537891737243476 0 -0.03345383108844821 0.00053286723675141688 0 -0.030523740786691216 0.00031869455628406911 0 -0.031256035391236385 0.00054911413140042056 0 -0.03154313362444755 0.0012000063813064259 0 -0.027017892605348929 0.0013499436704626699 0 -0.027520984584621631 0.00064596464650325714 0 -0.028737590970073147 0.001903876583552373 0 -0.030642378299401932 0.0008537891737243476 0 -0.028326579332912084 0.001481610921060663 0 -0.026035739665124111 0.0014822682993317134 0 -0.028326579332912084 0.001481610921060663 0 -0.034431149317553644 -8.085970860114367e-05 0 -0.03459794418369698 -4.0002773644337165e-05 0 -0.034466037172495856 -2.7712474049933986e-05 0 -0.034639719386760762 1.8010335763514626e-05 0 -0.03459794418369698 -4.0002773644337165e-05 0 -0.034466037172495856 -2.7712474049933986e-05 0 -0.034638121737366377 1.4338885413624708e-05 0 -0.034655796655389648 -4.3137581235128487e-06 0 -0.034759693247171937 8.9230025032392007e-06 0 -0.03484813157970245 3.015068691413233e-05 0 -0.034844242063534495 -9.0406649069588558e-06 0 -0.034759693247171937 8.9230025032392007e-06 0 -0.034833075608253869 -1.054249129937483e-05 0 -0.034844242063534495 -9.0406649069588558e-06 0 -0.034759693247171937 8.9230025032392007e-06 0 -0.034639719386760762 1.8010335763514626e-05 0 -0.03484813157970245 3.015068691413233e-05 0 -0.03476455510504519 1.5834698023068462e-05 0 -0.034763280723877861 -9.0257055500023461e-06 0 -0.034639719386760762 1.8010335763514626e-05 0 -0.03459794418369698 -4.0002773644337165e-05 0 -0.034640624028638434 1.6664295689707411e-05 0 -0.034639719386760762 1.8010335763514626e-05 0 -0.034680342399113613 -2.423282091075562e-05 0 -0.034647440343831382 -8.4798048749103861e-06 0 -0.034759693247171937 8.9230025032392007e-06 0 -0.034639719386760762 1.8010335763514626e-05 0 -0.034680342399113613 -2.423282091075562e-05 0 -0.03154313362444755 0.0012000063813064259 0 -0.031771926846884457 0.0010671100838762649 0 -0.032286097331870732 0.0015792758549010323 0 -0.03345383108844821 0.00053286723675141688 0 -0.033114911218649415 0.0010247136889853115 0 -0.031256035391236385 0.00054911413140042056 0 -0.03154313362444755 0.0012000063813064259 0 -0.031771926846884457 0.0010671100838762649 0 -0.03067461997530966 0.0014228767306797426 0 -0.030040422149426819 0.0017404098510220938 0 -0.030784388672811545 0.002490337757806754 0 -0.03154313362444755 0.0012000063813064259 0 -0.032307683417505659 0.0018540563949789603 0 -0.032286097331870732 0.0015792758549010323 0 -0.029644319936511818 0.0021605125884630702 0 -0.032279187894457717 0.0015234668938014072 0 -0.032966074573635658 0.0010692855470766027 0 -0.033194342854763095 0.0011721656384047691 0 -0.033116903355194981 0.001211406385670062 0 -0.033194342854763095 0.0011721656384047691 0 -0.033116903355194981 0.001211406385670062 0 -0.033189134399436333 0.0011900065806226372 0 -0.030963328974976102 0.0014977282096366575 0 -0.032279187894457717 0.0015234668938014072 0 -0.03312614347541757 0.0012772883890523226 0 -0.033193073657626901 0.0011870565568308374 0 -0.03313766140765529 0.0012314977301421781 0 -0.03312614347541757 0.0012772883890523226 0 -0.033194342854763095 0.0011721656384047691 0 -0.033193073657626901 0.0011870565568308374 0 -0.033194342854763095 0.0011721656384047691 0 -0.033213549298132646 0.0011774764589159578 0 -0.033193073657626901 0.0011870565568308374 0 -0.033213549298132646 0.0011774764589159578 0 -0.033193073657626901 0.0011870565568308374 0 -0.033237821967156647 0.0011669447161167038 0 -0.033194342854763095 0.0011721656384047691 0 -0.033213549298132646 0.0011774764589159578 0 -0.033189134399436333 0.0011900065806226372 0 -0.033218778657503049 0.0011780314071655382 0 -0.033193073657626901 0.0011870565568308374 0 -0.03313766140765529 0.0012314977301421781 0 -0.033218778657503049 0.0011780314071655382 0 -0.033193073657626901 0.0011870565568308374 0 -0.033237821967156647 0.0011669447161167038 0 -0.033306511469308762 0.001133081197627015 0 -0.033218030669333515 0.0011810826781258729 0 -0.033374919306332226 0.0010967909671348774 0 -0.033218778657503049 0.0011780314071655382 0 -0.03327573430553294 0.0011488028873125966 0 -0.033237821967156647 0.0011669447161167038 0 -0.03327573430553294 0.0011488028873125966 0 -0.033237821967156647 0.0011669447161167038 0 -0.03325278368842275 0.0011607718843046799 0 -0.033237821967156647 0.0011669447161167038 0 -0.033223625736006429 0.0011762457319797785 0 -0.03325278368842275 0.0011607718843046799 0 -0.033213549298132646 0.0011774764589159578 0 -0.033237821967156647 0.0011669447161167038 0 -0.033223625736006429 0.0011762457319797785 0 -0.033213549298132646 0.0011774764589159578 0 -0.033223625736006429 0.0011762457319797785 0 -0.033189134399436333 0.0011900065806226372 0 -0.033223625736006429 0.0011762457319797785 0 -0.03325278368842275 0.0011607718843046799 0 -0.033213482138781308 0.0011836642003759377 0 -0.03325278368842275 0.0011607718843046799 0 -0.033306511469308762 0.001133081197627015 0 -0.033218030669333515 0.0011810826781258729 0 -0.03325278368842275 0.0011607718843046799 0 -0.033213482138781308 0.0011836642003759377 0 -0.033218030669333515 0.0011810826781258729 0 -0.03327573430553294 0.0011488028873125966 0 -0.03325278368842275 0.0011607718843046799 0 -0.033306511469308762 0.001133081197627015 0 -0.034639719386760762 1.8010335763514626e-05 0 -0.034640624028638434 1.6664295689707411e-05 0 -0.034635619423080952 9.962303958877259e-06 0 -0.034639719386760762 1.8010335763514626e-05 0 -0.034635619423080952 9.962303958877259e-06 0 -0.034647440343831382 -8.4798048749103861e-06 0 -0.033114911218649415 0.0010247136889853115 0 -0.032279187894457717 0.0015234668938014072 0 -0.032279187894457717 0.0015234668938014072 0 -0.032962622326686154 0.0014515199957387606 0 -0.033116903355194981 0.001211406385670062 0 -0.033189134399436333 0.0011900065806226372 0 -0.033213482138781308 0.0011836642003759377 0 -0.033223625736006429 0.0011762457319797785 0 -0.033189134399436333 0.0011900065806226372 0 -0.033213482138781308 0.0011836642003759377 0 -0.033209938863323747 0.0011837203696599002 0 -0.033206512778452456 0.0011828130071720342 0 -0.033213482138781308 0.0011836642003759377 0 -0.033114911218649415 0.0010247136889853115 0 -0.033750664987742436 0.00071310743402589665 0 -0.033209938863323747 0.0011837203696599002 0 -0.033213482138781308 0.0011836642003759377 0 -0.033218030669333515 0.0011810826781258729 0 -0.03463549105913729 -1.5218884704370888e-05 0 -0.034661962770053928 -2.6603249393644573e-05 0 -0.034647440343831382 -8.4798048749103861e-06 0 -0.034635619423080952 9.962303958877259e-06 0 -0.03463549105913729 -1.5218884704370888e-05 0 -0.034647440343831382 -8.4798048749103861e-06 0 -0.033218030669333515 0.0011810826781258729 0 -0.033374919306332226 0.0010967909671348774 0 -0.03344203153207391 0.0010711548107468492 0 -0.033750664987742436 0.00071310743402589665 0 -0.034046770620884403 0.00067105932221648201 0 -0.034635619423080952 9.962303958877259e-06 0 -0.03463549105913729 -1.5218884704370888e-05 0 -0.034606247535938071 -8.949503033964457e-06 0 -0.03463549105913729 -1.5218884704370888e-05 0 -0.034622742266339344 -2.2378816665314111e-05 0 -0.034606247535938071 -8.949503033964457e-06 0 -0.034622742266339344 -2.2378816665314111e-05 0 -0.034606247535938071 -8.949503033964457e-06 0 -0.034611723014118571 -3.0302817151374925e-05 0 -0.03463549105913729 -1.5218884704370888e-05 0 -0.034622742266339344 -2.2378816665314111e-05 0 -0.034635827285666901 -3.4396886637250524e-05 0 -0.03463549105913729 -1.5218884704370888e-05 0 -0.034661962770053928 -2.6603249393644573e-05 0 -0.034635827285666901 -3.4396886637250524e-05 0 -0.034836277031652971 -3.3113240683869251e-05 0 -0.034835745195214936 -3.2476662711837019e-05 0 -0.034836277031652971 -3.3113240683869251e-05 0 -0.034966210921090014 -2.3774250490032522e-06 0 -0.03487563856834365 -6.9119067963011705e-06 0 -0.034881118662534905 -3.6065007022231228e-06 0 -0.034894783529003236 -1.2995767090248682e-06 0 -0.034980078804047562 -2.0459859040023271e-05 0 -0.03497364075765208 -3.1709668330036649e-05 0 -0.034978925950670411 -1.7154977008689058e-05 0 -0.034980078804047562 -2.0459859040023271e-05 0 -0.03497364075765208 -3.1709668330036649e-05 0 -0.034991774985688423 -1.5839159237178516e-05 0 -0.034881118662534905 -3.6065007022231228e-06 0 -0.034858488314172639 -9.1089251550122032e-06 0 -0.034870744001830344 -4.82943625808641e-06 0 -0.034881118662534905 -3.6065007022231228e-06 0 -0.034900261783150761 -2.1545462620252765e-06 0 -0.034870744001830344 -4.82943625808641e-06 0 -0.03487563856834365 -6.9119067963011705e-06 0 -0.034881118662534905 -3.6065007022231228e-06 0 -0.034858488314172639 -9.1089251550122032e-06 0 -0.034858488314172639 -9.1089251550122032e-06 0 -0.034833075608253869 -1.054249129937483e-05 0 -0.034844242063534495 -9.0406649069588558e-06 0 -0.034858488314172639 -9.1089251550122032e-06 0 -0.034870744001830344 -4.82943625808641e-06 0 -0.034844242063534495 -9.0406649069588558e-06 0 -0.03487563856834365 -6.9119067963011705e-06 0 -0.034858488314172639 -9.1089251550122032e-06 0 -0.034833075608253869 -1.054249129937483e-05 0 -0.034836277031652971 -3.3113240683869251e-05 0 -0.034763280723877861 -9.0257055500023461e-06 0 -0.034661962770053928 -2.6603249393644573e-05 0 -0.034680342399113613 -2.423282091075562e-05 0 -0.034647440343831382 -8.4798048749103861e-06 0 -0.033087043792228654 0.0013286525272370908 0 -0.033370258560471905 0.0011156462253116965 0 -0.03315758909858444 0.001146274522193859 0 -0.032791283160711296 0.0014717210359962774 0 -0.033087043792228654 0.0013286525272370908 0 -0.03315758909858444 0.001146274522193859 0 -0.033087043792228654 0.0013286525272370908 0 -0.03296333208643018 0.0014231184161783708 0 -0.032959668120375804 0.0013784295649386623 0 -0.033087043792228654 0.0013286525272370908 0 -0.032959668120375804 0.0013784295649386623 0 -0.033106959167312995 0.0012798926869524827 0 -0.032826475458697109 0.00138241877821656 0 -0.032959668120375804 0.0013784295649386623 0 -0.033106959167312995 0.0012798926869524827 0 -0.033087043792228654 0.0013286525272370908 0 -0.033106959167312995 0.0012798926869524827 0 -0.033370258560471905 0.0011156462253116965 0 -0.03326067364052477 0.0011723400874546349 0 -0.033106959167312995 0.0012798926869524827 0 -0.033370258560471905 0.0011156462253116965 0 -0.03326067364052477 0.0011723400874546349 0 -0.033401100395701121 0.0010918337125760858 0 -0.033370258560471905 0.0011156462253116965 0 -0.032826475458697109 0.00138241877821656 0 -0.033106959167312995 0.0012798926869524827 0 -0.033125255877659542 0.001236990573886288 0 -0.03326067364052477 0.0011723400874546349 0 -0.033106959167312995 0.0012798926869524827 0 -0.033125255877659542 0.001236990573886288 0 -0.033007686800815624 0.001319585277130209 0 -0.033125255877659542 0.001236990573886288 0 -0.03313766140765529 0.0012314977301421781 0 -0.033218778657503049 0.0011780314071655382 0 -0.033125255877659542 0.001236990573886288 0 -0.03313766140765529 0.0012314977301421781 0 -0.033218778657503049 0.0011780314071655382 0 -0.033125255877659542 0.001236990573886288 0 -0.033258899556451157 0.0011614266173821405 0 -0.033218778657503049 0.0011780314071655382 0 -0.03327573430553294 0.0011488028873125966 0 -0.033258899556451157 0.0011614266173821405 0 -0.03326067364052477 0.0011723400874546349 0 -0.033125255877659542 0.001236990573886288 0 -0.033258899556451157 0.0011614266173821405 0 -0.03326067364052477 0.0011723400874546349 0 -0.033358383051054361 0.0011056796375733418 0 -0.033401100395701121 0.0010918337125760858 0 -0.03326067364052477 0.0011723400874546349 0 -0.033258899556451157 0.0011614266173821405 0 -0.033358383051054361 0.0011056796375733418 0 -0.03327573430553294 0.0011488028873125966 0 -0.033258899556451157 0.0011614266173821405 0 -0.033358383051054361 0.0011056796375733418 0 -0.03327573430553294 0.0011488028873125966 0 -0.033306511469308762 0.001133081197627015 0 -0.033358383051054361 0.0011056796375733418 0 -0.033453730273329228 0.0010523079279130998 0 -0.033482950361134259 0.001050870863923217 0 -0.033563502258275368 0.00097041520812622087 0 -0.033358383051054361 0.0011056796375733418 0 -0.033374919306332226 0.0010967909671348774 0 -0.033453730273329228 0.0010523079279130998 0 -0.033306511469308762 0.001133081197627015 0 -0.033358383051054361 0.0011056796375733418 0 -0.033374919306332226 0.0010967909671348774 0 -0.033358383051054361 0.0011056796375733418 0 -0.033453730273329228 0.0010523079279130998 0 -0.033401100395701121 0.0010918337125760858 0 -0.033374919306332226 0.0010967909671348774 0 -0.033453730273329228 0.0010523079279130998 0 -0.033441093930271046 0.0010687277342308536 0 -0.033374919306332226 0.0010967909671348774 0 -0.033441093930271046 0.0010687277342308536 0 -0.03344203153207391 0.0010711548107468492 0 -0.033453730273329228 0.0010523079279130998 0 -0.033441093930271046 0.0010687277342308536 0 -0.033482950361134259 0.001050870863923217 0 -0.033972720448395735 0.00082065252449267049 0 -0.034046770620884403 0.00067105932221648201 0 -0.034469569430023383 0.0010953308407629331 0 -0.033908201844083989 0.0006162521057241938 0 -0.034504237725945387 0.00057426894627526481 0 -0.034046770620884403 0.00067105932221648201 0 -0.034567161052407654 0.00025050197917908621 0 -0.034046770620884403 0.00067105932221648201 0 -0.03386867958317525 0.00076333513251485095 0 -0.033642860240169034 0.00083223110928861603 0 -0.033563502258275368 0.00097041520812622087 0 -0.033908201844083989 0.0006162521057241938 0 -0.033482950361134259 0.001050870863923217 0 -0.033563502258275368 0.00097041520812622087 0 -0.033908201844083989 0.0006162521057241938 0 -0.033642860240169034 0.00083223110928861603 0 -0.033563502258275368 0.00097041520812622087 0 -0.033370258560471905 0.0011156462253116965 0 -0.033563502258275368 0.00097041520812622087 0 -0.033401100395701121 0.0010918337125760858 0 -0.033370258560471905 0.0011156462253116965 0 -0.033453730273329228 0.0010523079279130998 0 -0.033563502258275368 0.00097041520812622087 0 -0.033401100395701121 0.0010918337125760858 0 -0.033370258560471905 0.0011156462253116965 0 -0.033505035493128325 0.00079523608995974164 0 -0.03315758909858444 0.001146274522193859 0 -0.033642860240169034 0.00083223110928861603 0 -0.033370258560471905 0.0011156462253116965 0 -0.033505035493128325 0.00079523608995974164 0 -0.033642860240169034 0.00083223110928861603 0 -0.033505035493128325 0.00079523608995974164 0 -0.033890964764549905 0.00039708092658321089 0 -0.033151258796776058 0.00085934908880273982 0 -0.033505035493128325 0.00079523608995974164 0 -0.033416527821972068 0.00054838354238693251 0 -0.033505035493128325 0.00079523608995974164 0 -0.033416527821972068 0.00054838354238693251 0 -0.033694720171602917 0.00047085774339948415 0 -0.033151258796776058 0.00085934908880273982 0 -0.033505035493128325 0.00079523608995974164 0 -0.03315758909858444 0.001146274522193859 0 -0.034034221625611469 -0.00019494617826059735 0 -0.033887738397224768 0.00016076356798073378 0 -0.03420296405623089 -6.2511084021350355e-05 0 -0.033887738397224768 0.00016076356798073378 0 -0.034099082827454628 8.4970098398122042e-05 0 -0.03420296405623089 -6.2511084021350355e-05 0 -0.033408734302905439 0.00028748997924926001 0 -0.033887738397224768 0.00016076356798073378 0 -0.033416527821972068 0.00054838354238693251 0 -0.033887738397224768 0.00016076356798073378 0 -0.033416527821972068 0.00054838354238693251 0 -0.033694720171602917 0.00047085774339948415 0 -0.033505035493128325 0.00079523608995974164 0 -0.033694720171602917 0.00047085774339948415 0 -0.033890964764549905 0.00039708092658321089 0 -0.033887738397224768 0.00016076356798073378 0 -0.033694720171602917 0.00047085774339948415 0 -0.033890964764549905 0.00039708092658321089 0 -0.033887738397224768 0.00016076356798073378 0 -0.033890964764549905 0.00039708092658321089 0 -0.034099082827454628 8.4970098398122042e-05 0 -0.033890964764549905 0.00039708092658321089 0 -0.034099082827454628 8.4970098398122042e-05 0 -0.034043142687873507 0.00024864312936600841 0 -0.034099082827454628 8.4970098398122042e-05 0 -0.034172030264982757 3.879249181211825e-05 0 -0.034043142687873507 0.00024864312936600841 0 -0.034172030264982757 3.879249181211825e-05 0 -0.034192767978330936 0.00022549331897655719 0 -0.034232004249165955 1.6894719140910671e-05 0 -0.034172030264982757 3.879249181211825e-05 0 -0.034192767978330936 0.00022549331897655719 0 -0.034043142687873507 0.00024864312936600841 0 -0.034192767978330936 0.00022549331897655719 0 -0.034043142687873507 0.00024864312936600841 0 -0.033908201844083989 0.0006162521057241938 0 -0.034192767978330936 0.00022549331897655719 0 -0.033908201844083989 0.0006162521057241938 0 -0.034313302066991305 0.00036526058311651575 0 -0.033642860240169034 0.00083223110928861603 0 -0.033890964764549905 0.00039708092658321089 0 -0.033908201844083989 0.0006162521057241938 0 -0.033890964764549905 0.00039708092658321089 0 -0.034043142687873507 0.00024864312936600841 0 -0.033908201844083989 0.0006162521057241938 0 -0.033908201844083989 0.0006162521057241938 0 -0.034313302066991305 0.00036526058311651575 0 -0.034504237725945387 0.00057426894627526481 0 -0.034567161052407654 0.00025050197917908621 0 -0.034644308991166224 5.9777386513604522e-05 0 -0.034313302066991305 0.00036526058311651575 0 -0.034504237725945387 0.00057426894627526481 0 -0.034471317398259288 0.00016532780542076873 0 -0.034192767978330936 0.00022549331897655719 0 -0.034313302066991305 0.00036526058311651575 0 -0.034471317398259288 0.00016532780542076873 0 -0.034644308991166224 5.9777386513604522e-05 0 -0.034179269840413654 -9.8488530582201384e-06 0 -0.034192767978330936 0.00022549331897655719 0 -0.034471317398259288 0.00016532780542076873 0 -0.034232004249165955 1.6894719140910671e-05 0 -0.034277773032598359 1.7561257181307839e-05 0 -0.034276769079460187 1.4206784594902595e-05 0 -0.034232004249165955 1.6894719140910671e-05 0 -0.034644308991166224 5.9777386513604522e-05 0 -0.034785322392857004 -1.7652600080348272e-05 0 -0.034996115046977923 -2.1689873280525847e-06 0 -0.034998581919298673 -8.6366533129669373e-07 0 -0.034998328360381969 -2.0543612698096142e-06 0 -0.034276769079460187 1.4206784594902595e-05 0 -0.034210575958680475 1.6840953870941738e-05 0 -0.034232004249165955 1.6894719140910671e-05 0 -0.034785322392857004 -1.7652600080348272e-05 0 -0.034583672980607508 -1.4919955705426375e-05 0 -0.034993812536996981 -5.5364959559581113e-06 0 -0.034996115046977923 -2.1689873280525847e-06 0 -0.034998328360381969 -2.0543612698096142e-06 0 -0.034785322392857004 -1.7652600080348272e-05 0 -0.035003477145953393 -1.8414817983264879e-06 0 -0.034998581919298673 -8.6366533129669373e-07 0 -0.03499999734516912 -1.5775762086111531e-09 0 -0.034999993971175404 -3.7476747327877126e-10 0 -0.034996115046977923 -2.1689873280525847e-06 0 -0.034998581919298673 -8.6366533129669373e-07 0 -0.034999993971175404 -3.7476747327877126e-10 0 -0.034998581919298673 -8.6366533129669373e-07 0 -0.03499999734516912 -1.5775762086111531e-09 0 -0.034998328360381969 -2.0543612698096142e-06 0 -0.034172030264982757 3.879249181211825e-05 0 -0.034210575958680475 1.6840953870941738e-05 0 -0.034232004249165955 1.6894719140910671e-05 0 -0.034099082827454628 8.4970098398122042e-05 0 -0.034392243099786238 -3.648561876744041e-05 0 -0.03420296405623089 -6.2511084021350355e-05 0 -0.034099082827454628 8.4970098398122042e-05 0 -0.034172030264982757 3.879249181211825e-05 0 -0.034392243099786238 -3.648561876744041e-05 0 -0.034172030264982757 3.879249181211825e-05 0 -0.034210575958680475 1.6840953870941738e-05 0 -0.034392243099786238 -3.648561876744041e-05 0 -0.034583672980607508 -1.4919955705426375e-05 0 -0.034999843213330807 -1.0777263845839652e-08 0 -0.034210575958680475 1.6840953870941738e-05 0 -0.034392243099786238 -3.648561876744041e-05 0 -0.034997010419333612 3.4582302410124926e-07 0 -0.03499999734516912 -1.5775762086111531e-09 0 -0.034998328360381969 -2.0543612698096142e-06 0 -0.035000000414272515 4.2659529194214746e-10 0 -0.034392243099786238 -3.648561876744041e-05 0 -0.034997010419333612 3.4582302410124926e-07 0 -0.034587163081022117 -2.326730617280334e-05 0 -0.034855106538431713 1.5147238159031981e-05 0 -0.034997010419333612 3.4582302410124926e-07 0 -0.034587163081022117 -2.326730617280334e-05 0 -0.034392243099786238 -3.648561876744041e-05 0 -0.034587163081022117 -2.326730617280334e-05 0 -0.03420296405623089 -6.2511084021350355e-05 0 -0.034034221625611469 -0.00019494617826059735 0 -0.034587163081022117 -2.326730617280334e-05 0 -0.03420296405623089 -6.2511084021350355e-05 0 -0.034998067342201643 1.0725443280212834e-06 0 -0.034996962445482803 3.1474105807247006e-06 0 -0.034996688189706429 1.4189557841876739e-06 0 -0.034998067342201643 1.0725443280212834e-06 0 -0.034996688189706429 1.4189557841876739e-06 0 -0.034997745396409909 -1.0973457087648668e-07 0 -0.034915871165502967 -2.262847411190767e-06 0 -0.034904326658891177 -1.03846712855849e-06 0 -0.03493476690974285 -2.3113285355189691e-06 0 -0.034915871165502967 -2.262847411190767e-06 0 -0.034951553631157539 -4.6190105018834232e-06 0 -0.03493476690974285 -2.3113285355189691e-06 0 -0.034904326658891177 -1.03846712855849e-06 0 -0.03493476690974285 -2.3113285355189691e-06 0 -0.034900261783150761 -2.1545462620252765e-06 0 -0.034881118662534905 -3.6065007022231228e-06 0 -0.034904326658891177 -1.03846712855849e-06 0 -0.034900261783150761 -2.1545462620252765e-06 0 -0.034955632377372904 2.5285212286940253e-06 0 -0.034966210921090014 -2.3774250490032522e-06 0 -0.034881118662534905 -3.6065007022231228e-06 0 -0.034904326658891177 -1.03846712855849e-06 0 -0.034894783529003236 -1.2995767090248682e-06 0 -0.034966210921090014 -2.3774250490032522e-06 0 -0.034992581623480852 -3.1341948045650173e-06 0 -0.034915871165502967 -2.262847411190767e-06 0 -0.034904326658891177 -1.03846712855849e-06 0 -0.034894783529003236 -1.2995767090248682e-06 0 -0.034970119267964103 -1.05648992390174e-05 0 -0.034966210921090014 -2.3774250490032522e-06 0 -0.034980078804047562 -2.0459859040023271e-05 0 -0.034979807936541735 -1.7475376481786926e-05 0 -0.034991774985688423 -1.5839159237178516e-05 0 -0.034979807936541735 -1.7475376481786926e-05 0 -0.034991774985688423 -1.5839159237178516e-05 0 -0.034989915064267685 -1.1408735451153004e-05 0 -0.034979807936541735 -1.7475376481786926e-05 0 -0.034989915064267685 -1.1408735451153004e-05 0 -0.034987334546197096 -7.4120796977682158e-06 0 -0.034991774985688423 -1.5839159237178516e-05 0 -0.034989915064267685 -1.1408735451153004e-05 0 -0.034993563601152834 -1.0700548068582521e-05 0 -0.034611723014118571 -3.0302817151374925e-05 0 -0.034613951046589896 -4.7644852464599249e-05 0 -0.034635827285666901 -3.4396886637250524e-05 0 -0.034644308991166224 5.9777386513604522e-05 0 -0.034835745195214936 -3.2476662711837019e-05 0 -0.03499516567582104 -6.559223563425063e-06 0 -0.034991774985688423 -1.5839159237178516e-05 0 -0.034993563601152834 -1.0700548068582521e-05 0 -0.034622742266339344 -2.2378816665314111e-05 0 -0.034611723014118571 -3.0302817151374925e-05 0 -0.034635827285666901 -3.4396886637250524e-05 0 -0.034993563601152834 -1.0700548068582521e-05 0 -0.034996100590251468 -3.9555670329425881e-06 0 -0.034992314240694503 -7.6474868831649732e-06 0 -0.034999166766439507 -6.2328073571451164e-06 0 -0.034993563601152834 -1.0700548068582521e-05 0 -0.034996100590251468 -3.9555670329425881e-06 0 -0.034785322392857004 -1.7652600080348272e-05 0 -0.035029053298219717 2.9593307329304166e-05 0 -0.03499516567582104 -6.559223563425063e-06 0 -0.034994838433687565 -5.6511513566043177e-06 0 -0.034993563601152834 -1.0700548068582521e-05 0 -0.034996688189706429 1.4189557841876739e-06 0 -0.034995689547717833 -1.2005585860117571e-06 0 -0.034997745396409909 -1.0973457087648668e-07 0 -0.034992581623480852 -3.1341948045650173e-06 0 -0.034994546659696237 -1.7191683545603423e-06 0 -0.034987334546197096 -7.4120796977682158e-06 0 -0.034992314240694503 -7.6474868831649732e-06 0 -0.034995689547717833 -1.2005585860117571e-06 0 -0.034996100590251468 -3.9555670329425881e-06 0 -0.034992314240694503 -7.6474868831649732e-06 0 -0.034995689547717833 -1.2005585860117571e-06 0 -0.034989915064267685 -1.1408735451153004e-05 0 -0.034987334546197096 -7.4120796977682158e-06 0 -0.034992314240694503 -7.6474868831649732e-06 0 -0.034989915064267685 -1.1408735451153004e-05 0 -0.034993563601152834 -1.0700548068582521e-05 0 -0.034992314240694503 -7.6474868831649732e-06 0 -0.034995689547717833 -1.2005585860117571e-06 0 -0.034997955908324191 -5.4104197768081703e-07 0 -0.034998429302957587 -7.3171206321413866e-07 0 -0.034996100590251468 -3.9555670329425881e-06 0 -0.034995689547717833 -1.2005585860117571e-06 0 -0.034997955908324191 -5.4104197768081703e-07 0 -0.034999166766439507 -6.2328073571451164e-06 0 -0.034999311608024442 -1.3227475722093356e-06 0 -0.034996100590251468 -3.9555670329425881e-06 0 -0.034999311608024442 -1.3227475722093356e-06 0 -0.034996100590251468 -3.9555670329425881e-06 0 -0.034997955908324191 -5.4104197768081703e-07 0 -0.035003477145953393 -1.8414817983264879e-06 0 -0.034999998236248435 -9.178758108724705e-10 0 -0.034999311608024442 -1.3227475722093356e-06 0 -0.034999998807362709 7.9466633414732032e-10 0 -0.034997955908324191 -5.4104197768081703e-07 0 -0.034999998807362709 7.9466633414732032e-10 0 -0.034997955908324191 -5.4104197768081703e-07 0 -0.034999995374329344 -1.2504040999227391e-09 0 -0.034997955908324191 -5.4104197768081703e-07 0 -0.034999995374329344 -1.2504040999227391e-09 0 -0.034998429302957587 -7.3171206321413866e-07 0 -0.034998429302957587 -7.3171206321413866e-07 0 -0.034998904021744569 -4.618763387673118e-07 0 -0.034999999585226135 -4.4117099409990768e-10 0 -0.034999995374329344 -1.2504040999227391e-09 0 -0.034998429302957587 -7.3171206321413866e-07 0 -0.034999999585226135 -4.4117099409990768e-10 0 -0.034998067342201643 1.0725443280212834e-06 0 -0.034997745396409909 -1.0973457087648668e-07 0 -0.034998904021744569 -4.618763387673118e-07 0 -0.034955632377372904 2.5285212286940253e-06 0 -0.034975278094352587 3.3459458348422574e-07 0 -0.034995689547717833 -1.2005585860117571e-06 0 -0.034998429302957587 -7.3171206321413866e-07 0 -0.034997745396409909 -1.0973457087648668e-07 0 -0.034998429302957587 -7.3171206321413866e-07 0 -0.034997745396409909 -1.0973457087648668e-07 0 -0.034998904021744569 -4.618763387673118e-07 0 -0.034951553631157539 -4.6190105018834232e-06 0 -0.034968669963885674 -3.5420847745175473e-06 0 -0.03493476690974285 -2.3113285355189691e-06 0 -0.034951553631157539 -4.6190105018834232e-06 0 -0.034999936693386295 -1.1529170744595965e-08 0 -0.034968669963885674 -3.5420847745175473e-06 0 -0.034975278094352587 3.3459458348422574e-07 0 -0.034999985567517246 5.3666088190898532e-09 0 -0.034999936693386295 -1.1529170744595965e-08 0 -0.03499997286804836 -2.2245324866409536e-09 0 -0.034968669963885674 -3.5420847745175473e-06 0 -0.03499997286804836 -2.2245324866409536e-09 0 -0.034965210014068951 -3.6206608664624233e-06 0 -0.034968669963885674 -3.5420847745175473e-06 0 -0.03499997286804836 -2.2245324866409536e-09 0 -0.034999973939604363 -7.8835847864896633e-10 0 -0.034965210014068951 -3.6206608664624233e-06 0 -0.034999980441152732 2.2487878507022823e-09 0 -0.034956201588476142 1.0592052346703157e-06 0 -0.034965210014068951 -3.6206608664624233e-06 0 -0.034968669963885674 -3.5420847745175473e-06 0 -0.03493476690974285 -2.3113285355189691e-06 0 -0.034999922155241815 -7.9672732366940551e-10 0 -0.034999939228856129 8.6443931238605185e-09 0 -0.034978944943081319 2.9783162885424345e-06 0 -0.034978944943081319 2.9783162885424345e-06 0 -0.034950478208039239 6.1939950849192314e-06 0 -0.034987476739599281 5.384279993512726e-06 0 -0.034999939228856129 8.6443931238605185e-09 0 -0.034978944943081319 2.9783162885424345e-06 0 -0.034987476739599281 5.384279993512726e-06 0 -0.034999922155241815 -7.9672732366940551e-10 0 -0.034946567962774074 3.8555217584494121e-06 0 -0.034961376026170513 3.5868233267792036e-06 0 -0.034999922155241815 -7.9672732366940551e-10 0 -0.034978944943081319 2.9783162885424345e-06 0 -0.034961376026170513 3.5868233267792036e-06 0 -0.034946567962774074 3.8555217584494121e-06 0 -0.034961376026170513 3.5868233267792036e-06 0 -0.03492858191775218 4.8206130320902589e-06 0 -0.034961376026170513 3.5868233267792036e-06 0 -0.034950478208039239 6.1939950849192314e-06 0 -0.03492858191775218 4.8206130320902589e-06 0 -0.034978944943081319 2.9783162885424345e-06 0 -0.034961376026170513 3.5868233267792036e-06 0 -0.034950478208039239 6.1939950849192314e-06 0 -0.034907989132695029 3.54047537076459e-06 0 -0.03492858191775218 4.8206130320902589e-06 0 -0.034892228088812219 3.882225294523482e-06 0 -0.034950478208039239 6.1939950849192314e-06 0 -0.034907989132695029 3.54047537076459e-06 0 -0.03492858191775218 4.8206130320902589e-06 0 -0.03492858191775218 4.8206130320902589e-06 0 -0.034892228088812219 3.882225294523482e-06 0 -0.034903502833828905 5.3270989953876498e-06 0 -0.034946567962774074 3.8555217584494121e-06 0 -0.03492858191775218 4.8206130320902589e-06 0 -0.034903502833828905 5.3270989953876498e-06 0 -0.034892228088812219 3.882225294523482e-06 0 -0.034903502833828905 5.3270989953876498e-06 0 -0.034869817089728333 5.6816148522278468e-06 0 -0.034892228088812219 3.882225294523482e-06 0 -0.034880176435394039 8.1882200664052504e-07 0 -0.034864916955720034 1.6143067948501465e-06 0 -0.034907989132695029 3.54047537076459e-06 0 -0.034892228088812219 3.882225294523482e-06 0 -0.034880176435394039 8.1882200664052504e-07 0 -0.03493476690974285 -2.3113285355189691e-06 0 -0.03492783493232797 -2.2113021915583403e-06 0 -0.034900261783150761 -2.1545462620252765e-06 0 -0.034965210014068951 -3.6206608664624233e-06 0 -0.03493476690974285 -2.3113285355189691e-06 0 -0.03492783493232797 -2.2113021915583403e-06 0 -0.034956201588476142 1.0592052346703157e-06 0 -0.034915935887092998 1.6567589347812039e-06 0 -0.034903502833828905 5.3270989953876498e-06 0 -0.034867468418894397 7.8193407572451739e-06 0 -0.034869817089728333 5.6816148522278468e-06 0 -0.034915935887092998 1.6567589347812039e-06 0 -0.034879811070569346 1.7431664493542015e-06 0 -0.03492783493232797 -2.2113021915583403e-06 0 -0.034900261783150761 -2.1545462620252765e-06 0 -0.034890452731913935 -3.1551246036790478e-06 0 -0.034900261783150761 -2.1545462620252765e-06 0 -0.034870744001830344 -4.82943625808641e-06 0 -0.034890452731913935 -3.1551246036790478e-06 0 -0.034870744001830344 -4.82943625808641e-06 0 -0.034853893378547766 1.9639128641806971e-06 0 -0.034844242063534495 -9.0406649069588558e-06 0 -0.034859392919131434 1.0073915653780603e-06 0 -0.034879811070569346 1.7431664493542015e-06 0 -0.034870744001830344 -4.82943625808641e-06 0 -0.034853893378547766 1.9639128641806971e-06 0 -0.034890452731913935 -3.1551246036790478e-06 0 -0.034853893378547766 1.9639128641806971e-06 0 -0.034867468418894397 7.8193407572451739e-06 0 -0.034848738972604265 5.9126400491789889e-06 0 -0.034892228088812219 3.882225294523482e-06 0 -0.034869817089728333 5.6816148522278468e-06 0 -0.034864916955720034 1.6143067948501465e-06 0 -0.034869817089728333 5.6816148522278468e-06 0 -0.034839217895090493 2.1316208712650977e-06 0 -0.034848738972604265 5.9126400491789889e-06 0 -0.034867468418894397 7.8193407572451739e-06 0 -0.034869817089728333 5.6816148522278468e-06 0 -0.034848738972604265 5.9126400491789889e-06 0 -0.034864916955720034 1.6143067948501465e-06 0 -0.034839217895090493 2.1316208712650977e-06 0 -0.034855958582914098 -2.2826534172945278e-06 0 -0.034880176435394039 8.1882200664052504e-07 0 -0.034864916955720034 1.6143067948501465e-06 0 -0.034855958582914098 -2.2826534172945278e-06 0 -0.034869817089728333 5.6816148522278468e-06 0 -0.034864916955720034 1.6143067948501465e-06 0 -0.034839217895090493 2.1316208712650977e-06 0 -0.034839217895090493 2.1316208712650977e-06 0 -0.034834606160913349 -2.3197431793608492e-06 0 -0.034855958582914098 -2.2826534172945278e-06 0 -0.034839217895090493 2.1316208712650977e-06 0 -0.034811510447296093 -1.4222920234650502e-06 0 -0.034834606160913349 -2.3197431793608492e-06 0 -0.034839217895090493 2.1316208712650977e-06 0 -0.034811510447296093 -1.4222920234650502e-06 0 -0.034816981541102014 -9.3730879629031095e-07 0 -0.034853893378547766 1.9639128641806971e-06 0 -0.034848738972604265 5.9126400491789889e-06 0 -0.034816981541102014 -9.3730879629031095e-07 0 -0.034839217895090493 2.1316208712650977e-06 0 -0.034848738972604265 5.9126400491789889e-06 0 -0.034816981541102014 -9.3730879629031095e-07 0 -0.034816981541102014 -9.3730879629031095e-07 0 -0.034796165758197696 -1.2501230370220238e-05 0 -0.034770472811938263 -1.1476648707737795e-05 0 -0.034853893378547766 1.9639128641806971e-06 0 -0.034816981541102014 -9.3730879629031095e-07 0 -0.034796165758197696 -1.2501230370220238e-05 0 -0.034796165758197696 -1.2501230370220238e-05 0 -0.034770472811938263 -1.1476648707737795e-05 0 -0.034739941313391205 -4.5468247728382545e-05 0 -0.034811510447296093 -1.4222920234650502e-06 0 -0.034816981541102014 -9.3730879629031095e-07 0 -0.034770472811938263 -1.1476648707737795e-05 0 -0.034811510447296093 -1.4222920234650502e-06 0 -0.034770472811938263 -1.1476648707737795e-05 0 -0.03483580884572595 2.3237691779662084e-06 0 -0.034684695990950518 -6.1382024650869117e-05 0 -0.034739941313391205 -4.5468247728382545e-05 0 -0.034732208482094781 -6.9261189120828373e-05 0 -0.032051493570237448 -0.0013935190572145677 0 -0.031650138873110759 -0.0014906183591849665 0 -0.034770472811938263 -1.1476648707737795e-05 0 -0.034739941313391205 -4.5468247728382545e-05 0 -0.034732208482094781 -6.9261189120828373e-05 0 -0.034684695990950518 -6.1382024650869117e-05 0 -0.034739941313391205 -4.5468247728382545e-05 0 -0.034757765201014257 -3.6253430151568973e-05 0 -0.034796165758197696 -1.2501230370220238e-05 0 -0.034757765201014257 -3.6253430151568973e-05 0 -0.034836776573082789 -3.6800086213829363e-05 0 -0.034685202543258686 -6.2825397078268414e-05 0 -0.034659110718824479 -6.2271096313589496e-05 0 -0.034684695990950518 -6.1382024650869117e-05 0 -0.034757765201014257 -3.6253430151568973e-05 0 -0.034836776573082789 -3.6800086213829363e-05 0 -0.034796165758197696 -1.2501230370220238e-05 0 -0.034739941313391205 -4.5468247728382545e-05 0 -0.034757765201014257 -3.6253430151568973e-05 0 -0.034796165758197696 -1.2501230370220238e-05 0 -0.034836776573082789 -3.6800086213829363e-05 0 -0.034851537351533755 5.1408346696945063e-07 0 -0.034659110718824479 -6.2271096313589496e-05 0 -0.034655796655389648 -4.3137581235128487e-06 0 -0.034836776573082789 -3.6800086213829363e-05 0 -0.03484813157970245 3.015068691413233e-05 0 -0.034851537351533755 5.1408346696945063e-07 0 -0.034477778326060929 -0.00010392265830186704 0 -0.034466037172495856 -2.7712474049933986e-05 0 -0.034446713542982781 -6.792831384267562e-05 0 -0.034431149317553644 -8.085970860114367e-05 0 -0.034466037172495856 -2.7712474049933986e-05 0 -0.034446713542982781 -6.792831384267562e-05 0 -0.03484813157970245 3.015068691413233e-05 0 -0.034851537351533755 5.1408346696945063e-07 0 -0.034844242063534495 -9.0406649069588558e-06 0 -0.034853893378547766 1.9639128641806971e-06 0 -0.034851537351533755 5.1408346696945063e-07 0 -0.034844242063534495 -9.0406649069588558e-06 0 -0.034853893378547766 1.9639128641806971e-06 0 -0.034796165758197696 -1.2501230370220238e-05 0 -0.034851537351533755 5.1408346696945063e-07 0 -0.03524443407992716 -0.00056879420199240605 0 -0.035068961545657647 -0.00063026538446856795 0 -0.035135263953780131 -0.0008455868837023698 0 -0.03524443407992716 -0.00056879420199240605 0 -0.035135263953780131 -0.0008455868837023698 0 -0.035418893588112205 -0.00077924534845898554 0 -0.03524443407992716 -0.00056879420199240605 0 -0.035068961545657647 -0.00063026538446856795 0 -0.034957048558604251 -0.00048225294430727963 0 -0.034749956911204215 -0.00069283752943341363 0 -0.034957048558604251 -0.00048225294430727963 0 -0.034619349757813313 -0.00033829416026078522 0 -0.035068961545657647 -0.00063026538446856795 0 -0.034749956911204215 -0.00069283752943341363 0 -0.034957048558604251 -0.00048225294430727963 0 -0.035068961545657647 -0.00063026538446856795 0 -0.034749956911204215 -0.00069283752943341363 0 -0.035135263953780131 -0.0008455868837023698 0 -0.034749956911204215 -0.00069283752943341363 0 -0.034954321551083453 -0.0010111181380933975 0 -0.035135263953780131 -0.0008455868837023698 0 -0.034667399139651021 -0.0012808785394244097 0 -0.035251294878491594 -0.0012553065061886074 0 -0.034954321551083453 -0.0010111181380933975 0 -0.034667399139651021 -0.0012808785394244097 0 -0.034749956911204215 -0.00069283752943341363 0 -0.034954321551083453 -0.0010111181380933975 0 -0.035124897787808772 -0.0018657803923953146 0 -0.0335964806173994 -0.0019888443662190148 0 -0.034687856921645013 -0.0029450314597750998 0 -0.034555103298591523 -0.0027493543394883331 0 -0.034777309772650707 -0.0024228032495023557 0 -0.035251294878491594 -0.0012553065061886074 0 -0.035135263953780131 -0.0008455868837023698 0 -0.035418893588112205 -0.00077924534845898554 0 -0.035251294878491594 -0.0012553065061886074 0 -0.034954321551083453 -0.0010111181380933975 0 -0.035135263953780131 -0.0008455868837023698 0 -0.030170392946888312 -0.002239398954683839 0 -0.029705784334985573 -0.0027961628589584183 0 -0.029968677967965162 -0.0032519184206933932 0 -0.03258835099059576 -0.002776593850754449 0 -0.0335964806173994 -0.0019888443662190148 0 -0.029705784334985573 -0.0027961628589584183 0 -0.029873789694348171 -0.0033771746263105648 0 -0.029968677967965162 -0.0032519184206933932 0 -0.029705784334985573 -0.0027961628589584183 0 -0.029111662895977889 -0.0029149936871870888 0 -0.029873789694348171 -0.0033771746263105648 0 -0.031650138873110759 -0.0014906183591849665 0 -0.033347378355019205 -0.00096844661303419728 0 -0.034732208482094781 -6.9261189120828373e-05 0 -0.034692763578547718 -1.7282670424103235e-05 0 -0.034592731925798759 -2.3509474605545353e-05 0 -0.034770472811938263 -1.1476648707737795e-05 0 -0.034732208482094781 -6.9261189120828373e-05 0 -0.034692763578547718 -1.7282670424103235e-05 0 -0.034770472811938263 -1.1476648707737795e-05 0 -0.034692763578547718 -1.7282670424103235e-05 0 -0.034679871911177197 1.5661138908956387e-05 0 -0.034692763578547718 -1.7282670424103235e-05 0 -0.034679871911177197 1.5661138908956387e-05 0 -0.034592731925798759 -2.3509474605545353e-05 0 -0.034679871911177197 1.5661138908956387e-05 0 -0.034697916915622989 5.9892861118198186e-05 0 -0.034642135601100604 4.4356119265811975e-05 0 -0.034770472811938263 -1.1476648707737795e-05 0 -0.034679871911177197 1.5661138908956387e-05 0 -0.034697916915622989 5.9892861118198186e-05 0 -0.03478821999612635 -1.6235947356063469e-05 0 -0.034735755319066176 6.0569857315900179e-05 0 -0.03524443407992716 -0.00056879420199240605 0 -0.035434964328266948 -0.00067381343462200353 0 -0.035418893588112205 -0.00077924534845898554 0 -0.034171125520191692 -0.00085473694727216103 0 -0.0335964806173994 -0.0019888443662190148 0 -0.034306520807953711 -0.0010204408332547237 0 -0.03397221167013155 -0.0007985483683564848 0 -0.033756644065846365 -0.0017216468171836515 0 -0.033347378355019205 -0.00096844661303419728 0 -0.034171125520191692 -0.00085473694727216103 0 -0.033347378355019205 -0.00096844661303419728 0 -0.0335964806173994 -0.0019888443662190148 0 -0.033347378355019205 -0.00096844661303419728 0 -0.034785655762240894 0.00035013111023408531 0 -0.034679871911177197 1.5661138908956387e-05 0 -0.034592731925798759 -2.3509474605545353e-05 0 -0.034642135601100604 4.4356119265811975e-05 0 -0.034556997328540361 -6.0565364557009458e-05 0 -0.034540428196630987 -4.8676940506138741e-05 0 -0.034642135601100604 4.4356119265811975e-05 0 -0.03524443407992716 -0.00056879420199240605 0 -0.035327967573904911 -0.00063480869776845862 0 -0.035272688836909462 -0.00044737713272290699 0 -0.035090511081448783 -0.00093984969953032416 0 -0.034171125520191692 -0.00085473694727216103 0 -0.034171125520191692 -0.00085473694727216103 0 -0.034999606241957144 -7.9703626150395069e-06 0 -0.035327967573904911 -0.00063480869776845862 0 -0.035272688836909462 -0.00044737713272290699 0 -0.035382475561021837 -0.00030350369593566765 0 -0.034540428196630987 -4.8676940506138741e-05 0 -0.034605663448494944 0.0001696455067980862 0 -0.034642135601100604 4.4356119265811975e-05 0 -0.035272688836909462 -0.00044737713272290699 0 -0.035382475561021837 -0.00030350369593566765 0 -0.035120416075945168 -0.00031435346589015086 0 -0.034854233657282803 -2.2967708237047919e-06 0 -0.034846467165506663 -1.931369345907312e-06 0 -0.034855958582914098 -2.2826534172945278e-06 0 -0.034811510447296093 -1.4222920234650502e-06 0 -0.03483580884572595 2.3237691779662084e-06 0 -0.034834606160913349 -2.3197431793608492e-06 0 -0.03483580884572595 2.3237691779662084e-06 0 -0.034846467165506663 -1.931369345907312e-06 0 -0.034834606160913349 -2.3197431793608492e-06 0 -0.034605663448494944 0.0001696455067980862 0 -0.034697916915622989 5.9892861118198186e-05 0 -0.034642135601100604 4.4356119265811975e-05 0 -0.034999606241957144 -7.9703626150395069e-06 0 -0.034735755319066176 6.0569857315900179e-05 0 -0.034854233657282803 -2.2967708237047919e-06 0 -0.03483580884572595 2.3237691779662084e-06 0 -0.034846467165506663 -1.931369345907312e-06 0 -0.034846467165506663 -1.931369345907312e-06 0 -0.034834606160913349 -2.3197431793608492e-06 0 -0.034855958582914098 -2.2826534172945278e-06 0 -0.034854233657282803 -2.2967708237047919e-06 0 -0.034855958582914098 -2.2826534172945278e-06 0 -0.034876814074797535 -5.891865148033252e-07 0 -0.034999606241957144 -7.9703626150395069e-06 0 -0.035073117613014959 -9.5088619740531837e-05 0 -0.034977769752725089 -4.1669131285096506e-05 0 -0.034954610140102142 -1.884149132431697e-05 0 -0.034985057538710111 -5.2385539157105394e-06 0 -0.034999606241957144 -7.9703626150395069e-06 0 -0.034921814365209213 -9.8984659258989935e-06 0 -0.035382475561021837 -0.00030350369593566765 0 -0.035113788872018506 -8.9737864017361778e-05 0 -0.035120416075945168 -0.00031435346589015086 0 -0.035113788872018506 -8.9737864017361778e-05 0 -0.035120416075945168 -0.00031435346589015086 0 -0.034864367590266579 -0.00015309425937087972 0 -0.03524443407992716 -0.00056879420199240605 0 -0.035120416075945168 -0.00031435346589015086 0 -0.034957048558604251 -0.00048225294430727963 0 -0.035120416075945168 -0.00031435346589015086 0 -0.034957048558604251 -0.00048225294430727963 0 -0.034864367590266579 -0.00015309425937087972 0 -0.03524443407992716 -0.00056879420199240605 0 -0.035272688836909462 -0.00044737713272290699 0 -0.035120416075945168 -0.00031435346589015086 0 -0.034957048558604251 -0.00048225294430727963 0 -0.034864367590266579 -0.00015309425937087972 0 -0.034619349757813313 -0.00033829416026078522 0 -0.034864367590266579 -0.00015309425937087972 0 -0.03491818161723291 1.7499166309711255e-05 0 -0.034800527346931967 1.734750943566046e-05 0 -0.035113788872018506 -8.9737864017361778e-05 0 -0.034864367590266579 -0.00015309425937087972 0 -0.03491818161723291 1.7499166309711255e-05 0 -0.034954610140102142 -1.884149132431697e-05 0 -0.03491818161723291 1.7499166309711255e-05 0 -0.0349668713822038 1.0533438291974141e-05 0 -0.035073117613014959 -9.5088619740531837e-05 0 -0.034917349487515507 2.8955012819741935e-05 0 -0.03491818161723291 1.7499166309711255e-05 0 -0.0349668713822038 1.0533438291974141e-05 0 -0.034968460008855617 2.7371957446134338e-05 0 -0.03491818161723291 1.7499166309711255e-05 0 -0.034919299016884509 4.3842332533819692e-05 0 -0.034968460008855617 2.7371957446134338e-05 0 -0.03491818161723291 1.7499166309711255e-05 0 -0.034919299016884509 4.3842332533819692e-05 0 -0.034800527346931967 1.734750943566046e-05 0 -0.034907989132695029 3.54047537076459e-06 0 -0.034880176435394039 8.1882200664052504e-07 0 -0.034876814074797535 -5.891865148033252e-07 0 -0.034880176435394039 8.1882200664052504e-07 0 -0.034855958582914098 -2.2826534172945278e-06 0 -0.034876814074797535 -5.891865148033252e-07 0 -0.034954610140102142 -1.884149132431697e-05 0 -0.034985057538710111 -5.2385539157105394e-06 0 -0.0349668713822038 1.0533438291974141e-05 0 -0.0349668713822038 1.0533438291974141e-05 0 -0.034987055229143367 1.7741647807542558e-05 0 -0.034968460008855617 2.7371957446134338e-05 0 -0.034985057538710111 -5.2385539157105394e-06 0 -0.0349668713822038 1.0533438291974141e-05 0 -0.034987055229143367 1.7741647807542558e-05 0 -0.034921814365209213 -9.8984659258989935e-06 0 -0.034956811097128143 9.6779474628530983e-06 0 -0.034907989132695029 3.54047537076459e-06 0 -0.034876814074797535 -5.891865148033252e-07 0 -0.034921740185410902 6.3828351704527836e-06 0 -0.034950478208039239 6.1939950849192314e-06 0 -0.034907989132695029 3.54047537076459e-06 0 -0.034921740185410902 6.3828351704527836e-06 0 -0.034950478208039239 6.1939950849192314e-06 0 -0.034921740185410902 6.3828351704527836e-06 0 -0.034987476739599281 5.384279993512726e-06 0 -0.034987055229143367 1.7741647807542558e-05 0 -0.034985723570701933 1.5698459618850223e-05 0 -0.034987476739599281 5.384279993512726e-06 0 -0.034956811097128143 9.6779474628530983e-06 0 -0.034979548825139019 3.4305134683224127e-06 0 -0.034987055229143367 1.7741647807542558e-05 0 -0.034985723570701933 1.5698459618850223e-05 0 -0.034968460008855617 2.7371957446134338e-05 0 -0.034985723570701933 1.5698459618850223e-05 0 -0.034999990343814021 5.087475930295283e-09 0 -0.034968460008855617 2.7371957446134338e-05 0 -0.034985723570701933 1.5698459618850223e-05 0 -0.034999990343814021 5.087475930295283e-09 0 -0.034987476739599281 5.384279993512726e-06 0 -0.034999939228856129 8.6443931238605185e-09 0 -0.034999990343814021 5.087475930295283e-09 0 -0.034987476739599281 5.384279993512726e-06 0 -0.034919299016884509 4.3842332533819692e-05 0 -0.034968460008855617 2.7371957446134338e-05 0 -0.034999906891550192 5.5298365859820296e-08 0 -0.034999990343814021 5.087475930295283e-09 0 -0.034968460008855617 2.7371957446134338e-05 0 -0.034999906891550192 5.5298365859820296e-08 0 -0.034919299016884509 4.3842332533819692e-05 0 -0.034999906891550192 5.5298365859820296e-08 0 -0.034918497031979641 3.7821064896434922e-05 0 -0.034999906891550192 5.5298365859820296e-08 0 -0.034918497031979641 3.7821064896434922e-05 0 -0.034999803092512147 5.2959906280913741e-08 0 -0.034919299016884509 4.3842332533819692e-05 0 -0.034918497031979641 3.7821064896434922e-05 0 -0.034792581293481659 6.3746069747185548e-05 0 -0.034862750873425781 3.9449551948974103e-05 0 -0.03466553375690902 8.5662136449244028e-05 0 -0.034792581293481659 6.3746069747185548e-05 0 -0.034918497031979641 3.7821064896434922e-05 0 -0.034862750873425781 3.9449551948974103e-05 0 -0.034792581293481659 6.3746069747185548e-05 0 -0.034918497031979641 3.7821064896434922e-05 0 -0.034999803092512147 5.2959906280913741e-08 0 -0.034862750873425781 3.9449551948974103e-05 0 -0.034999804634786934 -7.6460419933101235e-09 0 -0.034890098910629525 2.764511202944605e-05 0 -0.034862750873425781 3.9449551948974103e-05 0 -0.034999803092512147 5.2959906280913741e-08 0 -0.034999804634786934 -7.6460419933101235e-09 0 -0.034862750873425781 3.9449551948974103e-05 0 -0.034999804634786934 -7.6460419933101235e-09 0 -0.034890098910629525 2.764511202944605e-05 0 -0.034946932602649847 1.2903827958900238e-05 0 -0.034772144381565277 6.4488426582740523e-05 0 -0.034946932602649847 1.2903827958900238e-05 0 -0.034915704692472189 0.00010954616541362172 0 -0.034890098910629525 2.764511202944605e-05 0 -0.034772144381565277 6.4488426582740523e-05 0 -0.034946932602649847 1.2903827958900238e-05 0 -0.034890098910629525 2.764511202944605e-05 0 -0.034862750873425781 3.9449551948974103e-05 0 -0.034772144381565277 6.4488426582740523e-05 0 -0.034862750873425781 3.9449551948974103e-05 0 -0.03466553375690902 8.5662136449244028e-05 0 -0.034772144381565277 6.4488426582740523e-05 0 -0.03466553375690902 8.5662136449244028e-05 0 -0.034772144381565277 6.4488426582740523e-05 0 -0.034451470792846044 0.00011995755736186687 0 -0.034772144381565277 6.4488426582740523e-05 0 -0.034451470792846044 0.00011995755736186687 0 -0.03484960861376106 9.4146681602369831e-05 0 -0.034440017329133127 0.00018965251253146636 0 -0.034354012611257208 0.00034744162389743321 0 -0.034885847219567279 0.0001484425229671479 0 -0.034354012611257208 0.00034744162389743321 0 -0.033865401342860472 0.00019968663367171934 0 -0.034451470792846044 0.00011995755736186687 0 -0.033930704265145765 -0.00023419996146185613 0 -0.033865401342860472 0.00019968663367171934 0 -0.034451470792846044 0.00011995755736186687 0 -0.033780165073397199 0.00083698717850607524 0 -0.03466553375690902 8.5662136449244028e-05 0 -0.034451470792846044 0.00011995755736186687 0 -0.03462616537935196 -4.8586584853024129e-05 0 -0.03462616537935196 -4.8586584853024129e-05 0 -0.034800527346931967 1.734750943566046e-05 0 -0.034792581293481659 6.3746069747185548e-05 0 -0.034864367590266579 -0.00015309425937087972 0 -0.03462616537935196 -4.8586584853024129e-05 0 -0.034800527346931967 1.734750943566046e-05 0 -0.034919299016884509 4.3842332533819692e-05 0 -0.034800527346931967 1.734750943566046e-05 0 -0.034792581293481659 6.3746069747185548e-05 0 -0.03466553375690902 8.5662136449244028e-05 0 -0.03462616537935196 -4.8586584853024129e-05 0 -0.034792581293481659 6.3746069747185548e-05 0 -0.034558225461684584 0.00036092698805053355 0 -0.034998472418050604 3.0147477149412832e-07 0 -0.034999943101111076 7.6058331868539817e-08 0 -0.034999833979494292 7.6547744664545035e-08 0 -0.034686752766347924 0.00015119296668993291 0 -0.034558225461684584 0.00036092698805053355 0 -0.034998472418050604 3.0147477149412832e-07 0 -0.034540495775416742 0.00036430578171267304 0 -0.034998472418050604 3.0147477149412832e-07 0 -0.034540495775416742 0.00036430578171267304 0 -0.034300041021311692 0.00029173526971609863 0 -0.034558225461684584 0.00036092698805053355 0 -0.034540495775416742 0.00036430578171267304 0 -0.034447923038344 0.00052189327308382915 0 -0.034540495775416742 0.00036430578171267304 0 -0.034300041021311692 0.00029173526971609863 0 -0.034392622328847947 0.00045375654063185665 0 -0.034300041021311692 0.00029173526971609863 0 -0.03410419962896262 0.00049566188672591513 0 -0.034280494354723391 0.00045931575874604436 0 -0.034300041021311692 0.00029173526971609863 0 -0.034280494354723391 0.00045931575874604436 0 -0.034392622328847947 0.00045375654063185665 0 -0.035000015619471712 7.1046515696499843e-09 0 -0.035005910651977813 1.9356788302371892e-05 0 -0.035000000598000999 -1.975016905810899e-09 0 -0.035005910651977813 1.9356788302371892e-05 0 -0.035000000598000999 -1.975016905810899e-09 0 -0.034946932602649847 1.2903827958900238e-05 0 -0.034999804634786934 -7.6460419933101235e-09 0 -0.035000000598000999 -1.975016905810899e-09 0 -0.034946932602649847 1.2903827958900238e-05 0 -0.035005910651977813 1.9356788302371892e-05 0 -0.034946932602649847 1.2903827958900238e-05 0 -0.034915704692472189 0.00010954616541362172 0 -0.034686752766347924 0.00015119296668993291 0 -0.034354012611257208 0.00034744162389743321 0 -0.033780165073397199 0.00083698717850607524 0 -0.033443584592382128 0.00037121079469990822 0 -0.032957043930067459 0.00061047801357576466 0 -0.033865401342860472 0.00019968663367171934 0 -0.033780165073397199 0.00083698717850607524 0 -0.033443584592382128 0.00037121079469990822 0 -0.033865401342860472 0.00019968663367171934 0 -0.033443584592382128 0.00037121079469990822 0 -0.033480000587567803 3.0127175000792674e-05 0 -0.033443584592382128 0.00037121079469990822 0 -0.033095951237736967 0.00020515591613586695 0 -0.032957043930067459 0.00061047801357576466 0 -0.033443584592382128 0.00037121079469990822 0 -0.033095951237736967 0.00020515591613586695 0 -0.033480000587567803 3.0127175000792674e-05 0 -0.033095951237736967 0.00020515591613586695 0 -0.032957043930067459 0.00061047801357576466 0 -0.032661552355371201 0.0002131515674339616 0 -0.034354012611257208 0.00034744162389743321 0 -0.03353511943161621 0.00062822385298658731 0 -0.03410419962896262 0.00049566188672591513 0 -0.034361024106227871 0.00056385540337673483 0 -0.034280494354723391 0.00045931575874604436 0 -0.034361024106227871 0.00056385540337673483 0 -0.034280494354723391 0.00045931575874604436 0 -0.034392622328847947 0.00045375654063185665 0 -0.034540495775416742 0.00036430578171267304 0 -0.034392622328847947 0.00045375654063185665 0 -0.034447923038344 0.00052189327308382915 0 -0.034361024106227871 0.00056385540337673483 0 -0.034392622328847947 0.00045375654063185665 0 -0.034447923038344 0.00052189327308382915 0 -0.034361024106227871 0.00056385540337673483 0 -0.034447923038344 0.00052189327308382915 0 -0.034513735716992372 0.00059734743969974279 0 -0.03353511943161621 0.00062822385298658731 0 -0.033521189264225107 0.00038008646295749804 0 -0.032957043930067459 0.00061047801357576466 0 -0.032661552355371201 0.0002131515674339616 0 -0.032100168588574396 0.00039604820215478952 0 -0.034618067679296351 0.00064401588986765423 0 -0.033521189264225107 0.00038008646295749804 0 -0.032661552355371201 0.0002131515674339616 0 -0.032100168588574396 0.00039604820215478952 0 -0.032283103856419838 0.00013993815438623713 0 -0.032100168588574396 0.00039604820215478952 0 -0.032035683266235231 0.00010167467383652205 0 -0.032283103856419838 0.00013993815438623713 0 -0.033521189264225107 0.00038008646295749804 0 -0.033621982874872149 0.00019366006817909045 0 -0.033521189264225107 0.00038008646295749804 0 -0.030557129287647186 0.0012795732065668728 0 -0.033554396943831222 0.00012785151377005434 0 -0.033472782615110795 4.5146973986372089e-05 0 -0.033487891242201112 0.00010503326317154727 0 -0.033554396943831222 0.00012785151377005434 0 -0.033469066810505925 2.9135508565264863e-05 0 -0.033472782615110795 4.5146973986372089e-05 0 -0.032100168588574396 0.00039604820215478952 0 -0.032035683266235231 0.00010167467383652205 0 -0.031762278309866346 7.538376202979657e-05 0 -0.034243277943843499 0.00024577149940393134 0 -0.033936123005690294 0.00041897985183609633 0 -0.033487891242201112 0.00010503326317154727 0 -0.034243277943843499 0.00024577149940393134 0 -0.034285894574846876 0.00054011334402179884 0 -0.033936123005690294 0.00041897985183609633 0 -0.034558225461684584 0.00036092698805053355 0 -0.034447923038344 0.00052189327308382915 0 -0.034285894574846876 0.00054011334402179884 0 -0.034285894574846876 0.00054011334402179884 0 -0.034144697066731247 0.00068660522185519878 0 -0.033936123005690294 0.00041897985183609633 0 -0.034558225461684584 0.00036092698805053355 0 -0.034285894574846876 0.00054011334402179884 0 -0.034144697066731247 0.00068660522185519878 0 -0.034447923038344 0.00052189327308382915 0 -0.034243277943843499 0.00024577149940393134 0 -0.034285894574846876 0.00054011334402179884 0 -0.031974927864570388 -0.00082001014394919754 0 -0.031980382825978787 -0.00043908127489093566 0 -0.031575854190073228 -0.00065381197865408552 0 -0.031974927864570388 -0.00082001014394919754 0 -0.032205576536122639 -0.00050085753433930388 0 -0.032400431543690947 -0.00070376436702571988 0 -0.032205576536122639 -0.00050085753433930388 0 -0.032200877162091135 -0.00024175247135275357 0 -0.032452420042837812 -0.00031783667357731323 0 -0.032205576536122639 -0.00050085753433930388 0 -0.031980382825978787 -0.00043908127489093566 0 -0.032200877162091135 -0.00024175247135275357 0 -0.031974927864570388 -0.00082001014394919754 0 -0.032205576536122639 -0.00050085753433930388 0 -0.031980382825978787 -0.00043908127489093566 0 -0.031980382825978787 -0.00043908127489093566 0 -0.031949202334707438 -0.00018869494322679037 0 -0.031575854190073228 -0.00065381197865408552 0 -0.031980382825978787 -0.00043908127489093566 0 -0.031949202334707438 -0.00018869494322679037 0 -0.032200877162091135 -0.00024175247135275357 0 -0.031949202334707438 -0.00018869494322679037 0 -0.032035683266235231 0.00010167467383652205 0 -0.031762278309866346 7.538376202979657e-05 0 -0.031949202334707438 -0.00018869494322679037 0 -0.032035683266235231 0.00010167467383652205 0 -0.0321785075046385 3.7620526245206288e-06 0 -0.032283103856419838 0.00013993815438623713 0 -0.0321785075046385 3.7620526245206288e-06 0 -0.032432019469506614 -1.8132421463927074e-05 0 -0.032035683266235231 0.00010167467383652205 0 -0.032283103856419838 0.00013993815438623713 0 -0.0321785075046385 3.7620526245206288e-06 0 -0.0321785075046385 3.7620526245206288e-06 0 -0.032200877162091135 -0.00024175247135275357 0 -0.032432019469506614 -1.8132421463927074e-05 0 -0.031949202334707438 -0.00018869494322679037 0 -0.0321785075046385 3.7620526245206288e-06 0 -0.032200877162091135 -0.00024175247135275357 0 -0.032200877162091135 -0.00024175247135275357 0 -0.032452420042837812 -0.00031783667357731323 0 -0.032432019469506614 -1.8132421463927074e-05 0 -0.032452420042837812 -0.00031783667357731323 0 -0.032432019469506614 -1.8132421463927074e-05 0 -0.032663723993054394 -0.00014259001801363591 0 -0.032661552355371201 0.0002131515674339616 0 -0.032432019469506614 -1.8132421463927074e-05 0 -0.032663723993054394 -0.00014259001801363591 0 -0.032661552355371201 0.0002131515674339616 0 -0.032283103856419838 0.00013993815438623713 0 -0.032432019469506614 -1.8132421463927074e-05 0 -0.032661552355371201 0.0002131515674339616 0 -0.032663723993054394 -0.00014259001801363591 0 -0.033020999705995861 -0.00014531200495406849 0 -0.032452420042837812 -0.00031783667357731323 0 -0.032663723993054394 -0.00014259001801363591 0 -0.032748548259615505 -0.00044943781901541502 0 -0.032663723993054394 -0.00014259001801363591 0 -0.032748548259615505 -0.00044943781901541502 0 -0.033020999705995861 -0.00014531200495406849 0 -0.032452420042837812 -0.00031783667357731323 0 -0.032748548259615505 -0.00044943781901541502 0 -0.032400431543690947 -0.00070376436702571988 0 -0.032205576536122639 -0.00050085753433930388 0 -0.032452420042837812 -0.00031783667357731323 0 -0.032400431543690947 -0.00070376436702571988 0 -0.032748548259615505 -0.00044943781901541502 0 -0.032400431543690947 -0.00070376436702571988 0 -0.032824897172796408 -0.00089681736183438358 0 -0.033141275591986812 -0.00077328848439822326 0 -0.033078013899112184 -0.00055307505102972351 0 -0.032824897172796408 -0.00089681736183438358 0 -0.032748548259615505 -0.00044943781901541502 0 -0.033078013899112184 -0.00055307505102972351 0 -0.032824897172796408 -0.00089681736183438358 0 -0.033141275591986812 -0.00077328848439822326 0 -0.033078013899112184 -0.00055307505102972351 0 -0.033400265672074762 -0.0006844356757514735 0 -0.033141275591986812 -0.00077328848439822326 0 -0.033400265672074762 -0.0006844356757514735 0 -0.033240209361454921 -0.00093563671189228113 0 -0.033078013899112184 -0.00055307505102972351 0 -0.033020999705995861 -0.00014531200495406849 0 -0.033457825439032328 -0.00035147895505041816 0 -0.033078013899112184 -0.00055307505102972351 0 -0.033457825439032328 -0.00035147895505041816 0 -0.033400265672074762 -0.0006844356757514735 0 -0.032748548259615505 -0.00044943781901541502 0 -0.033078013899112184 -0.00055307505102972351 0 -0.033020999705995861 -0.00014531200495406849 0 -0.033095951237736967 0.00020515591613586695 0 -0.032661552355371201 0.0002131515674339616 0 -0.033020999705995861 -0.00014531200495406849 0 -0.033095951237736967 0.00020515591613586695 0 -0.033020999705995861 -0.00014531200495406849 0 -0.033480000587567803 3.0127175000792674e-05 0 -0.033020999705995861 -0.00014531200495406849 0 -0.033480000587567803 3.0127175000792674e-05 0 -0.033457825439032328 -0.00035147895505041816 0 -0.033480000587567803 3.0127175000792674e-05 0 -0.033457825439032328 -0.00035147895505041816 0 -0.033930704265145765 -0.00023419996146185613 0 -0.033865401342860472 0.00019968663367171934 0 -0.033480000587567803 3.0127175000792674e-05 0 -0.033930704265145765 -0.00023419996146185613 0 -0.033457825439032328 -0.00035147895505041816 0 -0.033701649661122601 -0.00056328562760248415 0 -0.033930704265145765 -0.00023419996146185613 0 -0.033400265672074762 -0.0006844356757514735 0 -0.033701649661122601 -0.00056328562760248415 0 -0.033416064074539648 -0.001074160297298494 0 -0.033457825439032328 -0.00035147895505041816 0 -0.033400265672074762 -0.0006844356757514735 0 -0.033701649661122601 -0.00056328562760248415 0 -0.033701649661122601 -0.00056328562760248415 0 -0.033599903395243852 -0.00069813747876425647 0 -0.033956227721965888 -0.00057330714547483195 0 -0.0308762212965616 0.00022920713091543877 0 -0.032716774048137179 -0.00013567314949321677 0 -0.03356263988780659 -0.0003730435874139695 0 -0.0308762212965616 0.00022920713091543877 0 -0.028707731307798384 0.0014162381983894537 0 -0.029751192138807035 3.505253018501374e-05 0 -0.031368340894781459 0.00048814656424915902 0 -0.028707731307798384 0.0014162381983894537 0 -0.029751192138807035 3.505253018501374e-05 0 -0.028619194925278365 -0.001126412316972434 0 -0.0308762212965616 0.00022920713091543877 0 -0.027019965741890691 -0.00048758695607779173 0 -0.028707731307798384 0.0014162381983894537 0 -0.028619194925278365 -0.001126412316972434 0 -0.02726808792759533 -0.00086079032211462626 0 -0.02855690930316419 0.0012133887021848156 0 -0.027365277616198346 0.0007051414260234761 0 -0.027438731075887218 -0.00041849841566320042 0 -0.02855690930316419 0.0012133887021848156 0 -0.027965193652387248 0.0014176393994896851 0 -0.027365277616198346 0.0007051414260234761 0 -0.033416064074539648 -0.001074160297298494 0 -0.033096235298409563 -0.00097012451355760101 0 -0.033240209361454921 -0.00093563671189228113 0 -0.033400265672074762 -0.0006844356757514735 0 -0.033416064074539648 -0.001074160297298494 0 -0.033240209361454921 -0.00093563671189228113 0 -0.0308762212965616 0.00022920713091543877 0 -0.031281722376926911 -0.00035514209055288753 0 -0.031281722376926911 -0.00035514209055288753 0 -0.032069613977912366 -0.00031768466082084454 0 -0.033141275591986812 -0.00077328848439822326 0 -0.033116368779135055 -0.00097286107806694082 0 -0.033240209361454921 -0.00093563671189228113 0 -0.033141275591986812 -0.00077328848439822326 0 -0.033116368779135055 -0.00097286107806694082 0 -0.032824897172796408 -0.00089681736183438358 0 -0.031281722376926911 -0.00035514209055288753 0 -0.033000016633014231 -0.00094410569260091498 0 -0.031281722376926911 -0.00035514209055288753 0 -0.029395812309158602 2.8869827682659031e-05 0 -0.027965193652387248 0.0014176393994896851 0 -0.027365277616198346 0.0007051414260234761 0 -0.026317671855848049 0.0010149276381644424 0 -0.033116437166583718 -0.00098772723865918018 0 -0.032824897172796408 -0.00089681736183438358 0 -0.032279567221386363 -0.0012209530095981681 0 -0.032400431543690947 -0.00070376436702571988 0 -0.032824897172796408 -0.00089681736183438358 0 -0.032279567221386363 -0.0012209530095981681 0 -0.027365277616198346 0.0007051414260234761 0 -0.026553961363183661 0.00029779091570039483 0 -0.027438731075887218 -0.00041849841566320042 0 -0.027365277616198346 0.0007051414260234761 0 -0.026553961363183661 0.00029779091570039483 0 -0.026317671855848049 0.0010149276381644424 0 -0.026553961363183661 0.00029779091570039483 0 -0.027438731075887218 -0.00041849841566320042 0 -0.026289730239638459 -0.00045332756143252781 0 -0.026553961363183661 0.00029779091570039483 0 -0.025706192978327259 -7.0368832977269474e-07 0 -0.026317671855848049 0.0010149276381644424 0 -0.025706192978327259 -7.0368832977269474e-07 0 -0.026317671855848049 0.0010149276381644424 0 -0.02473437400908898 0.00060135239642465838 0 -0.026553961363183661 0.00029779091570039483 0 -0.025706192978327259 -7.0368832977269474e-07 0 -0.026289730239638459 -0.00045332756143252781 0 -0.031974927864570388 -0.00082001014394919754 0 -0.032279567221386363 -0.0012209530095981681 0 -0.031386432490383198 -0.001436893308045073 0 -0.029395812309158602 2.8869827682659031e-05 0 -0.026964192896224395 -0.00092763882001011921 0 -0.031974927864570388 -0.00082001014394919754 0 -0.032400431543690947 -0.00070376436702571988 0 -0.032279567221386363 -0.0012209530095981681 0 -0.034619349757813313 -0.00033829416026078522 0 -0.034317048729429041 -0.00028370268062896252 0 -0.034158560669974448 -0.00058645197166699045 0 -0.034864367590266579 -0.00015309425937087972 0 -0.03462616537935196 -4.8586584853024129e-05 0 -0.034619349757813313 -0.00033829416026078522 0 -0.03462616537935196 -4.8586584853024129e-05 0 -0.034619349757813313 -0.00033829416026078522 0 -0.034317048729429041 -0.00028370268062896252 0 -0.034451470792846044 0.00011995755736186687 0 -0.034317048729429041 -0.00028370268062896252 0 -0.033930704265145765 -0.00023419996146185613 0 -0.034451470792846044 0.00011995755736186687 0 -0.03462616537935196 -4.8586584853024129e-05 0 -0.034317048729429041 -0.00028370268062896252 0 -0.033701649661122601 -0.00056328562760248415 0 -0.033930704265145765 -0.00023419996146185613 0 -0.033956227721965888 -0.00057330714547483195 0 -0.034317048729429041 -0.00028370268062896252 0 -0.033930704265145765 -0.00023419996146185613 0 -0.033956227721965888 -0.00057330714547483195 0 -0.034317048729429041 -0.00028370268062896252 0 -0.033956227721965888 -0.00057330714547483195 0 -0.034158560669974448 -0.00058645197166699045 0 -0.033956227721965888 -0.00057330714547483195 0 -0.033963621919002145 -0.00072923035412421951 0 -0.034158560669974448 -0.00058645197166699045 0 -0.033599903395243852 -0.00069813747876425647 0 -0.033956227721965888 -0.00057330714547483195 0 -0.033963621919002145 -0.00072923035412421951 0 -0.031368340894781459 0.00048814656424915902 0 -0.031995461127979158 -0.0016474814472494301 0 -0.030497045829322039 -0.0011013029106405564 0 -0.029751192138807035 3.505253018501374e-05 0 -0.031368340894781459 0.00048814656424915902 0 -0.030497045829322039 -0.0011013029106405564 0 -0.033963621919002145 -0.00072923035412421951 0 -0.033897924592770461 -0.00081565815150773282 0 -0.034158560669974448 -0.00058645197166699045 0 -0.031368340894781459 0.00048814656424915902 0 -0.033897924592770461 -0.00081565815150773282 0 -0.031995461127979158 -0.0016474814472494301 0 -0.032716774048137179 -0.00013567314949321677 0 -0.033814332576089623 -0.00074633023138866031 0 -0.034749956911204215 -0.00069283752943341363 0 -0.033897924592770461 -0.00081565815150773282 0 -0.034158560669974448 -0.00058645197166699045 0 -0.034749956911204215 -0.00069283752943341363 0 -0.034619349757813313 -0.00033829416026078522 0 -0.034158560669974448 -0.00058645197166699045 0 -0.034667399139651021 -0.0012808785394244097 0 -0.034749956911204215 -0.00069283752943341363 0 -0.033897924592770461 -0.00081565815150773282 0 -0.034667399139651021 -0.0012808785394244097 0 -0.034917794974386053 -0.0021342864712363178 0 -0.034003001163214398 -0.0021265707096049156 0 -0.034667399139651021 -0.0012808785394244097 0 -0.033897924592770461 -0.00081565815150773282 0 -0.034003001163214398 -0.0021265707096049156 0 -0.033897924592770461 -0.00081565815150773282 0 -0.033030826910277797 -0.0022450057137262734 0 -0.034003001163214398 -0.0021265707096049156 0 -0.033897924592770461 -0.00081565815150773282 0 -0.033030826910277797 -0.0022450057137262734 0 -0.031995461127979158 -0.0016474814472494301 0 -0.033030826910277797 -0.0022450057137262734 0 -0.033269165364937667 -0.0031982282017108577 0 -0.032391695843499629 -0.0028015067051664058 0 -0.033030826910277797 -0.0022450057137262734 0 -0.034003001163214398 -0.0021265707096049156 0 -0.033269165364937667 -0.0031982282017108577 0 -0.034917794974386053 -0.0021342864712363178 0 -0.034003001163214398 -0.0021265707096049156 0 -0.034076279110384841 -0.0033490311910530602 0 -0.034003001163214398 -0.0021265707096049156 0 -0.034076279110384841 -0.0033490311910530602 0 -0.033269165364937667 -0.0031982282017108577 0 -0.034076279110384841 -0.0033490311910530602 0 -0.033269165364937667 -0.0031982282017108577 0 -0.0335865044094798 -0.0042691449684286193 0 -0.033269165364937667 -0.0031982282017108577 0 -0.0335865044094798 -0.0042691449684286193 0 -0.032580049687219927 -0.0038304541028154056 0 -0.029826058970950094 -0.0031064161797700737 0 -0.031313793040017031 -0.0039419345910603268 0 -0.028464255185042687 -0.0027775648373436494 0 -0.028984234494772294 -0.0026106640159538558 0 -0.030819679910577165 -0.0043997453978586037 0 -0.02707743990531529 -0.0033166104730538155 0 -0.031313793040017031 -0.0039419345910603268 0 -0.029826058970950094 -0.0031064161797700737 0 -0.02707743990531529 -0.0033166104730538155 0 -0.031467097467759941 -0.0032827762158260032 0 -0.029826058970950094 -0.0031064161797700737 0 -0.034285033515577039 -0.0038236310030500963 0 -0.034076279110384841 -0.0033490311910530602 0 -0.0335865044094798 -0.0042691449684286193 0 -0.026924373556272824 -0.0030377882289102241 0 -0.029387142827140805 -0.0022618188263688888 0 -0.027408059658083232 -0.00090544090490517887 0 -0.029458035128109732 -0.0036274290912088635 0 -0.028768508015864065 -0.0040014418368620125 0 -0.029837234076755714 -0.0043966344357252345 0 -0.029458035128109732 -0.0036274290912088635 0 -0.02889021955894586 -0.0033372323116035102 0 -0.028768508015864065 -0.0040014418368620125 0 -0.030752430338328886 -0.0040662505338835168 0 -0.030164805818529448 -0.003443412767952448 0 -0.029837234076755714 -0.0043966344357252345 0 -0.029458035128109732 -0.0036274290912088635 0 -0.030164805818529448 -0.003443412767952448 0 -0.029837234076755714 -0.0043966344357252345 0 -0.033269165364937667 -0.0031982282017108577 0 -0.032580049687219927 -0.0038304541028154056 0 -0.032391695843499629 -0.0028015067051664058 0 -0.029458035128109732 -0.0036274290912088635 0 -0.030164805818529448 -0.003443412767952448 0 -0.029581184438657308 -0.0029638127556867173 0 -0.031313793040017031 -0.0039419345910603268 0 -0.030176748986885608 -0.0025347145049733626 0 -0.031313793040017031 -0.0039419345910603268 0 -0.02951667043718648 -0.0028443475328053859 0 -0.030593687877334717 -0.0035306801701975943 0 -0.029778270426306389 -0.002974788398261386 0 -0.029418329158861618 -0.0023933527484402157 0 -0.032580049687219927 -0.0038304541028154056 0 -0.030920729964005085 -0.002859408222709654 0 -0.032391695843499629 -0.0028015067051664058 0 -0.029581184438657308 -0.0029638127556867173 0 -0.02889021955894586 -0.0033372323116035102 0 -0.028845523619030589 -0.0028249337050911603 0 -0.029458035128109732 -0.0036274290912088635 0 -0.029581184438657308 -0.0029638127556867173 0 -0.02889021955894586 -0.0033372323116035102 0 -0.02951667043718648 -0.0028443475328053859 0 -0.029124110067210766 -0.0025128468265594303 0 -0.029581184438657308 -0.0029638127556867173 0 -0.02901320508804715 -0.0023994055728156199 0 -0.028845523619030589 -0.0028249337050911603 0 -0.029778270426306389 -0.002974788398261386 0 -0.029418329158861618 -0.0023933527484402157 0 -0.02901320508804715 -0.0023994055728156199 0 -0.029418329158861618 -0.0023933527484402157 0 -0.02901320508804715 -0.0023994055728156199 0 -0.028818241307001901 -0.0020915601160804765 0 -0.030920729964005085 -0.002859408222709654 0 -0.032391695843499629 -0.0028015067051664058 0 -0.031995461127979158 -0.0016474814472494301 0 -0.033030826910277797 -0.0022450057137262734 0 -0.032391695843499629 -0.0028015067051664058 0 -0.031995461127979158 -0.0016474814472494301 0 -0.030920729964005085 -0.002859408222709654 0 -0.031995461127979158 -0.0016474814472494301 0 -0.030497045829322039 -0.0011013029106405564 0 -0.030920729964005085 -0.002859408222709654 0 -0.030497045829322039 -0.0011013029106405564 0 -0.028619194925278365 -0.001126412316972434 0 -0.029751192138807035 3.505253018501374e-05 0 -0.030497045829322039 -0.0011013029106405564 0 -0.028619194925278365 -0.001126412316972434 0 -0.030176748986885608 -0.0025347145049733626 0 -0.028660326720810449 -0.0011910561898887185 0 -0.028619194925278365 -0.001126412316972434 0 -0.028818241307001901 -0.0020915601160804765 0 -0.028318940852144647 -0.0020991101813302993 0 -0.028619194925278365 -0.001126412316972434 0 -0.027749010080446439 -0.0017280269926742838 0 -0.028318940852144647 -0.0020991101813302993 0 -0.028619194925278365 -0.001126412316972434 0 -0.02726808792759533 -0.00086079032211462626 0 -0.027749010080446439 -0.0017280269926742838 0 -0.02726808792759533 -0.00086079032211462626 0 -0.027749010080446439 -0.0017280269926742838 0 -0.027201610992880661 -0.0020525536853676809 0 -0.027749010080446439 -0.0017280269926742838 0 -0.027715876584121304 -0.0024422189441695467 0 -0.028318940852144647 -0.0020991101813302993 0 -0.027749010080446439 -0.0017280269926742838 0 -0.027715876584121304 -0.0024422189441695467 0 -0.027201610992880661 -0.0020525536853676809 0 -0.027715876584121304 -0.0024422189441695467 0 -0.027201610992880661 -0.0020525536853676809 0 -0.026980895775154005 -0.0027532520626366592 0 -0.027715876584121304 -0.0024422189441695467 0 -0.028318940852144647 -0.0020991101813302993 0 -0.028407064244805984 -0.0028024223954447834 0 -0.029418329158861618 -0.0023933527484402157 0 -0.028619194925278365 -0.001126412316972434 0 -0.028818241307001901 -0.0020915601160804765 0 -0.028693526030898812 -0.0024373287198338977 0 -0.028318940852144647 -0.0020991101813302993 0 -0.028407064244805984 -0.0028024223954447834 0 -0.02901320508804715 -0.0023994055728156199 0 -0.028693526030898812 -0.0024373287198338977 0 -0.028845523619030589 -0.0028249337050911603 0 -0.028693526030898812 -0.0024373287198338977 0 -0.028845523619030589 -0.0028249337050911603 0 -0.028407064244805984 -0.0028024223954447834 0 -0.02901320508804715 -0.0023994055728156199 0 -0.028693526030898812 -0.0024373287198338977 0 -0.028818241307001901 -0.0020915601160804765 0 -0.028693526030898812 -0.0024373287198338977 0 -0.028818241307001901 -0.0020915601160804765 0 -0.028318940852144647 -0.0020991101813302993 0 -0.025607949449412023 -0.00081184659749575369 0 -0.026179540707224495 -0.0012713644972758785 0 -0.025272374287188922 -0.0014884373879601159 0 -0.025706192978327259 -7.0368832977269474e-07 0 -0.025607949449412023 -0.00081184659749575369 0 -0.026289730239638459 -0.00045332756143252781 0 -0.025607949449412023 -0.00081184659749575369 0 -0.026289730239638459 -0.00045332756143252781 0 -0.026179540707224495 -0.0012713644972758785 0 -0.027019965741890691 -0.00048758695607779173 0 -0.026279600492463025 -0.0022892701999106899 0 -0.027438731075887218 -0.00041849841566320042 0 -0.026289730239638459 -0.00045332756143252781 0 -0.026179540707224495 -0.0012713644972758785 0 -0.027438731075887218 -0.00041849841566320042 0 -0.026179540707224495 -0.0012713644972758785 0 -0.026288693607976303 -0.0020915466502601345 0 -0.02726808792759533 -0.00086079032211462626 0 -0.027201610992880661 -0.0020525536853676809 0 -0.026210520732217482 -0.0024177119525050877 0 -0.027201610992880661 -0.0020525536853676809 0 -0.026210520732217482 -0.0024177119525050877 0 -0.026980895775154005 -0.0027532520626366592 0 -0.026288693607976303 -0.0020915466502601345 0 -0.024994231551911522 -0.0026631968602870391 0 -0.024969879702768722 -0.0014710448141687885 0 -0.026179540707224495 -0.0012713644972758785 0 -0.026288693607976303 -0.0020915466502601345 0 -0.024969879702768722 -0.0014710448141687885 0 -0.026014081446672513 -0.0012957380243763033 0 -0.025172050337328413 -0.00148908886056154 0 -0.026210520732217482 -0.0024177119525050877 0 -0.026229399000739933 -0.0032873704880887825 0 -0.024982285955293827 -0.0039524905381141326 0 -0.026288693607976303 -0.0020915466502601345 0 -0.024982285955293827 -0.0039524905381141326 0 -0.024994231551911522 -0.0026631968602870391 0 -0.026279600492463025 -0.0022892701999106899 0 -0.025035082646607951 -0.0038871113543809395 0 -0.026229399000739933 -0.0032873704880887825 0 -0.026819911944173609 -0.003368983924642634 0 -0.026119397461906044 -0.003959189097057279 0 -0.026210520732217482 -0.0024177119525050877 0 -0.026229399000739933 -0.0032873704880887825 0 -0.026980895775154005 -0.0027532520626366592 0 -0.026229399000739933 -0.0032873704880887825 0 -0.026980895775154005 -0.0027532520626366592 0 -0.026819911944173609 -0.003368983924642634 0 -0.026980895775154005 -0.0027532520626366592 0 -0.026819911944173609 -0.003368983924642634 0 -0.027542085547564731 -0.0031705284528540105 0 -0.027071061616334106 -0.0039904913585004772 0 -0.026469075184261458 -0.0046251974357764489 0 -0.027543637687165858 -0.0046269892924203975 0 -0.026819911944173609 -0.003368983924642634 0 -0.027071061616334106 -0.0039904913585004772 0 -0.026119397461906044 -0.003959189097057279 0 -0.027071061616334106 -0.0039904913585004772 0 -0.026469075184261458 -0.0046251974357764489 0 -0.026119397461906044 -0.003959189097057279 0 -0.026469075184261458 -0.0046251974357764489 0 -0.026119397461906044 -0.003959189097057279 0 -0.025446880635287626 -0.005002418711682762 0 -0.026229399000739933 -0.0032873704880887825 0 -0.026119397461906044 -0.003959189097057279 0 -0.024982285955293827 -0.0039524905381141326 0 -0.026119397461906044 -0.003959189097057279 0 -0.025446880635287626 -0.005002418711682762 0 -0.024982285955293827 -0.0039524905381141326 0 -0.02889021955894586 -0.0033372323116035102 0 -0.028407064244805984 -0.0028024223954447834 0 -0.028128048697117596 -0.0036636157526233628 0 -0.02889021955894586 -0.0033372323116035102 0 -0.028845523619030589 -0.0028249337050911603 0 -0.028407064244805984 -0.0028024223954447834 0 -0.028407064244805984 -0.0028024223954447834 0 -0.027542085547564731 -0.0031705284528540105 0 -0.028128048697117596 -0.0036636157526233628 0 -0.027715876584121304 -0.0024422189441695467 0 -0.028407064244805984 -0.0028024223954447834 0 -0.027542085547564731 -0.0031705284528540105 0 -0.027715876584121304 -0.0024422189441695467 0 -0.026980895775154005 -0.0027532520626366592 0 -0.027542085547564731 -0.0031705284528540105 0 -0.026819911944173609 -0.003368983924642634 0 -0.027071061616334106 -0.0039904913585004772 0 -0.027542085547564731 -0.0031705284528540105 0 -0.027071061616334106 -0.0039904913585004772 0 -0.027542085547564731 -0.0031705284528540105 0 -0.028128048697117596 -0.0036636157526233628 0 -0.027071061616334106 -0.0039904913585004772 0 -0.028128048697117596 -0.0036636157526233628 0 -0.027543637687165858 -0.0046269892924203975 0 -0.02805129021657354 -0.0037654161762677371 0 -0.027553127702632813 -0.0043818804923681847 0 -0.028128048697117596 -0.0036636157526233628 0 -0.028768508015864065 -0.0040014418368620125 0 -0.027703416196723504 -0.0042721286382365114 0 -0.02889021955894586 -0.0033372323116035102 0 -0.028128048697117596 -0.0036636157526233628 0 -0.028768508015864065 -0.0040014418368620125 0 -0.028768508015864065 -0.0040014418368620125 0 -0.028816824646604476 -0.004765596108980908 0 -0.027703416196723504 -0.0042721286382365114 0 -0.027045179776428178 -0.0033741252083676733 0 -0.023591937201746915 -0.0021626520715718376 0 -0.027703416196723504 -0.0042721286382365114 0 -0.027734136201479458 -0.0051063496481604667 0 -0.027257269851086278 -0.0049283560806117248 0 -0.028816824646604476 -0.004765596108980908 0 -0.027703416196723504 -0.0042721286382365114 0 -0.027734136201479458 -0.0051063496481604667 0 -0.027553127702632813 -0.0043818804923681847 0 -0.023296113947288536 -0.0029604741896382585 0 -0.019138227780353314 -0.00099705701770638625 0 -0.018994138244789082 -0.0010330724694428463 0 -0.019104289318861545 -0.0011797749639266008 0 -0.023591937201746915 -0.0021626520715718376 0 -0.023296113947288536 -0.0029604741896382585 0 -0.023591937201746915 -0.0021626520715718376 0 -0.018902225264983696 -0.001712286226348644 0 -0.024244304785988671 -0.0019553522395354861 0 -0.025010207405068645 -0.0017061398179389693 0 -0.024123413693445107 -0.0013406966851090916 0 -0.019138227780353314 -0.00099705701770638625 0 -0.019104289318861545 -0.0011797749639266008 0 -0.01933319001240268 -0.0010750148543554384 0 -0.023591937201746915 -0.0021626520715718376 0 -0.021320615670452282 -0.0010313408305152704 0 -0.017189828113593278 -0.0013430267954290607 0 -0.017105017718363747 -0.0010260198443653677 0 -0.017415637350318938 -0.001101181332187746 0 -0.017189828113593278 -0.0013430267954290607 0 -0.016857397640641252 -0.0011104294515939582 0 -0.017105017718363747 -0.0010260198443653677 0 -0.026469075184261458 -0.0046251974357764489 0 -0.025446880635287626 -0.005002418711682762 0 -0.026928391695891007 -0.005528304904771705 0 -0.021060570064699226 -0.0031720572902635856 0 -0.023296113947288536 -0.0029604741896382585 0 -0.026469075184261458 -0.0046251974357764489 0 -0.027543637687165858 -0.0046269892924203975 0 -0.026928391695891007 -0.005528304904771705 0 -0.016857397640641252 -0.0011104294515939582 0 -0.016908690117590428 -0.00096153683914770903 0 -0.017105017718363747 -0.0010260198443653677 0 -0.023296113947288536 -0.0029604741896382585 0 -0.018902225264983696 -0.001712286226348644 0 -0.023204687435457821 -0.0019158677506178315 0 -0.021593171293981576 -0.0013091210788443565 0 -0.02074198234017078 -0.0027018223677545317 0 -0.018902225264983696 -0.001712286226348644 0 -0.018450401414756085 -0.00090888716290726541 0 -0.018902225264983696 -0.001712286226348644 0 -0.017259169588255008 -0.00070937698507705894 0 -0.018044746588075977 -0.00063666282589808459 0 -0.017673471740644844 -0.00074333434236674651 0 -0.01788522439568236 -0.00088197754504624256 0 -0.016908690117590428 -0.00096153683914770903 0 -0.017105017718363747 -0.0010260198443653677 0 -0.017230711594919706 -0.00070110567309296205 0 -0.017105017718363747 -0.0010260198443653677 0 -0.017230711594919706 -0.00070110567309296205 0 -0.017415637350318938 -0.001101181332187746 0 -0.017673471740644844 -0.00074333434236674651 0 -0.01764856311477031 -0.00090286218545491579 0 -0.01788522439568236 -0.00088197754504624256 0 -0.018450401414756085 -0.00090888716290726541 0 -0.017217949349171851 -0.00079499132884631649 0 -0.01764856311477031 -0.00090286218545491579 0 -0.01788522439568236 -0.00088197754504624256 0 -0.017727405942790306 -0.0011310739730536754 0 -0.018994138244789082 -0.0010330724694428463 0 -0.018906934559285035 -0.0011437522361151808 0 -0.019104289318861545 -0.0011797749639266008 0 -0.018906934559285035 -0.0011437522361151808 0 -0.018961539184566587 -0.0012396502088314559 0 -0.019104289318861545 -0.0011797749639266008 0 -0.018906934559285035 -0.0011437522361151808 0 -0.018961539184566587 -0.0012396502088314559 0 -0.018823597253120623 -0.0012575410044584261 0 -0.018961539184566587 -0.0012396502088314559 0 -0.019104289318861545 -0.0011797749639266008 0 -0.019011163165495885 -0.001376640114148883 0 -0.018961539184566587 -0.0012396502088314559 0 -0.018823597253120623 -0.0012575410044584261 0 -0.019011163165495885 -0.001376640114148883 0 -0.017217949349171851 -0.00079499132884631649 0 -0.017258823810644308 -0.0012277674769954627 0 -0.016131461720457367 -0.0012580507563658041 0 -0.01527490648770503 -0.00082254590398860559 0 -0.015929248511115917 -0.00049789778029713731 0 -0.017217949349171851 -0.00079499132884631649 0 -0.016499184721727039 -0.00025405381785982843 0 -0.019104289318861545 -0.0011797749639266008 0 -0.01921435228721546 -0.0013133907361530964 0 -0.01933319001240268 -0.0010750148543554384 0 -0.019104289318861545 -0.0011797749639266008 0 -0.01921435228721546 -0.0013133907361530964 0 -0.019011163165495885 -0.001376640114148883 0 -0.01921435228721546 -0.0013133907361530964 0 -0.01939710076811452 -0.0012500732985537579 0 -0.019367624934837367 -0.0014043106880946088 0 -0.021706375481068435 -0.0011323298827011852 0 -0.021320615670452282 -0.0010313408305152704 0 -0.01939710076811452 -0.0012500732985537579 0 -0.019522758571887736 -0.0011507880787194026 0 -0.01933319001240268 -0.0010750148543554384 0 -0.01921435228721546 -0.0013133907361530964 0 -0.01939710076811452 -0.0012500732985537579 0 -0.01933319001240268 -0.0010750148543554384 0 -0.01939710076811452 -0.0012500732985537579 0 -0.019543183663114621 -0.0013112396126494011 0 -0.019367624934837367 -0.0014043106880946088 0 -0.01939710076811452 -0.0012500732985537579 0 -0.019522758571887736 -0.0011507880787194026 0 -0.019543183663114621 -0.0013112396126494011 0 -0.017715001661535917 -0.00093502972066379164 0 -0.018027333868065806 -0.0009233757666336803 0 -0.01644187625102821 -0.00041130717714056922 0 -0.016616381397479337 -0.00044995521116979626 0 -0.016659892591293045 -0.00029584817047913382 0 -0.017715001661535917 -0.00093502972066379164 0 -0.019537645611792897 -0.00080883276657145572 0 -0.018350394414925315 -7.6876085011386142e-05 0 -0.014765697381295633 -4.2881779836251237e-05 0 -0.016498398539249424 0.00020938626428247027 0 -0.016625816340724717 0.00015993289583861068 0 -0.016586324477648164 0.00034938526373947038 0 -0.016616381397479337 -0.00044995521116979626 0 -0.016708517740161376 -0.00031470949904216554 0 -0.016710441942081398 -0.00056104994789519884 0 -0.016616381397479337 -0.00044995521116979626 0 -0.016708517740161376 -0.00031470949904216554 0 -0.016659892591293045 -0.00029584817047913382 0 -0.021951071837195774 -0.00063833922100964898 0 -0.02232457835948003 -0.00097602364117311386 0 -0.022038331982138133 -0.0012859198986292415 0 -0.021949275351182233 -0.00060058485016483429 0 -0.021702748607040172 -0.00097325126872057656 0 -0.022038331982138133 -0.0012859198986292415 0 -0.020160217022235808 -0.00046451351405101275 0 -0.021939673421658791 -0.0013181033139518675 0 -0.01843567772776528 0.00038554105702329113 0 -0.018916373674516831 0.0004930026440772157 0 -0.018942369954340444 0.00027014972275174779 0 -0.018350394414925315 -7.6876085011386142e-05 0 -0.020160217022235808 -0.00046451351405101275 0 -0.021951071837195774 -0.00063833922100964898 0 -0.022137172086002663 -0.00053717378239121123 0 -0.02232457835948003 -0.00097602364117311386 0 -0.018350394414925315 -7.6876085011386142e-05 0 -0.019537645611792897 -0.00080883276657145572 0 -0.01943794866647126 -0.00079816832166969926 0 -0.019435760495410605 -0.00076178239645788206 0 -0.019396708584918973 -0.00078370646336360585 0 -0.020160217022235808 -0.00046451351405101275 0 -0.019537645611792897 -0.00080883276657145572 0 -0.021706375481068435 -0.0011323298827011852 0 -0.019537645611792897 -0.00080883276657145572 0 -0.023162655517620159 -0.00093894161297266503 0 -0.022137172086002663 -0.00053717378239121123 0 -0.02232457835948003 -0.00097602364117311386 0 -0.019522758571887736 -0.0011507880787194026 0 -0.019543183663114621 -0.0013112396126494011 0 -0.019707786387770806 -0.0012192845843961237 0 -0.023162655517620159 -0.00093894161297266503 0 -0.02232457835948003 -0.00097602364117311386 0 -0.022729088627180274 -0.0016624726045487959 0 -0.02232457835948003 -0.00097602364117311386 0 -0.022729088627180274 -0.0016624726045487959 0 -0.022038331982138133 -0.0012859198986292415 0 -0.021186044237127402 -0.0012784326806624159 0 -0.022038331982138133 -0.0012859198986292415 0 -0.02188217843060937 -0.001927871956934296 0 -0.022729088627180274 -0.0016624726045487959 0 -0.022038331982138133 -0.0012859198986292415 0 -0.02188217843060937 -0.001927871956934296 0 -0.026833112978478919 -0.0041268828311316185 0 -0.027550712770145359 -0.0038958926233515078 0 -0.024826319186898035 -0.0012703346547825762 0 -0.02707743990531529 -0.0033166104730538155 0 -0.023219416918708102 -0.0014856679482892592 0 -0.026833112978478919 -0.0041268828311316185 0 -0.024826319186898035 -0.0012703346547825762 0 -0.024247280062919745 -0.0023606730848861326 0 -0.029826058970950094 -0.0031064161797700737 0 -0.025862784713490367 -0.0016551149890657003 0 -0.022563535942779336 -0.002551020637189138 0 -0.022729088627180274 -0.0016624726045487959 0 -0.023428356412392548 -0.002247545941728457 0 -0.022563535942779336 -0.002551020637189138 0 -0.022729088627180274 -0.0016624726045487959 0 -0.02188217843060937 -0.001927871956934296 0 -0.02707743990531529 -0.0033166104730538155 0 -0.026449759778063214 -0.0033541240534888219 0 -0.022729088627180274 -0.0016624726045487959 0 -0.023428356412392548 -0.002247545941728457 0 -0.02354708829289226 -0.0016318588438790174 0 -0.028768508015864065 -0.0040014418368620125 0 -0.028816824646604476 -0.004765596108980908 0 -0.029837234076755714 -0.0043966344357252345 0 -0.027045179776428178 -0.0033741252083676733 0 -0.026449759778063214 -0.0033541240534888219 0 -0.024244304785988671 -0.0019553522395354861 0 -0.023428356412392548 -0.002247545941728457 0 -0.02354708829289226 -0.0016318588438790174 0 -0.023162655517620159 -0.00093894161297266503 0 -0.024123413693445107 -0.0013406966851090916 0 -0.02354708829289226 -0.0016318588438790174 0 -0.024244304785988671 -0.0019553522395354861 0 -0.024123413693445107 -0.0013406966851090916 0 -0.02354708829289226 -0.0016318588438790174 0 -0.023162655517620159 -0.00093894161297266503 0 -0.022729088627180274 -0.0016624726045487959 0 -0.02354708829289226 -0.0016318588438790174 0 -0.02179262552254365 6.7273067967151172e-05 0 -0.021812350357648919 -0.0010855362242085571 0 -0.023064397069637255 -0.00018553671892308584 0 -0.02179262552254365 6.7273067967151172e-05 0 -0.023064397069637255 -0.00018553671892308584 0 -0.022592043560250366 0.00055807170626177068 0 -0.02179262552254365 6.7273067967151172e-05 0 -0.020879969728599995 -0.00090151041706380949 0 -0.021812350357648919 -0.0010855362242085571 0 -0.02179262552254365 6.7273067967151172e-05 0 -0.020879969728599995 -0.00090151041706380949 0 -0.020284636639352861 -0.00017288710327114293 0 -0.020879969728599995 -0.00090151041706380949 0 -0.021812350357648919 -0.0010855362242085571 0 -0.020934005630064537 -0.0020035474337798641 0 -0.021812350357648919 -0.0010855362242085571 0 -0.022891424116944382 -0.0012983261182171477 0 -0.023064397069637255 -0.00018553671892308584 0 -0.022891424116944382 -0.0012983261182171477 0 -0.024760841911098293 -0.00083884680682779096 0 -0.023064397069637255 -0.00018553671892308584 0 -0.024760841911098293 -0.00083884680682779096 0 -0.024130588116568395 -0.00019068900643174204 0 -0.023064397069637255 -0.00018553671892308584 0 -0.024130588116568395 -0.00019068900643174204 0 -0.023064397069637255 -0.00018553671892308584 0 -0.023249935224283362 0.00057232201531663023 0 -0.023064397069637255 -0.00018553671892308584 0 -0.022592043560250366 0.00055807170626177068 0 -0.023249935224283362 0.00057232201531663023 0 -0.022592043560250366 0.00055807170626177068 0 -0.023249935224283362 0.00057232201531663023 0 -0.022570433753985934 0.0012523775994175415 0 -0.024130588116568395 -0.00019068900643174204 0 -0.023249935224283362 0.00057232201531663023 0 -0.023698446313270654 0.00041291072770642821 0 -0.022570433753985934 0.0012523775994175415 0 -0.022822706645338899 0.001146904160541757 0 -0.022296866267864836 0.0014023671591868294 0 -0.023249935224283362 0.00057232201531663023 0 -0.022570433753985934 0.0012523775994175415 0 -0.022822706645338899 0.001146904160541757 0 -0.022592043560250366 0.00055807170626177068 0 -0.022570433753985934 0.0012523775994175415 0 -0.022129878314155613 0.0011648572984929899 0 -0.022570433753985934 0.0012523775994175415 0 -0.022129878314155613 0.0011648572984929899 0 -0.022461793714982092 0.0013103016990220393 0 -0.022129878314155613 0.0011648572984929899 0 -0.021250389009463466 0.0016007633268306151 0 -0.022318485359615448 0.0023971280932333187 0 -0.02179262552254365 6.7273067967151172e-05 0 -0.022592043560250366 0.00055807170626177068 0 -0.022129878314155613 0.0011648572984929899 0 -0.02179262552254365 6.7273067967151172e-05 0 -0.021015989252351347 0.00062626844674820964 0 -0.020284636639352861 -0.00017288710327114293 0 -0.02179262552254365 6.7273067967151172e-05 0 -0.022129878314155613 0.0011648572984929899 0 -0.021015989252351347 0.00062626844674820964 0 -0.021015989252351347 0.00062626844674820964 0 -0.021250389009463466 0.0016007633268306151 0 -0.02043901935664913 0.001128449250209024 0 -0.022129878314155613 0.0011648572984929899 0 -0.021015989252351347 0.00062626844674820964 0 -0.021250389009463466 0.0016007633268306151 0 -0.021250389009463466 0.0016007633268306151 0 -0.020379711281072254 0.0017371404037400048 0 -0.02043901935664913 0.001128449250209024 0 -0.020379711281072254 0.0017371404037400048 0 -0.02043901935664913 0.001128449250209024 0 -0.019786471997336248 0.001210283623260928 0 -0.02043901935664913 0.001128449250209024 0 -0.019786471997336248 0.001210283623260928 0 -0.019988718745929047 0.00050529466536899676 0 -0.020379711281072254 0.0017371404037400048 0 -0.019786471997336248 0.001210283623260928 0 -0.01941204615428288 0.002068326815928315 0 -0.019786471997336248 0.001210283623260928 0 -0.018840012079083902 0.00056423038657445331 0 -0.01941204615428288 0.002068326815928315 0 -0.01699597770265459 0.00060812945135044205 0 -0.017475007757032833 0.0011022550703393393 0 -0.018840012079083902 0.00056423038657445331 0 -0.0170343356965292 0.00054918992835481289 0 -0.01941204615428288 0.002068326815928315 0 -0.019786471997336248 0.001210283623260928 0 -0.018840012079083902 0.00056423038657445331 0 -0.019988718745929047 0.00050529466536899676 0 -0.018840012079083902 0.00056423038657445331 0 -0.019396356194226951 -2.81703711595106e-05 0 -0.019988718745929047 0.00050529466536899676 0 -0.018840012079083902 0.00056423038657445331 0 -0.018530619194693003 -0.0001065120642441779 0 -0.018007378551750292 0.00028951724839994172 0 -0.018840012079083902 0.00056423038657445331 0 -0.018530619194693003 -0.0001065120642441779 0 -0.019396356194226951 -2.81703711595106e-05 0 -0.019396356194226951 -2.81703711595106e-05 0 -0.019988718745929047 0.00050529466536899676 0 -0.020284636639352861 -0.00017288710327114293 0 -0.021015989252351347 0.00062626844674820964 0 -0.019988718745929047 0.00050529466536899676 0 -0.020284636639352861 -0.00017288710327114293 0 -0.021015989252351347 0.00062626844674820964 0 -0.02043901935664913 0.001128449250209024 0 -0.019988718745929047 0.00050529466536899676 0 -0.016861627500377594 0.00027789530985828742 0 -0.0170343356965292 0.00054918992835481289 0 -0.016630634546242428 -0.0002376715520290586 0 -0.016833476365881516 0.00028958718997469532 0 -0.016861627500377594 0.00027789530985828742 0 -0.016630634546242428 -0.0002376715520290586 0 -0.018840012079083902 0.00056423038657445331 0 -0.0170343356965292 0.00054918992835481289 0 -0.018007378551750292 0.00028951724839994172 0 -0.0170343356965292 0.00054918992835481289 0 -0.017558456136989579 -0.00010028764919561668 0 -0.017187776522412809 -8.558104903226732e-05 0 -0.018530619194693003 -0.0001065120642441779 0 -0.018007378551750292 0.00028951724839994172 0 -0.017841026919354436 4.4704067181003074e-05 0 -0.018530619194693003 -0.0001065120642441779 0 -0.017841026919354436 4.4704067181003074e-05 0 -0.018115483286687169 -0.00024751808016674001 0 -0.018530619194693003 -0.0001065120642441779 0 -0.018115483286687169 -0.00024751808016674001 0 -0.018359792417357648 -0.00050806543196728815 0 -0.018115483286687169 -0.00024751808016674001 0 -0.017831550304954605 -0.00023993361428928389 0 -0.018017983787286262 -0.00040683775548495314 0 -0.017841026919354436 4.4704067181003074e-05 0 -0.018115483286687169 -0.00024751808016674001 0 -0.017831550304954605 -0.00023993361428928389 0 -0.017841026919354436 4.4704067181003074e-05 0 -0.017831550304954605 -0.00023993361428928389 0 -0.017558456136989579 -0.00010028764919561668 0 -0.017831550304954605 -0.00023993361428928389 0 -0.017789778321813287 -0.00039607769191218889 0 -0.018017983787286262 -0.00040683775548495314 0 -0.017831550304954605 -0.00023993361428928389 0 -0.017683499736272881 -0.00025667397781985564 0 -0.017558456136989579 -0.00010028764919561668 0 -0.017831550304954605 -0.00023993361428928389 0 -0.017683499736272881 -0.00025667397781985564 0 -0.017789778321813287 -0.00039607769191218889 0 -0.017683499736272881 -0.00025667397781985564 0 -0.01765344684025464 -0.00027602617859812106 0 -0.017789778321813287 -0.00039607769191218889 0 -0.017683499736272881 -0.00025667397781985564 0 -0.017558456136989579 -0.00010028764919561668 0 -0.01765344684025464 -0.00027602617859812106 0 -0.017533135251044597 -0.00032973238160268316 0 -0.01740772607915813 -0.00041505136478071881 0 -0.0170343356965292 0.00054918992835481289 0 -0.017841026919354436 4.4704067181003074e-05 0 -0.017558456136989579 -0.00010028764919561668 0 -0.0170343356965292 0.00054918992835481289 0 -0.018007378551750292 0.00028951724839994172 0 -0.017841026919354436 4.4704067181003074e-05 0 -0.016833476365881516 0.00028958718997469532 0 -0.016861627500377594 0.00027789530985828742 0 -0.017187776522412809 -8.558104903226732e-05 0 -0.01764856311477031 -0.00090286218545491579 0 -0.017727405942790306 -0.0011310739730536754 0 -0.017310773259555892 -0.0008548282895785318 0 -0.017673471740644844 -0.00074333434236674651 0 -0.01764856311477031 -0.00090286218545491579 0 -0.017310773259555892 -0.0008548282895785318 0 -0.017217949349171851 -0.00079499132884631649 0 -0.01740772607915813 -0.00041505136478071881 0 -0.017259169588255008 -0.00070937698507705894 0 -0.01740772607915813 -0.00041505136478071881 0 -0.016861627500377594 0.00027789530985828742 0 -0.0170343356965292 0.00054918992835481289 0 -0.017187776522412809 -8.558104903226732e-05 0 -0.017230711594919706 -0.00070110567309296205 0 -0.01765344684025464 -0.00027602617859812106 0 -0.017539976697432895 -0.00076093648166706467 0 -0.017230711594919706 -0.00070110567309296205 0 -0.017539976697432895 -0.00076093648166706467 0 -0.017415637350318938 -0.001101181332187746 0 -0.017539976697432895 -0.00076093648166706467 0 -0.017899253580366783 -0.00087360366291702231 0 -0.017750184443172581 -0.00052852562264939782 0 -0.01765344684025464 -0.00027602617859812106 0 -0.017539976697432895 -0.00076093648166706467 0 -0.017750184443172581 -0.00052852562264939782 0 -0.017539976697432895 -0.00076093648166706467 0 -0.017899253580366783 -0.00087360366291702231 0 -0.017821778080222353 -0.0012466468844505437 0 -0.017539976697432895 -0.00076093648166706467 0 -0.017821778080222353 -0.0012466468844505437 0 -0.017415637350318938 -0.001101181332187746 0 -0.017899253580366783 -0.00087360366291702231 0 -0.018013989474263203 -0.00063928632036099465 0 -0.018337663094143631 -0.0010262847777280739 0 -0.017899253580366783 -0.00087360366291702231 0 -0.017750184443172581 -0.00052852562264939782 0 -0.018013989474263203 -0.00063928632036099465 0 -0.017750184443172581 -0.00052852562264939782 0 -0.017789778321813287 -0.00039607769191218889 0 -0.018013989474263203 -0.00063928632036099465 0 -0.01765344684025464 -0.00027602617859812106 0 -0.017750184443172581 -0.00052852562264939782 0 -0.017789778321813287 -0.00039607769191218889 0 -0.017789778321813287 -0.00039607769191218889 0 -0.018017983787286262 -0.00040683775548495314 0 -0.018013989474263203 -0.00063928632036099465 0 -0.018017983787286262 -0.00040683775548495314 0 -0.018013989474263203 -0.00063928632036099465 0 -0.018359792417357648 -0.00050806543196728815 0 -0.018115483286687169 -0.00024751808016674001 0 -0.018017983787286262 -0.00040683775548495314 0 -0.018359792417357648 -0.00050806543196728815 0 -0.018359792417357648 -0.00050806543196728815 0 -0.018337663094143631 -0.0010262847777280739 0 -0.019044380644377842 -0.00070760239206461503 0 -0.018013989474263203 -0.00063928632036099465 0 -0.018359792417357648 -0.00050806543196728815 0 -0.018337663094143631 -0.0010262847777280739 0 -0.018337663094143631 -0.0010262847777280739 0 -0.018666187780196294 -0.0016250403844188547 0 -0.019044380644377842 -0.00070760239206461503 0 -0.018666187780196294 -0.0016250403844188547 0 -0.017821778080222353 -0.0012466468844505437 0 -0.017882065140902972 -0.0018924675283858714 0 -0.018337663094143631 -0.0010262847777280739 0 -0.018666187780196294 -0.0016250403844188547 0 -0.017821778080222353 -0.0012466468844505437 0 -0.017899253580366783 -0.00087360366291702231 0 -0.018337663094143631 -0.0010262847777280739 0 -0.017821778080222353 -0.0012466468844505437 0 -0.017821778080222353 -0.0012466468844505437 0 -0.017415637350318938 -0.001101181332187746 0 -0.017882065140902972 -0.0018924675283858714 0 -0.021060570064699226 -0.0031720572902635856 0 -0.020929346356717397 -0.0031640054602916842 0 -0.017189828113593278 -0.0013430267954290607 0 -0.017415637350318938 -0.001101181332187746 0 -0.017882065140902972 -0.0018924675283858714 0 -0.020879969728599995 -0.00090151041706380949 0 -0.020284636639352861 -0.00017288710327114293 0 -0.01980124740785558 -0.0013088358770113719 0 -0.020284636639352861 -0.00017288710327114293 0 -0.019044380644377842 -0.00070760239206461503 0 -0.01980124740785558 -0.0013088358770113719 0 -0.019396356194226951 -2.81703711595106e-05 0 -0.020284636639352861 -0.00017288710327114293 0 -0.019044380644377842 -0.00070760239206461503 0 -0.018530619194693003 -0.0001065120642441779 0 -0.019396356194226951 -2.81703711595106e-05 0 -0.019044380644377842 -0.00070760239206461503 0 -0.018530619194693003 -0.0001065120642441779 0 -0.018359792417357648 -0.00050806543196728815 0 -0.019044380644377842 -0.00070760239206461503 0 -0.018666187780196294 -0.0016250403844188547 0 -0.01980124740785558 -0.0013088358770113719 0 -0.019235127552636084 -0.0025195111371205717 0 -0.018666187780196294 -0.0016250403844188547 0 -0.019044380644377842 -0.00070760239206461503 0 -0.01980124740785558 -0.0013088358770113719 0 -0.020879969728599995 -0.00090151041706380949 0 -0.01980124740785558 -0.0013088358770113719 0 -0.020934005630064537 -0.0020035474337798641 0 -0.01980124740785558 -0.0013088358770113719 0 -0.019235127552636084 -0.0025195111371205717 0 -0.020934005630064537 -0.0020035474337798641 0 -0.019235127552636084 -0.0025195111371205717 0 -0.021110240641685228 -0.002959082311833101 0 -0.020934005630064537 -0.0020035474337798641 0 -0.02218420710209458 -0.0036759470059267679 0 -0.022794565009664671 -0.0028279515005802131 0 -0.021874486578411883 -0.0023617722299397932 0 -0.02218420710209458 -0.0036759470059267679 0 -0.021110240641685228 -0.002959082311833101 0 -0.021874486578411883 -0.0023617722299397932 0 -0.022266671275949858 -0.0027910180935843049 0 -0.021410088744169605 -0.0029679113346211131 0 -0.021110240641685228 -0.002959082311833101 0 -0.021874486578411883 -0.0023617722299397932 0 -0.02130633233295388 -0.0029943630058665315 0 -0.020734163361857755 -0.0030737647037155625 0 -0.021067056321994886 -0.003008775364573041 0 -0.023826507521503899 -0.004425601934209363 0 -0.024982285955293827 -0.0039524905381141326 0 -0.023798296341789565 -0.0031388168435340612 0 -0.025446880635287626 -0.005002418711682762 0 -0.023826507521503899 -0.004425601934209363 0 -0.024982285955293827 -0.0039524905381141326 0 -0.02218420710209458 -0.0036759470059267679 0 -0.023826507521503899 -0.004425601934209363 0 -0.023798296341789565 -0.0031388168435340612 0 -0.020734163361857755 -0.0030737647037155625 0 -0.020929346356717397 -0.0031640054602916842 0 -0.018666187780196294 -0.0016250403844188547 0 -0.019235127552636084 -0.0025195111371205717 0 -0.017882065140902972 -0.0018924675283858714 0 -0.02218420710209458 -0.0036759470059267679 0 -0.022794565009664671 -0.0028279515005802131 0 -0.023798296341789565 -0.0031388168435340612 0 -0.022794565009664671 -0.0028279515005802131 0 -0.023798296341789565 -0.0031388168435340612 0 -0.023764513105856262 -0.0017579620029469399 0 -0.023798296341789565 -0.0031388168435340612 0 -0.024328963772963622 -0.0023692055351075174 0 -0.023764513105856262 -0.0017579620029469399 0 -0.024982285955293827 -0.0039524905381141326 0 -0.023798296341789565 -0.0031388168435340612 0 -0.024994231551911522 -0.0026631968602870391 0 -0.023798296341789565 -0.0031388168435340612 0 -0.024994231551911522 -0.0026631968602870391 0 -0.024328963772963622 -0.0023692055351075174 0 -0.024994231551911522 -0.0026631968602870391 0 -0.024969879702768722 -0.0014710448141687885 0 -0.024328963772963622 -0.0023692055351075174 0 -0.024969879702768722 -0.0014710448141687885 0 -0.024328963772963622 -0.0023692055351075174 0 -0.023764513105856262 -0.0017579620029469399 0 -0.025172050337328413 -0.00148908886056154 0 -0.023945357624388559 -0.0021615520186758961 0 -0.022794565009664671 -0.0028279515005802131 0 -0.023764513105856262 -0.0017579620029469399 0 -0.021874486578411883 -0.0023617722299397932 0 -0.023945357624388559 -0.0021615520186758961 0 -0.022266671275949858 -0.0027910180935843049 0 -0.024032611306352401 -0.0029198291066874411 0 -0.022618030866619079 -0.0032001519781389431 0 -0.023143575157895262 -0.0024232132242243097 0 -0.024032611306352401 -0.0029198291066874411 0 -0.023620491901144496 -0.0018232518389056267 0 -0.024205306696232394 -0.0019667359840439724 0 -0.024032611306352401 -0.0029198291066874411 0 -0.023620491901144496 -0.0018232518389056267 0 -0.023143575157895262 -0.0024232132242243097 0 -0.023620491901144496 -0.0018232518389056267 0 -0.023143575157895262 -0.0024232132242243097 0 -0.023063915715560053 -0.0018531886252489745 0 -0.025272374287188922 -0.0014884373879601159 0 -0.024322868452448475 -0.0017254154418345903 0 -0.02452536333870324 -0.00056885973493479706 0 -0.023945357624388559 -0.0021615520186758961 0 -0.024314477510694779 -0.0012281479765422806 0 -0.025706192978327259 -7.0368832977269474e-07 0 -0.025607949449412023 -0.00081184659749575369 0 -0.02452536333870324 -0.00056885973493479706 0 -0.025607949449412023 -0.00081184659749575369 0 -0.025272374287188922 -0.0014884373879601159 0 -0.02452536333870324 -0.00056885973493479706 0 -0.021802010332245148 -0.0027963012927679563 0 -0.022618030866619079 -0.0032001519781389431 0 -0.02130633233295388 -0.0029943630058665315 0 -0.021802010332245148 -0.0027963012927679563 0 -0.022618030866619079 -0.0032001519781389431 0 -0.022466506566112678 -0.0023503014618627884 0 -0.022618030866619079 -0.0032001519781389431 0 -0.022466506566112678 -0.0023503014618627884 0 -0.023143575157895262 -0.0024232132242243097 0 -0.022466506566112678 -0.0023503014618627884 0 -0.023063915715560053 -0.0018531886252489745 0 -0.0226135634453297 -0.0014758751995217435 0 -0.022466506566112678 -0.0023503014618627884 0 -0.023143575157895262 -0.0024232132242243097 0 -0.023063915715560053 -0.0018531886252489745 0 -0.022466506566112678 -0.0023503014618627884 0 -0.021783710830880716 -0.0020528580112851437 0 -0.0226135634453297 -0.0014758751995217435 0 -0.021802010332245148 -0.0027963012927679563 0 -0.022466506566112678 -0.0023503014618627884 0 -0.021783710830880716 -0.0020528580112851437 0 -0.029550141637316348 -0.00028528337902023344 0 -0.028846147747067077 3.3258203285473773e-06 0 -0.028560858112598533 -0.00010455101390753258 0 -0.029550141637316348 -0.00028528337902023344 0 -0.028846147747067077 3.3258203285473773e-06 0 -0.029267756536881438 -3.5272736627341614e-05 0 -0.025729554290816869 -0.0011339617572052978 0 -0.025092444985577108 -0.0015879595604220901 0 -0.021802010332245148 -0.0027963012927679563 0 -0.021783710830880716 -0.0020528580112851437 0 -0.021495873250976953 -0.0031640483125637722 0 -0.028457854070708954 0.00011450424276213559 0 -0.027933428904629506 0.00031514473567994649 0 -0.028605618054465091 0.00022622665956777813 0 -0.028846147747067077 3.3258203285473773e-06 0 -0.028457854070708954 0.00011450424276213559 0 -0.028560858112598533 -0.00010455101390753258 0 -0.028846147747067077 3.3258203285473773e-06 0 -0.028457854070708954 0.00011450424276213559 0 -0.028605618054465091 0.00022622665956777813 0 -0.028560858112598533 -0.00010455101390753258 0 -0.027388683070373131 -0.0003282603270450985 0 -0.027933428904629506 0.00031514473567994649 0 -0.028457854070708954 0.00011450424276213559 0 -0.028560858112598533 -0.00010455101390753258 0 -0.027933428904629506 0.00031514473567994649 0 -0.021802010332245148 -0.0027963012927679563 0 -0.021495873250976953 -0.0031640483125637722 0 -0.02130633233295388 -0.0029943630058665315 0 -0.021495873250976953 -0.0031640483125637722 0 -0.02130633233295388 -0.0029943630058665315 0 -0.021397868817487019 -0.0027194048755847921 0 -0.021495873250976953 -0.0031640483125637722 0 -0.021397868817487019 -0.0027194048755847921 0 -0.021858778548268031 -0.0023323385861292799 0 -0.021110240641685228 -0.002959082311833101 0 -0.02130633233295388 -0.0029943630058665315 0 -0.021397868817487019 -0.0027194048755847921 0 -0.021495873250976953 -0.0031640483125637722 0 -0.021858778548268031 -0.0023323385861292799 0 -0.022795385473966263 -0.0026933549034830933 0 -0.025092444985577108 -0.0015879595604220901 0 -0.025087134591675248 -0.0014102447689698274 0 -0.021812350357648919 -0.0010855362242085571 0 -0.022891424116944382 -0.0012983261182171477 0 -0.021858778548268031 -0.0023323385861292799 0 -0.022891424116944382 -0.0012983261182171477 0 -0.021858778548268031 -0.0023323385861292799 0 -0.022795385473966263 -0.0026933549034830933 0 -0.021397868817487019 -0.0027194048755847921 0 -0.021858778548268031 -0.0023323385861292799 0 -0.020934005630064537 -0.0020035474337798641 0 -0.021110240641685228 -0.002959082311833101 0 -0.021397868817487019 -0.0027194048755847921 0 -0.020934005630064537 -0.0020035474337798641 0 -0.021812350357648919 -0.0010855362242085571 0 -0.021858778548268031 -0.0023323385861292799 0 -0.020934005630064537 -0.0020035474337798641 0 -0.024760841911098293 -0.00083884680682779096 0 -0.026163305750607799 9.6252280295112213e-06 0 -0.025262010460288663 -8.7780352317616314e-05 0 -0.024760841911098293 -0.00083884680682779096 0 -0.027388683070373131 -0.0003282603270450985 0 -0.026163305750607799 9.6252280295112213e-06 0 -0.022891424116944382 -0.0012983261182171477 0 -0.024760841911098293 -0.00083884680682779096 0 -0.022795385473966263 -0.0026933549034830933 0 -0.02490411918989115 -0.0008740157946376775 0 -0.025087134591675248 -0.0014102447689698274 0 -0.027388683070373131 -0.0003282603270450985 0 -0.026163305750607799 9.6252280295112213e-06 0 -0.027183333622629178 0.00025029428718721712 0 -0.026163305750607799 9.6252280295112213e-06 0 -0.027213619993845802 0.00085161595005803139 0 -0.027183333622629178 0.00025029428718721712 0 -0.027388683070373131 -0.0003282603270450985 0 -0.027183333622629178 0.00025029428718721712 0 -0.027933428904629506 0.00031514473567994649 0 -0.027213619993845802 0.00085161595005803139 0 -0.027183333622629178 0.00025029428718721712 0 -0.027933428904629506 0.00031514473567994649 0 -0.027933428904629506 0.00031514473567994649 0 -0.028153141518274156 0.00046267426712531058 0 -0.028605618054465091 0.00022622665956777813 0 -0.027213619993845802 0.00085161595005803139 0 -0.027933428904629506 0.00031514473567994649 0 -0.028153141518274156 0.00046267426712531058 0 -0.027213619993845802 0.00085161595005803139 0 -0.028153141518274156 0.00046267426712531058 0 -0.028179550948773179 0.00057760438098318132 0 -0.027213619993845802 0.00085161595005803139 0 -0.028179550948773179 0.00057760438098318132 0 -0.028608599714636525 0.00065311480719202274 0 -0.028179550948773179 0.00057760438098318132 0 -0.02862224590696813 0.0004881042157908019 0 -0.028450877008647683 0.00042381056238429663 0 -0.028153141518274156 0.00046267426712531058 0 -0.028179550948773179 0.00057760438098318132 0 -0.028450877008647683 0.00042381056238429663 0 -0.028179550948773179 0.00057760438098318132 0 -0.02862224590696813 0.0004881042157908019 0 -0.028608599714636525 0.00065311480719202274 0 -0.02862224590696813 0.0004881042157908019 0 -0.028813470894472389 0.00035094909940164336 0 -0.028450877008647683 0.00042381056238429663 0 -0.028813470894472389 0.00035094909940164336 0 -0.028450877008647683 0.00042381056238429663 0 -0.028799911745912912 0.00026938295951866833 0 -0.028450877008647683 0.00042381056238429663 0 -0.028806915450095682 0.00030116030991358814 0 -0.028678053130767475 0.00033139726418842649 0 -0.028450877008647683 0.00042381056238429663 0 -0.028799911745912912 0.00026938295951866833 0 -0.028678053130767475 0.00033139726418842649 0 -0.028450877008647683 0.00042381056238429663 0 -0.028605618054465091 0.00022622665956777813 0 -0.028806915450095682 0.00030116030991358814 0 -0.028153141518274156 0.00046267426712531058 0 -0.028450877008647683 0.00042381056238429663 0 -0.028605618054465091 0.00022622665956777813 0 -0.028846147747067077 3.3258203285473773e-06 0 -0.028605618054465091 0.00022622665956777813 0 -0.029267756536881438 -3.5272736627341614e-05 0 -0.028605618054465091 0.00022622665956777813 0 -0.029267756536881438 -3.5272736627341614e-05 0 -0.029500215846129847 7.8239463781012679e-05 0 -0.029267756536881438 -3.5272736627341614e-05 0 -0.029500215846129847 7.8239463781012679e-05 0 -0.029942897522613046 -0.00010249951728145268 0 -0.029500215846129847 7.8239463781012679e-05 0 -0.028806915450095682 0.00030116030991358814 0 -0.029208242175254119 0.00034790885798480296 0 -0.029500215846129847 7.8239463781012679e-05 0 -0.029208242175254119 0.00034790885798480296 0 -0.030669798593963217 0.00043982174475703319 0 -0.028605618054465091 0.00022622665956777813 0 -0.029500215846129847 7.8239463781012679e-05 0 -0.028806915450095682 0.00030116030991358814 0 -0.02877983178127928 0.00038808078350827981 0 -0.029208242175254119 0.00034790885798480296 0 -0.028960183355099783 0.00069994065714022475 0 -0.028806915450095682 0.00030116030991358814 0 -0.02877983178127928 0.00038808078350827981 0 -0.029208242175254119 0.00034790885798480296 0 -0.029208242175254119 0.00034790885798480296 0 -0.028960183355099783 0.00069994065714022475 0 -0.030669798593963217 0.00043982174475703319 0 -0.030692958304390453 0.00060515717235157165 0 -0.030718545089283473 0.0004571814890763361 0 -0.032217082320767351 0.00071226452856737704 0 -0.031323364027883049 0.00026201112950200719 0 -0.031652684141363865 -2.3311976982179125e-05 0 -0.032217082320767351 0.00071226452856737704 0 -0.030669798593963217 0.00043982174475703319 0 -0.031323364027883049 0.00026201112950200719 0 -0.030692958304390453 0.00060515717235157165 0 -0.0313813138969685 -0.00034623405508612425 0 -0.028960183355099783 0.00069994065714022475 0 -0.028767354990462859 0.00024268176951571183 0 -0.028674935612211107 -0.00023995202291199745 0 -0.02877983178127928 0.00038808078350827981 0 -0.028960183355099783 0.00069994065714022475 0 -0.028767354990462859 0.00024268176951571183 0 -0.02877983178127928 0.00038808078350827981 0 -0.028767354990462859 0.00024268176951571183 0 -0.028760641427555866 0.00021901813958863286 0 -0.028767354990462859 0.00024268176951571183 0 -0.028760641427555866 0.00021901813958863286 0 -0.028801409454028731 2.413942441435606e-05 0 -0.028760641427555866 0.00021901813958863286 0 -0.028915887957384912 -1.0004042946591951e-05 0 -0.0288600702380402 0.00015983122144091322 0 -0.028760641427555866 0.00021901813958863286 0 -0.028801409454028731 2.413942441435606e-05 0 -0.028915887957384912 -1.0004042946591951e-05 0 -0.028801409454028731 2.413942441435606e-05 0 -0.028925344105236461 -0.00015886194210236432 0 -0.028674935612211107 -0.00023995202291199745 0 -0.028767354990462859 0.00024268176951571183 0 -0.028801409454028731 2.413942441435606e-05 0 -0.028674935612211107 -0.00023995202291199745 0 -0.028801409454028731 2.413942441435606e-05 0 -0.028925344105236461 -0.00015886194210236432 0 -0.028915887957384912 -1.0004042946591951e-05 0 -0.028925344105236461 -0.00015886194210236432 0 -0.029115740746885544 -0.00022122985043017626 0 -0.029153076498464686 -0.00041052283375894781 0 -0.029115740746885544 -0.00022122985043017626 0 -0.029083701343327124 -5.2579760695472913e-05 0 -0.028915887957384912 -1.0004042946591951e-05 0 -0.028925344105236461 -0.00015886194210236432 0 -0.029115740746885544 -0.00022122985043017626 0 -0.028915887957384912 -1.0004042946591951e-05 0 -0.029291151649321098 -0.00026433064302660555 0 -0.02932143436222321 -0.0004289926397187638 0 -0.029477238998471551 -0.00048702989031330554 0 -0.029115740746885544 -0.00022122985043017626 0 -0.029291151649321098 -0.00026433064302660555 0 -0.02932143436222321 -0.0004289926397187638 0 -0.029115740746885544 -0.00022122985043017626 0 -0.029291151649321098 -0.00026433064302660555 0 -0.029083701343327124 -5.2579760695472913e-05 0 -0.029083701343327124 -5.2579760695472913e-05 0 -0.02904151579063103 9.5513062593719736e-05 0 -0.02928253373544221 -0.00010309400038656009 0 -0.029291151649321098 -0.00026433064302660555 0 -0.029083701343327124 -5.2579760695472913e-05 0 -0.02928253373544221 -0.00010309400038656009 0 -0.029083701343327124 -5.2579760695472913e-05 0 -0.0288600702380402 0.00015983122144091322 0 -0.02904151579063103 9.5513062593719736e-05 0 -0.029083701343327124 -5.2579760695472913e-05 0 -0.028915887957384912 -1.0004042946591951e-05 0 -0.0288600702380402 0.00015983122144091322 0 -0.0288600702380402 0.00015983122144091322 0 -0.02904151579063103 9.5513062593719736e-05 0 -0.028799911745912912 0.00026938295951866833 0 -0.02904151579063103 9.5513062593719736e-05 0 -0.028799911745912912 0.00026938295951866833 0 -0.029034030918538577 0.00020283390461695478 0 -0.028813470894472389 0.00035094909940164336 0 -0.028799911745912912 0.00026938295951866833 0 -0.029034030918538577 0.00020283390461695478 0 -0.0288600702380402 0.00015983122144091322 0 -0.028799911745912912 0.00026938295951866833 0 -0.028678053130767475 0.00033139726418842649 0 -0.028806915450095682 0.00030116030991358814 0 -0.02877983178127928 0.00038808078350827981 0 -0.028678053130767475 0.00033139726418842649 0 -0.02877983178127928 0.00038808078350827981 0 -0.028760641427555866 0.00021901813958863286 0 -0.028678053130767475 0.00033139726418842649 0 -0.028760641427555866 0.00021901813958863286 0 -0.0288600702380402 0.00015983122144091322 0 -0.028678053130767475 0.00033139726418842649 0 -0.026227354686938105 -0.00087565779171177769 0 -0.025094452859451298 5.6009824320681516e-05 0 -0.02665834794397531 0.0013859154877358042 0 -0.031974927864570388 -0.00082001014394919754 0 -0.031386432490383198 -0.001436893308045073 0 -0.031575854190073228 -0.00065381197865408552 0 -0.026964192896224395 -0.00092763882001011921 0 -0.029187832556201766 0.00044389469608371006 0 -0.025706192978327259 -7.0368832977269474e-07 0 -0.02452536333870324 -0.00056885973493479706 0 -0.02473437400908898 0.00060135239642465838 0 -0.024314477510694779 -0.0012281479765422806 0 -0.026964192896224395 -0.00092763882001011921 0 -0.023620491901144496 -0.0018232518389056267 0 -0.024378667864678866 -0.0010389448531571851 0 -0.023429066027889817 -0.0012796174848058552 0 -0.026964192896224395 -0.00092763882001011921 0 -0.023553437739204233 -0.0013334395124295943 0 -0.023620491901144496 -0.0018232518389056267 0 -0.024205306696232394 -0.0019667359840439724 0 -0.024378667864678866 -0.0010389448531571851 0 -0.023620491901144496 -0.0018232518389056267 0 -0.023063915715560053 -0.0018531886252489745 0 -0.023429066027889817 -0.0012796174848058552 0 -0.025094452859451298 5.6009824320681516e-05 0 -0.023171484726625377 -0.00051762537319311928 0 -0.025133702235410581 0.0015779445324475918 0 -0.024301903764023705 -0.0012874941530641329 0 -0.025094452859451298 5.6009824320681516e-05 0 -0.023171484726625377 -0.00051762537319311928 0 -0.026227354686938105 -0.00087565779171177769 0 -0.024301903764023705 -0.0012874941530641329 0 -0.025094452859451298 5.6009824320681516e-05 0 -0.027061553268596338 -0.0003515458704776878 0 -0.028606931827518532 0.00078576228021314638 0 -0.030904649128868131 -0.00022589687282700114 0 -0.031180233286437393 7.7634498126041374e-05 0 -0.032065233947558634 -0.00022469375568685447 0 -0.030904649128868131 -0.00022589687282700114 0 -0.030543196898682561 5.0468118427905427e-05 0 -0.031180233286437393 7.7634498126041374e-05 0 -0.024301903764023705 -0.0012874941530641329 0 -0.023171484726625377 -0.00051762537319311928 0 -0.0226135634453297 -0.0014758751995217435 0 -0.023063915715560053 -0.0018531886252489745 0 -0.023429066027889817 -0.0012796174848058552 0 -0.0226135634453297 -0.0014758751995217435 0 -0.023553437739204233 -0.0013334395124295943 0 -0.022864297994093834 -0.0014491285946664756 0 -0.029550141637316348 -0.00028528337902023344 0 -0.030904649128868131 -0.00022589687282700114 0 -0.029942897522613046 -0.00010249951728145268 0 -0.021783710830880716 -0.0020528580112851437 0 -0.023171484726625377 -0.00051762537319311928 0 -0.0226135634453297 -0.0014758751995217435 0 -0.029550141637316348 -0.00028528337902023344 0 -0.029267756536881438 -3.5272736627341614e-05 0 -0.029942897522613046 -0.00010249951728145268 0 -0.025729554290816869 -0.0011339617572052978 0 -0.027061553268596338 -0.0003515458704776878 0 -0.029500215846129847 7.8239463781012679e-05 0 -0.030543196898682561 5.0468118427905427e-05 0 -0.030669798593963217 0.00043982174475703319 0 -0.029500215846129847 7.8239463781012679e-05 0 -0.029942897522613046 -0.00010249951728145268 0 -0.030543196898682561 5.0468118427905427e-05 0 -0.030904649128868131 -0.00022589687282700114 0 -0.029942897522613046 -0.00010249951728145268 0 -0.030543196898682561 5.0468118427905427e-05 0 -0.030543196898682561 5.0468118427905427e-05 0 -0.030669798593963217 0.00043982174475703319 0 -0.031180233286437393 7.7634498126041374e-05 0 -0.030669798593963217 0.00043982174475703319 0 -0.031175373087338004 0.00025946069945102822 0 -0.031180233286437393 7.7634498126041374e-05 0 -0.031323364027883049 0.00026201112950200719 0 -0.031175373087338004 0.00025946069945102822 0 -0.031437178770356865 0.0001881465940362143 0 -0.031323364027883049 0.00026201112950200719 0 -0.031437178770356865 0.0001881465940362143 0 -0.031388483425661834 0.00016270366115185079 0 -0.030669798593963217 0.00043982174475703319 0 -0.031323364027883049 0.00026201112950200719 0 -0.031175373087338004 0.00025946069945102822 0 -0.031437178770356865 0.0001881465940362143 0 -0.031713404004172163 5.9551777538498125e-05 0 -0.031966232511890055 0.00021801830823383976 0 -0.031175373087338004 0.00025946069945102822 0 -0.031437178770356865 0.0001881465940362143 0 -0.031713404004172163 5.9551777538498125e-05 0 -0.031713404004172163 5.9551777538498125e-05 0 -0.031180233286437393 7.7634498126041374e-05 0 -0.032065233947558634 -0.00022469375568685447 0 -0.031175373087338004 0.00025946069945102822 0 -0.031713404004172163 5.9551777538498125e-05 0 -0.031180233286437393 7.7634498126041374e-05 0 -0.025094452859451298 5.6009824320681516e-05 0 -0.025133702235410581 0.0015779445324475918 0 -0.02665834794397531 0.0013859154877358042 0 -0.031713404004172163 5.9551777538498125e-05 0 -0.032065233947558634 -0.00022469375568685447 0 -0.032548545441453899 3.7016195356265547e-05 0 -0.031713404004172163 5.9551777538498125e-05 0 -0.032548545441453899 3.7016195356265547e-05 0 -0.031966232511890055 0.00021801830823383976 0 -0.031949202334707438 -0.00018869494322679037 0 -0.031762278309866346 7.538376202979657e-05 0 -0.031575854190073228 -0.00065381197865408552 0 -0.032065233947558634 -0.00022469375568685447 0 -0.032548545441453899 3.7016195356265547e-05 0 -0.033438687312096808 -5.8973273356019806e-05 0 -0.032548545441453899 3.7016195356265547e-05 0 -0.033438687312096808 -5.8973273356019806e-05 0 -0.033236555604396562 2.7545383497431485e-05 0 -0.028606931827518532 0.00078576228021314638 0 -0.030557129287647186 0.0012795732065668728 0 -0.030557129287647186 0.0012795732065668728 0 -0.029187832556201766 0.00044389469608371006 0 -0.030557129287647186 0.0012795732065668728 0 -0.030640152570893794 0.0011752030432137025 0 -0.033438687312096808 -5.8973273356019806e-05 0 -0.033472782615110795 4.5146973986372089e-05 0 -0.03339122833193045 3.6064845842086787e-05 0 -0.033438687312096808 -5.8973273356019806e-05 0 -0.03339122833193045 3.6064845842086787e-05 0 -0.033236555604396562 2.7545383497431485e-05 0 -0.025133702235410581 0.0015779445324475918 0 -0.027105474696219174 0.0036107599729852504 0 -0.02665834794397531 0.0013859154877358042 0 -0.034144697066731247 0.00068660522185519878 0 -0.033936123005690294 0.00041897985183609633 0 -0.033606765395064096 0.00038221585106322894 0 -0.034144697066731247 0.00068660522185519878 0 -0.033606765395064096 0.00038221585106322894 0 -0.032861372058200819 0.00025971538178932351 0 -0.033936123005690294 0.00041897985183609633 0 -0.033606765395064096 0.00038221585106322894 0 -0.033487891242201112 0.00010503326317154727 0 -0.03339122833193045 3.6064845842086787e-05 0 -0.033236555604396562 2.7545383497431485e-05 0 -0.033487891242201112 0.00010503326317154727 0 -0.033472782615110795 4.5146973986372089e-05 0 -0.03339122833193045 3.6064845842086787e-05 0 -0.033487891242201112 0.00010503326317154727 0 -0.033606765395064096 0.00038221585106322894 0 -0.033487891242201112 0.00010503326317154727 0 -0.032861372058200819 0.00025971538178932351 0 -0.033236555604396562 2.7545383497431485e-05 0 -0.033487891242201112 0.00010503326317154727 0 -0.032861372058200819 0.00025971538178932351 0 -0.032548545441453899 3.7016195356265547e-05 0 -0.033236555604396562 2.7545383497431485e-05 0 -0.032861372058200819 0.00025971538178932351 0 -0.032861372058200819 0.00025971538178932351 0 -0.031905253447157986 0.00079734720627867395 0 -0.031966232511890055 0.00021801830823383976 0 -0.032548545441453899 3.7016195356265547e-05 0 -0.032861372058200819 0.00025971538178932351 0 -0.031966232511890055 0.00021801830823383976 0 -0.03408567586591487 0.00068802250282760913 0 -0.033349503757447406 0.00064192328422719633 0 -0.034144697066731247 0.00068660522185519878 0 -0.034897006045218545 0.00049418768489488515 0 -0.034758637935064174 0.00021934252918599415 0 -0.034144697066731247 0.00068660522185519878 0 -0.032861372058200819 0.00025971538178932351 0 -0.031905253447157986 0.00079734720627867395 0 -0.031905253447157986 0.00079734720627867395 0 -0.031966232511890055 0.00021801830823383976 0 -0.031474437231008477 0.00021936125205076468 0 -0.031437178770356865 0.0001881465940362143 0 -0.031966232511890055 0.00021801830823383976 0 -0.031474437231008477 0.00021936125205076468 0 -0.031905253447157986 0.00079734720627867395 0 -0.031474437231008477 0.00021936125205076468 0 -0.031316286008562622 -6.1587757209705738e-06 0 -0.031437178770356865 0.0001881465940362143 0 -0.031474437231008477 0.00021936125205076468 0 -0.031388483425661834 0.00016270366115185079 0 -0.031474437231008477 0.00021936125205076468 0 -0.031388483425661834 0.00016270366115185079 0 -0.031395058439924663 8.424394227341286e-05 0 -0.031323364027883049 0.00026201112950200719 0 -0.031388483425661834 0.00016270366115185079 0 -0.031420623605352742 6.8898207129287805e-05 0 -0.031388483425661834 0.00016270366115185079 0 -0.031395058439924663 8.424394227341286e-05 0 -0.031420623605352742 6.8898207129287805e-05 0 -0.031474437231008477 0.00021936125205076468 0 -0.031341986583860719 -5.5449230795238807e-05 0 -0.031316286008562622 -6.1587757209705738e-06 0 -0.031474437231008477 0.00021936125205076468 0 -0.031395058439924663 8.424394227341286e-05 0 -0.031341986583860719 -5.5449230795238807e-05 0 -0.031395058439924663 8.424394227341286e-05 0 -0.031420623605352742 6.8898207129287805e-05 0 -0.031341986583860719 -5.5449230795238807e-05 0 -0.033356858492507566 6.2363386101674923e-05 0 -0.033563271175435193 -7.0090740029275735e-05 0 -0.034897006045218545 0.00049418768489488515 0 -0.035091740591899241 0.00039827278227449391 0 -0.035005794789006409 0.00021247326668500399 0 -0.035091740591899241 0.00039827278227449391 0 -0.035005794789006409 0.00021247326668500399 0 -0.035102677390554039 0.00017037751786328089 0 -0.033349503757447406 0.00064192328422719633 0 -0.033563271175435193 -7.0090740029275735e-05 0 -0.035005794789006409 0.00021247326668500399 0 -0.035000092772351339 9.5254937863597495e-08 0 -0.035102677390554039 0.00017037751786328089 0 -0.035005794789006409 0.00021247326668500399 0 -0.035000092772351339 9.5254937863597495e-08 0 -0.034999779532609319 3.7856914020647128e-08 0 -0.035005794789006409 0.00021247326668500399 0 -0.034999779532609319 3.7856914020647128e-08 0 -0.034758637935064174 0.00021934252918599415 0 -0.034897006045218545 0.00049418768489488515 0 -0.035005794789006409 0.00021247326668500399 0 -0.034758637935064174 0.00021934252918599415 0 -0.034999779532609319 3.7856914020647128e-08 0 -0.034758637935064174 0.00021934252918599415 0 -0.034999943101111076 7.6058331868539817e-08 0 -0.034558225461684584 0.00036092698805053355 0 -0.034758637935064174 0.00021934252918599415 0 -0.034999943101111076 7.6058331868539817e-08 0 -0.034558225461684584 0.00036092698805053355 0 -0.034144697066731247 0.00068660522185519878 0 -0.034758637935064174 0.00021934252918599415 0 -0.034337148326349903 -0.00017066638761643925 0 -0.034385646369775057 -0.00028089214429204915 0 -0.03411357735434193 -0.00029110482502684983 0 -0.034337148326349903 -0.00017066638761643925 0 -0.03419216690208142 -0.00021051085242134888 0 -0.03411357735434193 -0.00029110482502684983 0 -0.034337148326349903 -0.00017066638761643925 0 -0.034385646369775057 -0.00028089214429204915 0 -0.034600194445195166 -0.00013939484281613615 0 -0.034337148326349903 -0.00017066638761643925 0 -0.034600194445195166 -0.00013939484281613615 0 -0.034560694703037874 -0.0001023113388099275 0 -0.034337148326349903 -0.00017066638761643925 0 -0.034571012625356487 -0.00011482430171475851 0 -0.034400813926224148 -0.00014219252295734444 0 -0.034337148326349903 -0.00017066638761643925 0 -0.034571012625356487 -0.00011482430171475851 0 -0.034560694703037874 -0.0001023113388099275 0 -0.034571012625356487 -0.00011482430171475851 0 -0.034762161183974009 -7.4566502681716365e-05 0 -0.034627219686071554 -4.4455263916931773e-05 0 -0.034571012625356487 -0.00011482430171475851 0 -0.034400813926224148 -0.00014219252295734444 0 -0.034627219686071554 -4.4455263916931773e-05 0 -0.034400813926224148 -0.00014219252295734444 0 -0.03419216690208142 -0.00021051085242134888 0 -0.034627219686071554 -4.4455263916931773e-05 0 -0.034337148326349903 -0.00017066638761643925 0 -0.034400813926224148 -0.00014219252295734444 0 -0.03419216690208142 -0.00021051085242134888 0 -0.029372418691626958 -0.00063067190143608644 0 -0.028674935612211107 -0.00023995202291199745 0 -0.029820643531512599 -0.0010785234389387873 0 -0.033674704677410794 -0.00038122954749656292 0 -0.029942485972899727 -0.00083134787097854284 0 -0.029820643531512599 -0.0010785234389387873 0 -0.03419216690208142 -0.00021051085242134888 0 -0.033674704677410794 -0.00038122954749656292 0 -0.034627219686071554 -4.4455263916931773e-05 0 -0.034419035092677651 -0.00036298829873486471 0 -0.033674704677410794 -0.00038122954749656292 0 -0.029820643531512599 -0.0010785234389387873 0 -0.0313813138969685 -0.00034623405508612425 0 -0.029894589014230331 -0.00080446455372824041 0 -0.033630340198292273 -0.00062991795447258215 0 -0.032500116278262312 -0.00048584402728280734 0 -0.029372418691626958 -0.00063067190143608644 0 -0.029153076498464686 -0.00041052283375894781 0 -0.028674935612211107 -0.00023995202291199745 0 -0.029372418691626958 -0.00063067190143608644 0 -0.029558151076253914 -0.00066675879508109649 0 -0.02965377710998305 -0.00082058906780778243 0 -0.029353155469881782 -0.00053499183136823019 0 -0.02932143436222321 -0.0004289926397187638 0 -0.029558151076253914 -0.00066675879508109649 0 -0.029372418691626958 -0.00063067190143608644 0 -0.029353155469881782 -0.00053499183136823019 0 -0.029558151076253914 -0.00066675879508109649 0 -0.029372418691626958 -0.00063067190143608644 0 -0.029353155469881782 -0.00053499183136823019 0 -0.029153076498464686 -0.00041052283375894781 0 -0.029115740746885544 -0.00022122985043017626 0 -0.02932143436222321 -0.0004289926397187638 0 -0.029153076498464686 -0.00041052283375894781 0 -0.029353155469881782 -0.00053499183136823019 0 -0.02932143436222321 -0.0004289926397187638 0 -0.029153076498464686 -0.00041052283375894781 0 -0.028925344105236461 -0.00015886194210236432 0 -0.029153076498464686 -0.00041052283375894781 0 -0.028674935612211107 -0.00023995202291199745 0 -0.032217082320767351 0.00071226452856737704 0 -0.034419035092677651 -0.00036298829873486471 0 -0.034218137707056721 -0.00056140768021773282 0 -0.034419035092677651 -0.00036298829873486471 0 -0.033674704677410794 -0.00038122954749656292 0 -0.034218137707056721 -0.00056140768021773282 0 -0.033674704677410794 -0.00038122954749656292 0 -0.03411357735434193 -0.00029110482502684983 0 -0.034218137707056721 -0.00056140768021773282 0 -0.03419216690208142 -0.00021051085242134888 0 -0.033674704677410794 -0.00038122954749656292 0 -0.03411357735434193 -0.00029110482502684983 0 -0.034385646369775057 -0.00028089214429204915 0 -0.03411357735434193 -0.00029110482502684983 0 -0.034218137707056721 -0.00056140768021773282 0 -0.032217082320767351 0.00071226452856737704 0 -0.034218137707056721 -0.00056140768021773282 0 -0.03249681107925502 -0.00065008193112336629 0 -0.034182964278690095 -0.00053121237818796021 0 -0.033631798736240483 -0.00050377879202731296 0 -0.034385646369775057 -0.00028089214429204915 0 -0.034218137707056721 -0.00056140768021773282 0 -0.034821966322599207 -0.00039220221577799207 0 -0.031393097287977373 -0.00021299418222604839 0 -0.03249681107925502 -0.00065008193112336629 0 -0.031652684141363865 -2.3311976982179125e-05 0 -0.033563271175435193 -7.0090740029275735e-05 0 -0.033631798736240483 -0.00050377879202731296 0 -0.032217082320767351 0.00071226452856737704 0 -0.03249681107925502 -0.00065008193112336629 0 -0.031652684141363865 -2.3311976982179125e-05 0 -0.031323364027883049 0.00026201112950200719 0 -0.031420623605352742 6.8898207129287805e-05 0 -0.031652684141363865 -2.3311976982179125e-05 0 -0.031420623605352742 6.8898207129287805e-05 0 -0.031341986583860719 -5.5449230795238807e-05 0 -0.031652684141363865 -2.3311976982179125e-05 0 -0.031341986583860719 -5.5449230795238807e-05 0 -0.031393097287977373 -0.00021299418222604839 0 -0.031652684141363865 -2.3311976982179125e-05 0 -0.033563271175435193 -7.0090740029275735e-05 0 -0.035191961350536184 3.5679145406394507e-05 0 -0.035049055613913568 -0.00031396389873143194 0 -0.034821966322599207 -0.00039220221577799207 0 -0.034852802109521949 -0.00017795007472102249 0 -0.035049055613913568 -0.00031396389873143194 0 -0.034852802109521949 -0.00017795007472102249 0 -0.034923944900364712 -5.3304074231344951e-05 0 -0.034385646369775057 -0.00028089214429204915 0 -0.034600194445195166 -0.00013939484281613615 0 -0.034821966322599207 -0.00039220221577799207 0 -0.034600194445195166 -0.00013939484281613615 0 -0.034821966322599207 -0.00039220221577799207 0 -0.034852802109521949 -0.00017795007472102249 0 -0.034600194445195166 -0.00013939484281613615 0 -0.034852802109521949 -0.00017795007472102249 0 -0.034823654667616014 -4.8418326041825506e-05 0 -0.034852802109521949 -0.00017795007472102249 0 -0.034823654667616014 -4.8418326041825506e-05 0 -0.034923944900364712 -5.3304074231344951e-05 0 -0.035191961350536184 3.5679145406394507e-05 0 -0.034999870189124399 1.6738507617735726e-07 0 -0.035000092772351339 9.5254937863597495e-08 0 -0.035102677390554039 0.00017037751786328089 0 -0.035000178273040784 3.1926728403842325e-08 0 -0.034999772386365986 7.5016661484365604e-08 0 -0.034897421675346298 -1.2956079378348595e-05 0 -0.034999700020382447 -3.0119154705769765e-08 0 -0.034823654667616014 -4.8418326041825506e-05 0 -0.034923944900364712 -5.3304074231344951e-05 0 -0.034999772386365986 7.5016661484365604e-08 0 -0.034823654667616014 -4.8418326041825506e-05 0 -0.034999772386365986 7.5016661484365604e-08 0 -0.034897421675346298 -1.2956079378348595e-05 0 -0.034897421675346298 -1.2956079378348595e-05 0 -0.034999700020382447 -3.0119154705769765e-08 0 -0.034729311943959791 -5.2688214946937156e-05 0 -0.034999700020382447 -3.0119154705769765e-08 0 -0.034729311943959791 -5.2688214946937156e-05 0 -0.034754603781382926 -7.3344848088167504e-05 0 -0.034823654667616014 -4.8418326041825506e-05 0 -0.034897421675346298 -1.2956079378348595e-05 0 -0.034729311943959791 -5.2688214946937156e-05 0 -0.034600194445195166 -0.00013939484281613615 0 -0.034823654667616014 -4.8418326041825506e-05 0 -0.034729311943959791 -5.2688214946937156e-05 0 -0.034600194445195166 -0.00013939484281613615 0 -0.034729311943959791 -5.2688214946937156e-05 0 -0.034560694703037874 -0.0001023113388099275 0 -0.034729311943959791 -5.2688214946937156e-05 0 -0.034560694703037874 -0.0001023113388099275 0 -0.034754603781382926 -7.3344848088167504e-05 0 -0.034571012625356487 -0.00011482430171475851 0 -0.034754603781382926 -7.3344848088167504e-05 0 -0.034762161183974009 -7.4566502681716365e-05 0 -0.034571012625356487 -0.00011482430171475851 0 -0.034560694703037874 -0.0001023113388099275 0 -0.034754603781382926 -7.3344848088167504e-05 0 -0.034999700020382447 -3.0119154705769765e-08 0 -0.034754603781382926 -7.3344848088167504e-05 0 -0.03499977887835512 -8.1021630077368642e-08 0 -0.034754603781382926 -7.3344848088167504e-05 0 -0.03499977887835512 -8.1021630077368642e-08 0 -0.034930517477764905 -4.2707758894377708e-05 0 -0.034999844800799824 -5.590540415578526e-08 0 -0.034930517477764905 -4.2707758894377708e-05 0 -0.034962546785100704 -2.499798569064713e-05 0 -0.03499977887835512 -8.1021630077368642e-08 0 -0.034999844800799824 -5.590540415578526e-08 0 -0.034930517477764905 -4.2707758894377708e-05 0 -0.030093206166818761 -0.0017732998274049446 0 -0.030657768811362247 -0.0018527934119093609 0 -0.030733417943893566 -0.0023913583380204225 0 -0.034930517477764905 -4.2707758894377708e-05 0 -0.034891744128438131 -3.9025993056934278e-05 0 -0.034962546785100704 -2.499798569064713e-05 0 -0.032419478647450505 -0.00092935802590081744 0 -0.033558755119448926 -0.0006382925286789352 0 -0.034891744128438131 -3.9025993056934278e-05 0 -0.034762161183974009 -7.4566502681716365e-05 0 -0.034627219686071554 -4.4455263916931773e-05 0 -0.034754603781382926 -7.3344848088167504e-05 0 -0.034930517477764905 -4.2707758894377708e-05 0 -0.034762161183974009 -7.4566502681716365e-05 0 -0.034930517477764905 -4.2707758894377708e-05 0 -0.034891744128438131 -3.9025993056934278e-05 0 -0.034762161183974009 -7.4566502681716365e-05 0 -0.030093206166818761 -0.0017732998274049446 0 -0.029942485972899727 -0.00083134787097854284 0 -0.030035706610572997 -0.0012397942116183522 0 -0.029942485972899727 -0.00083134787097854284 0 -0.029820643531512599 -0.0010785234389387873 0 -0.030035706610572997 -0.0012397942116183522 0 -0.032419478647450505 -0.00092935802590081744 0 -0.032500116278262312 -0.00048584402728280734 0 -0.029820643531512599 -0.0010785234389387873 0 -0.030035706610572997 -0.0012397942116183522 0 -0.029821566791803786 -0.00090708908194836143 0 -0.030093206166818761 -0.0017732998274049446 0 -0.030035706610572997 -0.0012397942116183522 0 -0.030657768811362247 -0.0018527934119093609 0 -0.030035706610572997 -0.0012397942116183522 0 -0.030590971913559955 -0.0012577763821503512 0 -0.030657768811362247 -0.0018527934119093609 0 -0.030035706610572997 -0.0012397942116183522 0 -0.030065452367858819 -0.00093383791942733675 0 -0.029821566791803786 -0.00090708908194836143 0 -0.030035706610572997 -0.0012397942116183522 0 -0.030065452367858819 -0.00093383791942733675 0 -0.030590971913559955 -0.0012577763821503512 0 -0.030065452367858819 -0.00093383791942733675 0 -0.030266016193467943 -0.00074701484026691025 0 -0.030590971913559955 -0.0012577763821503512 0 -0.030065452367858819 -0.00093383791942733675 0 -0.029972175273314618 -0.00066256041720582054 0 -0.029829777816715097 -0.00071148676841239361 0 -0.030065452367858819 -0.00093383791942733675 0 -0.030266016193467943 -0.00074701484026691025 0 -0.029972175273314618 -0.00066256041720582054 0 -0.029972175273314618 -0.00066256041720582054 0 -0.029829777816715097 -0.00071148676841239361 0 -0.029772179929367461 -0.00050375938592143912 0 -0.029829777816715097 -0.00071148676841239361 0 -0.029772179929367461 -0.00050375938592143912 0 -0.029591089859490601 -0.00047943673217135108 0 -0.029829777816715097 -0.00071148676841239361 0 -0.029678115789747845 -0.00066247108572631047 0 -0.029821566791803786 -0.00090708908194836143 0 -0.029829777816715097 -0.00071148676841239361 0 -0.029678115789747845 -0.00066247108572631047 0 -0.029591089859490601 -0.00047943673217135108 0 -0.029477238998471551 -0.00048702989031330554 0 -0.029678115789747845 -0.00066247108572631047 0 -0.029591089859490601 -0.00047943673217135108 0 -0.02932143436222321 -0.0004289926397187638 0 -0.029477238998471551 -0.00048702989031330554 0 -0.029558151076253914 -0.00066675879508109649 0 -0.029477238998471551 -0.00048702989031330554 0 -0.029558151076253914 -0.00066675879508109649 0 -0.029678115789747845 -0.00066247108572631047 0 -0.029558151076253914 -0.00066675879508109649 0 -0.029678115789747845 -0.00066247108572631047 0 -0.029821566791803786 -0.00090708908194836143 0 -0.029372418691626958 -0.00063067190143608644 0 -0.029820643531512599 -0.0010785234389387873 0 -0.02965377710998305 -0.00082058906780778243 0 -0.029558151076253914 -0.00066675879508109649 0 -0.02965377710998305 -0.00082058906780778243 0 -0.029821566791803786 -0.00090708908194836143 0 -0.029820643531512599 -0.0010785234389387873 0 -0.02965377710998305 -0.00082058906780778243 0 -0.029821566791803786 -0.00090708908194836143 0 -0.030065452367858819 -0.00093383791942733675 0 -0.029829777816715097 -0.00071148676841239361 0 -0.029821566791803786 -0.00090708908194836143 0 -0.031204140834179859 -0.0011856197442342159 0 -0.031982292862109379 -0.001527393017447274 0 -0.031797678026113239 -0.00077346188967007212 0 -0.031204140834179859 -0.0011856197442342159 0 -0.031114862637953926 -0.00062576222602191893 0 -0.031797678026113239 -0.00077346188967007212 0 -0.031204140834179859 -0.0011856197442342159 0 -0.030714514910350273 -0.00080003717382424132 0 -0.031114862637953926 -0.00062576222602191893 0 -0.030266016193467943 -0.00074701484026691025 0 -0.030714514910350273 -0.00080003717382424132 0 -0.030590971913559955 -0.0012577763821503512 0 -0.031204140834179859 -0.0011856197442342159 0 -0.030714514910350273 -0.00080003717382424132 0 -0.030590971913559955 -0.0012577763821503512 0 -0.030590971913559955 -0.0012577763821503512 0 -0.031234301652519433 -0.0018740402815398691 0 -0.030657768811362247 -0.0018527934119093609 0 -0.031204140834179859 -0.0011856197442342159 0 -0.030590971913559955 -0.0012577763821503512 0 -0.031234301652519433 -0.0018740402815398691 0 -0.031204140834179859 -0.0011856197442342159 0 -0.031234301652519433 -0.0018740402815398691 0 -0.031982292862109379 -0.001527393017447274 0 -0.032982055978792849 -0.0012138429056508416 0 -0.033323475476456692 -0.00095870014678626754 0 -0.034952996600275399 -0.00027153471685163397 0 -0.034981186747578982 -0.00010659357441693665 0 -0.034888835305811647 -8.9204626621543955e-05 0 -0.032982055978792849 -0.0012138429056508416 0 -0.033558755119448926 -0.0006382925286789352 0 -0.034952996600275399 -0.00027153471685163397 0 -0.035094773370301618 -8.0546232416719873e-05 0 -0.034981186747578982 -0.00010659357441693665 0 -0.031234301652519433 -0.0018740402815398691 0 -0.030657768811362247 -0.0018527934119093609 0 -0.030733417943893566 -0.0023913583380204225 0 -0.034999993007427919 -3.3596213723629425e-09 0 -0.034994885771987921 -3.3001172075594545e-06 0 -0.034999991290821771 -1.3099546894725169e-09 0 -0.035094773370301618 -8.0546232416719873e-05 0 -0.034981186747578982 -0.00010659357441693665 0 -0.035000050681334154 -5.2706551032282466e-08 0 -0.033558755119448926 -0.0006382925286789352 0 -0.035000438775872375 -4.5599174242893708e-07 0 -0.035000231520891927 6.9120984316262712e-07 0 -0.033558755119448926 -0.0006382925286789352 0 -0.034981186747578982 -0.00010659357441693665 0 -0.035000050681334154 -5.2706551032282466e-08 0 -0.034888835305811647 -8.9204626621543955e-05 0 -0.035000050681334154 -5.2706551032282466e-08 0 -0.034888835305811647 -8.9204626621543955e-05 0 -0.03499959488314338 -4.3122139682752927e-08 0 -0.034888835305811647 -8.9204626621543955e-05 0 -0.03499959488314338 -4.3122139682752927e-08 0 -0.034539898999096437 -0.00028319183393341014 0 -0.03499959488314338 -4.3122139682752927e-08 0 -0.034539898999096437 -0.00028319183393341014 0 -0.034566774677017235 -0.00020488380431646729 0 -0.034952996600275399 -0.00027153471685163397 0 -0.034888835305811647 -8.9204626621543955e-05 0 -0.034539898999096437 -0.00028319183393341014 0 -0.034999241117116116 -8.297313317567514e-08 0 -0.034389337405520581 -0.0003018642668624642 0 -0.0346951068325684 -0.0001724879507564732 0 -0.03499959488314338 -4.3122139682752927e-08 0 -0.034999241117116116 -8.297313317567514e-08 0 -0.034566774677017235 -0.00020488380431646729 0 -0.034566774677017235 -0.00020488380431646729 0 -0.034389337405520581 -0.0003018642668624642 0 -0.034242999925732313 -0.00036674870818895948 0 -0.034999241117116116 -8.297313317567514e-08 0 -0.034566774677017235 -0.00020488380431646729 0 -0.034389337405520581 -0.0003018642668624642 0 -0.033982952437308867 -0.00048527098745860576 0 -0.034115706102282789 -0.00046939577574055903 0 -0.03375554088978034 -0.00060922818601844844 0 -0.033982952437308867 -0.00048527098745860576 0 -0.033686040584443543 -0.00057855619364224539 0 -0.03375554088978034 -0.00060922818601844844 0 -0.034389337405520581 -0.0003018642668624642 0 -0.033982952437308867 -0.00048527098745860576 0 -0.034115706102282789 -0.00046939577574055903 0 -0.034389337405520581 -0.0003018642668624642 0 -0.033982952437308867 -0.00048527098745860576 0 -0.034242999925732313 -0.00036674870818895948 0 -0.033982952437308867 -0.00048527098745860576 0 -0.033987759771732212 -0.00048773914588916674 0 -0.033686040584443543 -0.00057855619364224539 0 -0.033982952437308867 -0.00048527098745860576 0 -0.033987759771732212 -0.00048773914588916674 0 -0.034242999925732313 -0.00036674870818895948 0 -0.034566774677017235 -0.00020488380431646729 0 -0.034242999925732313 -0.00036674870818895948 0 -0.034116924858757169 -0.00050949914314067917 0 -0.033987759771732212 -0.00048773914588916674 0 -0.034242999925732313 -0.00036674870818895948 0 -0.034116924858757169 -0.00050949914314067917 0 -0.034116924858757169 -0.00050949914314067917 0 -0.033941937178990682 -0.00072212341917931287 0 -0.033812015803005573 -0.00061062526717984482 0 -0.033941937178990682 -0.00072212341917931287 0 -0.033721977503857352 -0.00073585581663267608 0 -0.033812015803005573 -0.00061062526717984482 0 -0.033987759771732212 -0.00048773914588916674 0 -0.034116924858757169 -0.00050949914314067917 0 -0.033812015803005573 -0.00061062526717984482 0 -0.033812015803005573 -0.00061062526717984482 0 -0.033686040584443543 -0.00057855619364224539 0 -0.033507007122081052 -0.00070470805557715254 0 -0.033987759771732212 -0.00048773914588916674 0 -0.033812015803005573 -0.00061062526717984482 0 -0.033686040584443543 -0.00057855619364224539 0 -0.033721977503857352 -0.00073585581663267608 0 -0.033812015803005573 -0.00061062526717984482 0 -0.033507007122081052 -0.00070470805557715254 0 -0.033721977503857352 -0.00073585581663267608 0 -0.033507007122081052 -0.00070470805557715254 0 -0.033053888065989037 -0.0010218970492626806 0 -0.033686040584443543 -0.00057855619364224539 0 -0.033507007122081052 -0.00070470805557715254 0 -0.03320121670532037 -0.00077312932656268749 0 -0.033507007122081052 -0.00070470805557715254 0 -0.033053888065989037 -0.0010218970492626806 0 -0.03320121670532037 -0.00077312932656268749 0 -0.033686040584443543 -0.00057855619364224539 0 -0.03320121670532037 -0.00077312932656268749 0 -0.03375554088978034 -0.00060922818601844844 0 -0.034539898999096437 -0.00028319183393341014 0 -0.034028664966134825 -0.00063837395380263715 0 -0.034556894424764187 -0.00058350774711864672 0 -0.034952996600275399 -0.00027153471685163397 0 -0.034539898999096437 -0.00028319183393341014 0 -0.034556894424764187 -0.00058350774711864672 0 -0.034539898999096437 -0.00028319183393341014 0 -0.034116924858757169 -0.00050949914314067917 0 -0.034028664966134825 -0.00063837395380263715 0 -0.034539898999096437 -0.00028319183393341014 0 -0.034566774677017235 -0.00020488380431646729 0 -0.034116924858757169 -0.00050949914314067917 0 -0.034116924858757169 -0.00050949914314067917 0 -0.033941937178990682 -0.00072212341917931287 0 -0.034028664966134825 -0.00063837395380263715 0 -0.033941937178990682 -0.00072212341917931287 0 -0.034028664966134825 -0.00063837395380263715 0 -0.033480540173020178 -0.00075148553756995522 0 -0.031982292862109379 -0.001527393017447274 0 -0.033480540173020178 -0.00075148553756995522 0 -0.031797678026113239 -0.00077346188967007212 0 -0.034028664966134825 -0.00063837395380263715 0 -0.034556894424764187 -0.00058350774711864672 0 -0.033480540173020178 -0.00075148553756995522 0 -0.033323475476456692 -0.00095870014678626754 0 -0.033510761522909577 -0.00072152556653497474 0 -0.03221456284983399 -0.00019075052202820059 0 -0.033480540173020178 -0.00075148553756995522 0 -0.031797678026113239 -0.00077346188967007212 0 -0.03221456284983399 -0.00019075052202820059 0 -0.033480540173020178 -0.00075148553756995522 0 -0.033119256647349146 -0.00017674130415190091 0 -0.033480540173020178 -0.00075148553756995522 0 -0.033119256647349146 -0.00017674130415190091 0 -0.034050817527570124 -0.00060031388598665741 0 -0.033941937178990682 -0.00072212341917931287 0 -0.033480540173020178 -0.00075148553756995522 0 -0.034050817527570124 -0.00060031388598665741 0 -0.03053576077581209 6.2314151089368176e-05 0 -0.03192074933474584 -0.00086009915410938077 0 -0.032839850521822374 0.00054090078446626731 0 -0.033119256647349146 -0.00017674130415190091 0 -0.034050817527570124 -0.00060031388598665741 0 -0.029304207867136094 -0.00056819252427602149 0 -0.028115318632627517 -0.00035277811944729097 0 -0.029895988217904866 -0.0013530419763953538 0 -0.029304207867136094 -0.00056819252427602149 0 -0.028115318632627517 -0.00035277811944729097 0 -0.028277396282882748 -0.00029531344901524101 0 -0.032839850521822374 0.00054090078446626731 0 -0.032304578798305852 0.00016156181915546395 0 -0.031697694164689386 0.00047835670486728535 0 -0.03221456284983399 -0.00019075052202820059 0 -0.032304578798305852 0.00016156181915546395 0 -0.03172960006884578 0.0001183844461153799 0 -0.032839850521822374 0.00054090078446626731 0 -0.032304578798305852 0.00016156181915546395 0 -0.033119256647349146 -0.00017674130415190091 0 -0.03221456284983399 -0.00019075052202820059 0 -0.032304578798305852 0.00016156181915546395 0 -0.033119256647349146 -0.00017674130415190091 0 -0.033053888065989037 -0.0010218970492626806 0 -0.03188088666013475 -0.00098831790751749242 0 -0.029895988217904866 -0.0013530419763953538 0 -0.033053888065989037 -0.0010218970492626806 0 -0.03320121670532037 -0.00077312932656268749 0 -0.032787219096711347 -0.00089045156851631996 0 -0.033053888065989037 -0.0010218970492626806 0 -0.032489141333009952 -0.00090110692975293495 0 -0.03188088666013475 -0.00098831790751749242 0 -0.032489141333009952 -0.00090110692975293495 0 -0.03188088666013475 -0.00098831790751749242 0 -0.031666460265570628 -0.00077135440099513188 0 -0.032825784212661989 -0.0010095298103360948 0 -0.03192074933474584 -0.00086009915410938077 0 -0.03188088666013475 -0.00098831790751749242 0 -0.029895988217904866 -0.0013530419763953538 0 -0.031666460265570628 -0.00077135440099513188 0 -0.033721977503857352 -0.00073585581663267608 0 -0.033053888065989037 -0.0010218970492626806 0 -0.034050817527570124 -0.00060031388598665741 0 -0.033941937178990682 -0.00072212341917931287 0 -0.033721977503857352 -0.00073585581663267608 0 -0.034050817527570124 -0.00060031388598665741 0 -0.029895988217904866 -0.0013530419763953538 0 -0.030827388505275503 -0.00040237849058382286 0 -0.031666460265570628 -0.00077135440099513188 0 -0.029304207867136094 -0.00056819252427602149 0 -0.029895988217904866 -0.0013530419763953538 0 -0.030827388505275503 -0.00040237849058382286 0 -0.029304207867136094 -0.00056819252427602149 0 -0.030827388505275503 -0.00040237849058382286 0 -0.030048436180956831 -4.2402512363450547e-05 0 -0.032489141333009952 -0.00090110692975293495 0 -0.031666460265570628 -0.00077135440099513188 0 -0.031857505340610423 -0.00026824674277100842 0 -0.030827388505275503 -0.00040237849058382286 0 -0.031666460265570628 -0.00077135440099513188 0 -0.031857505340610423 -0.00026824674277100842 0 -0.03101201884346921 0.00042488248605887003 0 -0.032364293292846527 0.00016437515850715271 0 -0.032069546088880144 0.0012834184237834412 0 -0.031857505340610423 -0.00026824674277100842 0 -0.03101201884346921 0.00042488248605887003 0 -0.032364293292846527 0.00016437515850715271 0 -0.030827388505275503 -0.00040237849058382286 0 -0.031857505340610423 -0.00026824674277100842 0 -0.03101201884346921 0.00042488248605887003 0 -0.03101201884346921 0.00042488248605887003 0 -0.030048436180956831 -4.2402512363450547e-05 0 -0.028903132064413941 0.00058762074333483484 0 -0.030827388505275503 -0.00040237849058382286 0 -0.03101201884346921 0.00042488248605887003 0 -0.030048436180956831 -4.2402512363450547e-05 0 -0.030048436180956831 -4.2402512363450547e-05 0 -0.029122320405039998 -8.3966637160756924e-05 0 -0.028903132064413941 0.00058762074333483484 0 -0.029304207867136094 -0.00056819252427602149 0 -0.030048436180956831 -4.2402512363450547e-05 0 -0.029122320405039998 -8.3966637160756924e-05 0 -0.03101201884346921 0.00042488248605887003 0 -0.029881138598410781 0.002005330736737245 0 -0.028903132064413941 0.00058762074333483484 0 -0.03101201884346921 0.00042488248605887003 0 -0.029881138598410781 0.002005330736737245 0 -0.032069546088880144 0.0012834184237834412 0 -0.027387176714815279 0.0019387936484721333 0 -0.028128410795562442 0.0016398556861297966 0 -0.028136267464142269 -0.00024404591925493473 0 -0.027185090154120909 0.00032347986401518069 0 -0.028115318632627517 -0.00035277811944729097 0 -0.028547608978207309 7.6542049003347956e-05 0 -0.028773191409093901 0.00027897244142307696 0 -0.03053576077581209 6.2314151089368176e-05 0 -0.029964518741049453 0.00061702919769932973 0 -0.028115318632627517 -0.00035277811944729097 0 -0.028277396282882748 -0.00029531344901524101 0 -0.028547608978207309 7.6542049003347956e-05 0 -0.028277396282882748 -0.00029531344901524101 0 -0.027040740995023006 0.00078836176762491633 0 -0.025738128598555891 0.00045225378242631526 0 -0.028277396282882748 -0.00029531344901524101 0 -0.028903132064413941 0.00058762074333483484 0 -0.027040740995023006 0.00078836176762491633 0 -0.028277396282882748 -0.00029531344901524101 0 -0.029122320405039998 -8.3966637160756924e-05 0 -0.028903132064413941 0.00058762074333483484 0 -0.029304207867136094 -0.00056819252427602149 0 -0.028277396282882748 -0.00029531344901524101 0 -0.029122320405039998 -8.3966637160756924e-05 0 -0.029881138598410781 0.002005330736737245 0 -0.028903132064413941 0.00058762074333483484 0 -0.026224082996063446 0.001786072286024032 0 -0.028903132064413941 0.00058762074333483484 0 -0.027040740995023006 0.00078836176762491633 0 -0.026224082996063446 0.001786072286024032 0 -0.027040740995023006 0.00078836176762491633 0 -0.026050893130515212 0.0011329550182043004 0 -0.026224082996063446 0.001786072286024032 0 -0.027040740995023006 0.00078836176762491633 0 -0.026050893130515212 0.0011329550182043004 0 -0.025738128598555891 0.00045225378242631526 0 -0.025687965216923597 0.0010344232440699357 0 -0.025419901686428943 0.001090090295247881 0 -0.025563955127364941 0.0012788741511495819 0 -0.027185090154120909 0.00032347986401518069 0 -0.027200725578077633 0.00092434624531887225 0 -0.026050893130515212 0.0011329550182043004 0 -0.025687965216923597 0.0010344232440699357 0 -0.025563955127364941 0.0012788741511495819 0 -0.028547608978207309 7.6542049003347956e-05 0 -0.028773191409093901 0.00027897244142307696 0 -0.029257995772846979 0.00072531766708547828 0 -0.025419901686428943 0.001090090295247881 0 -0.025738128598555891 0.00045225378242631526 0 -0.025195339305214479 0.0011595461186860417 0 -0.026050893130515212 0.0011329550182043004 0 -0.025687965216923597 0.0010344232440699357 0 -0.025738128598555891 0.00045225378242631526 0 -0.025687965216923597 0.0010344232440699357 0 -0.025419901686428943 0.001090090295247881 0 -0.025738128598555891 0.00045225378242631526 0 -0.032839850521822374 0.00054090078446626731 0 -0.031060338394501143 0.0010905648608660564 0 -0.031697694164689386 0.00047835670486728535 0 -0.031060338394501143 0.0010905648608660564 0 -0.03107796056635044 0.00058190495742513316 0 -0.030693520344037405 0.00064510874794370819 0 -0.03107796056635044 0.00058190495742513316 0 -0.030693520344037405 0.00064510874794370819 0 -0.030725014156167102 0.00036669722856672027 0 -0.031060338394501143 0.0010905648608660564 0 -0.03107796056635044 0.00058190495742513316 0 -0.031697694164689386 0.00047835670486728535 0 -0.031060338394501143 0.0010905648608660564 0 -0.0303685880391978 0.00074002186735295736 0 -0.029967100441848159 0.00081867498512945384 0 -0.030320285105517562 0.00051309878025956955 0 -0.029951807079045725 0.00062967945167371467 0 -0.029944674605483813 0.00038828260488462047 0 -0.030320285105517562 0.00051309878025956955 0 -0.0303685880391978 0.00074002186735295736 0 -0.029951807079045725 0.00062967945167371467 0 -0.030320285105517562 0.00051309878025956955 0 -0.030693520344037405 0.00064510874794370819 0 -0.030725014156167102 0.00036669722856672027 0 -0.030320285105517562 0.00051309878025956955 0 -0.030693520344037405 0.00064510874794370819 0 -0.0303685880391978 0.00074002186735295736 0 -0.031060338394501143 0.0010905648608660564 0 -0.030693520344037405 0.00064510874794370819 0 -0.0303685880391978 0.00074002186735295736 0 -0.029951807079045725 0.00062967945167371467 0 -0.029967100441848159 0.00081867498512945384 0 -0.029601814515452709 0.00071467803971519365 0 -0.0303685880391978 0.00074002186735295736 0 -0.029951807079045725 0.00062967945167371467 0 -0.029967100441848159 0.00081867498512945384 0 -0.029964518741049453 0.00061702919769932973 0 -0.029492651274264894 0.00085808199594348742 0 -0.028773191409093901 0.00027897244142307696 0 -0.029257995772846979 0.00072531766708547828 0 -0.029371100420632658 0.00090463351930260261 0 -0.029967100441848159 0.00081867498512945384 0 -0.029371100420632658 0.00090463351930260261 0 -0.029534675908039598 0.00081054932117757459 0 -0.031060338394501143 0.0010905648608660564 0 -0.029967100441848159 0.00081867498512945384 0 -0.029371100420632658 0.00090463351930260261 0 -0.025419901686428943 0.001090090295247881 0 -0.025195339305214479 0.0011595461186860417 0 -0.025296291575156019 0.0011995719251301166 0 -0.027200725578077633 0.00092434624531887225 0 -0.027407064709678335 0.0011433771747919386 0 -0.029257995772846979 0.00072531766708547828 0 -0.029371100420632658 0.00090463351930260261 0 -0.029190614067776757 0.0010456024906811113 0 -0.029371100420632658 0.00090463351930260261 0 -0.029311145135175434 0.00077194454887679199 0 -0.029190614067776757 0.0010456024906811113 0 -0.029311145135175434 0.00077194454887679199 0 -0.029023760830308394 0.00053624095408240932 0 -0.029390654969878714 0.00062760752291792193 0 -0.029371100420632658 0.00090463351930260261 0 -0.029311145135175434 0.00077194454887679199 0 -0.029534675908039598 0.00081054932117757459 0 -0.029311145135175434 0.00077194454887679199 0 -0.029534675908039598 0.00081054932117757459 0 -0.029601814515452709 0.00071467803971519365 0 -0.029967100441848159 0.00081867498512945384 0 -0.029534675908039598 0.00081054932117757459 0 -0.029601814515452709 0.00071467803971519365 0 -0.029311145135175434 0.00077194454887679199 0 -0.029601814515452709 0.00071467803971519365 0 -0.029390654969878714 0.00062760752291792193 0 -0.029311145135175434 0.00077194454887679199 0 -0.028608599714636525 0.00065311480719202274 0 -0.029190614067776757 0.0010456024906811113 0 -0.029311145135175434 0.00077194454887679199 0 -0.028608599714636525 0.00065311480719202274 0 -0.029023760830308394 0.00053624095408240932 0 -0.02862224590696813 0.0004881042157908019 0 -0.028608599714636525 0.00065311480719202274 0 -0.029023760830308394 0.00053624095408240932 0 -0.02862224590696813 0.0004881042157908019 0 -0.029023760830308394 0.00053624095408240932 0 -0.029105783153682521 0.00033399323969675028 0 -0.029023760830308394 0.00053624095408240932 0 -0.029105783153682521 0.00033399323969675028 0 -0.029300640794365871 0.00047341990270836931 0 -0.029105783153682521 0.00033399323969675028 0 -0.029300640794365871 0.00047341990270836931 0 -0.029436291972940017 0.00033597694709615322 0 -0.029105783153682521 0.00033399323969675028 0 -0.029436291972940017 0.00033597694709615322 0 -0.029372128815746513 0.00022115608659732197 0 -0.02862224590696813 0.0004881042157908019 0 -0.028813470894472389 0.00035094909940164336 0 -0.029105783153682521 0.00033399323969675028 0 -0.028813470894472389 0.00035094909940164336 0 -0.029105783153682521 0.00033399323969675028 0 -0.029034030918538577 0.00020283390461695478 0 -0.029951807079045725 0.00062967945167371467 0 -0.029601814515452709 0.00071467803971519365 0 -0.029577793098633915 0.0005145373987588697 0 -0.029601814515452709 0.00071467803971519365 0 -0.029390654969878714 0.00062760752291792193 0 -0.029577793098633915 0.0005145373987588697 0 -0.029023760830308394 0.00053624095408240932 0 -0.029390654969878714 0.00062760752291792193 0 -0.029300640794365871 0.00047341990270836931 0 -0.029390654969878714 0.00062760752291792193 0 -0.029300640794365871 0.00047341990270836931 0 -0.029577793098633915 0.0005145373987588697 0 -0.029300640794365871 0.00047341990270836931 0 -0.029436291972940017 0.00033597694709615322 0 -0.029577793098633915 0.0005145373987588697 0 -0.029436291972940017 0.00033597694709615322 0 -0.029577793098633915 0.0005145373987588697 0 -0.029703249205843527 0.00029766930326183559 0 -0.029951807079045725 0.00062967945167371467 0 -0.029577793098633915 0.0005145373987588697 0 -0.029944674605483813 0.00038828260488462047 0 -0.029577793098633915 0.0005145373987588697 0 -0.029944674605483813 0.00038828260488462047 0 -0.029703249205843527 0.00029766930326183559 0 -0.029944674605483813 0.00038828260488462047 0 -0.029949764917145669 0.0001345762608720191 0 -0.029703249205843527 0.00029766930326183559 0 -0.029949764917145669 0.0001345762608720191 0 -0.029703249205843527 0.00029766930326183559 0 -0.029634261227049805 0.00010585622945584515 0 -0.029436291972940017 0.00033597694709615322 0 -0.029634261227049805 0.00010585622945584515 0 -0.029372128815746513 0.00022115608659732197 0 -0.029436291972940017 0.00033597694709615322 0 -0.029703249205843527 0.00029766930326183559 0 -0.029634261227049805 0.00010585622945584515 0 -0.029634261227049805 0.00010585622945584515 0 -0.029931144771707777 -0.0001325238781349843 0 -0.029597480152465404 -8.0454921323570616e-05 0 -0.029949764917145669 0.0001345762608720191 0 -0.029634261227049805 0.00010585622945584515 0 -0.029931144771707777 -0.0001325238781349843 0 -0.029949764917145669 0.0001345762608720191 0 -0.029931144771707777 -0.0001325238781349843 0 -0.030307506369287921 -0.00010171192627881244 0 -0.029105783153682521 0.00033399323969675028 0 -0.029034030918538577 0.00020283390461695478 0 -0.029326299693168252 0.00010534315392888881 0 -0.029105783153682521 0.00033399323969675028 0 -0.029372128815746513 0.00022115608659732197 0 -0.029326299693168252 0.00010534315392888881 0 -0.029634261227049805 0.00010585622945584515 0 -0.029372128815746513 0.00022115608659732197 0 -0.029326299693168252 0.00010534315392888881 0 -0.029634261227049805 0.00010585622945584515 0 -0.029597480152465404 -8.0454921323570616e-05 0 -0.029326299693168252 0.00010534315392888881 0 -0.029597480152465404 -8.0454921323570616e-05 0 -0.029395978077470065 -5.6644126483649999e-05 0 -0.029326299693168252 0.00010534315392888881 0 -0.029034030918538577 0.00020283390461695478 0 -0.029326299693168252 0.00010534315392888881 0 -0.029211481131080037 5.1683045110508217e-05 0 -0.029395978077470065 -5.6644126483649999e-05 0 -0.029326299693168252 0.00010534315392888881 0 -0.029211481131080037 5.1683045110508217e-05 0 -0.029395978077470065 -5.6644126483649999e-05 0 -0.029211481131080037 5.1683045110508217e-05 0 -0.02928253373544221 -0.00010309400038656009 0 -0.02904151579063103 9.5513062593719736e-05 0 -0.029211481131080037 5.1683045110508217e-05 0 -0.02928253373544221 -0.00010309400038656009 0 -0.02904151579063103 9.5513062593719736e-05 0 -0.029034030918538577 0.00020283390461695478 0 -0.029211481131080037 5.1683045110508217e-05 0 -0.029395978077470065 -5.6644126483649999e-05 0 -0.02928253373544221 -0.00010309400038656009 0 -0.02957846589104177 -0.00026904309526040704 0 -0.02928253373544221 -0.00010309400038656009 0 -0.02957846589104177 -0.00026904309526040704 0 -0.029425522734525447 -0.00028505194474190215 0 -0.029597480152465404 -8.0454921323570616e-05 0 -0.029395978077470065 -5.6644126483649999e-05 0 -0.02957846589104177 -0.00026904309526040704 0 -0.02957846589104177 -0.00026904309526040704 0 -0.029772179929367461 -0.00050375938592143912 0 -0.029591089859490601 -0.00047943673217135108 0 -0.02957846589104177 -0.00026904309526040704 0 -0.029772179929367461 -0.00050375938592143912 0 -0.029893370016401338 -0.00039578029009418027 0 -0.02957846589104177 -0.00026904309526040704 0 -0.029425522734525447 -0.00028505194474190215 0 -0.029591089859490601 -0.00047943673217135108 0 -0.029477238998471551 -0.00048702989031330554 0 -0.029425522734525447 -0.00028505194474190215 0 -0.029591089859490601 -0.00047943673217135108 0 -0.029291151649321098 -0.00026433064302660555 0 -0.029477238998471551 -0.00048702989031330554 0 -0.029425522734525447 -0.00028505194474190215 0 -0.029291151649321098 -0.00026433064302660555 0 -0.02928253373544221 -0.00010309400038656009 0 -0.029425522734525447 -0.00028505194474190215 0 -0.029931144771707777 -0.0001325238781349843 0 -0.030290747227973033 -0.00043830675069508326 0 -0.030307506369287921 -0.00010171192627881244 0 -0.029931144771707777 -0.0001325238781349843 0 -0.029893370016401338 -0.00039578029009418027 0 -0.030290747227973033 -0.00043830675069508326 0 -0.029931144771707777 -0.0001325238781349843 0 -0.029597480152465404 -8.0454921323570616e-05 0 -0.029893370016401338 -0.00039578029009418027 0 -0.029597480152465404 -8.0454921323570616e-05 0 -0.02957846589104177 -0.00026904309526040704 0 -0.029893370016401338 -0.00039578029009418027 0 -0.030266016193467943 -0.00074701484026691025 0 -0.029972175273314618 -0.00066256041720582054 0 -0.029893370016401338 -0.00039578029009418027 0 -0.029972175273314618 -0.00066256041720582054 0 -0.029772179929367461 -0.00050375938592143912 0 -0.029893370016401338 -0.00039578029009418027 0 -0.030266016193467943 -0.00074701484026691025 0 -0.029893370016401338 -0.00039578029009418027 0 -0.030290747227973033 -0.00043830675069508326 0 -0.030714514910350273 -0.00080003717382424132 0 -0.030290747227973033 -0.00043830675069508326 0 -0.030710776057928629 -0.00036968333833639139 0 -0.030266016193467943 -0.00074701484026691025 0 -0.030714514910350273 -0.00080003717382424132 0 -0.030290747227973033 -0.00043830675069508326 0 -0.030290747227973033 -0.00043830675069508326 0 -0.030710776057928629 -0.00036968333833639139 0 -0.030307506369287921 -0.00010171192627881244 0 -0.030710776057928629 -0.00036968333833639139 0 -0.031292000129521311 -0.00023015521452200306 0 -0.030740198741163367 -2.1791780315904966e-06 0 -0.030714514910350273 -0.00080003717382424132 0 -0.030710776057928629 -0.00036968333833639139 0 -0.031114862637953926 -0.00062576222602191893 0 -0.031114862637953926 -0.00062576222602191893 0 -0.031797678026113239 -0.00077346188967007212 0 -0.031292000129521311 -0.00023015521452200306 0 -0.03221456284983399 -0.00019075052202820059 0 -0.031797678026113239 -0.00077346188967007212 0 -0.031292000129521311 -0.00023015521452200306 0 -0.030710776057928629 -0.00036968333833639139 0 -0.031114862637953926 -0.00062576222602191893 0 -0.031292000129521311 -0.00023015521452200306 0 -0.031292000129521311 -0.00023015521452200306 0 -0.031199677458447612 0.00021998537722209074 0 -0.030740198741163367 -2.1791780315904966e-06 0 -0.03221456284983399 -0.00019075052202820059 0 -0.031292000129521311 -0.00023015521452200306 0 -0.03172960006884578 0.0001183844461153799 0 -0.031292000129521311 -0.00023015521452200306 0 -0.03172960006884578 0.0001183844461153799 0 -0.031199677458447612 0.00021998537722209074 0 -0.032304578798305852 0.00016156181915546395 0 -0.03172960006884578 0.0001183844461153799 0 -0.031697694164689386 0.00047835670486728535 0 -0.03172960006884578 0.0001183844461153799 0 -0.031697694164689386 0.00047835670486728535 0 -0.031199677458447612 0.00021998537722209074 0 -0.03107796056635044 0.00058190495742513316 0 -0.031199677458447612 0.00021998537722209074 0 -0.030725014156167102 0.00036669722856672027 0 -0.031199677458447612 0.00021998537722209074 0 -0.030725014156167102 0.00036669722856672027 0 -0.030740198741163367 -2.1791780315904966e-06 0 -0.03107796056635044 0.00058190495742513316 0 -0.031697694164689386 0.00047835670486728535 0 -0.031199677458447612 0.00021998537722209074 0 -0.030725014156167102 0.00036669722856672027 0 -0.030312133478848334 0.00021016897479152828 0 -0.030740198741163367 -2.1791780315904966e-06 0 -0.030320285105517562 0.00051309878025956955 0 -0.030725014156167102 0.00036669722856672027 0 -0.030312133478848334 0.00021016897479152828 0 -0.030320285105517562 0.00051309878025956955 0 -0.029944674605483813 0.00038828260488462047 0 -0.030312133478848334 0.00021016897479152828 0 -0.029944674605483813 0.00038828260488462047 0 -0.029949764917145669 0.0001345762608720191 0 -0.030312133478848334 0.00021016897479152828 0 -0.029949764917145669 0.0001345762608720191 0 -0.030312133478848334 0.00021016897479152828 0 -0.030307506369287921 -0.00010171192627881244 0 -0.030312133478848334 0.00021016897479152828 0 -0.030307506369287921 -0.00010171192627881244 0 -0.030740198741163367 -2.1791780315904966e-06 0 -0.030710776057928629 -0.00036968333833639139 0 -0.030307506369287921 -0.00010171192627881244 0 -0.030740198741163367 -2.1791780315904966e-06 0 -0.031427896406404573 -1.6107980814122018e-06 0 -0.030271973102449279 -9.5812448115297036e-05 0 -0.030399218477890993 1.1783063286667724e-06 0 -0.03143313455343634 -1.1929271216101426e-07 0 -0.031818330475982912 -0.00013384273636569559 0 -0.030271973102449279 -9.5812448115297036e-05 0 -0.030189877644135891 -0.00017502770576536593 0 -0.030399218477890993 1.1783063286667724e-06 0 -0.030271973102449279 -9.5812448115297036e-05 0 -0.030147236251221593 -0.00030028939847620578 0 -0.030189877644135891 -0.00017502770576536593 0 -0.033354548442435225 -0.00032555944416755127 0 -0.033958378505896017 7.1428044944271701e-05 0 -0.03368532038205594 3.0756102468283941e-05 0 -0.03143897549973123 -1.2930542267669275e-06 0 -0.033354548442435225 -0.00032555944416755127 0 -0.033958378505896017 7.1428044944271701e-05 0 -0.034996939666718324 7.6182630139692352e-07 0 -0.033958378505896017 7.1428044944271701e-05 0 -0.034999822870852688 -2.0710911662182688e-08 0 -0.03143897549973123 -1.2930542267669275e-06 0 -0.034996939666718324 7.6182630139692352e-07 0 -0.033958378505896017 7.1428044944271701e-05 0 -0.033958378505896017 7.1428044944271701e-05 0 -0.033503598745285988 -0.00020616710250562686 0 -0.03368532038205594 3.0756102468283941e-05 0 -0.034013399374527763 2.0342297349089218e-05 0 -0.034116093446760247 -9.5603445649161114e-05 0 -0.033958378505896017 7.1428044944271701e-05 0 -0.034711141637813664 -8.8740176660985205e-05 0 -0.034999822870852688 -2.0710911662182688e-08 0 -0.033503598745285988 -0.00020616710250562686 0 -0.033422890594371611 -0.00010721553491037729 0 -0.03368532038205594 3.0756102468283941e-05 0 -0.034116093446760247 -9.5603445649161114e-05 0 -0.034344978346495365 -4.9520389412381681e-05 0 -0.034711141637813664 -8.8740176660985205e-05 0 -0.034999822870852688 -2.0710911662182688e-08 0 -0.035000288137252089 -2.00061104501854e-05 0 -0.033503598745285988 -0.00020616710250562686 0 -0.033489321246965582 -0.00016981667547026364 0 -0.033672792863966031 5.1454659961385729e-06 0 -0.033503598745285988 -0.00020616710250562686 0 -0.033489321246965582 -0.00016981667547026364 0 -0.033422890594371611 -0.00010721553491037729 0 -0.033489321246965582 -0.00016981667547026364 0 -0.033422890594371611 -0.00010721553491037729 0 -0.033307758801156627 -9.6227581791901722e-05 0 -0.033234688016959918 3.4917196334697406e-05 0 -0.033634822262567705 0.00010100901060795525 0 -0.032422070528400383 0.00039888156546372079 0 -0.033307758801156627 -9.6227581791901722e-05 0 -0.033234688016959918 3.4917196334697406e-05 0 -0.033035772536628885 7.7201284715310486e-05 0 -0.033234688016959918 3.4917196334697406e-05 0 -0.032422070528400383 0.00039888156546372079 0 -0.033035772536628885 7.7201284715310486e-05 0 -0.033422890594371611 -0.00010721553491037729 0 -0.033307758801156627 -9.6227581791901722e-05 0 -0.033234688016959918 3.4917196334697406e-05 0 -0.033422890594371611 -0.00010721553491037729 0 -0.033234688016959918 3.4917196334697406e-05 0 -0.03368532038205594 3.0756102468283941e-05 0 -0.033354548442435225 -0.00032555944416755127 0 -0.03368532038205594 3.0756102468283941e-05 0 -0.033634822262567705 0.00010100901060795525 0 -0.033234688016959918 3.4917196334697406e-05 0 -0.03368532038205594 3.0756102468283941e-05 0 -0.033634822262567705 0.00010100901060795525 0 -0.030271973102449279 -9.5812448115297036e-05 0 -0.030479358183727004 0.00025429548383531185 0 -0.030147236251221593 -0.00030028939847620578 0 -0.031818330475982912 -0.00013384273636569559 0 -0.032055670743686114 0.00015424718581934216 0 -0.030479358183727004 0.00025429548383531185 0 -0.031365047735192636 -0.00032970323077679463 0 -0.030147236251221593 -0.00030028939847620578 0 -0.032055670743686114 0.00015424718581934216 0 -0.032372071291058152 0.00034866133961494256 0 -0.030479358183727004 0.00025429548383531185 0 -0.031365047735192636 -0.00032970323077679463 0 -0.032422070528400383 0.00039888156546372079 0 -0.033535108637083984 -8.5008354210179589e-05 0 -0.032428926473254828 -0.00054225321718988037 0 -0.034246966246671562 -0.00050010298385122878 0 -0.03418690109427213 -0.00054451138259575273 0 -0.034246186633017914 -0.00049419558884873952 0 -0.031365047735192636 -0.00032970323077679463 0 -0.032422070528400383 0.00039888156546372079 0 -0.032334053460397874 -0.00082701203564447914 0 -0.032422070528400383 0.00039888156546372079 0 -0.032645199629703685 0.00038330958503166967 0 -0.032334053460397874 -0.00082701203564447914 0 -0.034246966246671562 -0.00050010298385122878 0 -0.034236886703412982 -0.00051493371426541523 0 -0.03418690109427213 -0.00054451138259575273 0 -0.034246966246671562 -0.00050010298385122878 0 -0.034257129077393457 -0.00051255170251637372 0 -0.034247506186517722 -0.00035105266797057038 0 -0.034246966246671562 -0.00050010298385122878 0 -0.034257129077393457 -0.00051255170251637372 0 -0.034236886703412982 -0.00051493371426541523 0 -0.034257129077393457 -0.00051255170251637372 0 -0.034236886703412982 -0.00051493371426541523 0 -0.03434328028498615 -0.00047873135022383895 0 -0.034236886703412982 -0.00051493371426541523 0 -0.034230087741449415 -0.00046299279043582385 0 -0.03434328028498615 -0.00047873135022383895 0 -0.033535108637083984 -8.5008354210179589e-05 0 -0.033710308126371824 -0.00016351425877992787 0 -0.034230087741449415 -0.00046299279043582385 0 -0.03418690109427213 -0.00054451138259575273 0 -0.03381620392416599 -0.00029152171866785536 0 -0.032645199629703685 0.00038330958503166967 0 -0.033035772536628885 7.7201284715310486e-05 0 -0.03381620392416599 -0.00029152171866785536 0 -0.034236886703412982 -0.00051493371426541523 0 -0.034230087741449415 -0.00046299279043582385 0 -0.03418690109427213 -0.00054451138259575273 0 -0.032422070528400383 0.00039888156546372079 0 -0.032645199629703685 0.00038330958503166967 0 -0.033035772536628885 7.7201284715310486e-05 0 -0.034999822870852688 -2.0710911662182688e-08 0 -0.035000288137252089 -2.00061104501854e-05 0 -0.035000101363926679 -1.3483367468034535e-08 0 -0.033489321246965582 -0.00016981667547026364 0 -0.033307758801156627 -9.6227581791901722e-05 0 -0.03381620392416599 -0.00029152171866785536 0 -0.033307758801156627 -9.6227581791901722e-05 0 -0.033035772536628885 7.7201284715310486e-05 0 -0.03381620392416599 -0.00029152171866785536 0 -0.033489321246965582 -0.00016981667547026364 0 -0.03381620392416599 -0.00029152171866785536 0 -0.033672792863966031 5.1454659961385729e-06 0 -0.03381620392416599 -0.00029152171866785536 0 -0.033672792863966031 5.1454659961385729e-06 0 -0.034997642274012822 7.0503424588887272e-07 0 -0.034344978346495365 -4.9520389412381681e-05 0 -0.03499968108055164 4.5773014499902115e-09 0 -0.034997642274012822 7.0503424588887272e-07 0 -0.034450204034135214 -0.00029386074078826196 0 -0.034648921902540333 -0.00021724213411285578 0 -0.03381620392416599 -0.00029152171866785536 0 -0.034997642274012822 7.0503424588887272e-07 0 -0.034450204034135214 -0.00029386074078826196 0 -0.034230087741449415 -0.00046299279043582385 0 -0.03381620392416599 -0.00029152171866785536 0 -0.034450204034135214 -0.00029386074078826196 0 -0.034230087741449415 -0.00046299279043582385 0 -0.034450204034135214 -0.00029386074078826196 0 -0.03434328028498615 -0.00047873135022383895 0 -0.034450204034135214 -0.00029386074078826196 0 -0.034648921902540333 -0.00021724213411285578 0 -0.03434328028498615 -0.00047873135022383895 0 -0.034648921902540333 -0.00021724213411285578 0 -0.034390499321960255 -0.00036887801551718541 0 -0.03434328028498615 -0.00047873135022383895 0 -0.034997642274012822 7.0503424588887272e-07 0 -0.034648921902540333 -0.00021724213411285578 0 -0.034999824736049283 -4.4106159966725951e-07 0 -0.034648921902540333 -0.00021724213411285578 0 -0.0346951068325684 -0.0001724879507564732 0 -0.034999824736049283 -4.4106159966725951e-07 0 -0.034999241117116116 -8.297313317567514e-08 0 -0.0346951068325684 -0.0001724879507564732 0 -0.034999824736049283 -4.4106159966725951e-07 0 -0.034389337405520581 -0.0003018642668624642 0 -0.034390499321960255 -0.00036887801551718541 0 -0.034115706102282789 -0.00046939577574055903 0 -0.034648921902540333 -0.00021724213411285578 0 -0.0346951068325684 -0.0001724879507564732 0 -0.034390499321960255 -0.00036887801551718541 0 -0.034389337405520581 -0.0003018642668624642 0 -0.0346951068325684 -0.0001724879507564732 0 -0.034390499321960255 -0.00036887801551718541 0 -0.034115706102282789 -0.00046939577574055903 0 -0.03407827669182769 -0.0005503959115348738 0 -0.03375554088978034 -0.00060922818601844844 0 -0.034390499321960255 -0.00036887801551718541 0 -0.034115706102282789 -0.00046939577574055903 0 -0.03407827669182769 -0.0005503959115348738 0 -0.034390499321960255 -0.00036887801551718541 0 -0.03407827669182769 -0.0005503959115348738 0 -0.03434328028498615 -0.00047873135022383895 0 -0.03407827669182769 -0.0005503959115348738 0 -0.03434328028498615 -0.00047873135022383895 0 -0.034171332234101633 -0.00054962640974845576 0 -0.034257129077393457 -0.00051255170251637372 0 -0.03434328028498615 -0.00047873135022383895 0 -0.034171332234101633 -0.00054962640974845576 0 -0.034257129077393457 -0.00051255170251637372 0 -0.034171332234101633 -0.00054962640974845576 0 -0.034247506186517722 -0.00035105266797057038 0 -0.034171332234101633 -0.00054962640974845576 0 -0.033899741597115431 -0.0006095285320338559 0 -0.034247506186517722 -0.00035105266797057038 0 -0.03320121670532037 -0.00077312932656268749 0 -0.03375554088978034 -0.00060922818601844844 0 -0.033899741597115431 -0.0006095285320338559 0 -0.03320121670532037 -0.00077312932656268749 0 -0.033899741597115431 -0.0006095285320338559 0 -0.034247506186517722 -0.00035105266797057038 0 -0.033065131620879179 -0.0007669192401528668 0 -0.033929560180084813 -0.00062323719168102653 0 -0.03407827669182769 -0.0005503959115348738 0 -0.03375554088978034 -0.00060922818601844844 0 -0.033899741597115431 -0.0006095285320338559 0 -0.03407827669182769 -0.0005503959115348738 0 -0.034171332234101633 -0.00054962640974845576 0 -0.033899741597115431 -0.0006095285320338559 0 -0.03320121670532037 -0.00077312932656268749 0 -0.032787219096711347 -0.00089045156851631996 0 -0.032851632756857492 -0.00089611789452424297 0 -0.032489141333009952 -0.00090110692975293495 0 -0.032787219096711347 -0.00089045156851631996 0 -0.032492621313605731 -0.00047466309503638513 0 -0.033053888065989037 -0.0010218970492626806 0 -0.032489141333009952 -0.00090110692975293495 0 -0.032787219096711347 -0.00089045156851631996 0 -0.032851632756857492 -0.00089611789452424297 0 -0.032892687277357897 -0.00035375914386770295 0 -0.033321085837496899 -0.00045060828601221979 0 -0.032787219096711347 -0.00089045156851631996 0 -0.032851632756857492 -0.00089611789452424297 0 -0.032892687277357897 -0.00035375914386770295 0 -0.032787219096711347 -0.00089045156851631996 0 -0.032892687277357897 -0.00035375914386770295 0 -0.032492621313605731 -0.00047466309503638513 0 -0.032892687277357897 -0.00035375914386770295 0 -0.032492621313605731 -0.00047466309503638513 0 -0.032364293292846527 0.00016437515850715271 0 -0.032489141333009952 -0.00090110692975293495 0 -0.031857505340610423 -0.00026824674277100842 0 -0.032492621313605731 -0.00047466309503638513 0 -0.031857505340610423 -0.00026824674277100842 0 -0.032492621313605731 -0.00047466309503638513 0 -0.032364293292846527 0.00016437515850715271 0 -0.032364293292846527 0.00016437515850715271 0 -0.032069546088880144 0.0012834184237834412 0 -0.033093712240097724 0.0006287298650777557 0 -0.028128410795562442 0.0016398556861297966 0 -0.028389401770119893 0.0014538881148082709 0 -0.023704453746032569 0.0020133610577140709 0 -0.023554873985516492 0.0016965974342445633 0 -0.023844502327654324 0.0016491507285140278 0 -0.024224106361337878 0.0020175600794147862 0 -0.023704453746032569 0.0020133610577140709 0 -0.023844502327654324 0.0016491507285140278 0 -0.032892687277357897 -0.00035375914386770295 0 -0.033093712240097724 0.0006287298650777557 0 -0.033376156136373923 -2.9441743880332151e-05 0 -0.032892687277357897 -0.00035375914386770295 0 -0.032364293292846527 0.00016437515850715271 0 -0.033093712240097724 0.0006287298650777557 0 -0.033093712240097724 0.0006287298650777557 0 -0.033753933453793558 0.00032184533753071255 0 -0.033376156136373923 -2.9441743880332151e-05 0 -0.028389401770119893 0.0014538881148082709 0 -0.028438325183034175 0.00023582592187789409 0 -0.023704453746032569 0.0020133610577140709 0 -0.023431310339153293 0.0018704352269508586 0 -0.023554873985516492 0.0016965974342445633 0 -0.023704453746032569 0.0020133610577140709 0 -0.023431310339153293 0.0018704352269508586 0 -0.023318233291278061 0.0020603297562940184 0 -0.028438325183034175 0.00023582592187789409 0 -0.025594976498354058 0.0012261483780855497 0 -0.028596483950981265 0.00038446768213250623 0 -0.028658648160994511 0.00034408514850481277 0 -0.028532454166961721 0.00042027000980134695 0 -0.028658648160994511 0.00034408514850481277 0 -0.028653096505065305 0.00026417487127368227 0 -0.028532454166961721 0.00042027000980134695 0 -0.023431310339153293 0.0018704352269508586 0 -0.023318233291278061 0.0020603297562940184 0 -0.023196517235324798 0.0016398090928756613 0 -0.028693104835956829 0.00024526418175096549 0 -0.028781025574531223 -0.00021986217857555794 0 -0.028886984365455459 0.00020319612813484385 0 -0.028438325183034175 0.00023582592187789409 0 -0.031290050790935352 -0.00027139081173108853 0 -0.028438325183034175 0.00023582592187789409 0 -0.028825579426478051 0.00018333867197539006 0 -0.028658648160994511 0.00034408514850481277 0 -0.028653096505065305 0.00026417487127368227 0 -0.028886984365455459 0.00020319612813484385 0 -0.033753933453793558 0.00032184533753071255 0 -0.033777132845460474 -0.00021815629430042851 0 -0.033376156136373923 -2.9441743880332151e-05 0 -0.031290050790935352 -0.00027139081173108853 0 -0.032428926473254828 -0.00054225321718988037 0 -0.028781025574531223 -0.00021986217857555794 0 -0.028851966595935395 -0.00099440119253899973 0 -0.029348063672941384 -0.00012802174106350719 0 -0.028781025574531223 -0.00021986217857555794 0 -0.029348063672941384 -0.00012802174106350719 0 -0.028886984365455459 0.00020319612813484385 0 -0.033777132845460474 -0.00021815629430042851 0 -0.033321085837496899 -0.00045060828601221979 0 -0.033774277443767611 -0.0007673543560103985 0 -0.032892687277357897 -0.00035375914386770295 0 -0.033376156136373923 -2.9441743880332151e-05 0 -0.033321085837496899 -0.00045060828601221979 0 -0.033777132845460474 -0.00021815629430042851 0 -0.033376156136373923 -2.9441743880332151e-05 0 -0.033321085837496899 -0.00045060828601221979 0 -0.032851632756857492 -0.00089611789452424297 0 -0.033321085837496899 -0.00045060828601221979 0 -0.033774277443767611 -0.0007673543560103985 0 -0.034246966246671562 -0.00050010298385122878 0 -0.034247506186517722 -0.00035105266797057038 0 -0.034246186633017914 -0.00049419558884873952 0 -0.033929560180084813 -0.00062323719168102653 0 -0.032428926473254828 -0.00054225321718988037 0 -0.032428926473254828 -0.00054225321718988037 0 -0.029559431537619099 -0.00090755305426402802 0 -0.031365047735192636 -0.00032970323077679463 0 -0.032334053460397874 -0.00082701203564447914 0 -0.030218942512143871 -0.00071743847376542797 0 -0.028851966595935395 -0.00099440119253899973 0 -0.030218942512143871 -0.00071743847376542797 0 -0.029348063672941384 -0.00012802174106350719 0 -0.031365047735192636 -0.00032970323077679463 0 -0.030218942512143871 -0.00071743847376542797 0 -0.030147236251221593 -0.00030028939847620578 0 -0.030218942512143871 -0.00071743847376542797 0 -0.030147236251221593 -0.00030028939847620578 0 -0.029970437696641209 -0.00029584822691290771 0 -0.030218942512143871 -0.00071743847376542797 0 -0.029584932722666445 -0.000101246715528312 0 -0.029970437696641209 -0.00029584822691290771 0 -0.030218942512143871 -0.00071743847376542797 0 -0.029584932722666445 -0.000101246715528312 0 -0.029348063672941384 -0.00012802174106350719 0 -0.029348063672941384 -0.00012802174106350719 0 -0.02914775850180026 0.0001368599400841544 0 -0.028886984365455459 0.00020319612813484385 0 -0.029584932722666445 -0.000101246715528312 0 -0.029348063672941384 -0.00012802174106350719 0 -0.02914775850180026 0.0001368599400841544 0 -0.02914775850180026 0.0001368599400841544 0 -0.028886984365455459 0.00020319612813484385 0 -0.028637147538190424 0.00037281695560897454 0 -0.028658648160994511 0.00034408514850481277 0 -0.028886984365455459 0.00020319612813484385 0 -0.028637147538190424 0.00037281695560897454 0 -0.028596483950981265 0.00038446768213250623 0 -0.028658648160994511 0.00034408514850481277 0 -0.028637147538190424 0.00037281695560897454 0 -0.028637147538190424 0.00037281695560897454 0 -0.029432274043613826 0.00023918239316771963 0 -0.027839311084430125 0.00035702775845251303 0 -0.028298070970461175 0.00029913221118118562 0 -0.027954411936023951 0.00030585118033994474 0 -0.02914775850180026 0.0001368599400841544 0 -0.028637147538190424 0.00037281695560897454 0 -0.029432274043613826 0.00023918239316771963 0 -0.029584932722666445 -0.000101246715528312 0 -0.02914775850180026 0.0001368599400841544 0 -0.029432274043613826 0.00023918239316771963 0 -0.029584932722666445 -0.000101246715528312 0 -0.029432274043613826 0.00023918239316771963 0 -0.029970437696641209 -0.00029584822691290771 0 -0.0271083776809194 0.00049550607820637621 0 -0.027463246923290045 0.00021481014234695704 0 -0.027972251989340759 -8.6723875005247379e-05 0 -0.028298070970461175 0.00029913221118118562 0 -0.02907757108296961 -1.3483872555417662e-05 0 -0.0271083776809194 0.00049550607820637621 0 -0.026599911340059131 9.0638875319889221e-07 0 -0.026183689349850825 0.00020930035732738 0 -0.0271083776809194 0.00049550607820637621 0 -0.026599911340059131 9.0638875319889221e-07 0 -0.027463246923290045 0.00021481014234695704 0 -0.026599911340059131 9.0638875319889221e-07 0 -0.027463246923290045 0.00021481014234695704 0 -0.028496874662134346 3.1930726179399644e-07 0 -0.027463246923290045 0.00021481014234695704 0 -0.028496874662134346 3.1930726179399644e-07 0 -0.027972251989340759 -8.6723875005247379e-05 0 -0.028496874662134346 3.1930726179399644e-07 0 -0.027972251989340759 -8.6723875005247379e-05 0 -0.03039339018024861 -8.6683268921996535e-07 0 -0.030148903506348915 -0.00015790243750871984 0 -0.029970437696641209 -0.00029584822691290771 0 -0.030189877644135891 -0.00017502770576536593 0 -0.029432274043613826 0.00023918239316771963 0 -0.030148903506348915 -0.00015790243750871984 0 -0.029970437696641209 -0.00029584822691290771 0 -0.030147236251221593 -0.00030028939847620578 0 -0.029970437696641209 -0.00029584822691290771 0 -0.030189877644135891 -0.00017502770576536593 0 -0.02907757108296961 -1.3483872555417662e-05 0 -0.030394222444651627 1.0562837166142892e-07 0 -0.030148903506348915 -0.00015790243750871984 0 -0.030189877644135891 -0.00017502770576536593 0 -0.030399218477890993 1.1783063286667724e-06 0 -0.022788871757864315 2.9597449979170693e-06 0 -0.022748811628200166 7.2718241557992796e-05 0 -0.021639417274405104 -3.0824293042098049e-06 0 -0.022748811628200166 7.2718241557992796e-05 0 -0.023819964151565769 0.00029261443638436307 0 -0.021639417274405104 -3.0824293042098049e-06 0 -0.022788871757864315 2.9597449979170693e-06 0 -0.022748811628200166 7.2718241557992796e-05 0 -0.023819964151565769 0.00029261443638436307 0 -0.024515988565515068 -0.00032625691932845969 0 -0.025425040650863477 -0.00027352847214455423 0 -0.026351456044184589 -0.00051700530822049748 0 -0.026845576884749103 -0.00048941170119324543 0 -0.026880738594872295 -0.00071707733410926683 0 -0.026845576884749103 -0.00048941170119324543 0 -0.026880738594872295 -0.00071707733410926683 0 -0.027231397453345785 -0.00050076813366411424 0 -0.026845576884749103 -0.00048941170119324543 0 -0.026909032360095793 -0.00022661167621774067 0 -0.027231397453345785 -0.00050076813366411424 0 -0.026351456044184589 -0.00051700530822049748 0 -0.026845576884749103 -0.00048941170119324543 0 -0.026909032360095793 -0.00022661167621774067 0 -0.024515988565515068 -0.00032625691932845969 0 -0.026584879469892277 -0.00032788806722490146 0 -0.022796323349245144 -2.2540411956475211e-06 0 -0.026149898972666608 -0.00064958062989946416 0 -0.024442550774413999 -0.00015817546151404574 0 -0.022796323349245144 -2.2540411956475211e-06 0 -0.024442550774413999 -0.00015817546151404574 0 -0.0247027138269129 4.3879242958322453e-07 0 -0.024442550774413999 -0.00015817546151404574 0 -0.0247027138269129 4.3879242958322453e-07 0 -0.026183689349850825 0.00020930035732738 0 -0.026599911340059131 9.0638875319889221e-07 0 -0.0247027138269129 4.3879242958322453e-07 0 -0.026183689349850825 0.00020930035732738 0 -0.0271083776809194 0.00049550607820637621 0 -0.026183689349850825 0.00020930035732738 0 -0.027839311084430125 0.00035702775845251303 0 -0.026149898972666608 -0.00064958062989946416 0 -0.024442550774413999 -0.00015817546151404574 0 -0.026183689349850825 0.00020930035732738 0 -0.026149898972666608 -0.00064958062989946416 0 -0.026183689349850825 0.00020930035732738 0 -0.027010800134243243 -3.7178425048189234e-05 0 -0.026584879469892277 -0.00032788806722490146 0 -0.027678231691895074 -6.660503736122718e-05 0 -0.026909032360095793 -0.00022661167621774067 0 -0.02777877430734273 -3.909179325160358e-05 0 -0.027415862469435528 -0.00027177214855003218 0 -0.026149898972666608 -0.00064958062989946416 0 -0.027010800134243243 -3.7178425048189234e-05 0 -0.02777877430734273 -3.909179325160358e-05 0 -0.026183689349850825 0.00020930035732738 0 -0.027010800134243243 -3.7178425048189234e-05 0 -0.027839311084430125 0.00035702775845251303 0 -0.027010800134243243 -3.7178425048189234e-05 0 -0.027839311084430125 0.00035702775845251303 0 -0.02777877430734273 -3.909179325160358e-05 0 -0.028637147538190424 0.00037281695560897454 0 -0.027839311084430125 0.00035702775845251303 0 -0.028044065435644781 0.00015223590851169409 0 -0.028552938521910542 0.00039673512706494857 0 -0.028296726812251542 0.00029393189092799147 0 -0.028596483950981265 0.00038446768213250623 0 -0.028637147538190424 0.00037281695560897454 0 -0.02850836589615843 0.00041049005566377124 0 -0.027839311084430125 0.00035702775845251303 0 -0.028044065435644781 0.00015223590851169409 0 -0.02777877430734273 -3.909179325160358e-05 0 -0.02850836589615843 0.00041049005566377124 0 -0.02837780138930086 0.00037611397725201783 0 -0.028420923766540505 0.00039053258988795838 0 -0.028296726812251542 0.00029393189092799147 0 -0.028007722478483824 5.9540379025635309e-05 0 -0.028044065435644781 0.00015223590851169409 0 -0.02777877430734273 -3.909179325160358e-05 0 -0.027675238433788024 -0.00030344776640580295 0 -0.02777877430734273 -3.909179325160358e-05 0 -0.027675238433788024 -0.00030344776640580295 0 -0.027415862469435528 -0.00027177214855003218 0 -0.026909032360095793 -0.00022661167621774067 0 -0.027415862469435528 -0.00027177214855003218 0 -0.027231397453345785 -0.00050076813366411424 0 -0.027675238433788024 -0.00030344776640580295 0 -0.027415862469435528 -0.00027177214855003218 0 -0.027231397453345785 -0.00050076813366411424 0 -0.026880738594872295 -0.00071707733410926683 0 -0.027231397453345785 -0.00050076813366411424 0 -0.027182566531173628 -0.00068360649181049263 0 -0.028007722478483824 5.9540379025635309e-05 0 -0.028213291999142322 -0.00018851083681293893 0 -0.027182566531173628 -0.00068360649181049263 0 -0.027479487747506078 -0.00057952921030943183 0 -0.027071610925146716 -0.00099142811822600509 0 -0.027675238433788024 -0.00030344776640580295 0 -0.027231397453345785 -0.00050076813366411424 0 -0.027479487747506078 -0.00057952921030943183 0 -0.02837780138930086 0.00037611397725201783 0 -0.028274310298144284 0.00030095096085402202 0 -0.028343627209710572 0.00034225776636345794 0 -0.027231397453345785 -0.00050076813366411424 0 -0.027182566531173628 -0.00068360649181049263 0 -0.027479487747506078 -0.00057952921030943183 0 -0.028274310298144284 0.00030095096085402202 0 -0.028322804274042448 0.00030987236519233426 0 -0.028343627209710572 0.00034225776636345794 0 -0.028274310298144284 0.00030095096085402202 0 -0.028322804274042448 0.00030987236519233426 0 -0.028261378177264571 0.0002633243989610588 0 -0.02330927105318803 0.00061839071848536812 0 -0.023429770411699344 0.00042286289730297967 0 -0.023257695887094865 0.0004573792485078927 0 -0.023073870336619649 0.00059011661047973774 0 -0.02330927105318803 0.00061839071848536812 0 -0.023249065704679352 0.00083778682380247207 0 -0.023073870336619649 0.00059011661047973774 0 -0.02330927105318803 0.00061839071848536812 0 -0.023257695887094865 0.0004573792485078927 0 -0.02330927105318803 0.00061839071848536812 0 -0.023249065704679352 0.00083778682380247207 0 -0.023466944612760707 0.00082057772016004072 0 -0.023249065704679352 0.00083778682380247207 0 -0.023378765340994125 0.0010728584528760417 0 -0.023089897328280325 0.0010934486373851936 0 -0.023249065704679352 0.00083778682380247207 0 -0.023378765340994125 0.0010728584528760417 0 -0.023466944612760707 0.00082057772016004072 0 -0.028322804274042448 0.00030987236519233426 0 -0.028420923766540505 0.00039053258988795838 0 -0.028343627209710572 0.00034225776636345794 0 -0.023073870336619649 0.00059011661047973774 0 -0.023249065704679352 0.00083778682380247207 0 -0.023089897328280325 0.0010934486373851936 0 -0.02602996826322659 0.00039399074896481263 0 -0.025753435545941273 0.00071548705648863311 0 -0.02837780138930086 0.00037611397725201783 0 -0.028420923766540505 0.00039053258988795838 0 -0.028343627209710572 0.00034225776636345794 0 -0.023089897328280325 0.0010934486373851936 0 -0.023196517235324798 0.0016398090928756613 0 -0.023461314175530244 0.0013860354817649375 0 -0.025753435545941273 0.00071548705648863311 0 -0.025594976498354058 0.0012261483780855497 0 -0.02850836589615843 0.00041049005566377124 0 -0.028420923766540505 0.00039053258988795838 0 -0.028532454166961721 0.00042027000980134695 0 -0.028596483950981265 0.00038446768213250623 0 -0.02850836589615843 0.00041049005566377124 0 -0.028532454166961721 0.00042027000980134695 0 -0.023431310339153293 0.0018704352269508586 0 -0.023196517235324798 0.0016398090928756613 0 -0.023554873985516492 0.0016965974342445633 0 -0.023196517235324798 0.0016398090928756613 0 -0.023554873985516492 0.0016965974342445633 0 -0.023461314175530244 0.0013860354817649375 0 -0.023378765340994125 0.0010728584528760417 0 -0.023461314175530244 0.0013860354817649375 0 -0.02378397994570312 0.0011757657028352198 0 -0.023378765340994125 0.0010728584528760417 0 -0.023089897328280325 0.0010934486373851936 0 -0.023461314175530244 0.0013860354817649375 0 -0.023461314175530244 0.0013860354817649375 0 -0.02378397994570312 0.0011757657028352198 0 -0.023844502327654324 0.0016491507285140278 0 -0.023554873985516492 0.0016965974342445633 0 -0.023461314175530244 0.0013860354817649375 0 -0.023844502327654324 0.0016491507285140278 0 -0.024224106361337878 0.0020175600794147862 0 -0.023844502327654324 0.0016491507285140278 0 -0.024375908688084764 0.001413335643700063 0 -0.02378397994570312 0.0011757657028352198 0 -0.024167972938171141 0.0010144357126896984 0 -0.024375908688084764 0.001413335643700063 0 -0.02378397994570312 0.0011757657028352198 0 -0.023844502327654324 0.0016491507285140278 0 -0.024375908688084764 0.001413335643700063 0 -0.02378397994570312 0.0011757657028352198 0 -0.024167972938171141 0.0010144357126896984 0 -0.023807526138240012 0.0007495319982328628 0 -0.023378765340994125 0.0010728584528760417 0 -0.02378397994570312 0.0011757657028352198 0 -0.023466944612760707 0.00082057772016004072 0 -0.02378397994570312 0.0011757657028352198 0 -0.023466944612760707 0.00082057772016004072 0 -0.023807526138240012 0.0007495319982328628 0 -0.023466944612760707 0.00082057772016004072 0 -0.023807526138240012 0.0007495319982328628 0 -0.023429770411699344 0.00042286289730297967 0 -0.02330927105318803 0.00061839071848536812 0 -0.023466944612760707 0.00082057772016004072 0 -0.023429770411699344 0.00042286289730297967 0 -0.023807526138240012 0.0007495319982328628 0 -0.02387638908340373 0.00032370354762848369 0 -0.023429770411699344 0.00042286289730297967 0 -0.024167972938171141 0.0010144357126896984 0 -0.023807526138240012 0.0007495319982328628 0 -0.024283351827684586 0.00056705922633776631 0 -0.023807526138240012 0.0007495319982328628 0 -0.02387638908340373 0.00032370354762848369 0 -0.024283351827684586 0.00056705922633776631 0 -0.02387638908340373 0.00032370354762848369 0 -0.023730142569346337 -0.00018601696308111668 0 -0.024358771841707708 6.8780024628785992e-05 0 -0.02387638908340373 0.00032370354762848369 0 -0.023429770411699344 0.00042286289730297967 0 -0.023730142569346337 -0.00018601696308111668 0 -0.023977694537759314 0.00026811070296810902 0 -0.020657877976837078 0.00088735799894070595 0 -0.023429770411699344 0.00042286289730297967 0 -0.022876587930402186 -0.00045789075079823068 0 -0.023730142569346337 -0.00018601696308111668 0 -0.023429770411699344 0.00042286289730297967 0 -0.022876587930402186 -0.00045789075079823068 0 -0.022161545826042659 -0.00040725993844928609 0 -0.016180146144559399 0.002267178552357715 0 -0.018301232001373142 0.0022218115310726197 0 -0.011815806895645481 0.0043994924297432779 0 -0.011960818963118005 0.004039294006870673 0 -0.012478952339964581 0.004584585306741708 0 -0.011815806895645481 0.0043994924297432779 0 -0.011691004753611609 0.0044049168630803954 0 -0.012478952339964581 0.004584585306741708 0 -0.014512533771052848 0.0025670645749517147 0 -0.016180146144559399 0.002267178552357715 0 -0.011615451920876006 0.0040997548075161891 0 -0.011547812215565546 0.0037611267649429038 0 -0.011154313564975109 0.0039680625939836171 0 -0.011573094439664474 0.0044121849020124972 0 -0.011615451920876006 0.0040997548075161891 0 -0.011154313564975109 0.0039680625939836171 0 -0.011815806895645481 0.0043994924297432779 0 -0.011573094439664474 0.0044121849020124972 0 -0.011615451920876006 0.0040997548075161891 0 -0.011615451920876006 0.0040997548075161891 0 -0.011960818963118005 0.004039294006870673 0 -0.011547812215565546 0.0037611267649429038 0 -0.011815806895645481 0.0043994924297432779 0 -0.011615451920876006 0.0040997548075161891 0 -0.011960818963118005 0.004039294006870673 0 -0.011960818963118005 0.004039294006870673 0 -0.012478952339964581 0.004584585306741708 0 -0.012259765386530968 0.0037301800302617909 0 -0.012478952339964581 0.004584585306741708 0 -0.012259765386530968 0.0037301800302617909 0 -0.012986805765587202 0.0041001847855574652 0 -0.011960818963118005 0.004039294006870673 0 -0.012259765386530968 0.0037301800302617909 0 -0.011773672985734509 0.0034739698404011301 0 -0.012259765386530968 0.0037301800302617909 0 -0.011935849810759796 0.0030411120295854668 0 -0.011773672985734509 0.0034739698404011301 0 -0.012259765386530968 0.0037301800302617909 0 -0.011935849810759796 0.0030411120295854668 0 -0.012495807381675036 0.0031914781353911121 0 -0.011935849810759796 0.0030411120295854668 0 -0.012495807381675036 0.0031914781353911121 0 -0.012019858067983905 0.0023481659754826683 0 -0.011935849810759796 0.0030411120295854668 0 -0.011553287446962148 0.0024881255781355129 0 -0.012019858067983905 0.0023481659754826683 0 -0.011553287446962148 0.0024881255781355129 0 -0.010970964977479295 0.0027806955086150612 0 -0.011165901669672502 0.0019766393237286971 0 -0.011553287446962148 0.0024881255781355129 0 -0.011485055859606687 0.0030402853487995168 0 -0.010970964977479295 0.0027806955086150612 0 -0.011935849810759796 0.0030411120295854668 0 -0.011553287446962148 0.0024881255781355129 0 -0.011485055859606687 0.0030402853487995168 0 -0.011935849810759796 0.0030411120295854668 0 -0.011485055859606687 0.0030402853487995168 0 -0.011773672985734509 0.0034739698404011301 0 -0.011485055859606687 0.0030402853487995168 0 -0.011303862576541961 0.0034039554346191377 0 -0.010970964977479295 0.0027806955086150612 0 -0.011303862576541961 0.0034039554346191377 0 -0.011773672985734509 0.0034739698404011301 0 -0.011547812215565546 0.0037611267649429038 0 -0.011485055859606687 0.0030402853487995168 0 -0.011303862576541961 0.0034039554346191377 0 -0.011773672985734509 0.0034739698404011301 0 -0.011960818963118005 0.004039294006870673 0 -0.011773672985734509 0.0034739698404011301 0 -0.011547812215565546 0.0037611267649429038 0 -0.011303862576541961 0.0034039554346191377 0 -0.011547812215565546 0.0037611267649429038 0 -0.011154313564975109 0.0039680625939836171 0 -0.011303862576541961 0.0034039554346191377 0 -0.010857451932272884 0.003445574015087547 0 -0.011154313564975109 0.0039680625939836171 0 -0.010626699046271715 0.0037510713571021694 0 -0.010857451932272884 0.003445574015087547 0 -0.011154313564975109 0.0039680625939836171 0 -0.010545482861496095 0.0031702370122583794 0 -0.010857451932272884 0.003445574015087547 0 -0.010970964977479295 0.0027806955086150612 0 -0.010626699046271715 0.0037510713571021694 0 -0.010545482861496095 0.0031702370122583794 0 -0.010857451932272884 0.003445574015087547 0 -0.011303862576541961 0.0034039554346191377 0 -0.010857451932272884 0.003445574015087547 0 -0.010970964977479295 0.0027806955086150612 0 -0.010970964977479295 0.0027806955086150612 0 -0.010188527978979723 0.0026841909641267341 0 -0.010704710966140937 0.0020962044800894235 0 -0.010545482861496095 0.0031702370122583794 0 -0.010970964977479295 0.0027806955086150612 0 -0.010188527978979723 0.0026841909641267341 0 -0.01111598227529605 0.00031802546676030748 0 -0.011093061156904387 0.00034650219929372421 0 -0.011056740678458387 0.00028197169438041531 0 -0.01111598227529605 0.00031802546676030748 0 -0.011093061156904387 0.00034650219929372421 0 -0.011129502868761352 0.00040124832228277576 0 -0.010414449805013371 0.0016137671130967092 0 -0.014333149775041947 0.0015733271413417294 0 -0.011129502868761352 0.00040124832228277576 0 -0.01111369504932813 0.00041553626574036378 0 -0.011186469214364793 0.00046842755731265164 0 -0.01111598227529605 0.00031802546676030748 0 -0.011129502868761352 0.00040124832228277576 0 -0.011186469214364793 0.00046842755731265164 0 -0.010545482861496095 0.0031702370122583794 0 -0.010188527978979723 0.0026841909641267341 0 -0.010193117517362156 0.0037307964468777269 0 -0.011093061156904387 0.00034650219929372421 0 -0.011129502868761352 0.00040124832228277576 0 -0.011108445516099701 0.00040989221209352007 0 -0.013861359559115232 0.00089078756210959984 0 -0.015062001290893983 0.00045010154774030201 0 -0.010626699046271715 0.0037510713571021694 0 -0.010545482861496095 0.0031702370122583794 0 -0.010193117517362156 0.0037307964468777269 0 -0.019463651306105206 0.00068417798711039549 0 -0.019070719675703778 0.00031651516635598803 0 -0.019456151484831943 0.00029848500947328004 0 -0.015062001290893983 0.00045010154774030201 0 -0.014333149775041947 0.0015733271413417294 0 -0.019070719675703778 0.00031651516635598803 0 -0.019456151484831943 0.00029848500947328004 0 -0.019073274099358252 -8.2508554351958248e-05 0 -0.018726757860203461 0.00041820386737886369 0 -0.019772394439381721 0.00017207615046982815 0 -0.019456151484831943 0.00029848500947328004 0 -0.019073274099358252 -8.2508554351958248e-05 0 -0.019817045783959274 9.2871085383289766e-05 0 -0.019560502943540628 -0.00017159576979636985 0 -0.019272639128351483 -4.841885529466726e-05 0 -0.019817045783959274 9.2871085383289766e-05 0 -0.019560502943540628 -0.00017159576979636985 0 -0.019273555424712149 -0.00033886149487269554 0 -0.019272639128351483 -4.841885529466726e-05 0 -0.019560502943540628 -0.00017159576979636985 0 -0.019273555424712149 -0.00033886149487269554 0 -0.019891199840416634 -0.00039911238795248499 0 -0.022681977360753933 0.0005781457425402648 0 -0.024197047197975434 -0.00074976337395004061 0 -0.028242888662887856 0.00022205443643219202 0 -0.028261378177264571 0.0002633243989610588 0 -0.028204942595083073 0.00022075102555201099 0 -0.022681977360753933 0.0005781457425402648 0 -0.020657877976837078 0.00088735799894070595 0 -0.023087952584000905 0.00027429982776060088 0 -0.023242313011273344 0.00028412219485964897 0 -0.023170556448869145 0.00039595875057694377 0 -0.015841482316345981 0.0013177379741637731 0 -0.015845218618613294 0.0015549441150535508 0 -0.016154609582275509 0.0016214769086154563 0 -0.018726757860203461 0.00041820386737886369 0 -0.015947252451698552 0.0013996523522841879 0 -0.020015965532016455 0.00060354868518493481 0 -0.02000850492015414 0.00097839889858893428 0 -0.019495336463776037 0.00087605498114015439 0 -0.014333149775041947 0.0015733271413417294 0 -0.015947252451698552 0.0013996523522841879 0 -0.010626699046271715 0.0037510713571021694 0 -0.010193117517362156 0.0037307964468777269 0 -0.0106577150955909 0.0041965644160983891 0 -0.022681977360753933 0.0005781457425402648 0 -0.018726757860203461 0.00041820386737886369 0 -0.014333149775041947 0.0015733271413417294 0 -0.018726757860203461 0.00041820386737886369 0 -0.011573094439664474 0.0044121849020124972 0 -0.0106577150955909 0.0041965644160983891 0 -0.011154313564975109 0.0039680625939836171 0 -0.010626699046271715 0.0037510713571021694 0 -0.0106577150955909 0.0041965644160983891 0 -0.011154313564975109 0.0039680625939836171 0 -0.016180146144559399 0.002267178552357715 0 -0.015947252451698552 0.0013996523522841879 0 -0.016886773937120583 0.0018018623021023544 0 -0.017825457948256327 0.0019712445463401632 0 -0.017592154424339132 0.0017497589266272028 0 -0.016180146144559399 0.002267178552357715 0 -0.020657877976837078 0.00088735799894070595 0 -0.020015965532016455 0.00060354868518493481 0 -0.019495336463776037 0.00087605498114015439 0 -0.019258739564955621 0.00064581477929480705 0 -0.015947252451698552 0.0013996523522841879 0 -0.020657877976837078 0.00088735799894070595 0 -0.023242313011273344 0.00028412219485964897 0 -0.023257695887094865 0.0004573792485078927 0 -0.023170556448869145 0.00039595875057694377 0 -0.023429770411699344 0.00042286289730297967 0 -0.023242313011273344 0.00028412219485964897 0 -0.023257695887094865 0.0004573792485078927 0 -0.02602996826322659 0.00039399074896481263 0 -0.022681977360753933 0.0005781457425402648 0 -0.023073870336619649 0.00059011661047973774 0 -0.023087952584000905 0.00027429982776060088 0 -0.023170556448869145 0.00039595875057694377 0 -0.028322804274042448 0.00030987236519233426 0 -0.028242888662887856 0.00022205443643219202 0 -0.028261378177264571 0.0002633243989610588 0 -0.023073870336619649 0.00059011661047973774 0 -0.023257695887094865 0.0004573792485078927 0 -0.023170556448869145 0.00039595875057694377 0 -0.027479487747506078 -0.00057952921030943183 0 -0.027071610925146716 -0.00099142811822600509 0 -0.027668618443868486 -0.0018830477709723052 0 -0.028274310298144284 0.00030095096085402202 0 -0.028261378177264571 0.0002633243989610588 0 -0.028204942595083073 0.00022075102555201099 0 -0.027071610925146716 -0.00099142811822600509 0 -0.026068198818250243 -0.0021592323644945106 0 -0.027668618443868486 -0.0018830477709723052 0 -0.028213291999142322 -0.00018851083681293893 0 -0.024197047197975434 -0.00074976337395004061 0 -0.026880738594872295 -0.00071707733410926683 0 -0.027182566531173628 -0.00068360649181049263 0 -0.027071610925146716 -0.00099142811822600509 0 -0.025425040650863477 -0.00027352847214455423 0 -0.026967016732569158 -0.000932482064134133 0 -0.023819964151565769 0.00029261443638436307 0 -0.027071610925146716 -0.00099142811822600509 0 -0.026068198818250243 -0.0021592323644945106 0 -0.021416864492825861 -0.00076375523056664853 0 -0.021408140458530504 -0.00056781273990394877 0 -0.021752692770649465 -0.0007866214395189767 0 -0.024023622267337293 -0.0014144078972613565 0 -0.02110164676875324 -0.00079248495830034737 0 -0.019455690811242807 -0.00041581778602675792 0 -0.02110164676875324 -0.00079248495830034737 0 -0.021416864492825861 -0.00076375523056664853 0 -0.021408140458530504 -0.00056781273990394877 0 -0.021063181938508386 -0.00074725535236947914 0 -0.019891199840416634 -0.00039911238795248499 0 -0.019817045783959274 9.2871085383289766e-05 0 -0.019823936766028605 0.00045566509438010075 0 -0.024197047197975434 -0.00074976337395004061 0 -0.018227123058366605 -0.00012271227642131859 0 -0.021408140458530504 -0.00056781273990394877 0 -0.021063181938508386 -0.00074725535236947914 0 -0.021034041573873102 -0.00034415992496039243 0 -0.024023622267337293 -0.0014144078972613565 0 -0.024197047197975434 -0.00074976337395004061 0 -0.019560502943540628 -0.00017159576979636985 0 -0.019891199840416634 -0.00039911238795248499 0 -0.019817045783959274 9.2871085383289766e-05 0 -0.019456151484831943 0.00029848500947328004 0 -0.019817045783959274 9.2871085383289766e-05 0 -0.019823936766028605 0.00045566509438010075 0 -0.019455690811242807 -0.00041581778602675792 0 -0.018227123058366605 -0.00012271227642131859 0 -0.019463651306105206 0.00068417798711039549 0 -0.019456151484831943 0.00029848500947328004 0 -0.019823936766028605 0.00045566509438010075 0 -0.017337713977256697 -2.4653868023899438e-05 0 -0.017394404166846997 7.2405338619761621e-05 0 -0.017497342757521604 8.4876819818137495e-05 0 -0.018227123058366605 -0.00012271227642131859 0 -0.014072149737002205 -0.0010908763634309183 0 -0.016103810268454262 -4.6750370035078924e-05 0 -0.015764717295128246 0.00015816987800154947 0 -0.015761545701953879 -0.00037996648438789012 0 -0.011093061156904387 0.00034650219929372421 0 -0.011108445516099701 0.00040989221209352007 0 -0.011058828523387233 0.00034860085504146229 0 -0.015062001290893983 0.00045010154774030201 0 -0.018227123058366605 -0.00012271227642131859 0 -0.015062001290893983 0.00045010154774030201 0 -0.014072149737002205 -0.0010908763634309183 0 -0.014072149737002205 -0.0010908763634309183 0 -0.010840522593535216 -0.00086993860635089441 0 -0.011093061156904387 0.00034650219929372421 0 -0.011058828523387233 0.00034860085504146229 0 -0.011056740678458387 0.00028197169438041531 0 -0.014072149737002205 -0.0010908763634309183 0 -0.015203997784621771 -0.0014212286223183167 0 -0.017394404166846997 7.2405338619761621e-05 0 -0.017497342757521604 8.4876819818137495e-05 0 -0.017345679516151576 -4.8605899893040352e-08 0 -0.017497342757521604 8.4876819818137495e-05 0 -0.017252483412925561 0.00014268497827147063 0 -0.017345679516151576 -4.8605899893040352e-08 0 -0.017519468197024685 -0.00026749786993984027 0 -0.017497342757521604 8.4876819818137495e-05 0 -0.017975737666280134 6.4110903340034144e-05 0 -0.017519468197024685 -0.00026749786993984027 0 -0.017337713977256697 -2.4653868023899438e-05 0 -0.017497342757521604 8.4876819818137495e-05 0 -0.017497342757521604 8.4876819818137495e-05 0 -0.017975737666280134 6.4110903340034144e-05 0 -0.017252483412925561 0.00014268497827147063 0 -0.017252483412925561 0.00014268497827147063 0 -0.018894541376723504 1.0527074314318494e-06 0 -0.017075287844828889 -4.1396702256667668e-07 0 -0.017975737666280134 6.4110903340034144e-05 0 -0.017252483412925561 0.00014268497827147063 0 -0.018894541376723504 1.0527074314318494e-06 0 -0.017975737666280134 6.4110903340034144e-05 0 -0.018894541376723504 1.0527074314318494e-06 0 -0.019049443972846383 -4.2000375308748344e-05 0 -0.020709987072133226 8.3510028715291577e-08 0 -0.02110164676875324 -0.00079248495830034737 0 -0.019049443972846383 -4.2000375308748344e-05 0 -0.020709567511870513 -2.4415122005427025e-06 0 -0.018145247775738216 -0.00073824003436019311 0 -0.018894541376723504 1.0527074314318494e-06 0 -0.019049443972846383 -4.2000375308748344e-05 0 -0.020709567511870513 -2.4415122005427025e-06 0 -0.017975737666280134 6.4110903340034144e-05 0 -0.019049443972846383 -4.2000375308748344e-05 0 -0.018145247775738216 -0.00073824003436019311 0 -0.017519468197024685 -0.00026749786993984027 0 -0.017975737666280134 6.4110903340034144e-05 0 -0.018145247775738216 -0.00073824003436019311 0 -0.023819964151565769 0.00029261443638436307 0 -0.023922933904030639 -0.0019546112705431081 0 -0.021639417274405104 -3.0824293042098049e-06 0 -0.023819964151565769 0.00029261443638436307 0 -0.026068198818250243 -0.0021592323644945106 0 -0.023922933904030639 -0.0019546112705431081 0 -0.020717850273208733 -5.3082598262735423e-08 0 -0.020663231797522108 -1.1917018850102619e-05 0 -0.021629426395760657 4.3557276400631668e-08 0 -0.02110164676875324 -0.00079248495830034737 0 -0.02163623719559369 -1.0002535744299159e-06 0 -0.024859173093482102 0.00037304428650519452 0 -0.024817258204252172 0.00068085118504672805 0 -0.025065731210873628 0.00084774185779874138 0 -0.024817258204252172 0.00068085118504672805 0 -0.024909825900580225 0.00070321901437356477 0 -0.024017492222776712 0.00042279015451494683 0 -0.024859173093482102 0.00037304428650519452 0 -0.024817258204252172 0.00068085118504672805 0 -0.024017492222776712 0.00042279015451494683 0 -0.024859173093482102 0.00037304428650519452 0 -0.024017492222776712 0.00042279015451494683 0 -0.024830624612047297 -0.00012999357441349571 0 -0.024859173093482102 0.00037304428650519452 0 -0.025262010460288663 -8.7780352317616314e-05 0 -0.024830624612047297 -0.00012999357441349571 0 -0.024760841911098293 -0.00083884680682779096 0 -0.025262010460288663 -8.7780352317616314e-05 0 -0.024830624612047297 -0.00012999357441349571 0 -0.026163305750607799 9.6252280295112213e-06 0 -0.025262010460288663 -8.7780352317616314e-05 0 -0.025444528472874192 0.00038985898694518214 0 -0.024859173093482102 0.00037304428650519452 0 -0.025262010460288663 -8.7780352317616314e-05 0 -0.025444528472874192 0.00038985898694518214 0 -0.024859173093482102 0.00037304428650519452 0 -0.025444528472874192 0.00038985898694518214 0 -0.025065731210873628 0.00084774185779874138 0 -0.025444528472874192 0.00038985898694518214 0 -0.025452252019176027 0.00088912958137775844 0 -0.025065731210873628 0.00084774185779874138 0 -0.027213619993845802 0.00085161595005803139 0 -0.025444528472874192 0.00038985898694518214 0 -0.025452252019176027 0.00088912958137775844 0 -0.026163305750607799 9.6252280295112213e-06 0 -0.027213619993845802 0.00085161595005803139 0 -0.025444528472874192 0.00038985898694518214 0 -0.027213619993845802 0.00085161595005803139 0 -0.028608599714636525 0.00065311480719202274 0 -0.029190614067776757 0.0010456024906811113 0 -0.027213619993845802 0.00085161595005803139 0 -0.025452252019176027 0.00088912958137775844 0 -0.025631728181505505 0.0014316008539780943 0 -0.027330402832939433 0.00090880481390612699 0 -0.027407064709678335 0.0011433771747919386 0 -0.025452252019176027 0.00088912958137775844 0 -0.025631728181505505 0.0014316008539780943 0 -0.025244839783465454 0.0010999434378686423 0 -0.025631728181505505 0.0014316008539780943 0 -0.025293756526580943 0.0012160778791338357 0 -0.025244839783465454 0.0010999434378686423 0 -0.025195339305214479 0.0011595461186860417 0 -0.025631728181505505 0.0014316008539780943 0 -0.025293756526580943 0.0012160778791338357 0 -0.025293756526580943 0.0012160778791338357 0 -0.025296291575156019 0.0011995719251301166 0 -0.025244839783465454 0.0010999434378686423 0 -0.025195339305214479 0.0011595461186860417 0 -0.025293756526580943 0.0012160778791338357 0 -0.025296291575156019 0.0011995719251301166 0 -0.025296291575156019 0.0011995719251301166 0 -0.025244839783465454 0.0010999434378686423 0 -0.025259450158871953 0.0011297908694871937 0 -0.025452252019176027 0.00088912958137775844 0 -0.025244839783465454 0.0010999434378686423 0 -0.025065731210873628 0.00084774185779874138 0 -0.025244839783465454 0.0010999434378686423 0 -0.025065731210873628 0.00084774185779874138 0 -0.025259450158871953 0.0011297908694871937 0 -0.024817258204252172 0.00068085118504672805 0 -0.025365398836832597 0.0011722689872027156 0 -0.025211250929804713 0.00094457859867003429 0 -0.024817258204252172 0.00068085118504672805 0 -0.025065731210873628 0.00084774185779874138 0 -0.025365398836832597 0.0011722689872027156 0 -0.025065731210873628 0.00084774185779874138 0 -0.025365398836832597 0.0011722689872027156 0 -0.025259450158871953 0.0011297908694871937 0 -0.025365398836832597 0.0011722689872027156 0 -0.025259450158871953 0.0011297908694871937 0 -0.025563955127364941 0.0012788741511495819 0 -0.025419901686428943 0.001090090295247881 0 -0.025296291575156019 0.0011995719251301166 0 -0.025563955127364941 0.0012788741511495819 0 -0.025296291575156019 0.0011995719251301166 0 -0.025259450158871953 0.0011297908694871937 0 -0.025563955127364941 0.0012788741511495819 0 -0.025365398836832597 0.0011722689872027156 0 -0.025563955127364941 0.0012788741511495819 0 -0.026224082996063446 0.001786072286024032 0 -0.025365398836832597 0.0011722689872027156 0 -0.026224082996063446 0.001786072286024032 0 -0.025539935613533817 0.0012025420807713289 0 -0.026050893130515212 0.0011329550182043004 0 -0.025563955127364941 0.0012788741511495819 0 -0.026224082996063446 0.001786072286024032 0 -0.026224082996063446 0.001786072286024032 0 -0.025539935613533817 0.0012025420807713289 0 -0.02499384991672934 0.0013628793206323961 0 -0.024912601385449682 0.0020111756159761009 0 -0.026224082996063446 0.001786072286024032 0 -0.02499384991672934 0.0013628793206323961 0 -0.027387176714815279 0.0019387936484721333 0 -0.026377729098502393 0.001856176794410796 0 -0.025539935613533817 0.0012025420807713289 0 -0.02499384991672934 0.0013628793206323961 0 -0.025090722823606734 0.0010001983807727051 0 -0.025365398836832597 0.0011722689872027156 0 -0.025539935613533817 0.0012025420807713289 0 -0.025211250929804713 0.00094457859867003429 0 -0.024912601385449682 0.0020111756159761009 0 -0.024224106361337878 0.0020175600794147862 0 -0.024375908688084764 0.001413335643700063 0 -0.024912601385449682 0.0020111756159761009 0 -0.02499384991672934 0.0013628793206323961 0 -0.024375908688084764 0.001413335643700063 0 -0.02499384991672934 0.0013628793206323961 0 -0.024686892505415729 0.00097829111262289349 0 -0.025090722823606734 0.0010001983807727051 0 -0.02499384991672934 0.0013628793206323961 0 -0.024375908688084764 0.001413335643700063 0 -0.024686892505415729 0.00097829111262289349 0 -0.024167972938171141 0.0010144357126896984 0 -0.024375908688084764 0.001413335643700063 0 -0.024686892505415729 0.00097829111262289349 0 -0.024167972938171141 0.0010144357126896984 0 -0.024686892505415729 0.00097829111262289349 0 -0.024283351827684586 0.00056705922633776631 0 -0.024686892505415729 0.00097829111262289349 0 -0.025090722823606734 0.0010001983807727051 0 -0.025066199643290529 0.0008133370730829348 0 -0.024686892505415729 0.00097829111262289349 0 -0.025066199643290529 0.0008133370730829348 0 -0.024888475079848048 0.00074045810348419923 0 -0.024888475079848048 0.00074045810348419923 0 -0.024283351827684586 0.00056705922633776631 0 -0.025170194128131009 0.00067076446406267557 0 -0.025066199643290529 0.0008133370730829348 0 -0.024888475079848048 0.00074045810348419923 0 -0.025147879611628468 0.00074379757401775459 0 -0.024888475079848048 0.00074045810348419923 0 -0.025147879611628468 0.00074379757401775459 0 -0.025170194128131009 0.00067076446406267557 0 -0.024686892505415729 0.00097829111262289349 0 -0.024888475079848048 0.00074045810348419923 0 -0.024283351827684586 0.00056705922633776631 0 -0.025539935613533817 0.0012025420807713289 0 -0.025211250929804713 0.00094457859867003429 0 -0.025176249875410422 0.00081403348667682463 0 -0.024817258204252172 0.00068085118504672805 0 -0.025211250929804713 0.00094457859867003429 0 -0.025176249875410422 0.00081403348667682463 0 -0.024817258204252172 0.00068085118504672805 0 -0.025176249875410422 0.00081403348667682463 0 -0.024909825900580225 0.00070321901437356477 0 -0.025539935613533817 0.0012025420807713289 0 -0.025090722823606734 0.0010001983807727051 0 -0.025176249875410422 0.00081403348667682463 0 -0.025090722823606734 0.0010001983807727051 0 -0.025066199643290529 0.0008133370730829348 0 -0.025176249875410422 0.00081403348667682463 0 -0.025066199643290529 0.0008133370730829348 0 -0.025176249875410422 0.00081403348667682463 0 -0.02512339931555169 0.00074746846848259131 0 -0.025176249875410422 0.00081403348667682463 0 -0.02512339931555169 0.00074746846848259131 0 -0.024909825900580225 0.00070321901437356477 0 -0.025066199643290529 0.0008133370730829348 0 -0.02512339931555169 0.00074746846848259131 0 -0.025147879611628468 0.00074379757401775459 0 -0.02512339931555169 0.00074746846848259131 0 -0.025147879611628468 0.00074379757401775459 0 -0.025138864898605794 0.00080206441886028186 0 -0.025147879611628468 0.00074379757401775459 0 -0.025208259736055991 0.00074993993930190387 0 -0.025170194128131009 0.00067076446406267557 0 -0.025147879611628468 0.00074379757401775459 0 -0.025138864898605794 0.00080206441886028186 0 -0.025208259736055991 0.00074993993930190387 0 -0.02512339931555169 0.00074746846848259131 0 -0.025138864898605794 0.00080206441886028186 0 -0.024909825900580225 0.00070321901437356477 0 -0.025138864898605794 0.00080206441886028186 0 -0.024909825900580225 0.00070321901437356477 0 -0.024876268045085779 0.0011104928502922065 0 -0.024909825900580225 0.00070321901437356477 0 -0.024876268045085779 0.0011104928502922065 0 -0.024017492222776712 0.00042279015451494683 0 -0.024876268045085779 0.0011104928502922065 0 -0.024736056319637854 0.0022361626870885196 0 -0.022941639335285889 0.0020447701280216415 0 -0.024876268045085779 0.0011104928502922065 0 -0.025296901480131469 0.00092640945180111193 0 -0.024736056319637854 0.0022361626870885196 0 -0.025138864898605794 0.00080206441886028186 0 -0.024876268045085779 0.0011104928502922065 0 -0.025332027823503318 0.00084288548963458887 0 -0.020589861161858479 0.00296207796695382 0 -0.021688097184089712 0.0034792076800441506 0 -0.024876268045085779 0.0011104928502922065 0 -0.025332027823503318 0.00084288548963458887 0 -0.025296901480131469 0.00092640945180111193 0 -0.025138864898605794 0.00080206441886028186 0 -0.025208259736055991 0.00074993993930190387 0 -0.025332027823503318 0.00084288548963458887 0 -0.025208259736055991 0.00074993993930190387 0 -0.025332027823503318 0.00084288548963458887 0 -0.025170194128131009 0.00067076446406267557 0 -0.022510597805281283 0.0013183321427833209 0 -0.020589861161858479 0.00296207796695382 0 -0.019989084840149048 0.0031013583374002542 0 -0.020139308371757293 0.0027978541065748104 0 -0.020397972502928199 0.0029006545994879566 0 -0.022510597805281283 0.0013183321427833209 0 -0.019396299872767826 0.0036166670581119008 0 -0.019396299872767826 0.0036166670581119008 0 -0.020589861161858479 0.00296207796695382 0 -0.017352581765166915 0.005370221801830481 0 -0.018542723139219081 0.0048103583199963322 0 -0.017913643332664729 0.0038955503707249857 0 -0.019396299872767826 0.0036166670581119008 0 -0.015549043248404875 0.0044554645191304592 0 -0.017254496481201833 0.0053307053207069651 0 -0.017352581765166915 0.005370221801830481 0 -0.017913643332664729 0.0038955503707249857 0 -0.013943634156755263 0.0049618956487807609 0 -0.013670839666422276 0.0042516428743366265 0 -0.014487441804487303 0.0040979700715846838 0 -0.02387638908340373 0.00032370354762848369 0 -0.024283351827684586 0.00056705922633776631 0 -0.024358771841707708 6.8780024628785992e-05 0 -0.018301232001373142 0.0022218115310726197 0 -0.018695280145818022 0.0023523679268128606 0 -0.024695841086167809 0.00021775891217561949 0 -0.024709874193354343 0.00018226724838773077 0 -0.024358771841707708 6.8780024628785992e-05 0 -0.024283351827684586 0.00056705922633776631 0 -0.025248284827109939 0.00059527503920944584 0 -0.025170194128131009 0.00067076446406267557 0 -0.013943634156755263 0.0049618956487807609 0 -0.013203709359763512 0.0047850981369425933 0 -0.013462515623251521 0.004535124290486775 0 -0.024283351827684586 0.00056705922633776631 0 -0.024695841086167809 0.00021775891217561949 0 -0.024358771841707708 6.8780024628785992e-05 0 -0.025349939246290375 0.00015054609060184262 0 -0.022510597805281283 0.0013183321427833209 0 -0.019396299872767826 0.0036166670581119008 0 -0.018695280145818022 0.0023523679268128606 0 -0.022510597805281283 0.0013183321427833209 0 -0.023290446157005248 0.00065495946363316212 0 -0.013462515623251521 0.004535124290486775 0 -0.013670839666422276 0.0042516428743366265 0 -0.012986805765587202 0.0041001847855574652 0 -0.013943634156755263 0.0049618956487807609 0 -0.013462515623251521 0.004535124290486775 0 -0.013670839666422276 0.0042516428743366265 0 -0.012478952339964581 0.004584585306741708 0 -0.013203709359763512 0.0047850981369425933 0 -0.012986805765587202 0.0041001847855574652 0 -0.013203709359763512 0.0047850981369425933 0 -0.013462515623251521 0.004535124290486775 0 -0.012986805765587202 0.0041001847855574652 0 -0.012259765386530968 0.0037301800302617909 0 -0.012986805765587202 0.0041001847855574652 0 -0.012495807381675036 0.0031914781353911121 0 -0.012986805765587202 0.0041001847855574652 0 -0.013188695509012579 0.0033736570750710453 0 -0.012495807381675036 0.0031914781353911121 0 -0.013670839666422276 0.0042516428743366265 0 -0.013800639971091591 0.0036746346584597663 0 -0.013188695509012579 0.0033736570750710453 0 -0.013670839666422276 0.0042516428743366265 0 -0.012986805765587202 0.0041001847855574652 0 -0.013188695509012579 0.0033736570750710453 0 -0.013188695509012579 0.0033736570750710453 0 -0.01385229093727163 0.0029751541725980299 0 -0.012678874344128434 0.0025343576369035474 0 -0.013800639971091591 0.0036746346584597663 0 -0.013188695509012579 0.0033736570750710453 0 -0.01385229093727163 0.0029751541725980299 0 -0.013188695509012579 0.0033736570750710453 0 -0.012495807381675036 0.0031914781353911121 0 -0.012678874344128434 0.0025343576369035474 0 -0.012495807381675036 0.0031914781353911121 0 -0.012678874344128434 0.0025343576369035474 0 -0.012019858067983905 0.0023481659754826683 0 -0.017913643332664729 0.0038955503707249857 0 -0.018243711472329262 0.0026579216913341515 0 -0.018927049637617918 0.0036804794581667779 0 -0.018542723139219081 0.0048103583199963322 0 -0.017913643332664729 0.0038955503707249857 0 -0.018927049637617918 0.0036804794581667779 0 -0.013800639971091591 0.0036746346584597663 0 -0.014487441804487303 0.0040979700715846838 0 -0.01385229093727163 0.0029751541725980299 0 -0.013670839666422276 0.0042516428743366265 0 -0.013800639971091591 0.0036746346584597663 0 -0.014487441804487303 0.0040979700715846838 0 -0.014487441804487303 0.0040979700715846838 0 -0.01385229093727163 0.0029751541725980299 0 -0.015509899654828605 0.0031909804389442333 0 -0.015549043248404875 0.0044554645191304592 0 -0.017022205960209189 0.0027059853924408499 0 -0.018243711472329262 0.0026579216913341515 0 -0.019615195582436885 0.003103308283995472 0 -0.019601399232238453 0.00343723216746375 0 -0.018243711472329262 0.0026579216913341515 0 -0.018927049637617918 0.0036804794581667779 0 -0.019601399232238453 0.00343723216746375 0 -0.019615195582436885 0.003103308283995472 0 -0.020334524598529444 0.0035896979542230142 0 -0.019453468348865598 0.0021549545095775904 0 -0.019615195582436885 0.003103308283995472 0 -0.020258060707651054 0.0036178571629931645 0 -0.020334524598529444 0.0035896979542230142 0 -0.020258060707651054 0.0036178571629931645 0 -0.020480862012716171 0.0032195025255161982 0 -0.020334524598529444 0.0035896979542230142 0 -0.020258060707651054 0.0036178571629931645 0 -0.020570767801756436 0.0037461233518179008 0 -0.020480862012716171 0.0032195025255161982 0 -0.019615195582436885 0.003103308283995472 0 -0.020258060707651054 0.0036178571629931645 0 -0.019601399232238453 0.00343723216746375 0 -0.020258060707651054 0.0036178571629931645 0 -0.020570767801756436 0.0037461233518179008 0 -0.019601399232238453 0.00343723216746375 0 -0.020570767801756436 0.0037461233518179008 0 -0.018927049637617918 0.0036804794581667779 0 -0.019601399232238453 0.00343723216746375 0 -0.021688097184089712 0.0034792076800441506 0 -0.020633706034443589 0.0037671983018741635 0 -0.018542723139219081 0.0048103583199963322 0 -0.020570767801756436 0.0037461233518179008 0 -0.018927049637617918 0.0036804794581667779 0 -0.024736056319637854 0.0022361626870885196 0 -0.020570767801756436 0.0037461233518179008 0 -0.022941639335285889 0.0020447701280216415 0 -0.020570767801756436 0.0037461233518179008 0 -0.022941639335285889 0.0020447701280216415 0 -0.020480862012716171 0.0032195025255161982 0 -0.022561863643944448 0.0016398363228159027 0 -0.023786855445835794 0.00052959364205103264 0 -0.022941639335285889 0.0020447701280216415 0 -0.020480862012716171 0.0032195025255161982 0 -0.024017492222776712 0.00042279015451494683 0 -0.024483690628298849 -4.6339174170586365e-05 0 -0.024017492222776712 0.00042279015451494683 0 -0.024553150082067772 -8.1544159578821502e-05 0 -0.024017492222776712 0.00042279015451494683 0 -0.024830624612047297 -0.00012999357441349571 0 -0.024553150082067772 -8.1544159578821502e-05 0 -0.024876268045085779 0.0011104928502922065 0 -0.022941639335285889 0.0020447701280216415 0 -0.024017492222776712 0.00042279015451494683 0 -0.024760841911098293 -0.00083884680682779096 0 -0.024130588116568395 -0.00019068900643174204 0 -0.024830624612047297 -0.00012999357441349571 0 -0.024130588116568395 -0.00019068900643174204 0 -0.024830624612047297 -0.00012999357441349571 0 -0.024231916075808654 -1.8098076530851472e-05 0 -0.024830624612047297 -0.00012999357441349571 0 -0.024553150082067772 -8.1544159578821502e-05 0 -0.024231916075808654 -1.8098076530851472e-05 0 -0.024553150082067772 -8.1544159578821502e-05 0 -0.02419928334905978 0.00017695631460968144 0 -0.024231916075808654 -1.8098076530851472e-05 0 -0.024483690628298849 -4.6339174170586365e-05 0 -0.024553150082067772 -8.1544159578821502e-05 0 -0.02419928334905978 0.00017695631460968144 0 -0.024130588116568395 -0.00019068900643174204 0 -0.024231916075808654 -1.8098076530851472e-05 0 -0.023698446313270654 0.00041291072770642821 0 -0.02419928334905978 0.00017695631460968144 0 -0.024231916075808654 -1.8098076530851472e-05 0 -0.023698446313270654 0.00041291072770642821 0 -0.023249935224283362 0.00057232201531663023 0 -0.023698446313270654 0.00041291072770642821 0 -0.022822706645338899 0.001146904160541757 0 -0.022561863643944448 0.0016398363228159027 0 -0.022113405589768324 0.0021294441380307963 0 -0.02419928334905978 0.00017695631460968144 0 -0.023698446313270654 0.00041291072770642821 0 -0.023963385045485744 0.00086569511141219792 0 -0.024483690628298849 -4.6339174170586365e-05 0 -0.02419928334905978 0.00017695631460968144 0 -0.023963385045485744 0.00086569511141219792 0 -0.022113405589768324 0.0021294441380307963 0 -0.0218606338183805 0.0017042353209719629 0 -0.023963385045485744 0.00086569511141219792 0 -0.022822706645338899 0.001146904160541757 0 -0.021718073223834927 0.001721043313220625 0 -0.023698446313270654 0.00041291072770642821 0 -0.023963385045485744 0.00086569511141219792 0 -0.022822706645338899 0.001146904160541757 0 -0.021718073223834927 0.001721043313220625 0 -0.022296866267864836 0.0014023671591868294 0 -0.021837460156787804 0.0010931944758912878 0 -0.022822706645338899 0.001146904160541757 0 -0.021718073223834927 0.001721043313220625 0 -0.022296866267864836 0.0014023671591868294 0 -0.020334524598529444 0.0035896979542230142 0 -0.021718073223834927 0.001721043313220625 0 -0.019453468348865598 0.0021549545095775904 0 -0.021718073223834927 0.001721043313220625 0 -0.01999850617537292 0.00058426612462489748 0 -0.019453468348865598 0.0021549545095775904 0 -0.021718073223834927 0.001721043313220625 0 -0.01999850617537292 0.00058426612462489748 0 -0.021837460156787804 0.0010931944758912878 0 -0.021298259055063003 0.00021410337014577551 0 -0.01999850617537292 0.00058426612462489748 0 -0.021837460156787804 0.0010931944758912878 0 -0.021298259055063003 0.00021410337014577551 0 -0.01999850617537292 0.00058426612462489748 0 -0.02039084587560629 -0.0008457845061896665 0 -0.01999850617537292 0.00058426612462489748 0 -0.019314813695411728 -0.00069126386476406798 0 -0.02039084587560629 -0.0008457845061896665 0 -0.019314813695411728 -0.00069126386476406798 0 -0.02039084587560629 -0.0008457845061896665 0 -0.018852995422984901 -0.0021748294270907374 0 -0.021298259055063003 0.00021410337014577551 0 -0.02039084587560629 -0.0008457845061896665 0 -0.021229827306757616 -0.0004233830490028918 0 -0.02039084587560629 -0.0008457845061896665 0 -0.021153138089406994 -0.00098490924815498914 0 -0.020840523782356533 -0.0014553389134691602 0 -0.02039084587560629 -0.0008457845061896665 0 -0.021153138089406994 -0.00098490924815498914 0 -0.021229827306757616 -0.0004233830490028918 0 -0.017854442954082173 -0.00039860566492370411 0 -0.014613388825812791 -0.0003442694118593992 0 -0.016094534144639575 -0.0022612677451218132 0 -0.019314813695411728 -0.00069126386476406798 0 -0.017854442954082173 -0.00039860566492370411 0 -0.018852995422984901 -0.0021748294270907374 0 -0.01999850617537292 0.00058426612462489748 0 -0.017854442954082173 -0.00039860566492370411 0 -0.017463199501671273 0.0014516048245662564 0 -0.01999850617537292 0.00058426612462489748 0 -0.019314813695411728 -0.00069126386476406798 0 -0.017854442954082173 -0.00039860566492370411 0 -0.017854442954082173 -0.00039860566492370411 0 -0.017463199501671273 0.0014516048245662564 0 -0.014613388825812791 -0.0003442694118593992 0 -0.018243711472329262 0.0026579216913341515 0 -0.019615195582436885 0.003103308283995472 0 -0.019453468348865598 0.0021549545095775904 0 -0.018243711472329262 0.0026579216913341515 0 -0.017463199501671273 0.0014516048245662564 0 -0.019453468348865598 0.0021549545095775904 0 -0.01999850617537292 0.00058426612462489748 0 -0.017463199501671273 0.0014516048245662564 0 -0.019453468348865598 0.0021549545095775904 0 -0.017022205960209189 0.0027059853924408499 0 -0.017451915014640634 0.001495836064564269 0 -0.017463199501671273 0.0014516048245662564 0 -0.014009390953258158 0.0020235435799267408 0 -0.013907044716015822 0.00079312839991114124 0 -0.015509899654828605 0.0031909804389442333 0 -0.017463199501671273 0.0014516048245662564 0 -0.014009390953258158 0.0020235435799267408 0 -0.01385229093727163 0.0029751541725980299 0 -0.015509899654828605 0.0031909804389442333 0 -0.014009390953258158 0.0020235435799267408 0 -0.01385229093727163 0.0029751541725980299 0 -0.014009390953258158 0.0020235435799267408 0 -0.012939111605428384 0.0019481302842771432 0 -0.014009390953258158 0.0020235435799267408 0 -0.012491282004587699 0.00097036745383445068 0 -0.013907044716015822 0.00079312839991114124 0 -0.012678874344128434 0.0025343576369035474 0 -0.012939111605428384 0.0019481302842771432 0 -0.01207079094177429 0.0014619399371762049 0 -0.012678874344128434 0.0025343576369035474 0 -0.01207079094177429 0.0014619399371762049 0 -0.012019858067983905 0.0023481659754826683 0 -0.01385229093727163 0.0029751541725980299 0 -0.012678874344128434 0.0025343576369035474 0 -0.012939111605428384 0.0019481302842771432 0 -0.014009390953258158 0.0020235435799267408 0 -0.012939111605428384 0.0019481302842771432 0 -0.012491282004587699 0.00097036745383445068 0 -0.012939111605428384 0.0019481302842771432 0 -0.01207079094177429 0.0014619399371762049 0 -0.012491282004587699 0.00097036745383445068 0 -0.01207079094177429 0.0014619399371762049 0 -0.012491282004587699 0.00097036745383445068 0 -0.011771196981178952 0.00048939339178142281 0 -0.012491282004587699 0.00097036745383445068 0 -0.0120323309010004 9.7126844721182507e-05 0 -0.013907044716015822 0.00079312839991114124 0 -0.012491282004587699 0.00097036745383445068 0 -0.0120323309010004 9.7126844721182507e-05 0 -0.011771196981178952 0.00048939339178142281 0 -0.0120323309010004 9.7126844721182507e-05 0 -0.011771196981178952 0.00048939339178142281 0 -0.01163258483492551 0.0001877208748734172 0 -0.017463199501671273 0.0014516048245662564 0 -0.013907044716015822 0.00079312839991114124 0 -0.014613388825812791 -0.0003442694118593992 0 -0.0120323309010004 9.7126844721182507e-05 0 -0.013907044716015822 0.00079312839991114124 0 -0.014613388825812791 -0.0003442694118593992 0 -0.0120323309010004 9.7126844721182507e-05 0 -0.014613388825812791 -0.0003442694118593992 0 -0.012242217455108576 -0.001165464169333587 0 -0.012242217455108576 -0.001165464169333587 0 -0.01097125558650746 -0.00076877036342586622 0 -0.010607197098979528 -0.0011832877349891664 0 -0.012325292372837578 -0.0012738421608328816 0 -0.013385525963307089 -0.0016504962335072025 0 -0.014613388825812791 -0.0003442694118593992 0 -0.012242217455108576 -0.001165464169333587 0 -0.016094534144639575 -0.0022612677451218132 0 -0.012242217455108576 -0.001165464169333587 0 -0.011030036550904758 -0.0007979849056172785 0 -0.011235717991050092 -0.00084547391459565758 0 -0.011030036550904758 -0.0007979849056172785 0 -0.01097125558650746 -0.00076877036342586622 0 -0.010545712087561217 -0.00068769826122983403 0 -0.012242217455108576 -0.001165464169333587 0 -0.011030036550904758 -0.0007979849056172785 0 -0.01097125558650746 -0.00076877036342586622 0 -0.01097125558650746 -0.00076877036342586622 0 -0.010498131109422658 -0.00070504239882649897 0 -0.010587865836342835 -0.00081541113230402694 0 -0.01097125558650746 -0.00076877036342586622 0 -0.010607197098979528 -0.0011832877349891664 0 -0.010587865836342835 -0.00081541113230402694 0 -0.0120323309010004 9.7126844721182507e-05 0 -0.012242217455108576 -0.001165464169333587 0 -0.011235717991050092 -0.00084547391459565758 0 -0.011898772741354783 0.00010680766991027655 0 -0.011070234639519269 -0.00020771203944001972 0 -0.0120323309010004 9.7126844721182507e-05 0 -0.010477454366348731 -0.00058846606949553568 0 -0.011235717991050092 -0.00084547391459565758 0 -0.011030036550904758 -0.0007979849056172785 0 -0.011235717991050092 -0.00084547391459565758 0 -0.010253534562668696 -0.00071303480589093502 0 -0.010477454366348731 -0.00058846606949553568 0 -0.011235717991050092 -0.00084547391459565758 0 -0.010253534562668696 -0.00071303480589093502 0 -0.010477454366348731 -0.00058846606949553568 0 -0.010253534562668696 -0.00071303480589093502 0 -0.0096580462252218637 -0.00052439117211998463 0 -0.011070234639519269 -0.00020771203944001972 0 -0.010362441351446299 -0.00023625862336685939 0 -0.010253534562668696 -0.00071303480589093502 0 -0.0097675891271079025 -0.00061748890756562196 0 -0.0094650142254433557 -0.00057067868123387554 0 -0.010253534562668696 -0.00071303480589093502 0 -0.0094650142254433557 -0.00057067868123387554 0 -0.0096580462252218637 -0.00052439117211998463 0 -0.011030036550904758 -0.0007979849056172785 0 -0.010253534562668696 -0.00071303480589093502 0 -0.010422230689556859 -0.00069875077752406449 0 -0.010253534562668696 -0.00071303480589093502 0 -0.0099588418620292028 -0.00064262356118188291 0 -0.010422230689556859 -0.00069875077752406449 0 -0.010253534562668696 -0.00071303480589093502 0 -0.0099588418620292028 -0.00064262356118188291 0 -0.0097675891271079025 -0.00061748890756562196 0 -0.0099588418620292028 -0.00064262356118188291 0 -0.0096812205728331949 -0.00063115975562771508 0 -0.0093704063033353911 -0.00055341187609538153 0 -0.0099588418620292028 -0.00064262356118188291 0 -0.0097675891271079025 -0.00061748890756562196 0 -0.0093704063033353911 -0.00055341187609538153 0 -0.0097675891271079025 -0.00061748890756562196 0 -0.0094650142254433557 -0.00057067868123387554 0 -0.0093704063033353911 -0.00055341187609538153 0 -0.01097125558650746 -0.00076877036342586622 0 -0.010498131109422658 -0.00070504239882649897 0 -0.010545712087561217 -0.00068769826122983403 0 -0.010498131109422658 -0.00070504239882649897 0 -0.010545712087561217 -0.00068769826122983403 0 -0.010240960109706751 -0.00065851856857203882 0 -0.011030036550904758 -0.0007979849056172785 0 -0.010545712087561217 -0.00068769826122983403 0 -0.010422230689556859 -0.00069875077752406449 0 -0.010545712087561217 -0.00068769826122983403 0 -0.010422230689556859 -0.00069875077752406449 0 -0.01012512835606879 -0.00064914574453065659 0 -0.010545712087561217 -0.00068769826122983403 0 -0.01012512835606879 -0.00064914574453065659 0 -0.010240960109706751 -0.00065851856857203882 0 -0.0099588418620292028 -0.00064262356118188291 0 -0.010422230689556859 -0.00069875077752406449 0 -0.01012512835606879 -0.00064914574453065659 0 -0.0099588418620292028 -0.00064262356118188291 0 -0.01012512835606879 -0.00064914574453065659 0 -0.0096812205728331949 -0.00063115975562771508 0 -0.01012512835606879 -0.00064914574453065659 0 -0.0099701992343744633 -0.0006546096007237456 0 -0.010240960109706751 -0.00065851856857203882 0 -0.01012512835606879 -0.00064914574453065659 0 -0.0099701992343744633 -0.0006546096007237456 0 -0.0096812205728331949 -0.00063115975562771508 0 -0.0099701992343744633 -0.0006546096007237456 0 -0.010240960109706751 -0.00065851856857203882 0 -0.010063281247488993 -0.00067964808670201962 0 -0.010498131109422658 -0.00070504239882649897 0 -0.010240960109706751 -0.00065851856857203882 0 -0.010330107825700411 -0.00069799036661766863 0 -0.010240960109706751 -0.00065851856857203882 0 -0.010330107825700411 -0.00069799036661766863 0 -0.010063281247488993 -0.00067964808670201962 0 -0.010294002909261182 -0.00071861138006191225 0 -0.010330107825700411 -0.00069799036661766863 0 -0.010063281247488993 -0.00067964808670201962 0 -0.010294002909261182 -0.00071861138006191225 0 -0.010382299596744355 -0.00075923969697109573 0 -0.010346270520233385 -0.00072928872146414811 0 -0.010294002909261182 -0.00071861138006191225 0 -0.010382299596744355 -0.00075923969697109573 0 -0.010330107825700411 -0.00069799036661766863 0 -0.010382299596744355 -0.00075923969697109573 0 -0.010330107825700411 -0.00069799036661766863 0 -0.010447326049015082 -0.00077988494326360471 0 -0.010447326049015082 -0.00077988494326360471 0 -0.010449460338231652 -0.0008820653949409658 0 -0.010505365784911225 -0.00092937645319038104 0 -0.010498131109422658 -0.00070504239882649897 0 -0.010330107825700411 -0.00069799036661766863 0 -0.010447326049015082 -0.00077988494326360471 0 -0.010382299596744355 -0.00075923969697109573 0 -0.010447326049015082 -0.00077988494326360471 0 -0.010449460338231652 -0.0008820653949409658 0 -0.010447326049015082 -0.00077988494326360471 0 -0.010587865836342835 -0.00081541113230402694 0 -0.010505365784911225 -0.00092937645319038104 0 -0.010498131109422658 -0.00070504239882649897 0 -0.010447326049015082 -0.00077988494326360471 0 -0.010587865836342835 -0.00081541113230402694 0 -0.010449460338231652 -0.0008820653949409658 0 -0.010505365784911225 -0.00092937645319038104 0 -0.010547935203833481 -0.0010082196782089435 0 -0.010449460338231652 -0.0008820653949409658 0 -0.010580659067700669 -0.0010133915976556381 0 -0.010547935203833481 -0.0010082196782089435 0 -0.010449460338231652 -0.0008820653949409658 0 -0.010541105497448695 -0.00097352859173397126 0 -0.01048456194459014 -0.00098535045867384941 0 -0.010449460338231652 -0.0008820653949409658 0 -0.010541105497448695 -0.00097352859173397126 0 -0.010580659067700669 -0.0010133915976556381 0 -0.010541105497448695 -0.00097352859173397126 0 -0.010491335967993475 -0.0010282562005181472 0 -0.010611004906294961 -0.0010067044591745399 0 -0.010541105497448695 -0.00097352859173397126 0 -0.01048456194459014 -0.00098535045867384941 0 -0.010491335967993475 -0.0010282562005181472 0 -0.010454966560965593 -0.00085392302889494398 0 -0.0095581867565454667 -0.00090058406599522953 0 -0.0097182433853763364 -0.0010679990378840282 0 -0.010784681159598491 -0.00089861704955161909 0 -0.010449460338231652 -0.0008820653949409658 0 -0.01048456194459014 -0.00098535045867384941 0 -0.010429292681593729 -0.0010906782636591454 0 -0.010382299596744355 -0.00075923969697109573 0 -0.010449460338231652 -0.0008820653949409658 0 -0.010346270520233385 -0.00072928872146414811 0 -0.01048456194459014 -0.00098535045867384941 0 -0.010429292681593729 -0.0010906782636591454 0 -0.010491335967993475 -0.0010282562005181472 0 -0.0091376693553263649 -0.00096458168513846663 0 -0.0094012128973324591 -0.0007780793552831976 0 -0.0091253621157861703 -0.0010982362383836369 0 -0.0095581867565454667 -0.00090058406599522953 0 -0.0097182433853763364 -0.0010679990378840282 0 -0.0087083191420374052 -0.0015061749106378473 0 -0.008738313642239072 -0.0017561735566304854 0 -0.0084650634570932297 -0.0017819570262347605 0 -0.0097182433853763364 -0.0010679990378840282 0 -0.0085506313982681124 -0.0010730281672280606 0 -0.0087083191420374052 -0.0015061749106378473 0 -0.0090100778520506627 -0.0016096707863619494 0 -0.008738313642239072 -0.0017561735566304854 0 -0.0087083191420374052 -0.0015061749106378473 0 -0.0090100778520506627 -0.0016096707863619494 0 -0.0093481475161516121 -0.001359924067395464 0 -0.0090100778520506627 -0.0016096707863619494 0 -0.0092905684012137332 -0.0016002365002660251 0 -0.0090094073017478755 -0.0018289875288194583 0 -0.010514583100469639 -0.0010889374726397313 0 -0.010611004906294961 -0.0010067044591745399 0 -0.010631877745170075 -0.0010148148572677936 0 -0.0087083191420374052 -0.0015061749106378473 0 -0.0093481475161516121 -0.001359924067395464 0 -0.0094835333053601215 -0.0010940828290887667 0 -0.0097182433853763364 -0.0010679990378840282 0 -0.01002107694190809 -0.0011278904684358408 0 -0.0090100778520506627 -0.0016096707863619494 0 -0.0092905684012137332 -0.0016002365002660251 0 -0.0093481475161516121 -0.001359924067395464 0 -0.0092905684012137332 -0.0016002365002660251 0 -0.0093481475161516121 -0.001359924067395464 0 -0.009701995947427414 -0.0014273912668895962 0 -0.0092905684012137332 -0.0016002365002660251 0 -0.009701995947427414 -0.0014273912668895962 0 -0.0096660132831473747 -0.0017625684924577824 0 -0.0096258934160949987 -0.0012675400856665211 0 -0.0093481475161516121 -0.001359924067395464 0 -0.009701995947427414 -0.0014273912668895962 0 -0.0096258934160949987 -0.0012675400856665211 0 -0.0093481475161516121 -0.001359924067395464 0 -0.0094835333053601215 -0.0010940828290887667 0 -0.009701995947427414 -0.0014273912668895962 0 -0.010155428468832743 -0.0014155395865520686 0 -0.0096660132831473747 -0.0017625684924577824 0 -0.009701995947427414 -0.0014273912668895962 0 -0.010155428468832743 -0.0014155395865520686 0 -0.0099645522294592673 -0.0011924621087151335 0 -0.0096258934160949987 -0.0012675400856665211 0 -0.009701995947427414 -0.0014273912668895962 0 -0.0099645522294592673 -0.0011924621087151335 0 -0.010354261718408633 -0.0010858485839008059 0 -0.01002107694190809 -0.0011278904684358408 0 -0.010130952382936083 -0.00061017472667928879 0 -0.010777045922312661 -0.00085721659763265175 0 -0.010571600761758865 -0.001087477773257458 0 -0.010433429535308158 -0.0011211732353041193 0 -0.010631877745170075 -0.0010148148572677936 0 -0.0099645522294592673 -0.0011924621087151335 0 -0.010433429535308158 -0.0011211732353041193 0 -0.0094835333053601215 -0.0010940828290887667 0 -0.010772078105206424 -0.00073015645584626886 0 -0.010807422209777559 -0.0010488924221718164 0 -0.010746150556845458 -0.0010857295644414412 0 -0.0099645522294592673 -0.0011924621087151335 0 -0.010272062238033163 -0.0010593776177901435 0 -0.010433429535308158 -0.0011211732353041193 0 -0.010130952382936083 -0.00061017472667928879 0 -0.010540832842851998 -0.0011299398514045059 0 -0.010155428468832743 -0.0014155395865520686 0 -0.0099645522294592673 -0.0011924621087151335 0 -0.010272062238033163 -0.0010593776177901435 0 -0.010571600761758865 -0.001087477773257458 0 -0.010433429535308158 -0.0011211732353041193 0 -0.010632923384803013 -0.0012037771335012561 0 -0.010571600761758865 -0.001087477773257458 0 -0.010620685574547647 -0.0011347416284788402 0 -0.010632923384803013 -0.0012037771335012561 0 -0.010272062238033163 -0.0010593776177901435 0 -0.010433429535308158 -0.0011211732353041193 0 -0.010701502745883513 -0.00135840195654477 0 -0.010807422209777559 -0.0010488924221718164 0 -0.010701502745883513 -0.00135840195654477 0 -0.010746150556845458 -0.0010857295644414412 0 -0.010541105497448695 -0.00097352859173397126 0 -0.010611004906294961 -0.0010067044591745399 0 -0.010580659067700669 -0.0010133915976556381 0 -0.0096258934160949987 -0.0012675400856665211 0 -0.0099645522294592673 -0.0011924621087151335 0 -0.0094835333053601215 -0.0010940828290887667 0 -0.010571600761758865 -0.001087477773257458 0 -0.010631877745170075 -0.0010148148572677936 0 -0.010611413915446129 -0.0010440499852336299 0 -0.010611004906294961 -0.0010067044591745399 0 -0.010631877745170075 -0.0010148148572677936 0 -0.010611413915446129 -0.0010440499852336299 0 -0.010620685574547647 -0.0011347416284788402 0 -0.010621506913517419 -0.001081163306200649 0 -0.010647897563604776 -0.001146850641397069 0 -0.010611004906294961 -0.0010067044591745399 0 -0.010611413915446129 -0.0010440499852336299 0 -0.010621506913517419 -0.001081163306200649 0 -0.010571600761758865 -0.001087477773257458 0 -0.010611413915446129 -0.0010440499852336299 0 -0.010621506913517419 -0.001081163306200649 0 -0.010571600761758865 -0.001087477773257458 0 -0.010620685574547647 -0.0011347416284788402 0 -0.010621506913517419 -0.001081163306200649 0 -0.010621506913517419 -0.001081163306200649 0 -0.010580659067700669 -0.0010133915976556381 0 -0.010647897563604776 -0.001146850641397069 0 -0.010611004906294961 -0.0010067044591745399 0 -0.010621506913517419 -0.001081163306200649 0 -0.010580659067700669 -0.0010133915976556381 0 -0.010647897563604776 -0.001146850641397069 0 -0.010726720669756887 -0.0012352385362270919 0 -0.010543618650849037 -0.0010581179626452549 0 -0.010647897563604776 -0.001146850641397069 0 -0.010543618650849037 -0.0010581179626452549 0 -0.010547935203833481 -0.0010082196782089435 0 -0.010580659067700669 -0.0010133915976556381 0 -0.010647897563604776 -0.001146850641397069 0 -0.010547935203833481 -0.0010082196782089435 0 -0.010620685574547647 -0.0011347416284788402 0 -0.010647897563604776 -0.001146850641397069 0 -0.010632923384803013 -0.0012037771335012561 0 -0.010647897563604776 -0.001146850641397069 0 -0.010726720669756887 -0.0012352385362270919 0 -0.010632923384803013 -0.0012037771335012561 0 -0.010433429535308158 -0.0011211732353041193 0 -0.010632923384803013 -0.0012037771335012561 0 -0.010701502745883513 -0.00135840195654477 0 -0.010540832842851998 -0.0011299398514045059 0 -0.010637576526764815 -0.001239305448402597 0 -0.010701502745883513 -0.00135840195654477 0 -0.010628189322324849 -0.0013033927926900703 0 -0.010746150556845458 -0.0010857295644414412 0 -0.010726720669756887 -0.0012352385362270919 0 -0.010632923384803013 -0.0012037771335012561 0 -0.010701502745883513 -0.00135840195654477 0 -0.010726720669756887 -0.0012352385362270919 0 -0.010701502745883513 -0.00135840195654477 0 -0.010905190746317907 -0.0012996597121379099 0 -0.02039084587560629 -0.0008457845061896665 0 -0.020298970091287675 -0.0018268782677053931 0 -0.020840523782356533 -0.0014553389134691602 0 -0.010726720669756887 -0.0012352385362270919 0 -0.010905190746317907 -0.0012996597121379099 0 -0.010543618650849037 -0.0010581179626452549 0 -0.02039084587560629 -0.0008457845061896665 0 -0.020298970091287675 -0.0018268782677053931 0 -0.018852995422984901 -0.0021748294270907374 0 -0.016002240407903212 -0.0016425902894645042 0 -0.014565587863455236 -0.0016169424950755688 0 -0.010543618650849037 -0.0010581179626452549 0 -0.010607197098979528 -0.0011832877349891664 0 -0.010505365784911225 -0.00092937645319038104 0 -0.017854442954082173 -0.00039860566492370411 0 -0.018852995422984901 -0.0021748294270907374 0 -0.016094534144639575 -0.0022612677451218132 0 -0.014565587863455236 -0.0016169424950755688 0 -0.013385525963307089 -0.0016504962335072025 0 -0.010607197098979528 -0.0011832877349891664 0 -0.010587865836342835 -0.00081541113230402694 0 -0.010505365784911225 -0.00092937645319038104 0 -0.010543618650849037 -0.0010581179626452549 0 -0.010505365784911225 -0.00092937645319038104 0 -0.010547935203833481 -0.0010082196782089435 0 -0.013438475543276436 5.0642202301442697e-07 0 -0.012942432344712094 0.00016269754433235404 0 -0.013694782101033627 0.00012867368823023961 0 -0.012942432344712094 0.00016269754433235404 0 -0.013694782101033627 0.00012867368823023961 0 -0.012193628111402075 0.00034119997964230687 0 -0.013694782101033627 0.00012867368823023961 0 -0.015315368967241939 -0.00051945234312093976 0 -0.012721207311152873 -0.00042472156204866209 0 -0.013694782101033627 0.00012867368823023961 0 -0.015257914671620047 -4.8134145382936889e-07 0 -0.015315368967241939 -0.00051945234312093976 0 -0.013438475543276436 5.0642202301442697e-07 0 -0.013694782101033627 0.00012867368823023961 0 -0.015257914671620047 -4.8134145382936889e-07 0 -0.015257914671620047 -4.8134145382936889e-07 0 -0.017075287844828889 -4.1396702256667668e-07 0 -0.015315368967241939 -0.00051945234312093976 0 -0.017252483412925561 0.00014268497827147063 0 -0.017075287844828889 -4.1396702256667668e-07 0 -0.015315368967241939 -0.00051945234312093976 0 -0.015419082616654908 -0.00053088567804118064 0 -0.015203997784621771 -0.0014212286223183167 0 -0.017252483412925561 0.00014268497827147063 0 -0.015315368967241939 -0.00051945234312093976 0 -0.017345679516151576 -4.8605899893040352e-08 0 -0.015315368967241939 -0.00051945234312093976 0 -0.012721207311152873 -0.00042472156204866209 0 -0.013011301283890513 -0.0013309303276950101 0 -0.012721207311152873 -0.00042472156204866209 0 -0.013011301283890513 -0.0013309303276950101 0 -0.011455165062853228 -0.0016260960865644451 0 -0.015315368967241939 -0.00051945234312093976 0 -0.013011301283890513 -0.0013309303276950101 0 -0.013085738538521548 -0.0026765025915635845 0 -0.013011301283890513 -0.0013309303276950101 0 -0.013085738538521548 -0.0026765025915635845 0 -0.011455165062853228 -0.0016260960865644451 0 -0.011058828523387233 0.00034860085504146229 0 -0.011018547093985333 0.00023785757491906752 0 -0.011056740678458387 0.00028197169438041531 0 -0.011532245114029357 -0.004130177693527427 0 -0.013085738538521548 -0.0026765025915635845 0 -0.011455165062853228 -0.0016260960865644451 0 -0.012721207311152873 -0.00042472156204866209 0 -0.011455165062853228 -0.0016260960865644451 0 -0.011249541357540001 0.00033284572808245437 0 -0.010840522593535216 -0.00086993860635089441 0 -0.01135615439679684 0.00039161035420216545 0 -0.011018547093985333 0.00023785757491906752 0 -0.011249541357540001 0.00033284572808245437 0 -0.011021490068399056 0.00031691876972193107 0 -0.013694782101033627 0.00012867368823023961 0 -0.012721207311152873 -0.00042472156204866209 0 -0.012269912336293721 0.00021410790755690604 0 -0.012721207311152873 -0.00042472156204866209 0 -0.011249541357540001 0.00033284572808245437 0 -0.012269912336293721 0.00021410790755690604 0 -0.012269912336293721 0.00021410790755690604 0 -0.011434449462788361 0.00039156816382229467 0 -0.012193628111402075 0.00034119997964230687 0 -0.013694782101033627 0.00012867368823023961 0 -0.012269912336293721 0.00021410790755690604 0 -0.012193628111402075 0.00034119997964230687 0 -0.011249541357540001 0.00033284572808245437 0 -0.012269912336293721 0.00021410790755690604 0 -0.011434449462788361 0.00039156816382229467 0 -0.011249541357540001 0.00033284572808245437 0 -0.011434449462788361 0.00039156816382229467 0 -0.010887425312024983 0.00044696995160327667 0 -0.011434449462788361 0.00039156816382229467 0 -0.010887425312024983 0.00044696995160327667 0 -0.010947952123959428 0.00041431965024959111 0 -0.010887425312024983 0.00044696995160327667 0 -0.010776147073500246 0.00038559138724216055 0 -0.010947952123959428 0.00041431965024959111 0 -0.010929179265338323 0.00060385647603390441 0 -0.011061628205316219 0.00051394644147331986 0 -0.010776147073500246 0.00038559138724216055 0 -0.010887425312024983 0.00044696995160327667 0 -0.010929179265338323 0.00060385647603390441 0 -0.010776147073500246 0.00038559138724216055 0 -0.010929179265338323 0.00060385647603390441 0 -0.010795507713929476 0.00051577333258026668 0 -0.010856302944816987 0.00097319618505567875 0 -0.010929179265338323 0.00060385647603390441 0 -0.010856302944816987 0.00097319618505567875 0 -0.011106413812286513 0.0011175209919934911 0 -0.010887425312024983 0.00044696995160327667 0 -0.010929179265338323 0.00060385647603390441 0 -0.010795507713929476 0.00051577333258026668 0 -0.011249541357540001 0.00033284572808245437 0 -0.010795507713929476 0.00051577333258026668 0 -0.011021490068399056 0.00031691876972193107 0 -0.011249541357540001 0.00033284572808245437 0 -0.010887425312024983 0.00044696995160327667 0 -0.010795507713929476 0.00051577333258026668 0 -0.010795507713929476 0.00051577333258026668 0 -0.011021490068399056 0.00031691876972193107 0 -0.011014601431026129 0.00020845256407201577 0 -0.010754500125221339 0.00060178577633852599 0 -0.010685170169435061 0.0009148676911675508 0 -0.010795507713929476 0.00051577333258026668 0 -0.010281913705091131 0.0016089418693750082 0 -0.010856302944816987 0.00097319618505567875 0 -0.011018547093985333 0.00023785757491906752 0 -0.011021490068399056 0.00031691876972193107 0 -0.011014601431026129 0.00020845256407201577 0 -0.010414449805013371 0.0016137671130967092 0 -0.010685170169435061 0.0009148676911675508 0 -0.011018547093985333 0.00023785757491906752 0 -0.011014601431026129 0.00020845256407201577 0 -0.011056740678458387 0.00028197169438041531 0 -0.010188527978979723 0.0026841909641267341 0 -0.010281913705091131 0.0016089418693750082 0 -0.010704710966140937 0.0020962044800894235 0 -0.01111598227529605 0.00031802546676030748 0 -0.011014601431026129 0.00020845256407201577 0 -0.011056740678458387 0.00028197169438041531 0 -0.010970964977479295 0.0027806955086150612 0 -0.010704710966140937 0.0020962044800894235 0 -0.011165901669672502 0.0019766393237286971 0 -0.010281913705091131 0.0016089418693750082 0 -0.010704710966140937 0.0020962044800894235 0 -0.010858159272852115 0.0014876511106027153 0 -0.010704710966140937 0.0020962044800894235 0 -0.010858159272852115 0.0014876511106027153 0 -0.011165901669672502 0.0019766393237286971 0 -0.010858159272852115 0.0014876511106027153 0 -0.011106413812286513 0.0011175209919934911 0 -0.011165901669672502 0.0019766393237286971 0 -0.010281913705091131 0.0016089418693750082 0 -0.010858159272852115 0.0014876511106027153 0 -0.010856302944816987 0.00097319618505567875 0 -0.010858159272852115 0.0014876511106027153 0 -0.010856302944816987 0.00097319618505567875 0 -0.011106413812286513 0.0011175209919934911 0 -0.011106413812286513 0.0011175209919934911 0 -0.011554936022997441 0.0016434977426336059 0 -0.011165901669672502 0.0019766393237286971 0 -0.011106413812286513 0.0011175209919934911 0 -0.011554936022997441 0.0016434977426336059 0 -0.01137209029831405 0.00074531618908511138 0 -0.011553287446962148 0.0024881255781355129 0 -0.011554936022997441 0.0016434977426336059 0 -0.011165901669672502 0.0019766393237286971 0 -0.011553287446962148 0.0024881255781355129 0 -0.011554936022997441 0.0016434977426336059 0 -0.012019858067983905 0.0023481659754826683 0 -0.01207079094177429 0.0014619399371762049 0 -0.011554936022997441 0.0016434977426336059 0 -0.012019858067983905 0.0023481659754826683 0 -0.01207079094177429 0.0014619399371762049 0 -0.011554936022997441 0.0016434977426336059 0 -0.01137209029831405 0.00074531618908511138 0 -0.01207079094177429 0.0014619399371762049 0 -0.011771196981178952 0.00048939339178142281 0 -0.01137209029831405 0.00074531618908511138 0 -0.010929179265338323 0.00060385647603390441 0 -0.011106413812286513 0.0011175209919934911 0 -0.01137209029831405 0.00074531618908511138 0 -0.01137209029831405 0.00074531618908511138 0 -0.011061628205316219 0.00051394644147331986 0 -0.011185431110856743 0.00035238190333873484 0 -0.010929179265338323 0.00060385647603390441 0 -0.01137209029831405 0.00074531618908511138 0 -0.011061628205316219 0.00051394644147331986 0 -0.011771196981178952 0.00048939339178142281 0 -0.01137209029831405 0.00074531618908511138 0 -0.011185431110856743 0.00035238190333873484 0 -0.011771196981178952 0.00048939339178142281 0 -0.01163258483492551 0.0001877208748734172 0 -0.011185431110856743 0.00035238190333873484 0 -0.01163258483492551 0.0001877208748734172 0 -0.011185431110856743 0.00035238190333873484 0 -0.011070759108603615 7.9024017458501869e-05 0 -0.011061628205316219 0.00051394644147331986 0 -0.011185431110856743 0.00035238190333873484 0 -0.010776147073500246 0.00038559138724216055 0 -0.011185431110856743 0.00035238190333873484 0 -0.010747176996494067 0.00022491136589846772 0 -0.010776147073500246 0.00038559138724216055 0 -0.011185431110856743 0.00035238190333873484 0 -0.010747176996494067 0.00022491136589846772 0 -0.011070759108603615 7.9024017458501869e-05 0 -0.0094650142254433557 -0.00057067868123387554 0 -0.0096580462252218637 -0.00052439117211998463 0 -0.0091256907375979364 -0.00047356209794172159 0 -0.0094650142254433557 -0.00057067868123387554 0 -0.0091256907375979364 -0.00047356209794172159 0 -0.0087848748024936356 -0.00031178175327703424 0 -0.010747176996494067 0.00022491136589846772 0 -0.010387709545302277 7.8428811237733505e-06 0 -0.010363787649261514 0.00025839333169152949 0 -0.010747176996494067 0.00022491136589846772 0 -0.011070759108603615 7.9024017458501869e-05 0 -0.010387709545302277 7.8428811237733505e-06 0 -0.010362441351446299 -0.00023625862336685939 0 -0.0097427642692197447 -0.00020049392513374291 0 -0.010387709545302277 7.8428811237733505e-06 0 -0.010363787649261514 0.00025839333169152949 0 -0.0097691666314146351 9.5924921018348473e-05 0 -0.0097427642692197447 -0.00020049392513374291 0 -0.0091764077077519518 -0.00012820152896762075 0 -0.010387709545302277 7.8428811237733505e-06 0 -0.0097691666314146351 9.5924921018348473e-05 0 -0.0090414852504770351 -9.5618313558220951e-05 0 -0.0097691666314146351 9.5924921018348473e-05 0 -0.01026439423316282 0.00026572302727108127 0 -0.0097764191947972163 0.0002273851863170125 0 -0.0097691666314146351 9.5924921018348473e-05 0 -0.0097764191947972163 0.0002273851863170125 0 -0.0090485345371656093 6.9904083946618388e-05 0 -0.010363787649261514 0.00025839333169152949 0 -0.0097691666314146351 9.5924921018348473e-05 0 -0.01026439423316282 0.00026572302727108127 0 -0.010363787649261514 0.00025839333169152949 0 -0.01026439423316282 0.00026572302727108127 0 -0.010647204687992858 0.0003435676857817623 0 -0.01026439423316282 0.00026572302727108127 0 -0.010647204687992858 0.0003435676857817623 0 -0.010778497047490704 0.00033133949715810862 0 -0.010747176996494067 0.00022491136589846772 0 -0.010363787649261514 0.00025839333169152949 0 -0.010776147073500246 0.00038559138724216055 0 -0.010363787649261514 0.00025839333169152949 0 -0.010647204687992858 0.0003435676857817623 0 -0.010776147073500246 0.00038559138724216055 0 -0.010647204687992858 0.0003435676857817623 0 -0.010947952123959428 0.00041431965024959111 0 -0.010778497047490704 0.00033133949715810862 0 -0.010647204687992858 0.0003435676857817623 0 -0.010776147073500246 0.00038559138724216055 0 -0.010947952123959428 0.00041431965024959111 0 -0.010947952123959428 0.00041431965024959111 0 -0.011352125920709564 0.00037751776030222592 0 -0.010778497047490704 0.00033133949715810862 0 -0.011434449462788361 0.00039156816382229467 0 -0.010947952123959428 0.00041431965024959111 0 -0.011352125920709564 0.00037751776030222592 0 -0.011434449462788361 0.00039156816382229467 0 -0.011352125920709564 0.00037751776030222592 0 -0.012193628111402075 0.00034119997964230687 0 -0.011352125920709564 0.00037751776030222592 0 -0.012193628111402075 0.00034119997964230687 0 -0.011411401806476189 0.00029608772948998583 0 -0.011411401806476189 0.00029608772948998583 0 -0.010778497047490704 0.00033133949715810862 0 -0.010604202668303427 0.0002879002581504317 0 -0.011352125920709564 0.00037751776030222592 0 -0.011411401806476189 0.00029608772948998583 0 -0.010778497047490704 0.00033133949715810862 0 -0.01026439423316282 0.00026572302727108127 0 -0.010778497047490704 0.00033133949715810862 0 -0.010604202668303427 0.0002879002581504317 0 -0.01026439423316282 0.00026572302727108127 0 -0.0097764191947972163 0.0002273851863170125 0 -0.010604202668303427 0.0002879002581504317 0 -0.0097764191947972163 0.0002273851863170125 0 -0.010438563990448877 0.00043954567711268797 0 -0.010604202668303427 0.0002879002581504317 0 -0.011411401806476189 0.00029608772948998583 0 -0.010604202668303427 0.0002879002581504317 0 -0.011509081777241694 0.00027282650816746551 0 -0.0086917191618655042 0.00017867998878068068 0 -0.0093890920332054487 -8.6098425364589514e-05 0 -0.0088175088771783837 0.00019543395145771785 0 -0.010438563990448877 0.00043954567711268797 0 -0.010604202668303427 0.0002879002581504317 0 -0.011509081777241694 0.00027282650816746551 0 -0.0095964434399479701 0.00024248924102827265 0 -0.010430773371705433 0.00016238097706387469 0 -0.0093890920332054487 -8.6098425364589514e-05 0 -0.00970212854616187 6.7782034785988763e-07 0 -0.0088175088771783837 0.00019543395145771785 0 -0.0093890920332054487 -8.6098425364589514e-05 0 -0.00970212854616187 6.7782034785988763e-07 0 -0.011619525217811011 -1.0634910631988593e-06 0 -0.011509081777241694 0.00027282650816746551 0 -0.011623872830995727 7.1007584187594665e-07 0 -0.012171217603390754 0.0002232128888213266 0 -0.010430773371705433 0.00016238097706387469 0 -0.011620554067451615 1.8172456156586808e-07 0 -0.011411401806476189 0.00029608772948998583 0 -0.011509081777241694 0.00027282650816746551 0 -0.012171217603390754 0.0002232128888213266 0 -0.012193628111402075 0.00034119997964230687 0 -0.011411401806476189 0.00029608772948998583 0 -0.012171217603390754 0.0002232128888213266 0 -0.012942432344712094 0.00016269754433235404 0 -0.012193628111402075 0.00034119997964230687 0 -0.012171217603390754 0.0002232128888213266 0 -0.013438475543276436 5.0642202301442697e-07 0 -0.011623872830995727 7.1007584187594665e-07 0 -0.012171217603390754 0.0002232128888213266 0 -0.013438475543276436 5.0642202301442697e-07 0 -0.012942432344712094 0.00016269754433235404 0 -0.012171217603390754 0.0002232128888213266 0 -0.0047365793823075167 1.1980909893268693e-07 0 -0.0040293906229821449 -0.00010879780429424914 0 -0.0033035278838953368 5.2799452283862232e-05 0 -0.0047365793823075167 1.1980909893268693e-07 0 -0.0040293906229821449 -0.00010879780429424914 0 -0.0051785660933889701 -6.5383658975253306e-05 0 -0.0026268781246877198 -0.00042040420204595715 0 -0.0025762851184344977 -0.00077816182945931013 0 -0.0029308789173985122 -0.00060784287662149852 0 -0.0026268781246877198 -0.00042040420204595715 0 -0.0025762851184344977 -0.00077816182945931013 0 -0.0024087988837415892 -0.00033250920565601417 0 -0.0084266322572916635 0.00010560017083650357 0 -0.0084356620316983055 -6.7900168066162303e-05 0 -0.0083870320298632083 -0.0001760507189263457 0 -0.0025762851184344977 -0.00077816182945931013 0 -0.0029308789173985122 -0.00060784287662149852 0 -0.0032938848585017666 -0.0013380506036849797 0 -0.0084266322572916635 0.00010560017083650357 0 -0.0084356620316983055 -6.7900168066162303e-05 0 -0.008317019168628639 3.9515061429988058e-06 0 -0.0055118533604417074 -0.00044257974200500233 0 -0.0058405891568227711 -0.00042073300136853746 0 -0.0047365793823075167 1.1980909893268693e-07 0 -0.0051785660933889701 -6.5383658975253306e-05 0 -0.0068166042261585619 -1.0778314213981074e-06 0 -0.0051785660933889701 -6.5383658975253306e-05 0 -0.0055535986247499851 -0.00018184471048686451 0 -0.0068166042261585619 -1.0778314213981074e-06 0 -0.0040293906229821449 -0.00010879780429424914 0 -0.0051785660933889701 -6.5383658975253306e-05 0 -0.0055535986247499851 -0.00018184471048686451 0 -0.0033329488540120638 -0.00025615737477155225 0 -0.0058405891568227711 -0.00042073300136853746 0 -0.0058405891568227711 -0.00042073300136853746 0 -0.0068176798701246929 -2.2959249113508576e-07 0 -0.0062985368276445063 -1.7635115833134226e-06 0 -0.0068203661457055609 -6.3591779650643417e-09 0 -0.0077828328818886411 2.2379438285227474e-09 0 -0.0083870320298632083 -0.0001760507189263457 0 -0.0084547356823163767 -3.7532078948906324e-05 0 -0.0077877532863481307 7.2530681636965465e-08 0 -0.0058405891568227711 -0.00042073300136853746 0 -0.0077849729129341209 2.2416462492122608e-07 0 -0.0084547356823163767 -3.7532078948906324e-05 0 -0.0077877532863481307 7.2530681636965465e-08 0 -0.0088175088771783837 0.00019543395145771785 0 -0.00970212854616187 6.7782034785988763e-07 0 -0.0077877532863481307 7.2530681636965465e-08 0 -0.0088175088771783837 0.00019543395145771785 0 -0.0084547356823163767 -3.7532078948906324e-05 0 -0.0088175088771783837 0.00019543395145771785 0 -0.0086051573286506072 7.778775645317433e-05 0 -0.0086917191618655042 0.00017867998878068068 0 -0.0088175088771783837 0.00019543395145771785 0 -0.0086051573286506072 7.778775645317433e-05 0 -0.0084356620316983055 -6.7900168066162303e-05 0 -0.0083870320298632083 -0.0001760507189263457 0 -0.0084547356823163767 -3.7532078948906324e-05 0 -0.0084356620316983055 -6.7900168066162303e-05 0 -0.0084547356823163767 -3.7532078948906324e-05 0 -0.0086051573286506072 7.778775645317433e-05 0 -0.0084356620316983055 -6.7900168066162303e-05 0 -0.0086051573286506072 7.778775645317433e-05 0 -0.0083499544493309472 -4.0039430559789333e-05 0 -0.0086051573286506072 7.778775645317433e-05 0 -0.008931513798875329 0.00016878002780181919 0 -0.0083499544493309472 -4.0039430559789333e-05 0 -0.0086917191618655042 0.00017867998878068068 0 -0.0086051573286506072 7.778775645317433e-05 0 -0.008931513798875329 0.00016878002780181919 0 -0.0095964434399479701 0.00024248924102827265 0 -0.0090778759885990906 0.000171508622749589 0 -0.0097764191947972163 0.0002273851863170125 0 -0.010438563990448877 0.00043954567711268797 0 -0.008931513798875329 0.00016878002780181919 0 -0.0097764191947972163 0.0002273851863170125 0 -0.008931513798875329 0.00016878002780181919 0 -0.0090485345371656093 6.9904083946618388e-05 0 -0.008931513798875329 0.00016878002780181919 0 -0.008311778749821204 5.6556766353573874e-05 0 -0.0083499544493309472 -4.0039430559789333e-05 0 -0.008931513798875329 0.00016878002780181919 0 -0.008311778749821204 5.6556766353573874e-05 0 -0.0090485345371656093 6.9904083946618388e-05 0 -0.008311778749821204 5.6556766353573874e-05 0 -0.0078042188420906471 9.6409055997606147e-05 0 -0.0083499544493309472 -4.0039430559789333e-05 0 -0.008311778749821204 5.6556766353573874e-05 0 -0.0078042188420906471 9.6409055997606147e-05 0 -0.007562571645721803 0.00017445405750076003 0 -0.0084356620316983055 -6.7900168066162303e-05 0 -0.0083499544493309472 -4.0039430559789333e-05 0 -0.008317019168628639 3.9515061429988058e-06 0 -0.0084266322572916635 0.00010560017083650357 0 -0.008317019168628639 3.9515061429988058e-06 0 -0.008056771342850164 0.00012961026655196843 0 -0.0083499544493309472 -4.0039430559789333e-05 0 -0.008317019168628639 3.9515061429988058e-06 0 -0.008056771342850164 0.00012961026655196843 0 -0.0078042188420906471 9.6409055997606147e-05 0 -0.0083499544493309472 -4.0039430559789333e-05 0 -0.008056771342850164 0.00012961026655196843 0 -0.0084266322572916635 0.00010560017083650357 0 -0.008056771342850164 0.00012961026655196843 0 -0.0077475050507539332 0.00061174842547575062 0 -0.0025762851184344977 -0.00077816182945931013 0 -0.0020503630936335639 -0.00026409848402838122 0 -0.0024087988837415892 -0.00033250920565601417 0 -0.0078042188420906471 9.6409055997606147e-05 0 -0.008056771342850164 0.00012961026655196843 0 -0.0076599906900236183 0.00038875568601622962 0 -0.0055118533604417074 -0.00044257974200500233 0 -0.0050296807692893656 0.00070314503585198009 0 -0.008056771342850164 0.00012961026655196843 0 -0.0076599906900236183 0.00038875568601622962 0 -0.0077475050507539332 0.00061174842547575062 0 -0.005921136066551932 0.00080499706689732893 0 -0.0050296807692893656 0.00070314503585198009 0 -0.0076599906900236183 0.00038875568601622962 0 -0.0071895949096477093 0.00029021230161265676 0 -0.0064377015645305574 0.00058424617026571707 0 -0.0076599906900236183 0.00038875568601622962 0 -0.0064377015645305574 0.00058424617026571707 0 -0.0076323104328209898 0.00077386405094834914 0 -0.0071895949096477093 0.00029021230161265676 0 -0.0069045112726803829 0.00037541289757246724 0 -0.0064377015645305574 0.00058424617026571707 0 -0.0078042188420906471 9.6409055997606147e-05 0 -0.0071895949096477093 0.00029021230161265676 0 -0.007562571645721803 0.00017445405750076003 0 -0.0071895949096477093 0.00029021230161265676 0 -0.0069045112726803829 0.00037541289757246724 0 -0.007562571645721803 0.00017445405750076003 0 -0.0078042188420906471 9.6409055997606147e-05 0 -0.0076599906900236183 0.00038875568601622962 0 -0.0071895949096477093 0.00029021230161265676 0 -0.0069045112726803829 0.00037541289757246724 0 -0.0074092108496162786 0.00022504157488056298 0 -0.007562571645721803 0.00017445405750076003 0 -0.0069045112726803829 0.00037541289757246724 0 -0.0074092108496162786 0.00022504157488056298 0 -0.0063222541369102134 0.0005075714556908844 0 -0.0069045112726803829 0.00037541289757246724 0 -0.0063222541369102134 0.0005075714556908844 0 -0.0064377015645305574 0.00058424617026571707 0 -0.0074092108496162786 0.00022504157488056298 0 -0.0073322300660321428 0.00018891157762763612 0 -0.0063222541369102134 0.0005075714556908844 0 -0.0074092108496162786 0.00022504157488056298 0 -0.0081841625928855497 2.3049078710691711e-05 0 -0.0073322300660321428 0.00018891157762763612 0 -0.0074092108496162786 0.00022504157488056298 0 -0.0082666109441260401 6.5799285672725816e-05 0 -0.0081841625928855497 2.3049078710691711e-05 0 -0.0074092108496162786 0.00022504157488056298 0 -0.007562571645721803 0.00017445405750076003 0 -0.0082666109441260401 6.5799285672725816e-05 0 -0.008311778749821204 5.6556766353573874e-05 0 -0.007562571645721803 0.00017445405750076003 0 -0.0082666109441260401 6.5799285672725816e-05 0 -0.008311778749821204 5.6556766353573874e-05 0 -0.0082666109441260401 6.5799285672725816e-05 0 -0.0090485345371656093 6.9904083946618388e-05 0 -0.0082666109441260401 6.5799285672725816e-05 0 -0.0090485345371656093 6.9904083946618388e-05 0 -0.0090414852504770351 -9.5618313558220951e-05 0 -0.0097691666314146351 9.5924921018348473e-05 0 -0.0090485345371656093 6.9904083946618388e-05 0 -0.0090414852504770351 -9.5618313558220951e-05 0 -0.0082666109441260401 6.5799285672725816e-05 0 -0.0090414852504770351 -9.5618313558220951e-05 0 -0.0081841625928855497 2.3049078710691711e-05 0 -0.0090414852504770351 -9.5618313558220951e-05 0 -0.0081841625928855497 2.3049078710691711e-05 0 -0.0087848748024936356 -0.00031178175327703424 0 -0.0091256907375979364 -0.00047356209794172159 0 -0.0090414852504770351 -9.5618313558220951e-05 0 -0.0087848748024936356 -0.00031178175327703424 0 -0.0087848748024936356 -0.00031178175327703424 0 -0.0082082391193171057 -0.0001471985419048434 0 -0.0088252753883538548 -0.00041728538180085383 0 -0.0081841625928855497 2.3049078710691711e-05 0 -0.0087848748024936356 -0.00031178175327703424 0 -0.0082082391193171057 -0.0001471985419048434 0 -0.0081841625928855497 2.3049078710691711e-05 0 -0.0082082391193171057 -0.0001471985419048434 0 -0.0073322300660321428 0.00018891157762763612 0 -0.0082082391193171057 -0.0001471985419048434 0 -0.0073322300660321428 0.00018891157762763612 0 -0.007477366421144019 -3.7749751161655677e-05 0 -0.0073322300660321428 0.00018891157762763612 0 -0.007477366421144019 -3.7749751161655677e-05 0 -0.006365765378565833 0.0002232895678580379 0 -0.007477366421144019 -3.7749751161655677e-05 0 -0.0067164502867981162 -4.2622189319666572e-05 0 -0.006365765378565833 0.0002232895678580379 0 -0.0067164502867981162 -4.2622189319666572e-05 0 -0.0057812963524223179 -0.00021564916074998182 0 -0.006365765378565833 0.0002232895678580379 0 -0.0067164502867981162 -4.2622189319666572e-05 0 -0.0057812963524223179 -0.00021564916074998182 0 -0.0073857837557421936 -0.00045303324034671777 0 -0.007477366421144019 -3.7749751161655677e-05 0 -0.0067164502867981162 -4.2622189319666572e-05 0 -0.0073857837557421936 -0.00045303324034671777 0 -0.0036372430489420484 -0.0022622271089919686 0 -0.0034137317882364212 -0.002534377448393927 0 -0.0060260732604028294 -0.00096566322057125035 0 -0.0057812963524223179 -0.00021564916074998182 0 -0.0073857837557421936 -0.00045303324034671777 0 -0.0012470206640962883 -0.0037854000364220233 0 0.00064670921627656022 -0.0046886870343257345 0 0.00010797371227994456 -0.0035364968425500541 0 0.00045981718352928379 -0.0025342385839546579 0 -0.00077284220857643633 -0.0026708400739000795 0 0.00010797371227994456 -0.0035364968425500541 0 -0.00077284220857643633 -0.0026708400739000795 0 -0.0012470206640962883 -0.0037854000364220233 0 0.00010797371227994456 -0.0035364968425500541 0 -0.0034333732739957453 -0.0016917249018191536 0 -0.0060260732604028294 -0.00096566322057125035 0 -0.0043686570827101735 -0.0010810796580417244 0 -0.0060260732604028294 -0.00096566322057125035 0 -0.0043686570827101735 -0.0010810796580417244 0 -0.0047451840816076602 -0.00069507654196329736 0 -0.0035649197450881385 -0.0017212977086260503 0 -0.0036372430489420484 -0.0022622271089919686 0 -0.0060260732604028294 -0.00096566322057125035 0 -0.0057812963524223179 -0.00021564916074998182 0 -0.0047451840816076602 -0.00069507654196329736 0 -0.0057812963524223179 -0.00021564916074998182 0 -0.0047451840816076602 -0.00069507654196329736 0 -0.0038488517840855785 -0.00050366411340767596 0 -0.0057812963524223179 -0.00021564916074998182 0 -0.0038488517840855785 -0.00050366411340767596 0 -0.0051972529940047365 0.00026211010616401949 0 -0.0047451840816076602 -0.00069507654196329736 0 -0.0033654771169087791 -0.00097245992655193431 0 -0.0038488517840855785 -0.00050366411340767596 0 -0.0043686570827101735 -0.0010810796580417244 0 -0.0047451840816076602 -0.00069507654196329736 0 -0.0033654771169087791 -0.00097245992655193431 0 -0.0024570672812565292 -0.00096372701247665626 0 -0.0038488517840855785 -0.00050366411340767596 0 -0.002198109496212298 -0.00070120167441112247 0 -0.0033654771169087791 -0.00097245992655193431 0 -0.0024570672812565292 -0.00096372701247665626 0 -0.0038488517840855785 -0.00050366411340767596 0 -0.0038488517840855785 -0.00050366411340767596 0 -0.0051972529940047365 0.00026211010616401949 0 -0.0033720238099351728 -0.00014961722505122879 0 -0.0038488517840855785 -0.00050366411340767596 0 -0.0033720238099351728 -0.00014961722505122879 0 -0.002198109496212298 -0.00070120167441112247 0 -0.0051972529940047365 0.00026211010616401949 0 -0.0051573674880102333 0.00093319371495544404 0 -0.0033720238099351728 -0.00014961722505122879 0 -0.0057812963524223179 -0.00021564916074998182 0 -0.0051972529940047365 0.00026211010616401949 0 -0.006365765378565833 0.0002232895678580379 0 -0.0073322300660321428 0.00018891157762763612 0 -0.006365765378565833 0.0002232895678580379 0 -0.0063222541369102134 0.0005075714556908844 0 -0.0051972529940047365 0.00026211010616401949 0 -0.006365765378565833 0.0002232895678580379 0 -0.0063222541369102134 0.0005075714556908844 0 -0.0063222541369102134 0.0005075714556908844 0 -0.0051573674880102333 0.00093319371495544404 0 -0.0064377015645305574 0.00058424617026571707 0 -0.0051972529940047365 0.00026211010616401949 0 -0.0063222541369102134 0.0005075714556908844 0 -0.0051573674880102333 0.00093319371495544404 0 -0.0051573674880102333 0.00093319371495544404 0 -0.0033379448635426131 0.0025289720353435866 0 -0.0024422118433969002 0.00030003705717507052 0 -0.0053537440456741707 0.0011601525517977017 0 -0.0050296807692893656 0.00070314503585198009 0 -0.0051573674880102333 0.00093319371495544404 0 -0.0064377015645305574 0.00058424617026571707 0 -0.0076323104328209898 0.00077386405094834914 0 -0.0050296807692893656 0.00070314503585198009 0 -0.0019526195618906228 0.00029596416129411805 0 -0.0020503630936335639 -0.00026409848402838122 0 -0.002259295939599195 -7.5640418104257773e-05 0 -0.0020419393896180587 0.00022676051095538483 0 -0.0020503630936335639 -0.00026409848402838122 0 -0.0024087988837415892 -0.00033250920565601417 0 -0.002259295939599195 -7.5640418104257773e-05 0 -0.002259295939599195 -7.5640418104257773e-05 0 -0.0020419393896180587 0.00022676051095538483 0 -0.0025851906349586245 2.8417781804659012e-05 0 -0.0051573674880102333 0.00093319371495544404 0 -0.0024422118433969002 0.00030003705717507052 0 -0.0033720238099351728 -0.00014961722505122879 0 -0.0033720238099351728 -0.00014961722505122879 0 -0.002198109496212298 -0.00070120167441112247 0 -0.0013596235096005609 -0.00050465459124208187 0 -0.00105652590369093 -0.00074592070910554302 0 -0.002198109496212298 -0.00070120167441112247 0 -0.0013596235096005609 -0.00050465459124208187 0 -0.0024422118433969002 0.00030003705717507052 0 -0.0033720238099351728 -0.00014961722505122879 0 -0.0013596235096005609 -0.00050465459124208187 0 -0.0019526195618906228 0.00029596416129411805 0 -0.0013463501990431054 -0.00015397764639380718 0 -0.0020419393896180587 0.00022676051095538483 0 -0.0013304275425631946 0.00016337557578121077 0 -0.0020559043211226861 0.00021424242600495162 0 -0.0013304275425631946 0.00016337557578121077 0 -0.00057436036943323769 5.0897821949684729e-07 0 -0.0020559043211226861 0.00021424242600495162 0 -5.6932730503977746e-05 7.79510916753412e-05 0 -0.0013304275425631946 0.00016337557578121077 0 -0.00057436036943323769 5.0897821949684729e-07 0 -0.00010060908508290525 -0.00023111265786094202 0 -0.0013463501990431054 -0.00015397764639380718 0 -0.00057436036943323769 5.0897821949684729e-07 0 -0.0026554200828409974 3.5388089281788352e-07 0 -0.0020559043211226861 0.00021424242600495162 0 -0.0026554200828409974 3.5388089281788352e-07 0 -0.0020559043211226861 0.00021424242600495162 0 -0.0033035278838953368 5.2799452283862232e-05 0 -0.0020559043211226861 0.00021424242600495162 0 -0.0025851906349586245 2.8417781804659012e-05 0 -0.0033035278838953368 5.2799452283862232e-05 0 -0.0020419393896180587 0.00022676051095538483 0 -0.0020559043211226861 0.00021424242600495162 0 -0.0025851906349586245 2.8417781804659012e-05 0 -0.0033329488540120638 -0.00025615737477155225 0 -0.0027565469141041538 8.5945379869722732e-05 0 -0.0026268781246877198 -0.00042040420204595715 0 -0.0029308789173985122 -0.00060784287662149852 0 -0.0025851906349586245 2.8417781804659012e-05 0 -0.0040293906229821449 -0.00010879780429424914 0 -0.0025851906349586245 2.8417781804659012e-05 0 -0.0033035278838953368 5.2799452283862232e-05 0 -0.0026268781246877198 -0.00042040420204595715 0 -0.0024087988837415892 -0.00033250920565601417 0 -0.0025851906349586245 2.8417781804659012e-05 0 -0.0024087988837415892 -0.00033250920565601417 0 -0.002259295939599195 -7.5640418104257773e-05 0 -0.0025851906349586245 2.8417781804659012e-05 0 -0.0047365793823075167 1.1980909893268693e-07 0 -0.0026554200828409974 3.5388089281788352e-07 0 -0.0033035278838953368 5.2799452283862232e-05 0 -0.0082329923661428571 -0.0029380080824539662 0 -0.0088909405570965633 -0.0031046999592919925 0 -0.0088465633770522835 -0.0024966493252387666 0 -0.0017978481687233544 -0.0036966387388527684 0 -0.0040211615202276514 -0.0036725910732138874 0 0.0024692657560314536 -0.0036007039441617499 0 0.0021457559789814745 -0.0043470420349001294 0 0.001746282723697145 -0.0037935279261864306 0 0.002290382448976413 -0.0046455562011557018 0 0.0024633713788537047 -0.0046789344524012233 0 0.0023499586618573789 -0.0046644719111395179 0 -0.0060476811283576778 -0.0031129527602237511 0 -0.0054872519660400789 -0.0022413681501671405 0 -0.0043337469007735446 -0.0025778973307582953 0 0.002290382448976413 -0.0046455562011557018 0 0.0021567034902464006 -0.0044574980918972301 0 0.0023499586618573789 -0.0046644719111395179 0 -0.0017978481687233544 -0.0036966387388527684 0 -0.0042013684506848172 -0.002368334574879795 0 0.002290382448976413 -0.0046455562011557018 0 0.0024633713788537047 -0.0046789344524012233 0 0.002698793034955274 -0.0046861424395875 0 -0.0017978481687233544 -0.0036966387388527684 0 0.0036815825961617871 -0.0048904157268031597 0 0.0024633713788537047 -0.0046789344524012233 0 0.0023499586618573789 -0.0046644719111395179 0 0.0025040028515130436 -0.0047220363261964594 0 0.0024633713788537047 -0.0046789344524012233 0 0.0025040028515130436 -0.0047220363261964594 0 0.002698793034955274 -0.0046861424395875 0 0.0021457559789814745 -0.0043470420349001294 0 0.0024294179568425706 -0.0046790774508445781 0 0.002698793034955274 -0.0046861424395875 0 0.0024692657560314536 -0.0036007039441617499 0 0.0021457559789814745 -0.0043470420349001294 0 0.002698793034955274 -0.0046861424395875 0 0.0015534080153094254 -0.0044134228415519837 0 0.00093400796004708788 -0.0039949071635804433 0 0.001746282723697145 -0.0037935279261864306 0 0.0021457559789814745 -0.0043470420349001294 0 0.0015534080153094254 -0.0044134228415519837 0 0.001746282723697145 -0.0037935279261864306 0 0.0015534080153094254 -0.0044134228415519837 0 0.00093400796004708788 -0.0039949071635804433 0 0.0010822700129158496 -0.0049640942807219601 0 -0.0013857598774448243 0.00099719223577936656 0 -0.0013714270870499991 0.0011079245658868584 0 -0.0013300939787858779 0.0010287433485757962 0 -0.0033028661370543815 -0.00065325886743888915 0 0.0026333053987225206 -0.0035817213046624532 0 -0.0033028661370543815 -0.00065325886743888915 0 -0.00081696924055939312 0.00096605377455181453 0 -0.0015736696710690705 0.00098084423233407735 0 -0.0015754968377694604 0.00063100023474360319 0 -0.0014168509513326872 0.00080360510532990245 0 -0.0094093152410426525 -0.00319475292544042 0 -0.0092706010522730954 -0.0029071961630192053 0 -0.009485462406425409 -0.0026835355963896719 0 -0.0015736696710690705 0.00098084423233407735 0 -0.0013300939787858779 0.0010287433485757962 0 -0.0014168509513326872 0.00080360510532990245 0 -0.0033028661370543815 -0.00065325886743888915 0 -0.0075973366628108562 -0.0016058763348649856 0 -0.0033028661370543815 -0.00065325886743888915 0 -0.0040211615202276514 -0.0036725910732138874 0 -0.0088909405570965633 -0.0031046999592919925 0 -0.0092344107870684852 -0.0026875997342941499 0 -0.0088465633770522835 -0.0024966493252387666 0 -0.0094093152410426525 -0.00319475292544042 0 -0.0088909405570965633 -0.0031046999592919925 0 -0.0092706010522730954 -0.0029071961630192053 0 -0.0088909405570965633 -0.0031046999592919925 0 -0.0092706010522730954 -0.0029071961630192053 0 -0.0092344107870684852 -0.0026875997342941499 0 -0.0090596177073414552 -0.0021042834182292136 0 -0.009405474839142846 -0.0022286630949302946 0 -0.0088465633770522835 -0.0024966493252387666 0 -0.0092344107870684852 -0.0026875997342941499 0 -0.009405474839142846 -0.0022286630949302946 0 -0.0088465633770522835 -0.0024966493252387666 0 -0.008683185051927101 -0.00065814573952628348 0 -0.0087393337358503929 -0.00048571548125214746 0 -0.0087458148707825079 -0.00065269958646786794 0 -0.0098053982246782342 -0.0026886348190002115 0 -0.0099658392708857832 -0.0020258553135630861 0 -0.009405474839142846 -0.0022286630949302946 0 -0.0075973366628108562 -0.0016058763348649856 0 -0.0093756769533987639 -0.0012925009110880171 0 -0.0098709536654733674 0.00068459601389381306 0 -0.0057601319858364402 0.00053621631998115101 0 -0.0015754968377694604 0.00063100023474360319 0 -0.0014168509513326872 0.00080360510532990245 0 -0.0014534143084344378 0.00062723960972663315 0 -0.0075973366628108562 -0.0016058763348649856 0 -0.0057601319858364402 0.00053621631998115101 0 -0.0097931514028295318 -0.0024740429457650623 0 -0.0075973366628108562 -0.0016058763348649856 0 -0.0092706010522730954 -0.0029071961630192053 0 -0.0092344107870684852 -0.0026875997342941499 0 -0.009485462406425409 -0.0026835355963896719 0 -0.0092344107870684852 -0.0026875997342941499 0 -0.0098053982246782342 -0.0026886348190002115 0 -0.009405474839142846 -0.0022286630949302946 0 -0.0088170216881332114 -0.00034012673465773672 0 -0.0087695562118359129 -0.00048364124920076998 0 -0.0087393337358503929 -0.00048571548125214746 0 -0.0087695562118359129 -0.00048364124920076998 0 -0.0087393337358503929 -0.00048571548125214746 0 -0.0087458148707825079 -0.00065269958646786794 0 -0.010130952382936083 -0.00061017472667928879 0 -0.0098709536654733674 0.00068459601389381306 0 -0.010155428468832743 -0.0014155395865520686 0 -0.0099658392708857832 -0.0020258553135630861 0 -0.0096660132831473747 -0.0017625684924577824 0 -0.010130952382936083 -0.00061017472667928879 0 -0.0093756769533987639 -0.0012925009110880171 0 -0.0099658392708857832 -0.0020258553135630861 0 -0.0096660132831473747 -0.0017625684924577824 0 -0.009405474839142846 -0.0022286630949302946 0 -0.0090596177073414552 -0.0021042834182292136 0 -0.009405474839142846 -0.0022286630949302946 0 -0.0092870348349059374 -0.0019065904692785937 0 -0.0092905684012137332 -0.0016002365002660251 0 -0.0096660132831473747 -0.0017625684924577824 0 -0.0092870348349059374 -0.0019065904692785937 0 -0.0096660132831473747 -0.0017625684924577824 0 -0.009405474839142846 -0.0022286630949302946 0 -0.0092870348349059374 -0.0019065904692785937 0 -0.0090596177073414552 -0.0021042834182292136 0 -0.0092870348349059374 -0.0019065904692785937 0 -0.0090094073017478755 -0.0018289875288194583 0 -0.0092905684012137332 -0.0016002365002660251 0 -0.0092870348349059374 -0.0019065904692785937 0 -0.0090094073017478755 -0.0018289875288194583 0 -0.0085506313982681124 -0.0010730281672280606 0 -0.0073191570999080078 -0.0018570313105923909 0 -0.0090094073017478755 -0.0018289875288194583 0 -0.008738313642239072 -0.0017561735566304854 0 -0.0086968473188369297 -0.0020856780624403702 0 -0.0090100778520506627 -0.0016096707863619494 0 -0.0090094073017478755 -0.0018289875288194583 0 -0.008738313642239072 -0.0017561735566304854 0 -0.0084650634570932297 -0.0017819570262347605 0 -0.0086968473188369297 -0.0020856780624403702 0 -0.0083666908974067179 -0.0023868722385972296 0 -0.008738313642239072 -0.0017561735566304854 0 -0.0084650634570932297 -0.0017819570262347605 0 -0.0086968473188369297 -0.0020856780624403702 0 -0.0095581867565454667 -0.00090058406599522953 0 -0.0085506313982681124 -0.0010730281672280606 0 -0.0090596177073414552 -0.0021042834182292136 0 -0.0090094073017478755 -0.0018289875288194583 0 -0.0086968473188369297 -0.0020856780624403702 0 -0.0090596177073414552 -0.0021042834182292136 0 -0.0086968473188369297 -0.0020856780624403702 0 -0.0088465633770522835 -0.0024966493252387666 0 -0.0086968473188369297 -0.0020856780624403702 0 -0.0088465633770522835 -0.0024966493252387666 0 -0.0083666908974067179 -0.0023868722385972296 0 -0.0082329923661428571 -0.0029380080824539662 0 -0.0088465633770522835 -0.0024966493252387666 0 -0.0083666908974067179 -0.0023868722385972296 0 -0.0017978481687233544 -0.0036966387388527684 0 -0.0073191570999080078 -0.0018570313105923909 0 -0.0060476811283576778 -0.0031129527602237511 0 -0.0062023251786746877 -0.0016861001211783259 0 -0.0054872519660400789 -0.0022413681501671405 0 -0.0054872519660400789 -0.0022413681501671405 0 -0.0053330375512720702 -0.001416171898414742 0 -0.0043337469007735446 -0.0025778973307582953 0 -0.0062023251786746877 -0.0016861001211783259 0 -0.0054872519660400789 -0.0022413681501671405 0 -0.0053330375512720702 -0.001416171898414742 0 -0.0097296299896059528 -0.00078997214091850354 0 -0.0097246870383806607 -0.00077681345950892365 0 -0.0096678106733406668 -0.00078647702207787647 0 -0.0063541606169639055 -0.00025067035811932687 0 -0.0062023251786746877 -0.0016861001211783259 0 -0.0053330375512720702 -0.001416171898414742 0 -0.0085506313982681124 -0.0010730281672280606 0 -0.0078087697901820675 -0.00080733836188203031 0 -0.0097128285716350238 -0.00077551369296483257 0 -0.0097296299896059528 -0.00078997214091850354 0 -0.0097246870383806607 -0.00077681345950892365 0 -0.010294002909261182 -0.00071861138006191225 0 -0.010346270520233385 -0.00072928872146414811 0 -0.01020810623515085 -0.00077912415481795746 0 -0.0095581867565454667 -0.00090058406599522953 0 -0.01000315149869822 -0.00071193413169437579 0 -0.0097120990776204414 -0.00077711311697884454 0 -0.0097128285716350238 -0.00077551369296483257 0 -0.0097246870383806607 -0.00077681345950892365 0 -0.010294002909261182 -0.00071861138006191225 0 -0.01020810623515085 -0.00077912415481795746 0 -0.010063281247488993 -0.00067964808670201962 0 -0.010063281247488993 -0.00067964808670201962 0 -0.0096883507635979332 -0.00069089354297342169 0 -0.0096678106733406668 -0.00078647702207787647 0 -0.01020810623515085 -0.00077912415481795746 0 -0.010063281247488993 -0.00067964808670201962 0 -0.0096678106733406668 -0.00078647702207787647 0 -0.01000315149869822 -0.00071193413169437579 0 -0.0097383824784425168 -0.00081171621120063649 0 -0.0096883507635979332 -0.00069089354297342169 0 -0.0094061440172487406 -0.00076288539776288192 0 -0.0096678106733406668 -0.00078647702207787647 0 -0.0099701992343744633 -0.0006546096007237456 0 -0.010063281247488993 -0.00067964808670201962 0 -0.0096883507635979332 -0.00069089354297342169 0 -0.0099701992343744633 -0.0006546096007237456 0 -0.0096812205728331949 -0.00063115975562771508 0 -0.0096883507635979332 -0.00069089354297342169 0 -0.0096812205728331949 -0.00063115975562771508 0 -0.0096883507635979332 -0.00069089354297342169 0 -0.0093552639967004383 -0.00066632757794403787 0 -0.0096883507635979332 -0.00069089354297342169 0 -0.0094061440172487406 -0.00076288539776288192 0 -0.0093552639967004383 -0.00066632757794403787 0 -0.0094061440172487406 -0.00076288539776288192 0 -0.0093552639967004383 -0.00066632757794403787 0 -0.0091421440942051329 -0.0007367537721587428 0 -0.0093552639967004383 -0.00066632757794403787 0 -0.0091421440942051329 -0.0007367537721587428 0 -0.0089154801015675078 -0.00058310522980837426 0 -0.0094061440172487406 -0.00076288539776288192 0 -0.0091421440942051329 -0.0007367537721587428 0 -0.0092291942510975937 -0.00089973600665124004 0 -0.0092291942510975937 -0.00089973600665124004 0 -0.0095109777295474419 -0.00096138860571372557 0 -0.0096678106733406668 -0.00078647702207787647 0 -0.0080510844812647208 -0.0024554294019663164 0 -0.0042013684506848172 -0.002368334574879795 0 -0.0078087697901820675 -0.00080733836188203031 0 -0.0042013684506848172 -0.002368334574879795 0 -0.0097296299896059528 -0.00078997214091850354 0 -0.0095109777295474419 -0.00096138860571372557 0 -0.0096678106733406668 -0.00078647702207787647 0 -0.0094061440172487406 -0.00076288539776288192 0 -0.0092291942510975937 -0.00089973600665124004 0 -0.0096678106733406668 -0.00078647702207787647 0 -0.0094650142254433557 -0.00057067868123387554 0 -0.0087848748024936356 -0.00031178175327703424 0 -0.0093704063033353911 -0.00055341187609538153 0 -0.0087848748024936356 -0.00031178175327703424 0 -0.0093704063033353911 -0.00055341187609538153 0 -0.0088252753883538548 -0.00041728538180085383 0 -0.0093704063033353911 -0.00055341187609538153 0 -0.0092044942240001228 -0.00056549190087720031 0 -0.0088252753883538548 -0.00041728538180085383 0 -0.0096812205728331949 -0.00063115975562771508 0 -0.0093704063033353911 -0.00055341187609538153 0 -0.0092044942240001228 -0.00056549190087720031 0 -0.0096812205728331949 -0.00063115975562771508 0 -0.0093552639967004383 -0.00066632757794403787 0 -0.0092044942240001228 -0.00056549190087720031 0 -0.0092044942240001228 -0.00056549190087720031 0 -0.0089154801015675078 -0.00058310522980837426 0 -0.0088252753883538548 -0.00041728538180085383 0 -0.0093552639967004383 -0.00066632757794403787 0 -0.0092044942240001228 -0.00056549190087720031 0 -0.0089154801015675078 -0.00058310522980837426 0 -0.0082082391193171057 -0.0001471985419048434 0 -0.0088252753883538548 -0.00041728538180085383 0 -0.0084070759217281538 -0.00036208235211095455 0 -0.0089154801015675078 -0.00058310522980837426 0 -0.0084070759217281538 -0.00036208235211095455 0 -0.0086891565823208668 -0.00070950395969456145 0 -0.0089154801015675078 -0.00058310522980837426 0 -0.0088252753883538548 -0.00041728538180085383 0 -0.0084070759217281538 -0.00036208235211095455 0 -0.0084070759217281538 -0.00036208235211095455 0 -0.0086891565823208668 -0.00070950395969456145 0 -0.0081725464120541384 -0.00040736406557675357 0 -0.0031701027892709508 -0.0027605678281612056 0 -0.0032816488078194301 -0.0026130863664828603 0 -0.0082082391193171057 -0.0001471985419048434 0 -0.007477366421144019 -3.7749751161655677e-05 0 -0.0084070759217281538 -0.00036208235211095455 0 -0.0042013684506848172 -0.002368334574879795 0 -0.0031701027892709508 -0.0027605678281612056 0 -0.0092291942510975937 -0.00089973600665124004 0 -0.0091287103927983424 -0.0010027816554936456 0 -0.0086891565823208668 -0.00070950395969456145 0 0.0021567034902464006 -0.0044574980918972301 0 0.0021533608464288207 -0.0046657556655704188 0 0.002285508632256167 -0.0046780109478867784 0 0.0021567034902464006 -0.0044574980918972301 0 0.002285508632256167 -0.0046780109478867784 0 0.0023499586618573789 -0.0046644719111395179 0 -0.0091421440942051329 -0.0007367537721587428 0 -0.0092291942510975937 -0.00089973600665124004 0 -0.0086891565823208668 -0.00070950395969456145 0 -0.0091421440942051329 -0.0007367537721587428 0 -0.0089154801015675078 -0.00058310522980837426 0 -0.0086891565823208668 -0.00070950395969456145 0 0.0021533608464288207 -0.0046657556655704188 0 0.002285508632256167 -0.0046780109478867784 0 0.002283858326414681 -0.0047461961941254183 0 0.002285508632256167 -0.0046780109478867784 0 0.0025040028515130436 -0.0047220363261964594 0 0.002283858326414681 -0.0047461961941254183 0 0.002285508632256167 -0.0046780109478867784 0 0.0023499586618573789 -0.0046644719111395179 0 0.0025040028515130436 -0.0047220363261964594 0 0.0025040028515130436 -0.0047220363261964594 0 0.0025588441391150322 -0.004672169117132312 0 0.0027296991619590052 -0.0047535443602326807 0 0.0025588441391150322 -0.004672169117132312 0 0.002283858326414681 -0.0047461961941254183 0 0.0023345999486606133 -0.0046011330915331425 0 0.0025040028515130436 -0.0047220363261964594 0 0.0025588441391150322 -0.004672169117132312 0 0.002283858326414681 -0.0047461961941254183 0 0.0021533608464288207 -0.0046657556655704188 0 0.002283858326414681 -0.0047461961941254183 0 0.0017481278884145738 -0.0049494822338106608 0 0.002283858326414681 -0.0047461961941254183 0 0.0023345999486606133 -0.0046011330915331425 0 0.0017481278884145738 -0.0049494822338106608 0 0.0023345999486606133 -0.0046011330915331425 0 0.0021237002235870535 -0.0044101380666474793 0 0.0017481278884145738 -0.0049494822338106608 0 0.0023345999486606133 -0.0046011330915331425 0 0.0021237002235870535 -0.0044101380666474793 0 0.0025214552930862884 -0.0042540938117823076 0 0.0023345999486606133 -0.0046011330915331425 0 0.0027579848783944529 -0.0044248472083881184 0 0.0025214552930862884 -0.0042540938117823076 0 0.0025588441391150322 -0.004672169117132312 0 0.0027579848783944529 -0.0044248472083881184 0 0.0029041386430565374 -0.0046190335178367854 0 0.0025588441391150322 -0.004672169117132312 0 0.0023345999486606133 -0.0046011330915331425 0 0.0027579848783944529 -0.0044248472083881184 0 -0.007477366421144019 -3.7749751161655677e-05 0 -0.0081725464120541384 -0.00040736406557675357 0 -0.0073857837557421936 -0.00045303324034671777 0 -0.007477366421144019 -3.7749751161655677e-05 0 -0.0084070759217281538 -0.00036208235211095455 0 -0.0081725464120541384 -0.00040736406557675357 0 0.0021237002235870535 -0.0044101380666474793 0 0.0017481278884145738 -0.0049494822338106608 0 0.0016920670790009087 -0.0041988105463421051 0 -0.0032816488078194301 -0.0026130863664828603 0 -0.0034137317882364212 -0.002534377448393927 0 0.0017481278884145738 -0.0049494822338106608 0 0.00064670921627656022 -0.0046886870343257345 0 0.0016920670790009087 -0.0041988105463421051 0 0.00064670921627656022 -0.0046886870343257345 0 0.0016920670790009087 -0.0041988105463421051 0 0.0012023016240027674 -0.003616431578937658 0 0.00064670921627656022 -0.0046886870343257345 0 0.0012023016240027674 -0.003616431578937658 0 0.00010797371227994456 -0.0035364968425500541 0 0.0020888114390993561 -0.0030294818886993677 0 0.0016920670790009087 -0.0041988105463421051 0 0.0024410556864577402 -0.0038144947014524086 0 0.0020888114390993561 -0.0030294818886993677 0 0.0016920670790009087 -0.0041988105463421051 0 0.0012023016240027674 -0.003616431578937658 0 0.0020888114390993561 -0.0030294818886993677 0 0.00045981718352928379 -0.0025342385839546579 0 0.0012023016240027674 -0.003616431578937658 0 0.00045981718352928379 -0.0025342385839546579 0 0.0012023016240027674 -0.003616431578937658 0 0.00010797371227994456 -0.0035364968425500541 0 0.0027579848783944529 -0.0044248472083881184 0 0.0025214552930862884 -0.0042540938117823076 0 0.0030649674769487067 -0.0039045652006462423 0 0.0025214552930862884 -0.0042540938117823076 0 0.0024410556864577402 -0.0038144947014524086 0 0.0030649674769487067 -0.0039045652006462423 0 0.0021237002235870535 -0.0044101380666474793 0 0.0016920670790009087 -0.0041988105463421051 0 0.0024410556864577402 -0.0038144947014524086 0 0.0021237002235870535 -0.0044101380666474793 0 0.0025214552930862884 -0.0042540938117823076 0 0.0024410556864577402 -0.0038144947014524086 0 0.002555091147802108 -0.0030762524613364242 0 0.0020888114390993561 -0.0030294818886993677 0 0.0024410556864577402 -0.0038144947014524086 0 0.002555091147802108 -0.0030762524613364242 0 0.0024410556864577402 -0.0038144947014524086 0 0.0028367633481047876 -0.0035327507939434876 0 0.0024410556864577402 -0.0038144947014524086 0 0.0028367633481047876 -0.0035327507939434876 0 0.0030649674769487067 -0.0039045652006462423 0 0.0032389546162569388 -0.0032478383509880649 0 0.0028367633481047876 -0.0035327507939434876 0 0.0030649674769487067 -0.0039045652006462423 0 0.0032389546162569388 -0.0032478383509880649 0 0.0030649674769487067 -0.0039045652006462423 0 0.0035965712415177552 -0.0036028559380921811 0 0.0030649674769487067 -0.0039045652006462423 0 0.0035965712415177552 -0.0036028559380921811 0 0.0036314416010418344 -0.0039893203876098914 0 0.0035965712415177552 -0.0036028559380921811 0 0.0040762178754305579 -0.0036088485962574635 0 0.0036314416010418344 -0.0039893203876098914 0 0.0040762178754305579 -0.0036088485962574635 0 0.0036314416010418344 -0.0039893203876098914 0 0.0042454596794600291 -0.0038824110725531984 0 0.0036314416010418344 -0.0039893203876098914 0 0.0031827815093353582 -0.0042916147481947119 0 0.0036248204029586 -0.0044429765696764436 0 0.0036314416010418344 -0.0039893203876098914 0 0.0036248204029586 -0.0044429765696764436 0 0.0042454596794600291 -0.0038824110725531984 0 0.0030649674769487067 -0.0039045652006462423 0 0.0036314416010418344 -0.0039893203876098914 0 0.0031827815093353582 -0.0042916147481947119 0 0.0027579848783944529 -0.0044248472083881184 0 0.0030649674769487067 -0.0039045652006462423 0 0.0031827815093353582 -0.0042916147481947119 0 0.0031827815093353582 -0.0042916147481947119 0 0.0029041386430565374 -0.0046190335178367854 0 0.0036248204029586 -0.0044429765696764436 0 0.0027579848783944529 -0.0044248472083881184 0 0.0031827815093353582 -0.0042916147481947119 0 0.0029041386430565374 -0.0046190335178367854 0 0.0029041386430565374 -0.0046190335178367854 0 0.0036248204029586 -0.0044429765696764436 0 0.0028968801156364289 -0.0049101901181414229 0 0.0028757897672111866 -0.0049527969930272947 0 0.0029218514457449106 -0.0050182793454524892 0 0.0028968801156364289 -0.0049101901181414229 0 0.0024294179568425706 -0.0046790774508445781 0 0.0018582047960151861 -0.0050105269723414855 0 0.0036248204029586 -0.0044429765696764436 0 0.0028968801156364289 -0.0049101901181414229 0 0.0038999828844972087 -0.0050692523502811953 0 0.0021457559789814745 -0.0043470420349001294 0 0.0024294179568425706 -0.0046790774508445781 0 0.0018582047960151861 -0.0050105269723414855 0 0.0028968801156364289 -0.0049101901181414229 0 0.0024294179568425706 -0.0046790774508445781 0 0.002698793034955274 -0.0046861424395875 0 0.0028968801156364289 -0.0049101901181414229 0 0.002698793034955274 -0.0046861424395875 0 0.0027296991619590052 -0.0047535443602326807 0 0.0025040028515130436 -0.0047220363261964594 0 0.002698793034955274 -0.0046861424395875 0 0.0027296991619590052 -0.0047535443602326807 0 0.0025588441391150322 -0.004672169117132312 0 0.0029041386430565374 -0.0046190335178367854 0 0.0027296991619590052 -0.0047535443602326807 0 0.0029041386430565374 -0.0046190335178367854 0 0.0028968801156364289 -0.0049101901181414229 0 0.0027296991619590052 -0.0047535443602326807 0 0.0026333053987225206 -0.0035817213046624532 0 0.0017115877311505488 -0.0017410398448576628 0 0.0045793091866109742 -0.0048677292376048918 0 0.0049488870675081977 -0.004552326281991247 0 0.0051634014414259971 -0.0049048194355957994 0 0.0026333053987225206 -0.0035817213046624532 0 0.0029218514457449106 -0.0050182793454524892 0 0.0015534080153094254 -0.0044134228415519837 0 0.0010822700129158496 -0.0049640942807219601 0 0.0018582047960151861 -0.0050105269723414855 0 0.0021457559789814745 -0.0043470420349001294 0 0.0015534080153094254 -0.0044134228415519837 0 0.0018582047960151861 -0.0050105269723414855 0 0.0045572668853307218 -0.0051020972635202732 0 0.0038999828844972087 -0.0050692523502811953 0 0.0045121650742308492 -0.0042002338187055229 0 0.0036248204029586 -0.0044429765696764436 0 0.0038999828844972087 -0.0050692523502811953 0 0.0045121650742308492 -0.0042002338187055229 0 0.0045121650742308492 -0.0042002338187055229 0 0.005211195170723347 -0.0041514640790000831 0 0.0049488870675081977 -0.004552326281991247 0 0.0045793091866109742 -0.0048677292376048918 0 0.0045121650742308492 -0.0042002338187055229 0 0.0049488870675081977 -0.004552326281991247 0 0.0026333053987225206 -0.0035817213046624532 0 0.0049682209195003853 -0.0048711546749179817 0 0.0045121650742308492 -0.0042002338187055229 0 0.0049326630731574136 -0.0037530240204952559 0 0.005211195170723347 -0.0041514640790000831 0 0.0045121650742308492 -0.0042002338187055229 0 0.0042454596794600291 -0.0038824110725531984 0 0.0046384178887222422 -0.0036239989248022142 0 0.0036248204029586 -0.0044429765696764436 0 0.0045121650742308492 -0.0042002338187055229 0 0.0042454596794600291 -0.0038824110725531984 0 0.0045205446897003954 -0.0035355444624048634 0 0.0042454596794600291 -0.0038824110725531984 0 0.0046384178887222422 -0.0036239989248022142 0 0.0045205446897003954 -0.0035355444624048634 0 0.0040762178754305579 -0.0036088485962574635 0 0.0042454596794600291 -0.0038824110725531984 0 0.0048486779953106889 -0.0033719752115278522 0 0.0049326630731574136 -0.0037530240204952559 0 0.0046384178887222422 -0.0036239989248022142 0 0.0045121650742308492 -0.0042002338187055229 0 0.0049326630731574136 -0.0037530240204952559 0 0.0046384178887222422 -0.0036239989248022142 0 0.0048486779953106889 -0.0033719752115278522 0 0.0051766879672536046 -0.0034025131678751962 0 0.0049326630731574136 -0.0037530240204952559 0 0.0051766879672536046 -0.0034025131678751962 0 0.0049326630731574136 -0.0037530240204952559 0 0.0053098286507208886 -0.0037537348316556969 0 0.0051766879672536046 -0.0034025131678751962 0 0.0055924005034269164 -0.0033430165662511014 0 0.0053098286507208886 -0.0037537348316556969 0 0.0055924005034269164 -0.0033430165662511014 0 0.0053098286507208886 -0.0037537348316556969 0 0.0057143971148636069 -0.0038677744193019387 0 0.0055924005034269164 -0.0033430165662511014 0 0.0057143971148636069 -0.0038677744193019387 0 0.0059417223939184829 -0.0035507685917398448 0 0.0053098286507208886 -0.0037537348316556969 0 0.0057143971148636069 -0.0038677744193019387 0 0.005211195170723347 -0.0041514640790000831 0 0.0057143971148636069 -0.0038677744193019387 0 0.005211195170723347 -0.0041514640790000831 0 0.0057930495477908558 -0.0043545525560989016 0 0.0049326630731574136 -0.0037530240204952559 0 0.0053098286507208886 -0.0037537348316556969 0 0.005211195170723347 -0.0041514640790000831 0 0.0062363263930834282 -0.0031818200580086648 0 0.0063993174901178489 -0.0037891061208133658 0 0.00689619219452315 -0.0034298002456224956 0 0.0063993174901178489 -0.0037891061208133658 0 0.0069105822762761428 -0.0039143115454089968 0 0.00689619219452315 -0.0034298002456224956 0 0.0062363263930834282 -0.0031818200580086648 0 0.0063993174901178489 -0.0037891061208133658 0 0.0059417223939184829 -0.0035507685917398448 0 0.0063993174901178489 -0.0037891061208133658 0 0.0059417223939184829 -0.0035507685917398448 0 0.0060470815875061394 -0.004008175346132895 0 0.0057143971148636069 -0.0038677744193019387 0 0.0059417223939184829 -0.0035507685917398448 0 0.0060470815875061394 -0.004008175346132895 0 0.0055924005034269164 -0.0033430165662511014 0 0.0062363263930834282 -0.0031818200580086648 0 0.0059417223939184829 -0.0035507685917398448 0 0.0057143971148636069 -0.0038677744193019387 0 0.0060470815875061394 -0.004008175346132895 0 0.0057930495477908558 -0.0043545525560989016 0 0.0063993174901178489 -0.0037891061208133658 0 0.0060470815875061394 -0.004008175346132895 0 0.0062667424714891668 -0.0042870170231975764 0 0.0060470815875061394 -0.004008175346132895 0 0.0062667424714891668 -0.0042870170231975764 0 0.0057930495477908558 -0.0043545525560989016 0 0.0063993174901178489 -0.0037891061208133658 0 0.0066336157610991575 -0.0041704603108931445 0 0.0069105822762761428 -0.0039143115454089968 0 0.0063993174901178489 -0.0037891061208133658 0 0.0066336157610991575 -0.0041704603108931445 0 0.0062667424714891668 -0.0042870170231975764 0 0.0018239349489911382 -0.00032441439933920415 0 0.0038104154197596894 -0.0020137985233555041 0 0.0066336157610991575 -0.0041704603108931445 0 0.0065195314634716676 -0.0045062022301508723 0 0.0070762332463351098 -0.0043490633930829917 0 0.0065195314634716676 -0.0045062022301508723 0 0.0061551983046064787 -0.0046378057187155819 0 0.0064144661117672671 -0.0049892622492471216 0 0.0065195314634716676 -0.0045062022301508723 0 0.0064144661117672671 -0.0049892622492471216 0 0.0070762332463351098 -0.0043490633930829917 0 0.0066336157610991575 -0.0041704603108931445 0 0.0065195314634716676 -0.0045062022301508723 0 0.0062667424714891668 -0.0042870170231975764 0 0.0065195314634716676 -0.0045062022301508723 0 0.0061551983046064787 -0.0046378057187155819 0 0.0062667424714891668 -0.0042870170231975764 0 0.0061551983046064787 -0.0046378057187155819 0 0.0057930495477908558 -0.0043545525560989016 0 0.0057801908253076731 -0.0049499670651891479 0 0.0061551983046064787 -0.0046378057187155819 0 0.0062667424714891668 -0.0042870170231975764 0 0.0057930495477908558 -0.0043545525560989016 0 -0.00071091877792052015 0.0012298062380413754 0 -0.00097167998013586855 0.0012234178274897714 0 -0.00090964059547895073 0.001116435642382087 0 0.0018239349489911382 -0.00032441439933920415 0 0.0026698304436906855 -0.0019823923789801402 0 -0.00071091877792052015 0.0012298062380413754 0 -0.0006892977318827835 0.0012529065802811849 0 -0.00097167998013586855 0.0012234178274897714 0 0.0061551983046064787 -0.0046378057187155819 0 0.0064144661117672671 -0.0049892622492471216 0 0.0057801908253076731 -0.0049499670651891479 0 0.0018239349489911382 -0.00032441439933920415 0 -0.00055920381745933089 0.0012089387141730014 0 -0.00068996632939023761 0.0012535491159551644 0 -0.00061041921941832906 0.0011588240536671243 0 -0.00047876890612505207 0.0012526463479340464 0 -0.00071091877792052015 0.0012298062380413754 0 -0.00068996632939023761 0.0012535491159551644 0 -0.00061041921941832906 0.0011588240536671243 0 0.0016596412906107949 -0.0002926454445951939 0 0.0018239349489911382 -0.00032441439933920415 0 0.0049488870675081977 -0.004552326281991247 0 0.0054001212118534392 -0.0045636442988398335 0 0.0051634014414259971 -0.0049048194355957994 0 0.005211195170723347 -0.0041514640790000831 0 0.0049488870675081977 -0.004552326281991247 0 0.0054001212118534392 -0.0045636442988398335 0 0.0054001212118534392 -0.0045636442988398335 0 0.0057930495477908558 -0.0043545525560989016 0 0.0057801908253076731 -0.0049499670651891479 0 0.005211195170723347 -0.0041514640790000831 0 0.0054001212118534392 -0.0045636442988398335 0 0.0057930495477908558 -0.0043545525560989016 0 -0.00097167998013586855 0.0012234178274897714 0 -0.0012365023859099557 0.0011691856728503571 0 -0.0011322986315421696 0.0010492420725668526 0 0.0026698304436906855 -0.0019823923789801402 0 0.0017115877311505488 -0.0017410398448576628 0 0.0054001212118534392 -0.0045636442988398335 0 0.0057801908253076731 -0.0049499670651891479 0 0.0051634014414259971 -0.0049048194355957994 0 -0.0013714270870499991 0.0011079245658868584 0 -0.0012365023859099557 0.0011691856728503571 0 -0.0013300939787858779 0.0010287433485757962 0 -0.0013300939787858779 0.0010287433485757962 0 -0.0012635373510324027 0.00094572696394831888 0 -0.0011322986315421696 0.0010492420725668526 0 -0.0012365023859099557 0.0011691856728503571 0 -0.0013300939787858779 0.0010287433485757962 0 -0.0011322986315421696 0.0010492420725668526 0 -0.0012635373510324027 0.00094572696394831888 0 -0.0011966525633889662 0.0008794630610059976 0 -0.0011322986315421696 0.0010492420725668526 0 -0.0013300939787858779 0.0010287433485757962 0 -0.0012635373510324027 0.00094572696394831888 0 -0.0014168509513326872 0.00080360510532990245 0 -0.0011966525633889662 0.0008794630610059976 0 -0.0014405532821141272 0.00068086553382445719 0 -0.0010534455241955878 0.00071824622020899055 0 -0.0012635373510324027 0.00094572696394831888 0 -0.0014168509513326872 0.00080360510532990245 0 -0.0011966525633889662 0.0008794630610059976 0 -0.0014168509513326872 0.00080360510532990245 0 -0.0011966525633889662 0.0008794630610059976 0 -0.0014405532821141272 0.00068086553382445719 0 -0.0032165777141811747 0.00089099024227909027 0 -0.0057601319858364402 0.00053621631998115101 0 -0.0011966525633889662 0.0008794630610059976 0 -0.00095518926192693766 0.00097703098368887758 0 -0.0010534455241955878 0.00071824622020899055 0 -0.0011966525633889662 0.0008794630610059976 0 -0.0011322986315421696 0.0010492420725668526 0 -0.00095518926192693766 0.00097703098368887758 0 -0.0011322986315421696 0.0010492420725668526 0 -0.00090964059547895073 0.001116435642382087 0 -0.00095518926192693766 0.00097703098368887758 0 -0.00097167998013586855 0.0012234178274897714 0 -0.0011322986315421696 0.0010492420725668526 0 -0.00090964059547895073 0.001116435642382087 0 -0.00071091877792052015 0.0012298062380413754 0 -0.00090964059547895073 0.001116435642382087 0 -0.00074840439002794531 0.0010741622172017839 0 -0.00090964059547895073 0.001116435642382087 0 -0.00095518926192693766 0.00097703098368887758 0 -0.00074840439002794531 0.0010741622172017839 0 -0.00071091877792052015 0.0012298062380413754 0 -0.00061041921941832906 0.0011588240536671243 0 -0.00074840439002794531 0.0010741622172017839 0 -0.00061041921941832906 0.0011588240536671243 0 -0.00074840439002794531 0.0010741622172017839 0 -0.00059985924182551773 0.001022195569147204 0 -0.00059985924182551773 0.001022195569147204 0 -0.00075600789365184865 0.00091890154267934337 0 -0.00052155958485621478 0.00094566381587297119 0 -0.00075600789365184865 0.00091890154267934337 0 -0.00068530696493711285 0.00077245515943250931 0 -0.00052155958485621478 0.00094566381587297119 0 -0.00074840439002794531 0.0010741622172017839 0 -0.00059985924182551773 0.001022195569147204 0 -0.00075600789365184865 0.00091890154267934337 0 -0.00095518926192693766 0.00097703098368887758 0 -0.00075600789365184865 0.00091890154267934337 0 -0.0010534455241955878 0.00071824622020899055 0 -0.00095518926192693766 0.00097703098368887758 0 -0.00074840439002794531 0.0010741622172017839 0 -0.00075600789365184865 0.00091890154267934337 0 -0.00075600789365184865 0.00091890154267934337 0 -0.00068530696493711285 0.00077245515943250931 0 -0.0010534455241955878 0.00071824622020899055 0 -0.0061982383032116286 0.0028986143743075488 0 -0.0074923877173824387 0.0016562014523757952 0 -0.0085858765761427317 0.0029176374365595757 0 -0.003286039641913516 0.0018281506088943626 0 -0.0049255846722222841 0.0019837134396839952 0 -0.0061982383032116286 0.0028986143743075488 0 -0.0060699821198611521 0.00071481826321314452 0 -0.0048548390548560283 0.0017541505707840558 0 -0.0061982383032116286 0.0028986143743075488 0 -0.0060699821198611521 0.00071481826321314452 0 -0.0074923877173824387 0.0016562014523757952 0 -0.0060699821198611521 0.00071481826321314452 0 -0.0074923877173824387 0.0016562014523757952 0 -0.0077295430810717641 0.00039969057052279667 0 -0.0074923877173824387 0.0016562014523757952 0 -0.0087706991705610478 0.0012339367076363635 0 -0.0077295430810717641 0.00039969057052279667 0 -0.0074923877173824387 0.0016562014523757952 0 -0.0087706991705610478 0.0012339367076363635 0 -0.0085858765761427317 0.0029176374365595757 0 -0.0087706991705610478 0.0012339367076363635 0 -0.0097750456986789996 0.001847693647032007 0 -0.0085858765761427317 0.0029176374365595757 0 -0.0087706991705610478 0.0012339367076363635 0 -0.0097750456986789996 0.001847693647032007 0 -0.0098908063651685172 0.00063406552914413081 0 -0.010849788751397178 0.0015293321766393162 0 -0.0097750456986789996 0.001847693647032007 0 -0.0098908063651685172 0.00063406552914413081 0 -0.0057601319858364402 0.00053621631998115101 0 -0.0049255846722222841 0.0019837134396839952 0 -0.0097750456986789996 0.001847693647032007 0 -0.010741202851115997 0.0029366265382399898 0 -0.0085858765761427317 0.0029176374365595757 0 -0.010849788751397178 0.0015293321766393162 0 -0.0097750456986789996 0.001847693647032007 0 -0.010741202851115997 0.0029366265382399898 0 -0.0026983303417890021 0.0012023051262825748 0 -0.0031014048065834193 0.0012325108755061602 0 -0.0022019654382183125 0.0015111978018993279 0 -0.0020703509716308412 0.0012166787843765209 0 -0.0026983303417890021 0.0012023051262825748 0 -0.0018715948170202413 0.00091186307796327012 0 -0.0026983303417890021 0.0012023051262825748 0 -0.0018715948170202413 0.00091186307796327012 0 -0.0026422593080900518 0.00060055182646871937 0 -0.0026983303417890021 0.0012023051262825748 0 -0.0026422593080900518 0.00060055182646871937 0 -0.003676279913402347 0.0008025135369218603 0 -0.0020703509716308412 0.0012166787843765209 0 -0.0018715948170202413 0.00091186307796327012 0 -0.0012683195399668292 0.0012595816669497112 0 -0.0018715948170202413 0.00091186307796327012 0 -0.0012683195399668292 0.0012595816669497112 0 -0.0011600159867014674 0.00089245187509017778 0 -0.0018715948170202413 0.00091186307796327012 0 -0.0015523383170666285 0.00057004054999989335 0 -0.0011600159867014674 0.00089245187509017778 0 -0.0018715948170202413 0.00091186307796327012 0 -0.0015523383170666285 0.00057004054999989335 0 -0.0020977856759154807 0.0002642810227486607 0 -0.0018715948170202413 0.00091186307796327012 0 -0.0020977856759154807 0.0002642810227486607 0 -0.0026422593080900518 0.00060055182646871937 0 -0.0015523383170666285 0.00057004054999989335 0 -0.0020977856759154807 0.0002642810227486607 0 -0.0016425183441879827 2.7421102845624938e-06 0 -0.0020977856759154807 0.0002642810227486607 0 -0.0026422593080900518 0.00060055182646871937 0 -0.002738329939855285 1.2708926581409525e-05 0 -0.0026422593080900518 0.00060055182646871937 0 -0.0034139154610691685 0.00016150071664169173 0 -0.003676279913402347 0.0008025135369218603 0 -0.0026422593080900518 0.00060055182646871937 0 -0.0034139154610691685 0.00016150071664169173 0 -0.002738329939855285 1.2708926581409525e-05 0 -0.003676279913402347 0.0008025135369218603 0 -0.0045067969852454126 0.00031430057756119846 0 -0.0049773028796635446 0.0010856994456091152 0 -0.0034139154610691685 0.00016150071664169173 0 -0.003676279913402347 0.0008025135369218603 0 -0.0045067969852454126 0.00031430057756119846 0 -0.0060699821198611521 0.00071481826321314452 0 -0.0045067969852454126 0.00031430057756119846 0 -0.0049773028796635446 0.0010856994456091152 0 -0.0059019320641701964 0.0007594674083829479 0 -0.0050367933763891112 0.0013330377262128017 0 -0.0061982383032116286 0.0028986143743075488 0 -0.0048548390548560283 0.0017541505707840558 0 -0.0036356141502184428 0.002809102718546667 0 -0.003286039641913516 0.0018281506088943626 0 -0.0026231302066151868 0.0016906547244208959 0 -0.00068530696493711285 0.00077245515943250931 0 -0.00036069341335496618 0.00084941798489227872 0 -0.00052155958485621478 0.00094566381587297119 0 -0.0050367933763891112 0.0013330377262128017 0 -0.0026231302066151868 0.0016906547244208959 0 -0.003676279913402347 0.0008025135369218603 0 -0.0049773028796635446 0.0010856994456091152 0 -0.0039343808072953889 0.0015911590496179506 0 -0.0026983303417890021 0.0012023051262825748 0 -0.003676279913402347 0.0008025135369218603 0 -0.0039343808072953889 0.0015911590496179506 0 -0.0030939396413094708 0.001337948578969964 0 -0.0026231302066151868 0.0016906547244208959 0 -0.0026231302066151868 0.0016906547244208959 0 -0.0011110804386107941 0.0012144468219971612 0 -0.00036069341335496618 0.00084941798489227872 0 -0.00034779746909300354 0.0010736266716715719 0 -0.00021034594124930679 0.0011369156225215775 0 -0.00059985924182551773 0.001022195569147204 0 -0.00052155958485621478 0.00094566381587297119 0 -0.00045900435215072915 0.0011077758489876012 0 -0.00034779746909300354 0.0010736266716715719 0 -0.00052155958485621478 0.00094566381587297119 0 -0.00045900435215072915 0.0011077758489876012 0 -0.00036069341335496618 0.00084941798489227872 0 -0.00034779746909300354 0.0010736266716715719 0 -0.00052155958485621478 0.00094566381587297119 0 -0.00061041921941832906 0.0011588240536671243 0 -0.00059985924182551773 0.001022195569147204 0 -0.00045900435215072915 0.0011077758489876012 0 -0.00061041921941832906 0.0011588240536671243 0 -0.00045900435215072915 0.0011077758489876012 0 -0.00047876890612505207 0.0012526463479340464 0 -0.00034779746909300354 0.0010736266716715719 0 -0.00025836784224755107 0.0011628612932051835 0 -0.00023529711216275863 0.001191753554640575 0 -0.00034779746909300354 0.0010736266716715719 0 -0.00025836784224755107 0.0011628612932051835 0 -0.00021034594124930679 0.0011369156225215775 0 -0.00034779746909300354 0.0010736266716715719 0 -0.00045900435215072915 0.0011077758489876012 0 -0.00023529711216275863 0.001191753554640575 0 -0.00025836784224755107 0.0011628612932051835 0 -0.00027988020386692154 0.0011913815899612852 0 -0.00021034594124930679 0.0011369156225215775 0 -0.00025836784224755107 0.0011628612932051835 0 -0.00027988020386692154 0.0011913815899612852 0 -0.00026619309191288173 0.0011348053082889291 0 -0.0020703509716308412 0.0012166787843765209 0 -0.0026983303417890021 0.0012023051262825748 0 -0.0022019654382183125 0.0015111978018993279 0 -0.0022019654382183125 0.0015111978018993279 0 -0.0012683195399668292 0.0012595816669497112 0 -0.00059657137338228132 0.0013230502083846152 0 -0.0020703509716308412 0.0012166787843765209 0 -0.0022019654382183125 0.0015111978018993279 0 -0.0012683195399668292 0.0012595816669497112 0 -0.0011110804386107941 0.0012144468219971612 0 -0.00077572137897227646 0.0013115986241756606 0 -0.00027988020386692154 0.0011913815899612852 0 -0.00021034594124930679 0.0011369156225215775 0 -0.00059657137338228132 0.0013230502083846152 0 -0.0012683195399668292 0.0012595816669497112 0 -0.00059657137338228132 0.0013230502083846152 0 -0.00072250671614711008 0.0012585009816445181 0 -0.00059657137338228132 0.0013230502083846152 0 -0.00020716399987145658 0.0010060387097280507 0 -0.00028315091418793631 0.0010210437751526755 0 -0.00020716399987145658 0.0010060387097280507 0 -8.4530404563363935e-05 0.00082686179770796449 0 -0.00028315091418793631 0.0010210437751526755 0 -0.00027988020386692154 0.0011913815899612852 0 -0.00059657137338228132 0.0013230502083846152 0 -0.00020716399987145658 0.0010060387097280507 0 -0.00027988020386692154 0.0011913815899612852 0 -0.00026619309191288173 0.0011348053082889291 0 -0.00033725450978759532 0.00096311258121508899 0 -0.00019295169428427725 0.0011002121207885286 0 -0.00025690791931009139 0.00098418511259476277 0 -0.00027988020386692154 0.0011913815899612852 0 -0.00020716399987145658 0.0010060387097280507 0 0.00019740496328293748 0.00079313020801250096 0 -0.00020716399987145658 0.0010060387097280507 0 0.00019740496328293748 0.00079313020801250096 0 -8.4530404563363935e-05 0.00082686179770796449 0 0.00019740496328293748 0.00079313020801250096 0 -8.4530404563363935e-05 0.00082686179770796449 0 1.6278611425713396e-05 0.0004764839335128788 0 -0.00055920381745933089 0.0012089387141730014 0 -0.00012299155753813353 0.0011962567378715637 0 0.00032841448115524658 0.001163956392903241 0 6.5663467875354153e-05 0.0011893206458907172 0 3.7123571842427472e-05 0.0008532468065770662 0 -0.00045900435215072915 0.0011077758489876012 0 -0.00047876890612505207 0.0012526463479340464 0 -0.00023529711216275863 0.001191753554640575 0 6.5663467875354153e-05 0.0011893206458907172 0 -0.00023529711216275863 0.001191753554640575 0 -0.00017317704314949464 0.0010144375736831953 0 -0.00025836784224755107 0.0011628612932051835 0 -0.00026619309191288173 0.0011348053082889291 0 -0.00023529711216275863 0.001191753554640575 0 -0.00026619309191288173 0.0011348053082889291 0 -0.00023529711216275863 0.001191753554640575 0 -0.00017317704314949464 0.0010144375736831953 0 -0.00026619309191288173 0.0011348053082889291 0 -0.00033725450978759532 0.00096311258121508899 0 -0.00017317704314949464 0.0010144375736831953 0 -0.00033725450978759532 0.00096311258121508899 0 -0.00017057069020872119 0.00084354878077040737 0 -0.00017317704314949464 0.0010144375736831953 0 -0.00017057069020872119 0.00084354878077040737 0 -0.00017317704314949464 0.0010144375736831953 0 3.7123571842427472e-05 0.0008532468065770662 0 6.5663467875354153e-05 0.0011893206458907172 0 -0.00017317704314949464 0.0010144375736831953 0 3.7123571842427472e-05 0.0008532468065770662 0 0.0070762332463351098 -0.0043490633930829917 0 0.0069105822762761428 -0.0039143115454089968 0 0.0072264912380888228 -0.003856360250264089 0 0.0070762332463351098 -0.0043490633930829917 0 0.0072264912380888228 -0.003856360250264089 0 0.0075394420721381361 -0.0038867275803489637 0 0.0066336157610991575 -0.0041704603108931445 0 0.0070762332463351098 -0.0043490633930829917 0 0.0069105822762761428 -0.0039143115454089968 0 0.0038104154197596894 -0.0020137985233555041 0 0.0033799908381238336 -0.0014054808180909216 0 -0.00033725450978759532 0.00096311258121508899 0 -0.00017057069020872119 0.00084354878077040737 0 -0.0002188016371632623 0.00054279281387356279 0 -0.00017057069020872119 0.00084354878077040737 0 -0.00012635298827164747 0.00065582484869711535 0 -0.0002188016371632623 0.00054279281387356279 0 -0.00017057069020872119 0.00084354878077040737 0 3.7123571842427472e-05 0.0008532468065770662 0 -0.00012635298827164747 0.00065582484869711535 0 0.0035229401262959615 -0.0013247292083902924 0 0.0037053209498210697 -0.0011167975526264458 0 0.0036580895203670578 -0.00095283680347768281 0 0.0033799908381238336 -0.0014054808180909216 0 0.0047590968979336016 -0.0017388290544749416 0 0.0033799908381238336 -0.0014054808180909216 0 0.0012925165665654873 0.00010534055850788347 0 0.0012925165665654873 0.00010534055850788347 0 0.0047590968979336016 -0.0017388290544749416 0 0.00050162668468021077 0.00038458242625774276 0 0.00052589150532703923 0.0003035344610524073 0 0.00035914217344923453 0.00024543808066963092 0 0.007374531918955967 -0.0032468851939822995 0 0.0077291587917154674 -0.0034462470160748571 0 0.0073026409436015866 -0.0035557183018152176 0 0.0075394420721381361 -0.0038867275803489637 0 0.0077291587917154674 -0.0034462470160748571 0 0.0073026409436015866 -0.0035557183018152176 0 0.0072264912380888228 -0.003856360250264089 0 0.0075394420721381361 -0.0038867275803489637 0 0.0073026409436015866 -0.0035557183018152176 0 0.0069105822762761428 -0.0039143115454089968 0 0.0072264912380888228 -0.003856360250264089 0 0.0073026409436015866 -0.0035557183018152176 0 0.007374531918955967 -0.0032468851939822995 0 0.0073026409436015866 -0.0035557183018152176 0 0.00689619219452315 -0.0034298002456224956 0 0.0069105822762761428 -0.0039143115454089968 0 0.0073026409436015866 -0.0035557183018152176 0 0.00689619219452315 -0.0034298002456224956 0 -4.4290277773849296e-05 0.00079727758984498502 0 0.00010899188010858473 0.00053704732576477792 0 0.00019740496328293748 0.00079313020801250096 0 1.6278611425713396e-05 0.0004764839335128788 0 0.00023080431061118427 0.00040805376358385621 0 0.00019740496328293748 0.00079313020801250096 0 0.00044474806112534905 0.00040692726892436852 0 0.00023080431061118427 0.00040805376358385621 0 -0.00025690791931009139 0.00098418511259476277 0 0.0012925165665654873 0.00010534055850788347 0 0.00013469182599022984 0.00011366664784485452 0 0.00023080431061118427 0.00040805376358385621 0 0.00035914217344923453 0.00024543808066963092 0 0.0012925165665654873 0.00010534055850788347 0 0.00038608430648823082 0.0001370260212899355 0 0.00044474806112534905 0.00040692726892436852 0 0.00023080431061118427 0.00040805376358385621 0 0.00035914217344923453 0.00024543808066963092 0 0.00024798227511133974 0.00028920618708853273 0 0.00010899188010858473 0.00053704732576477792 0 0.00013469182599022984 0.00011366664784485452 0 1.6278611425713396e-05 0.0004764839335128788 0 0.00023080431061118427 0.00040805376358385621 0 0.00024699388951078815 0.00052921647392868774 0 0.00036382900938736201 0.00046807440086303842 0 0.00022394112341437311 0.00059894892208797723 0 0.00024699388951078815 0.00052921647392868774 0 0.00022394112341437311 0.00059894892208797723 0 0.000406775731192341 0.00049232800236841514 0 0.00022394112341437311 0.00059894892208797723 0 0.000406775731192341 0.00049232800236841514 0 5.0628572062249585e-05 0.00075564445508261827 0 0.000406775731192341 0.00049232800236841514 0 1.9868983356584963e-05 0.000724714288880403 0 5.0628572062249585e-05 0.00075564445508261827 0 0.00088572671716719215 1.4177166607436079e-05 0 0.00050581433262644152 0.00042710950448980362 0 0.00082034726704790725 -0.00041826080892128472 0 0.0015730873000363837 -0.0004352173049500658 0 0.000406775731192341 0.00049232800236841514 0 0.00082034726704790725 -0.00041826080892128472 0 0.0001956647825648157 -0.00019898020289432899 0 0.00017225111822243643 0.00033768690270071379 0 0.00082034726704790725 -0.00041826080892128472 0 0.000406775731192341 0.00049232800236841514 0 0.00017225111822243643 0.00033768690270071379 0 0.0001956647825648157 -0.00019898020289432899 0 -0.00019211680524636128 0.00043367035259075915 0 0.00017225111822243643 0.00033768690270071379 0 0.0001956647825648157 -0.00019898020289432899 0 -0.00019211680524636128 0.00043367035259075915 0 -0.00042604280578497657 9.9907846219380434e-05 0 0.000406775731192341 0.00049232800236841514 0 0.00017225111822243643 0.00033768690270071379 0 1.9868983356584963e-05 0.000724714288880403 0 -0.00019211680524636128 0.00043367035259075915 0 0.00017225111822243643 0.00033768690270071379 0 1.9868983356584963e-05 0.000724714288880403 0 -0.00019211680524636128 0.00043367035259075915 0 1.9868983356584963e-05 0.000724714288880403 0 -0.00024364107477249929 0.0010412926501337115 0 -0.00019211680524636128 0.00043367035259075915 0 -0.00024364107477249929 0.0010412926501337115 0 -0.00064283719019661816 0.0006928523372264528 0 -0.00024364107477249929 0.0010412926501337115 0 -0.00064283719019661816 0.0006928523372264528 0 -0.00059790520884852379 0.0012017271392162222 0 -0.00024364107477249929 0.0010412926501337115 0 -0.00020350745219348035 0.001025439659747638 0 -0.00031284662233839087 0.0011382771432035654 0 1.9868983356584963e-05 0.000724714288880403 0 -0.00024364107477249929 0.0010412926501337115 0 -0.00020350745219348035 0.001025439659747638 0 -0.00020350745219348035 0.001025439659747638 0 -0.00028315091418793631 0.0010210437751526755 0 5.0628572062249585e-05 0.00075564445508261827 0 -0.00020350745219348035 0.001025439659747638 0 -0.00028315091418793631 0.0010210437751526755 0 -0.00048897502452151904 0.0011957510366913575 0 -8.4530404563363935e-05 0.00082686179770796449 0 -0.00028315091418793631 0.0010210437751526755 0 5.0628572062249585e-05 0.00075564445508261827 0 -8.4530404563363935e-05 0.00082686179770796449 0 0.00022394112341437311 0.00059894892208797723 0 5.0628572062249585e-05 0.00075564445508261827 0 1.9868983356584963e-05 0.000724714288880403 0 -0.00020350745219348035 0.001025439659747638 0 5.0628572062249585e-05 0.00075564445508261827 0 -0.0023015957383448284 0.00010408860996818457 0 -0.0024231901719821368 -0.0010663134022534026 0 -0.0017708255732871894 -0.00039687972411992081 0 -0.0042286359729540486 -0.002112114557906844 0 -0.0039765219370836305 -0.0017687441100569154 0 -0.0040310480062700996 -0.0024852739403777814 0 -0.0045114107303712847 -0.0016152871022270022 0 -0.0042286359729540486 -0.002112114557906844 0 -0.0039765219370836305 -0.0017687441100569154 0 -0.003245696754206666 -0.00095840891227297136 0 -0.0022991121602477008 -0.0012504556032942955 0 -0.0042286359729540486 -0.002112114557906844 0 -0.0040889113666388059 -0.0025462200136297185 0 -0.0040310480062700996 -0.0024852739403777814 0 -0.0015523573465338698 -0.00048988672133586954 0 -0.0015353187031533269 -0.00037020933661302774 0 -0.0011623016506312066 -0.00045744173612551043 0 -0.0020928757200560535 -0.0010650445416888507 0 -0.0020883983386292171 -0.0010692041155732309 0 -0.0020879797621042935 -0.0010600805002336457 0 -0.0019690522329802707 -0.00095472828049878507 0 -0.0022991121602477008 -0.0012504556032942955 0 -0.0013066823300431842 -0.00080287157588432431 0 -0.001340807132915146 -0.00072275895484896877 0 -0.0013035756242108538 -0.0007593973064538884 0 -0.0021033322870967 -0.001072486611105903 0 -0.0019690522329802707 -0.00095472828049878507 0 -0.0021033322870967 -0.001072486611105903 0 -0.0022991121602477008 -0.0012504556032942955 0 -0.0022991121602477008 -0.0012504556032942955 0 -0.0013844131909779241 -6.9089841264387974e-05 0 -0.0015353187031533269 -0.00037020933661302774 0 -0.0011623016506312066 -0.00045744173612551043 0 -0.0011545259379224177 3.9294347077384879e-05 0 -0.0011623016506312066 -0.00045744173612551043 0 -0.00095919434610482115 -0.00023798642638011528 0 -0.0011545259379224177 3.9294347077384879e-05 0 -0.00074534686593908154 -0.00057292099516129721 0 -0.0011623016506312066 -0.00045744173612551043 0 -0.00095919434610482115 -0.00023798642638011528 0 -0.0023015957383448284 0.00010408860996818457 0 -0.0017708255732871894 -0.00039687972411992081 0 -0.001757605863215692 0.00017646397298163417 0 -0.0017708255732871894 -0.00039687972411992081 0 -0.0010825195008760137 0.00034937952304712534 0 -0.001757605863215692 0.00017646397298163417 0 -0.0013844131909779241 -6.9089841264387974e-05 0 -0.0011265947598825985 0.00026441526707000272 0 -0.00078247659561316604 -3.7940865646031736e-05 0 -0.00042604280578497657 9.9907846219380434e-05 0 -0.0010825195008760137 0.00034937952304712534 0 -0.0011545259379224177 3.9294347077384879e-05 0 -0.00078247659561316604 -3.7940865646031736e-05 0 -0.0010825195008760137 0.00034937952304712534 0 -0.00074534686593908154 -0.00057292099516129721 0 -0.00029356260698097615 -0.00041717471084280939 0 -0.00078247659561316604 -3.7940865646031736e-05 0 -0.00074534686593908154 -0.00057292099516129721 0 -0.00095919434610482115 -0.00023798642638011528 0 -0.00078247659561316604 -3.7940865646031736e-05 0 -0.00095919434610482115 -0.00023798642638011528 0 -0.0011545259379224177 3.9294347077384879e-05 0 -0.00078247659561316604 -3.7940865646031736e-05 0 -0.00029356260698097615 -0.00041717471084280939 0 0.0001956647825648157 -0.00019898020289432899 0 -0.00042604280578497657 9.9907846219380434e-05 0 -0.00029356260698097615 -0.00041717471084280939 0 -0.00078247659561316604 -3.7940865646031736e-05 0 -0.00042604280578497657 9.9907846219380434e-05 0 -0.00019211680524636128 0.00043367035259075915 0 -0.00042604280578497657 9.9907846219380434e-05 0 -0.00064283719019661816 0.0006928523372264528 0 -0.00042604280578497657 9.9907846219380434e-05 0 -0.00064283719019661816 0.0006928523372264528 0 -0.0010825195008760137 0.00034937952304712534 0 -0.00064283719019661816 0.0006928523372264528 0 -0.0010404651602893915 0.0011180988460799143 0 -0.00059790520884852379 0.0012017271392162222 0 -0.00064283719019661816 0.0006928523372264528 0 -0.0010404651602893915 0.0011180988460799143 0 -0.0014048693802015651 0.00087385175157981014 0 -0.0014048693802015651 0.00087385175157981014 0 -0.0018795414765709329 0.0010144466115062059 0 -0.0015069410263824057 0.0012610356445048015 0 -0.0010404651602893915 0.0011180988460799143 0 -0.0014048693802015651 0.00087385175157981014 0 -0.0015069410263824057 0.0012610356445048015 0 -0.00064283719019661816 0.0006928523372264528 0 -0.0014048693802015651 0.00087385175157981014 0 -0.0010825195008760137 0.00034937952304712534 0 -0.0014048693802015651 0.00087385175157981014 0 -0.0010825195008760137 0.00034937952304712534 0 -0.0018332944625433798 0.00062280339163910581 0 -0.0023015957383448284 0.00010408860996818457 0 -0.0018332944625433798 0.00062280339163910581 0 -0.0021809992412607491 0.0011227258888772045 0 -0.0010825195008760137 0.00034937952304712534 0 -0.001757605863215692 0.00017646397298163417 0 -0.0018332944625433798 0.00062280339163910581 0 -0.0023015957383448284 0.00010408860996818457 0 -0.001757605863215692 0.00017646397298163417 0 -0.0018332944625433798 0.00062280339163910581 0 -0.0014048693802015651 0.00087385175157981014 0 -0.0018332944625433798 0.00062280339163910581 0 -0.0018795414765709329 0.0010144466115062059 0 -0.0018795414765709329 0.0010144466115062059 0 -0.0022882857266749205 0.001171402651581086 0 -0.0015069410263824057 0.0012610356445048015 0 -0.0018795414765709329 0.0010144466115062059 0 -0.0021809992412607491 0.0011227258888772045 0 -0.0022882857266749205 0.001171402651581086 0 -0.0018332944625433798 0.00062280339163910581 0 -0.0018795414765709329 0.0010144466115062059 0 -0.0021809992412607491 0.0011227258888772045 0 -0.0038941665142658202 -0.0010323415822869554 0 -0.0042925017150428355 -0.00095773310042508849 0 -0.0041295719300579702 -0.0006261635200538033 0 -0.0038941665142658202 -0.0010323415822869554 0 -0.0042925017150428355 -0.00095773310042508849 0 -0.0042194327802780795 -0.0013364287788192005 0 -0.0039765219370836305 -0.0017687441100569154 0 -0.0038941665142658202 -0.0010323415822869554 0 -0.0042194327802780795 -0.0013364287788192005 0 -0.0045114107303712847 -0.0016152871022270022 0 -0.0039765219370836305 -0.0017687441100569154 0 -0.0042194327802780795 -0.0013364287788192005 0 -0.003245696754206666 -0.00095840891227297136 0 -0.0030420406427431228 6.8046950046327597e-05 0 -0.0045085321175790298 0.00026491883669903119 0 -0.0042385643104761979 -0.00023419842401511804 0 -0.0040400088945123074 0.00025324777217014901 0 -0.0042385643104761979 -0.00023419842401511804 0 -0.0037362805834908735 -0.0002751039995258582 0 -0.0040400088945123074 0.00025324777217014901 0 -0.0030420406427431228 6.8046950046327597e-05 0 -0.0031969146487689929 0.00041737226926108571 0 -0.0038941665142658202 -0.0010323415822869554 0 -0.0041295719300579702 -0.0006261635200538033 0 -0.0037362805834908735 -0.0002751039995258582 0 -0.0045063617103700106 -0.00058566743026170062 0 -0.0042385643104761979 -0.00023419842401511804 0 -0.0041295719300579702 -0.0006261635200538033 0 -0.0045063617103700106 -0.00058566743026170062 0 -0.0042925017150428355 -0.00095773310042508849 0 -0.0041295719300579702 -0.0006261635200538033 0 -0.0042385643104761979 -0.00023419842401511804 0 -0.0041295719300579702 -0.0006261635200538033 0 -0.0037362805834908735 -0.0002751039995258582 0 -0.0022882857266749205 0.001171402651581086 0 -0.001296251141579448 0.0019529357683613034 0 -0.0015069410263824057 0.0012610356445048015 0 -0.0022882857266749205 0.001171402651581086 0 -0.0026789008477271082 0.0010587226629485687 0 -0.0026395336845334676 0.00102420066675414 0 -0.0021809992412607491 0.0011227258888772045 0 -0.0022882857266749205 0.001171402651581086 0 -0.0026395336845334676 0.00102420066675414 0 -0.0022882857266749205 0.001171402651581086 0 -0.0026789008477271082 0.0010587226629485687 0 -0.0032887521708159272 0.0010026960328631191 0 -0.0023637563965552139 0.0013697246132514088 0 -0.0020676020148087796 0.00083859307415502034 0 -0.0026789008477271082 0.0010587226629485687 0 -0.0030365614242178216 0.00085672271332136614 0 -0.0031248606121197513 0.0008948019960219512 0 -0.0029891272398174123 0.00092607285564290289 0 -0.0020676020148087796 0.00083859307415502034 0 -0.0026395336845334676 0.00102420066675414 0 -0.0030365614242178216 0.00085672271332136614 0 -0.003420082920614213 0.00074700662025893518 0 -0.0026789008477271082 0.0010587226629485687 0 -0.0026395336845334676 0.00102420066675414 0 -0.0030365614242178216 0.00085672271332136614 0 -0.0030365614242178216 0.00085672271332136614 0 -0.0031248606121197513 0.0008948019960219512 0 -0.0031159932484977784 0.00084913973564906527 0 -0.001296251141579448 0.0019529357683613034 0 -0.00098128543839274673 0.0015035372889008062 0 -0.00085902000486233324 0.0018508364909822297 0 -0.001296251141579448 0.0019529357683613034 0 -0.0015069410263824057 0.0012610356445048015 0 -0.00098128543839274673 0.0015035372889008062 0 -0.0010404651602893915 0.0011180988460799143 0 -0.0015069410263824057 0.0012610356445048015 0 -0.00098128543839274673 0.0015035372889008062 0 -0.0010404651602893915 0.0011180988460799143 0 -0.00098128543839274673 0.0015035372889008062 0 -0.00059790520884852379 0.0012017271392162222 0 -0.00098128543839274673 0.0015035372889008062 0 -0.00059790520884852379 0.0012017271392162222 0 -0.00071823862686524521 0.0016232510777370625 0 -0.0020676020148087796 0.00083859307415502034 0 -0.0015012465617696405 0.00073737130632889217 0 -0.00071823862686524521 0.0016232510777370625 0 -0.00085902000486233324 0.0018508364909822297 0 -0.00055245575194619767 0.0019019867960626817 0 -0.001296251141579448 0.0019529357683613034 0 -0.00085902000486233324 0.0018508364909822297 0 -0.0007144268799865386 0.0021196868708438879 0 -0.00098128543839274673 0.0015035372889008062 0 -0.00071823862686524521 0.0016232510777370625 0 -0.00085902000486233324 0.0018508364909822297 0 -0.00085902000486233324 0.0018508364909822297 0 -0.0007144268799865386 0.0021196868708438879 0 -0.00055245575194619767 0.0019019867960626817 0 -0.0020676020148087796 0.00083859307415502034 0 -0.0062474569001631569 0.00094882851583058081 0 -0.0020871561099308246 -0.00039929323185986871 0 -0.0023718500851503382 -0.0006443434704481607 0 -0.002364179140639645 -0.00076870510558371414 0 -0.0023718500851503382 -0.0006443434704481607 0 -0.002364179140639645 -0.00076870510558371414 0 -0.0023953027103100918 -0.00073009061881798424 0 -0.0062474569001631569 0.00094882851583058081 0 -0.0043059993604845871 -0.00016664505617668634 0 -0.013100815810676344 0.00445384006817402 0 -0.013156807071535695 0.0034065499625970941 0 -0.01184234825330284 0.0037450791692726004 0 -0.0030800348109316414 0.00085523821256822867 0 -0.0031437004028222167 0.0010603535488805608 0 -0.0031159932484977784 0.00084913973564906527 0 -0.0062474569001631569 0.00094882851583058081 0 -0.0079682155795370146 0.0027552414196062545 0 -0.0031437004028222167 0.0010603535488805608 0 -0.0031159932484977784 0.00084913973564906527 0 -0.003420082920614213 0.00074700662025893518 0 -0.0031248606121197513 0.0008948019960219512 0 -0.0030800348109316414 0.00085523821256822867 0 -0.0031159932484977784 0.00084913973564906527 0 -0.0030365614242178216 0.00085672271332136614 0 -0.0031159932484977784 0.00084913973564906527 0 -0.003420082920614213 0.00074700662025893518 0 -0.0031969146487689929 0.00041737226926108571 0 -0.0033650948788142227 0.00077264456791362895 0 -0.0031437004028222167 0.0010603535488805608 0 -0.0035307505227967586 0.0011266379119939511 0 -0.0037304769773537304 0.0016055237434426401 0 -0.0031437004028222167 0.0010603535488805608 0 -0.003420082920614213 0.00074700662025893518 0 -0.0035307505227967586 0.0011266379119939511 0 -0.0035307505227967586 0.0011266379119939511 0 -0.0038782131682517421 0.0011283523486215424 0 -0.0037304769773537304 0.0016055237434426401 0 -0.003420082920614213 0.00074700662025893518 0 -0.0035307505227967586 0.0011266379119939511 0 -0.0038782131682517421 0.0011283523486215424 0 -0.003420082920614213 0.00074700662025893518 0 -0.0038782131682517421 0.0011283523486215424 0 -0.0042520868092585434 0.00083122397156847039 0 -0.0045335472666328796 0.0013499663203585504 0 -0.0038782131682517421 0.0011283523486215424 0 -0.0042520868092585434 0.00083122397156847039 0 -0.0037362805834908735 -0.0002751039995258582 0 -0.003420082920614213 0.00074700662025893518 0 -0.0040400088945123074 0.00025324777217014901 0 -0.003420082920614213 0.00074700662025893518 0 -0.0042520868092585434 0.00083122397156847039 0 -0.0040400088945123074 0.00025324777217014901 0 -0.0045085321175790298 0.00026491883669903119 0 -0.0042520868092585434 0.00083122397156847039 0 -0.0040400088945123074 0.00025324777217014901 0 -0.0004477282916495843 0.001062781184943788 0 -0.00077420232777144582 0.0011125521873621292 0 -0.00066815290990672634 0.00075750952092717646 0 -0.0004477282916495843 0.001062781184943788 0 -0.00077420232777144582 0.0011125521873621292 0 -0.00049517872751197957 0.0011937120160500688 0 -0.0012683195399668292 0.0012595816669497112 0 -0.00077420232777144582 0.0011125521873621292 0 -0.0011600159867014674 0.00089245187509017778 0 -0.0012683195399668292 0.0012595816669497112 0 -0.00077420232777144582 0.0011125521873621292 0 -0.00072250671614711008 0.0012585009816445181 0 -0.00077420232777144582 0.0011125521873621292 0 -0.00072250671614711008 0.0012585009816445181 0 -0.00049517872751197957 0.0011937120160500688 0 -0.00072250671614711008 0.0012585009816445181 0 -0.00048897502452151904 0.0011957510366913575 0 -0.00049517872751197957 0.0011937120160500688 0 -0.00020350745219348035 0.001025439659747638 0 -0.00048897502452151904 0.0011957510366913575 0 -0.00049517872751197957 0.0011937120160500688 0 -0.00059657137338228132 0.0013230502083846152 0 -0.00072250671614711008 0.0012585009816445181 0 -0.00048897502452151904 0.0011957510366913575 0 -0.00059657137338228132 0.0013230502083846152 0 -0.00028315091418793631 0.0010210437751526755 0 -0.00048897502452151904 0.0011957510366913575 0 -0.0004477282916495843 0.001062781184943788 0 -0.00031284662233839087 0.0011382771432035654 0 -0.00049517872751197957 0.0011937120160500688 0 -0.00020350745219348035 0.001025439659747638 0 -0.00031284662233839087 0.0011382771432035654 0 -0.00049517872751197957 0.0011937120160500688 0 -0.00024075016602331486 0.0010980257419073969 0 -0.00022647225308559173 0.0013102141537768509 0 -0.00024364107477249929 0.0010412926501337115 0 -0.00031284662233839087 0.0011382771432035654 0 -0.00026525717122466327 0.0011230197765112679 0 -0.00059790520884852379 0.0012017271392162222 0 -0.00071823862686524521 0.0016232510777370625 0 -0.00013876718263919734 0.0016637757491963258 0 -0.00024364107477249929 0.0010412926501337115 0 -0.00059790520884852379 0.0012017271392162222 0 -0.00013876718263919734 0.0016637757491963258 0 -0.00071823862686524521 0.0016232510777370625 0 -0.00055245575194619767 0.0019019867960626817 0 -0.00013876718263919734 0.0016637757491963258 0 -0.00055245575194619767 0.0019019867960626817 0 -0.00013876718263919734 0.0016637757491963258 0 -0.00033464275396433325 0.0020124413720927067 0 -0.0004477282916495843 0.001062781184943788 0 -0.00026525717122466327 0.0011230197765112679 0 -0.00024731728397791187 0.00083962861497803598 0 -0.00022647225308559173 0.0013102141537768509 0 -2.8235023727884844e-05 0.0017326643234448836 0 -0.0004477282916495843 0.001062781184943788 0 -0.00031284662233839087 0.0011382771432035654 0 -0.00026525717122466327 0.0011230197765112679 0 -0.00013876718263919734 0.0016637757491963258 0 -0.00012150970774149925 0.0021194202836593411 0 -0.00033464275396433325 0.0020124413720927067 0 -0.00012150970774149925 0.0021194202836593411 0 -0.00033464275396433325 0.0020124413720927067 0 -0.00030825124433059775 0.0022575486052183649 0 -0.0023630016995203032 -0.00075854941385772193 0 -0.0023953027103100918 -0.00073009061881798424 0 -0.0025107345078709421 -0.00086593594375752848 0 -0.00047531226063650877 0.0020800704591347158 0 -0.00033464275396433325 0.0020124413720927067 0 -0.00030825124433059775 0.0022575486052183649 0 -0.0015012465617696405 0.00073737130632889217 0 -0.0013696103997006541 0.00077224579454734726 0 -0.0007144268799865386 0.0021196868708438879 0 -0.00047531226063650877 0.0020800704591347158 0 -0.00030825124433059775 0.0022575486052183649 0 -0.0023718500851503382 -0.0006443434704481607 0 -0.0023953027103100918 -0.00073009061881798424 0 -0.0025107345078709421 -0.00086593594375752848 0 -0.00055245575194619767 0.0019019867960626817 0 -0.00047531226063650877 0.0020800704591347158 0 -0.00033464275396433325 0.0020124413720927067 0 -0.0007144268799865386 0.0021196868708438879 0 -0.00055245575194619767 0.0019019867960626817 0 -0.00047531226063650877 0.0020800704591347158 0 -0.0023630016995203032 -0.00075854941385772193 0 -0.0025107345078709421 -0.00086593594375752848 0 -0.0024895449475362233 -0.0010323398945874635 0 -0.0062474569001631569 0.00094882851583058081 0 -0.0085601583796968694 0.0011742604882570137 0 -0.013100815810676344 0.00445384006817402 0 -0.013156807071535695 0.0034065499625970941 0 -0.014133815656190657 0.0032460106259433489 0 -0.0013696103997006541 0.00077224579454734726 0 -0.0014383706162377115 6.6661342295877831e-05 0 -2.8235023727884844e-05 0.0017326643234448836 0 -0.0014383706162377115 6.6661342295877831e-05 0 -0.00012150970774149925 0.0021194202836593411 0 -0.00030825124433059775 0.0022575486052183649 0 -8.112606721832991e-05 0.0023655274816573608 0 -0.0025107345078709421 -0.00086593594375752848 0 -0.0025977752406762073 -0.0010446676175384169 0 -0.0024895449475362233 -0.0010323398945874635 0 -0.00034754828468149646 9.8675383624070566e-05 0 -0.00066815290990672634 0.00075750952092717646 0 -0.0011364528575231161 0.00035252246668837596 0 -0.00024731728397791187 0.00083962861497803598 0 -0.00034754828468149646 9.8675383624070566e-05 0 -0.00066815290990672634 0.00075750952092717646 0 -0.0004477282916495843 0.001062781184943788 0 -0.00024731728397791187 0.00083962861497803598 0 -0.00066815290990672634 0.00075750952092717646 0 -0.0015523383170666285 0.00057004054999989335 0 -0.0011600159867014674 0.00089245187509017778 0 -0.0011364528575231161 0.00035252246668837596 0 -0.00077420232777144582 0.0011125521873621292 0 -0.00066815290990672634 0.00075750952092717646 0 -0.0011600159867014674 0.00089245187509017778 0 -0.00066815290990672634 0.00075750952092717646 0 -0.0011600159867014674 0.00089245187509017778 0 -0.0011364528575231161 0.00035252246668837596 0 -0.0015523383170666285 0.00057004054999989335 0 -0.0011364528575231161 0.00035252246668837596 0 -0.0016425183441879827 2.7421102845624938e-06 0 -0.0011364528575231161 0.00035252246668837596 0 -0.0016425183441879827 2.7421102845624938e-06 0 -0.0011164444119456354 -0.00051684905795232436 0 -0.0016425183441879827 2.7421102845624938e-06 0 -0.0011164444119456354 -0.00051684905795232436 0 -0.0024059472250061624 -0.00041346657403623286 0 -0.0025340227154493373 -0.0012946735203409492 0 -0.0025307228865574819 -0.0013306941024911346 0 -0.0025229900075859446 -0.0012468690131008516 0 -0.0018933188358493318 -0.00098023267634574627 0 -0.002427656151136636 -0.0012064279595188582 0 -0.0025307228865574819 -0.0013306941024911346 0 -0.0025142815513789392 -0.0015328014533740459 0 -0.0025229900075859446 -0.0012468690131008516 0 -0.0025340227154493373 -0.0012946735203409492 0 -0.0025307228865574819 -0.0013306941024911346 0 -0.0025454138873860217 -0.0012782350325935101 0 -0.0025307228865574819 -0.0013306941024911346 0 -0.0025454138873860217 -0.0012782350325935101 0 -0.0025142815513789392 -0.0015328014533740459 0 -0.0025454138873860217 -0.0012782350325935101 0 -0.0025277476805202282 -0.0012749860980217609 0 -0.0025142815513789392 -0.0015328014533740459 0 -0.0083711715742850294 0.00051337899869000482 0 -0.010857162713327855 0.0003822833641328232 0 -0.0025977752406762073 -0.0010446676175384169 0 -0.0025454138873860217 -0.0012782350325935101 0 -0.0025277476805202282 -0.0012749860980217609 0 -0.0014383706162377115 6.6661342295877831e-05 0 -0.0028108973080179641 -0.0017830785465434511 0 -0.0014383706162377115 6.6661342295877831e-05 0 -0.0018933188358493318 -0.00098023267634574627 0 -0.0025251790605462952 -0.0012651696895707605 0 -0.0025340227154493373 -0.0012946735203409492 0 -0.0025454138873860217 -0.0012782350325935101 0 -0.00034754828468149646 9.8675383624070566e-05 0 -0.0011364528575231161 0.00035252246668837596 0 -0.0011164444119456354 -0.00051684905795232436 0 -0.014133815656190657 0.0032460106259433489 0 -0.01411511219756862 0.0024088271503443226 0 -0.014870126007899704 0.0022631443490262462 0 -0.0085601583796968694 0.0011742604882570137 0 -0.0083711715742850294 0.00051337899869000482 0 -0.0025977752406762073 -0.0010446676175384169 0 -0.0024895449475362233 -0.0010323398945874635 0 -0.0025277476805202282 -0.0012749860980217609 0 -0.013647180041691227 0.002910829902525983 0 -0.01411511219756862 0.0024088271503443226 0 -0.013343514691419893 0.0024121972722494795 0 -0.013156807071535695 0.0034065499625970941 0 -0.013647180041691227 0.002910829902525983 0 -0.014133815656190657 0.0032460106259433489 0 -0.013647180041691227 0.002910829902525983 0 -0.014133815656190657 0.0032460106259433489 0 -0.01411511219756862 0.0024088271503443226 0 -0.01411511219756862 0.0024088271503443226 0 -0.014015383305607906 0.0018065593053025113 0 -0.013343514691419893 0.0024121972722494795 0 -0.01411511219756862 0.0024088271503443226 0 -0.014556787679957854 0.0019054236514826684 0 -0.014015383305607906 0.0018065593053025113 0 -0.014870126007899704 0.0022631443490262462 0 -0.014556787679957854 0.0019054236514826684 0 -0.014916167305439536 0.0016509618459304963 0 -0.01411511219756862 0.0024088271503443226 0 -0.014870126007899704 0.0022631443490262462 0 -0.014556787679957854 0.0019054236514826684 0 -0.014556787679957854 0.0019054236514826684 0 -0.014015383305607906 0.0018065593053025113 0 -0.014551727003002049 0.0012557837644410893 0 -0.014556787679957854 0.0019054236514826684 0 -0.014551727003002049 0.0012557837644410893 0 -0.014916167305439536 0.0016509618459304963 0 -0.014551727003002049 0.0012557837644410893 0 -0.015120836486648173 0.001248778388603683 0 -0.014916167305439536 0.0016509618459304963 0 -0.014015383305607906 0.0018065593053025113 0 -0.013924658272123245 0.0012384839214645816 0 -0.014551727003002049 0.0012557837644410893 0 -0.014015383305607906 0.0018065593053025113 0 -0.013924658272123245 0.0012384839214645816 0 -0.013400087230218455 0.0016568138166277262 0 -0.013924658272123245 0.0012384839214645816 0 -0.014141981708152555 0.00078958626388924043 0 -0.014551727003002049 0.0012557837644410893 0 -0.013924658272123245 0.0012384839214645816 0 -0.014141981708152555 0.00078958626388924043 0 -0.013429955470959069 0.00083678076594769586 0 -0.014141981708152555 0.00078958626388924043 0 -0.014551727003002049 0.0012557837644410893 0 -0.014669155859396186 0.00063515697599904211 0 -0.014551727003002049 0.0012557837644410893 0 -0.01507619436879299 0.00086128020602105088 0 -0.014669155859396186 0.00063515697599904211 0 -0.014551727003002049 0.0012557837644410893 0 -0.01507619436879299 0.00086128020602105088 0 -0.015120836486648173 0.001248778388603683 0 -0.01507619436879299 0.00086128020602105088 0 -0.015120836486648173 0.001248778388603683 0 -0.015496144118319413 0.0009925424071933588 0 -0.015120836486648173 0.001248778388603683 0 -0.015496144118319413 0.0009925424071933588 0 -0.015563657138414991 0.0015072798506043377 0 -0.01507619436879299 0.00086128020602105088 0 -0.015496144118319413 0.0009925424071933588 0 -0.0156072606796767 0.00058826193104211317 0 -0.015496144118319413 0.0009925424071933588 0 -0.015563657138414991 0.0015072798506043377 0 -0.016115996814019175 0.00078984931793565449 0 -0.010857162713327855 0.0003822833641328232 0 -0.015172572565682203 -0.00057414558912893972 0 -0.015496144118319413 0.0009925424071933588 0 -0.0156072606796767 0.00058826193104211317 0 -0.016115996814019175 0.00078984931793565449 0 -0.010857162713327855 0.0003822833641328232 0 -0.007655658895659256 -0.0017625644998510489 0 -0.015120836486648173 0.001248778388603683 0 -0.015563657138414991 0.0015072798506043377 0 -0.014916167305439536 0.0016509618459304963 0 -0.014870126007899704 0.0022631443490262462 0 -0.0154188363117761 0.0015251442119496737 0 -0.014916167305439536 0.0016509618459304963 0 -0.010857162713327855 0.0003822833641328232 0 -0.016380314747895783 0.0013436032703406484 0 -0.0088190904620683991 0.0018934764672239796 0 -0.010362598435499939 0.0028617684460454634 0 -0.010380291920772455 0.0019980928843435762 0 -0.0099790601178094095 0.0023071132553480157 0 -0.010675196524252806 0.0018602578348763694 0 -0.011308657864028912 0.0024645401531937505 0 -0.0080767119674640397 0.0019842115464504986 0 -0.011103092737537273 0.0022440574972770536 0 -0.010675196524252806 0.0018602578348763694 0 -0.011308657864028912 0.0024645401531937505 0 -0.01160599080833985 0.0016372562323910566 0 -0.0046981992327040497 0.0021243546122456992 0 -0.0045335472666328796 0.0013499663203585504 0 -0.0037304769773537304 0.0016055237434426401 0 -0.0080767119674640397 0.0019842115464504986 0 -0.0067253488573985687 0.0020930595978220692 0 -0.0045335472666328796 0.0013499663203585504 0 -0.0038782131682517421 0.0011283523486215424 0 -0.0037304769773537304 0.0016055237434426401 0 -0.010362598435499939 0.0028617684460454634 0 -0.010380291920772455 0.0019980928843435762 0 -0.011882698346553238 0.0021512989189144123 0 -0.01184234825330284 0.0037450791692726004 0 -0.010362598435499939 0.0028617684460454634 0 -0.011882698346553238 0.0021512989189144123 0 -0.0079682155795370146 0.0027552414196062545 0 -0.0067253488573985687 0.0020930595978220692 0 -0.011103092737537273 0.0022440574972770536 0 -0.012159668463151228 0.002311501691289939 0 -0.011308657864028912 0.0024645401531937505 0 -0.012554713001131057 0.0024677585540400886 0 -0.01160599080833985 0.0016372562323910566 0 -0.01184234825330284 0.0037450791692726004 0 -0.011882698346553238 0.0021512989189144123 0 -0.012571888886547122 0.0029349498951813922 0 -0.013156807071535695 0.0034065499625970941 0 -0.01184234825330284 0.0037450791692726004 0 -0.012571888886547122 0.0029349498951813922 0 -0.011882698346553238 0.0021512989189144123 0 -0.012571888886547122 0.0029349498951813922 0 -0.013343514691419893 0.0024121972722494795 0 -0.013156807071535695 0.0034065499625970941 0 -0.012571888886547122 0.0029349498951813922 0 -0.013343514691419893 0.0024121972722494795 0 -0.013156807071535695 0.0034065499625970941 0 -0.013647180041691227 0.002910829902525983 0 -0.013343514691419893 0.0024121972722494795 0 -0.014015383305607906 0.0018065593053025113 0 -0.013343514691419893 0.0024121972722494795 0 -0.013400087230218455 0.0016568138166277262 0 -0.012159668463151228 0.002311501691289939 0 -0.013255250028894871 0.0023989095583256815 0 -0.012554713001131057 0.0024677585540400886 0 -0.013343514691419893 0.0024121972722494795 0 -0.013400087230218455 0.0016568138166277262 0 -0.013400087230218455 0.0016568138166277262 0 -0.013429955470959069 0.00083678076594769586 0 -0.012626344328144209 0.0012459658112242515 0 -0.013924658272123245 0.0012384839214645816 0 -0.013400087230218455 0.0016568138166277262 0 -0.013429955470959069 0.00083678076594769586 0 -0.013429955470959069 0.00083678076594769586 0 -0.012626344328144209 0.0012459658112242515 0 -0.012847641449919994 0.00063003676418738313 0 -0.012554713001131057 0.0024677585540400886 0 -0.013400087230218455 0.0016568138166277262 0 -0.012626344328144209 0.0012459658112242515 0 -0.012554713001131057 0.0024677585540400886 0 -0.012626344328144209 0.0012459658112242515 0 -0.01160599080833985 0.0016372562323910566 0 -0.012626344328144209 0.0012459658112242515 0 -0.01160599080833985 0.0016372562323910566 0 -0.011016933301616374 0.00065081226227002532 0 -0.012626344328144209 0.0012459658112242515 0 -0.011016933301616374 0.00065081226227002532 0 -0.011422472245221058 -0.00037217414576098425 0 -0.012647125398302149 0.001220429197525333 0 -0.011753789124618785 5.6404226738377155e-05 0 -0.012626344328144209 0.0012459658112242515 0 -0.012308754894526897 0.00052604501418741659 0 -0.012847641449919994 0.00063003676418738313 0 -0.010078376832147753 -0.00022644056287191166 0 -0.0098923946455994546 0.00050513969701729928 0 -0.011016933301616374 0.00065081226227002532 0 -0.0098923946455994546 0.00050513969701729928 0 -0.011016933301616374 0.00065081226227002532 0 -0.010532691136286866 0.0011743782343288085 0 -0.010078376832147753 -0.00022644056287191166 0 -0.011016933301616374 0.00065081226227002532 0 -0.011422472245221058 -0.00037217414576098425 0 -0.010675196524252806 0.0018602578348763694 0 -0.01160599080833985 0.0016372562323910566 0 -0.010532691136286866 0.0011743782343288085 0 -0.01160599080833985 0.0016372562323910566 0 -0.011016933301616374 0.00065081226227002532 0 -0.010532691136286866 0.0011743782343288085 0 -0.010060471090354465 0.0017006481853555722 0 -0.010675196524252806 0.0018602578348763694 0 -0.010532691136286866 0.0011743782343288085 0 -0.01162672290043675 -0.0010595255911005378 0 -0.011753789124618785 5.6404226738377155e-05 0 -0.011711556144410955 -0.00030228130433563975 0 -0.012308754894526897 0.00052604501418741659 0 -0.012247375397214528 -9.0828906937590991e-05 0 -0.011711556144410955 -0.00030228130433563975 0 -0.012247375397214528 -9.0828906937590991e-05 0 -0.011718173455023986 -0.00036143138041969109 0 -0.012401126261153066 -6.8611967687775137e-05 0 -0.012420476346018923 -0.00041360947490865228 0 -0.012024736390778338 -0.00028517851100768682 0 -0.012512221013339724 -0.000658083003955614 0 -0.01162672290043675 -0.0010595255911005378 0 -0.011995371913368014 -0.00075424375686207067 0 -0.011999390901005881 -0.00074781551723684904 0 -0.012000342435033924 -0.00075191597697692365 0 -0.01162672290043675 -0.0010595255911005378 0 -0.012094726142503594 -0.00078296068869425567 0 -0.012335069275439111 -6.9562257476071994e-05 0 -0.012094726142503594 -0.00078296068869425567 0 -0.010078376832147753 -0.00022644056287191166 0 -0.010283583040282918 -0.0019096486889561121 0 -0.011422472245221058 -0.00037217414576098425 0 -0.012308754894526897 0.00052604501418741659 0 -0.012247375397214528 -9.0828906937590991e-05 0 -0.012769937459051551 0.00018944333783933861 0 -0.012308754894526897 0.00052604501418741659 0 -0.012769937459051551 0.00018944333783933861 0 -0.012847641449919994 0.00063003676418738313 0 -0.012335069275439111 -6.9562257476071994e-05 0 -0.012724449739819704 0.00015127890190020014 0 -0.012401126261153066 -6.8611967687775137e-05 0 -0.012812139644786391 -0.0002214402352618444 0 -0.012769937459051551 0.00018944333783933861 0 -0.012401126261153066 -6.8611967687775137e-05 0 -0.012812139644786391 -0.0002214402352618444 0 -0.012420476346018923 -0.00041360947490865228 0 -0.012812139644786391 -0.0002214402352618444 0 -0.013177556794378266 -1.7311631446582438e-05 0 -0.013127212492274285 -0.00030806279688511639 0 -0.013177556794378266 -1.7311631446582438e-05 0 -0.013333369851181557 -0.00020662057804305409 0 -0.013127212492274285 -0.00030806279688511639 0 -0.013177556794378266 -1.7311631446582438e-05 0 -0.012769937459051551 0.00018944333783933861 0 -0.013192637248496166 0.00034296442529285661 0 -0.012812139644786391 -0.0002214402352618444 0 -0.013177556794378266 -1.7311631446582438e-05 0 -0.012769937459051551 0.00018944333783933861 0 -0.012769937459051551 0.00018944333783933861 0 -0.012847641449919994 0.00063003676418738313 0 -0.013192637248496166 0.00034296442529285661 0 -0.013429955470959069 0.00083678076594769586 0 -0.012847641449919994 0.00063003676418738313 0 -0.013192637248496166 0.00034296442529285661 0 -0.013429955470959069 0.00083678076594769586 0 -0.013192637248496166 0.00034296442529285661 0 -0.013654950870077027 0.00033145055730733467 0 -0.013429955470959069 0.00083678076594769586 0 -0.013654950870077027 0.00033145055730733467 0 -0.013991672214105858 0.00048747110384774324 0 -0.013192637248496166 0.00034296442529285661 0 -0.013654950870077027 0.00033145055730733467 0 -0.013453427815314643 0.00010749760716729042 0 -0.013654950870077027 0.00033145055730733467 0 -0.013759247856698313 -4.7619731068468322e-06 0 -0.014090239446507278 0.00012648358101149428 0 -0.013654950870077027 0.00033145055730733467 0 -0.013453427815314643 0.00010749760716729042 0 -0.013759247856698313 -4.7619731068468322e-06 0 -0.013177556794378266 -1.7311631446582438e-05 0 -0.013192637248496166 0.00034296442529285661 0 -0.013453427815314643 0.00010749760716729042 0 -0.013177556794378266 -1.7311631446582438e-05 0 -0.013453427815314643 0.00010749760716729042 0 -0.01350087676076492 -0.00012184832524327241 0 -0.013453427815314643 0.00010749760716729042 0 -0.01350087676076492 -0.00012184832524327241 0 -0.013759247856698313 -4.7619731068468322e-06 0 -0.013177556794378266 -1.7311631446582438e-05 0 -0.01350087676076492 -0.00012184832524327241 0 -0.013333369851181557 -0.00020662057804305409 0 -0.01350087676076492 -0.00012184832524327241 0 -0.013333369851181557 -0.00020662057804305409 0 -0.013536176152972671 -0.00038036189558741197 0 -0.01350087676076492 -0.00012184832524327241 0 -0.013701045734129757 -0.00022268289485278994 0 -0.013536176152972671 -0.00038036189558741197 0 -0.013701045734129757 -0.00022268289485278994 0 -0.013759247856698313 -4.7619731068468322e-06 0 -0.014157857673766065 -0.00024114967984507001 0 -0.01350087676076492 -0.00012184832524327241 0 -0.013701045734129757 -0.00022268289485278994 0 -0.013759247856698313 -4.7619731068468322e-06 0 -0.01618995710846103 -0.00073400048294969137 0 -0.016236979172399909 -0.00052424843241140296 0 -0.016042285031033342 -0.00063136232242003132 0 -0.014588657881824041 -0.00039531091452415639 0 -0.013979649496331639 -0.00040465558392012565 0 -0.013701045734129757 -0.00022268289485278994 0 -0.013650187295008474 -0.00046228358447431944 0 -0.014157857673766065 -0.00024114967984507001 0 -0.013701045734129757 -0.00022268289485278994 0 -0.013650187295008474 -0.00046228358447431944 0 -0.013536176152972671 -0.00038036189558741197 0 -0.014588657881824041 -0.00039531091452415639 0 -0.014379241758586934 -0.00030906795737184836 0 -0.013333369851181557 -0.00020662057804305409 0 -0.013536176152972671 -0.00038036189558741197 0 -0.013127212492274285 -0.00030806279688511639 0 -0.01644187625102821 -0.00041130717714056922 0 -0.016236979172399909 -0.00052424843241140296 0 -0.01644458691233323 -0.00065203643799991167 0 -0.01618995710846103 -0.00073400048294969137 0 -0.016236979172399909 -0.00052424843241140296 0 -0.01644458691233323 -0.00065203643799991167 0 -0.014588657881824041 -0.00039531091452415639 0 -0.014575400053946174 -0.00075677306064571368 0 -0.013613165272889865 -0.0004332785720734762 0 -0.013536176152972671 -0.00038036189558741197 0 -0.012756731678809289 -0.0006308010877579094 0 -0.013536176152972671 -0.00038036189558741197 0 -0.013127212492274285 -0.00030806279688511639 0 -0.012756731678809289 -0.0006308010877579094 0 -0.012812139644786391 -0.0002214402352618444 0 -0.013127212492274285 -0.00030806279688511639 0 -0.012756731678809289 -0.0006308010877579094 0 -0.012420476346018923 -0.00041360947490865228 0 -0.012756731678809289 -0.0006308010877579094 0 -0.012101365398748171 -0.00082032255333712282 0 -0.012812139644786391 -0.0002214402352618444 0 -0.012420476346018923 -0.00041360947490865228 0 -0.012756731678809289 -0.0006308010877579094 0 -0.016616381397479337 -0.00044995521116979626 0 -0.01644458691233323 -0.00065203643799991167 0 -0.016710441942081398 -0.00056104994789519884 0 -0.01644187625102821 -0.00041130717714056922 0 -0.016616381397479337 -0.00044995521116979626 0 -0.01644458691233323 -0.00065203643799991167 0 -0.014575400053946174 -0.00075677306064571368 0 -0.014765697381295633 -4.2881779836251237e-05 0 -0.014765697381295633 -4.2881779836251237e-05 0 -0.012094726142503594 -0.00078296068869425567 0 -0.014140308264806426 -0.00098401709307796201 0 -0.013819397616045557 0.00050468046276484259 0 -0.013976838561127952 -0.0010651446698836471 0 -0.012420476346018923 -0.00041360947490865228 0 -0.012101365398748171 -0.00082032255333712282 0 -0.012024736390778338 -0.00028517851100768682 0 -0.012512221013339724 -0.000658083003955614 0 -0.012094726142503594 -0.00078296068869425567 0 -0.015281413085640452 0.00020128933911867791 0 -0.01566344669335647 -2.658236989112811e-05 0 -0.015644922441688264 0.000261841677176059 0 -0.015281413085640452 0.00020128933911867791 0 -0.015198074189683771 -0.00010296145777118338 0 -0.01566344669335647 -2.658236989112811e-05 0 -0.015281413085640452 0.00020128933911867791 0 -0.015198074189683771 -0.00010296145777118338 0 -0.015027572626275101 8.5915175012494412e-05 0 -0.016080384939697455 9.9367192932891284e-06 0 -0.015644922441688264 0.000261841677176059 0 -0.016018155057619048 0.000328947057194084 0 -0.01566344669335647 -2.658236989112811e-05 0 -0.016080384939697455 9.9367192932891284e-06 0 -0.015644922441688264 0.000261841677176059 0 -0.016018155057619048 0.000328947057194084 0 -0.0156072606796767 0.00058826193104211317 0 -0.016115996814019175 0.00078984931793565449 0 -0.015644922441688264 0.000261841677176059 0 -0.016018155057619048 0.000328947057194084 0 -0.0156072606796767 0.00058826193104211317 0 -0.01507619436879299 0.00086128020602105088 0 -0.0156072606796767 0.00058826193104211317 0 -0.015189825026104255 0.00046553395388433812 0 -0.015644922441688264 0.000261841677176059 0 -0.0156072606796767 0.00058826193104211317 0 -0.015189825026104255 0.00046553395388433812 0 -0.015281413085640452 0.00020128933911867791 0 -0.015644922441688264 0.000261841677176059 0 -0.015189825026104255 0.00046553395388433812 0 -0.015281413085640452 0.00020128933911867791 0 -0.015189825026104255 0.00046553395388433812 0 -0.014818774643832213 0.0002717791527720476 0 -0.01507619436879299 0.00086128020602105088 0 -0.015189825026104255 0.00046553395388433812 0 -0.014669155859396186 0.00063515697599904211 0 -0.014669155859396186 0.00063515697599904211 0 -0.014372940546739259 0.000364296063480688 0 -0.014818774643832213 0.0002717791527720476 0 -0.015189825026104255 0.00046553395388433812 0 -0.014669155859396186 0.00063515697599904211 0 -0.014818774643832213 0.0002717791527720476 0 -0.014141981708152555 0.00078958626388924043 0 -0.013429955470959069 0.00083678076594769586 0 -0.013991672214105858 0.00048747110384774324 0 -0.014141981708152555 0.00078958626388924043 0 -0.014372940546739259 0.000364296063480688 0 -0.013991672214105858 0.00048747110384774324 0 -0.014141981708152555 0.00078958626388924043 0 -0.014669155859396186 0.00063515697599904211 0 -0.014372940546739259 0.000364296063480688 0 -0.013654950870077027 0.00033145055730733467 0 -0.013991672214105858 0.00048747110384774324 0 -0.014090239446507278 0.00012648358101149428 0 -0.014372940546739259 0.000364296063480688 0 -0.013991672214105858 0.00048747110384774324 0 -0.014090239446507278 0.00012648358101149428 0 -0.014372940546739259 0.000364296063480688 0 -0.014090239446507278 0.00012648358101149428 0 -0.014477580259654938 1.7616440896223426e-05 0 -0.014477580259654938 1.7616440896223426e-05 0 -0.014157857673766065 -0.00024114967984507001 0 -0.014543500270825443 -0.00026315684366193492 0 -0.013759247856698313 -4.7619731068468322e-06 0 -0.014090239446507278 0.00012648358101149428 0 -0.014157857673766065 -0.00024114967984507001 0 -0.014090239446507278 0.00012648358101149428 0 -0.014477580259654938 1.7616440896223426e-05 0 -0.014157857673766065 -0.00024114967984507001 0 -0.014818774643832213 0.0002717791527720476 0 -0.015027572626275101 8.5915175012494412e-05 0 -0.014822528182837386 -6.0687979337559863e-05 0 -0.015281413085640452 0.00020128933911867791 0 -0.014818774643832213 0.0002717791527720476 0 -0.015027572626275101 8.5915175012494412e-05 0 -0.014477580259654938 1.7616440896223426e-05 0 -0.014818774643832213 0.0002717791527720476 0 -0.014822528182837386 -6.0687979337559863e-05 0 -0.014372940546739259 0.000364296063480688 0 -0.014477580259654938 1.7616440896223426e-05 0 -0.014818774643832213 0.0002717791527720476 0 -0.014477580259654938 1.7616440896223426e-05 0 -0.014822528182837386 -6.0687979337559863e-05 0 -0.014543500270825443 -0.00026315684366193492 0 -0.015198074189683771 -0.00010296145777118338 0 -0.015027572626275101 8.5915175012494412e-05 0 -0.014822528182837386 -6.0687979337559863e-05 0 -0.015198074189683771 -0.00010296145777118338 0 -0.014885518463869873 -0.00023992461172219918 0 -0.015035183301850816 -0.00039289621092422736 0 -0.015198074189683771 -0.00010296145777118338 0 -0.014822528182837386 -6.0687979337559863e-05 0 -0.014885518463869873 -0.00023992461172219918 0 -0.014885518463869873 -0.00023992461172219918 0 -0.01472962811593982 -0.00037053710514243539 0 -0.015035183301850816 -0.00039289621092422736 0 -0.014822528182837386 -6.0687979337559863e-05 0 -0.014885518463869873 -0.00023992461172219918 0 -0.014543500270825443 -0.00026315684366193492 0 -0.014885518463869873 -0.00023992461172219918 0 -0.01472962811593982 -0.00037053710514243539 0 -0.014543500270825443 -0.00026315684366193492 0 -0.01472962811593982 -0.00037053710514243539 0 -0.015035183301850816 -0.00039289621092422736 0 -0.014556804260655712 -0.00054880105457529179 0 -0.014588657881824041 -0.00039531091452415639 0 -0.016559739002168544 -0.00078553204711888619 0 -0.01387540320285531 -0.00032763607336637202 0 -0.014318341308542459 -0.00039102161392020761 0 -0.014438226819433526 -0.00061404439022405858 0 -0.01387540320285531 -0.00032763607336637202 0 -0.014157857673766065 -0.00024114967984507001 0 -0.014318341308542459 -0.00039102161392020761 0 -0.014157857673766065 -0.00024114967984507001 0 -0.014318341308542459 -0.00039102161392020761 0 -0.014543500270825443 -0.00026315684366193492 0 -0.014318341308542459 -0.00039102161392020761 0 -0.014543500270825443 -0.00026315684366193492 0 -0.014534835745250593 -0.00039180673187090516 0 -0.01472962811593982 -0.00037053710514243539 0 -0.014543500270825443 -0.00026315684366193492 0 -0.014534835745250593 -0.00039180673187090516 0 -0.014318341308542459 -0.00039102161392020761 0 -0.014556804260655712 -0.00054880105457529179 0 -0.014438226819433526 -0.00061404439022405858 0 -0.01472962811593982 -0.00037053710514243539 0 -0.014534835745250593 -0.00039180673187090516 0 -0.014556804260655712 -0.00054880105457529179 0 -0.016056479384562911 -0.00093818764095215262 0 -0.016559739002168544 -0.00078553204711888619 0 -0.014318341308542459 -0.00039102161392020761 0 -0.014534835745250593 -0.00039180673187090516 0 -0.014556804260655712 -0.00054880105457529179 0 -0.01921435228721546 -0.0013133907361530964 0 -0.019367624934837367 -0.0014043106880946088 0 -0.019183022478318833 -0.0014924168879244886 0 -0.018027333868065806 -0.0009233757666336803 0 -0.016559739002168544 -0.00078553204711888619 0 -0.014556804260655712 -0.00054880105457529179 0 -0.014473320198664957 -0.00060013654484157987 0 -0.01527490648770503 -0.00082254590398860559 0 -0.01921435228721546 -0.0013133907361530964 0 -0.019183022478318833 -0.0014924168879244886 0 -0.019011163165495885 -0.001376640114148883 0 -0.016559739002168544 -0.00078553204711888619 0 -0.017258823810644308 -0.0012277674769954627 0 -0.015035183301850816 -0.00039289621092422736 0 -0.014556804260655712 -0.00054880105457529179 0 -0.01527490648770503 -0.00082254590398860559 0 -0.015035183301850816 -0.00039289621092422736 0 -0.01527490648770503 -0.00082254590398860559 0 -0.015554452861290719 -0.000323416099219883 0 -0.01527490648770503 -0.00082254590398860559 0 -0.015554452861290719 -0.000323416099219883 0 -0.015929248511115917 -0.00049789778029713731 0 -0.015198074189683771 -0.00010296145777118338 0 -0.01566344669335647 -2.658236989112811e-05 0 -0.015554452861290719 -0.000323416099219883 0 -0.015198074189683771 -0.00010296145777118338 0 -0.015035183301850816 -0.00039289621092422736 0 -0.015554452861290719 -0.000323416099219883 0 -0.01566344669335647 -2.658236989112811e-05 0 -0.016080384939697455 9.9367192932891284e-06 0 -0.01609283367684847 -0.0002075040706071275 0 -0.01566344669335647 -2.658236989112811e-05 0 -0.015554452861290719 -0.000323416099219883 0 -0.01609283367684847 -0.0002075040706071275 0 -0.015554452861290719 -0.000323416099219883 0 -0.01609283367684847 -0.0002075040706071275 0 -0.015929248511115917 -0.00049789778029713731 0 -0.016131461720457367 -0.0012580507563658041 0 -0.015929248511115917 -0.00049789778029713731 0 -0.016630634546242428 -0.0002376715520290586 0 -0.01609283367684847 -0.0002075040706071275 0 -0.015929248511115917 -0.00049789778029713731 0 -0.016630634546242428 -0.0002376715520290586 0 -0.016630634546242428 -0.0002376715520290586 0 -0.016385304429967894 -0.0001843355818910837 0 -0.016382637506812937 -0.00024703497698898839 0 -0.0170343356965292 0.00054918992835481289 0 -0.016630634546242428 -0.0002376715520290586 0 -0.016385304429967894 -0.0001843355818910837 0 -0.0170343356965292 0.00054918992835481289 0 -0.016385304429967894 -0.0001843355818910837 0 -0.015419276705709944 0.0002305675670112344 0 -0.016385304429967894 -0.0001843355818910837 0 -0.016382637506812937 -0.00024703497698898839 0 -0.016210813717327247 -0.00046242992056844893 0 -0.01609283367684847 -0.0002075040706071275 0 -0.016630634546242428 -0.0002376715520290586 0 -0.016382637506812937 -0.00024703497698898839 0 -0.016080384939697455 9.9367192932891284e-06 0 -0.01609283367684847 -0.0002075040706071275 0 -0.016382637506812937 -0.00024703497698898839 0 -0.016080384939697455 9.9367192932891284e-06 0 -0.016382637506812937 -0.00024703497698898839 0 -0.016413391633985322 6.6927365795117373e-05 0 -0.016080384939697455 9.9367192932891284e-06 0 -0.016018155057619048 0.000328947057194084 0 -0.016413391633985322 6.6927365795117373e-05 0 -0.016382637506812937 -0.00024703497698898839 0 -0.016413391633985322 6.6927365795117373e-05 0 -0.016210813717327247 -0.00046242992056844893 0 -0.015211216998879729 -0.00079324595903639602 0 -0.015402442206461904 -0.00085103907698691071 0 -0.014259263849007105 -0.0018408403600630827 0 -0.014495452218190645 -0.0016745254880714971 0 -0.014725858449987863 -0.0013684378748871123 0 -0.014259263849007105 -0.0018408403600630827 0 -0.013946574902083644 -0.0016426753046582024 0 -0.01424411431897938 -0.0017018287289415829 0 -0.014259263849007105 -0.0018408403600630827 0 -0.014495452218190645 -0.0016745254880714971 0 -0.01424411431897938 -0.0017018287289415829 0 -0.016018155057619048 0.000328947057194084 0 -0.016413391633985322 6.6927365795117373e-05 0 -0.016115996814019175 0.00078984931793565449 0 -0.015211216998879729 -0.00079324595903639602 0 -0.015172572565682203 -0.00057414558912893972 0 -0.014259263849007105 -0.0018408403600630827 0 -0.013946574902083644 -0.0016426753046582024 0 -0.013345656434626733 -0.0016708609644741361 0 -0.014232607305210488 -0.0017137968195426682 0 -0.014153161532495163 -0.0019349293690210324 0 -0.013833172409937483 -0.0019225517554756189 0 -0.014232607305210488 -0.0017137968195426682 0 -0.014153161532495163 -0.0019349293690210324 0 -0.014371791657846418 -0.0017940639079066551 0 -0.014371791657846418 -0.0017940639079066551 0 -0.014495452218190645 -0.0016745254880714971 0 -0.01424411431897938 -0.0017018287289415829 0 -0.014232607305210488 -0.0017137968195426682 0 -0.014371791657846418 -0.0017940639079066551 0 -0.014495452218190645 -0.0016745254880714971 0 -0.014495452218190645 -0.0016745254880714971 0 -0.01434671538615289 -0.0012118980646526739 0 -0.014725858449987863 -0.0013684378748871123 0 -0.014232607305210488 -0.0017137968195426682 0 -0.014495452218190645 -0.0016745254880714971 0 -0.01434671538615289 -0.0012118980646526739 0 -0.014232607305210488 -0.0017137968195426682 0 -0.01434671538615289 -0.0012118980646526739 0 -0.013811808395366509 -0.0014946094429625677 0 -0.01434671538615289 -0.0012118980646526739 0 -0.014725858449987863 -0.0013684378748871123 0 -0.014931868253308674 -0.00032866209194095232 0 -0.01434671538615289 -0.0012118980646526739 0 -0.014931868253308674 -0.00032866209194095232 0 -0.013779979497470406 -0.0005796931998656692 0 -0.015402442206461904 -0.00085103907698691071 0 -0.014907374224059222 -0.00029851322474800176 0 -0.016385304429967894 -0.0001843355818910837 0 -0.016210813717327247 -0.00046242992056844893 0 -0.015872085645474352 -0.00024117383736802606 0 -0.016210813717327247 -0.00046242992056844893 0 -0.015872085645474352 -0.00024117383736802606 0 -0.014931868253308674 -0.00032866209194095232 0 -0.016385304429967894 -0.0001843355818910837 0 -0.015872085645474352 -0.00024117383736802606 0 -0.015419276705709944 0.0002305675670112344 0 -0.015872085645474352 -0.00024117383736802606 0 -0.015419276705709944 0.0002305675670112344 0 -0.014931868253308674 -0.00032866209194095232 0 -0.017475007757032833 0.0011022550703393393 0 -0.017110432427399971 0.0011560112944897978 0 -0.015419276705709944 0.0002305675670112344 0 -0.014931868253308674 -0.00032866209194095232 0 -0.013779979497470406 -0.0005796931998656692 0 -0.020379711281072254 0.0017371404037400048 0 -0.01941204615428288 0.002068326815928315 0 -0.021116327189344447 0.0027697145565721442 0 -0.021250389009463466 0.0016007633268306151 0 -0.020379711281072254 0.0017371404037400048 0 -0.021116327189344447 0.0027697145565721442 0 -0.021250389009463466 0.0016007633268306151 0 -0.022318485359615448 0.0023971280932333187 0 -0.021116327189344447 0.0027697145565721442 0 -0.022098776513569781 0.0010269844196161718 0 -0.022652730155324569 0.00223722419608915 0 -0.022652730155324569 0.00223722419608915 0 -0.019340432026032771 0.00048086690626402616 0 -0.013414430723706006 -0.0011299976476283097 0 -0.013779979497470406 -0.0005796931998656692 0 -0.012728649042080048 -0.0010856846660425412 0 -0.017110432427399971 0.0011560112944897978 0 -0.019340432026032771 0.00048086690626402616 0 -0.022318485359615448 0.0023971280932333187 0 -0.021116327189344447 0.0027697145565721442 0 -0.022547023586410756 0.0034693158458702997 0 -0.013414430723706006 -0.0011299976476283097 0 -0.013836781998489494 -0.0011113997178865335 0 -0.013779979497470406 -0.0005796931998656692 0 -0.01434671538615289 -0.0012118980646526739 0 -0.013836781998489494 -0.0011113997178865335 0 -0.013779979497470406 -0.0005796931998656692 0 -0.022570433753985934 0.0012523775994175415 0 -0.022296866267864836 0.0014023671591868294 0 -0.022389775130008668 0.0011971597235542893 0 -0.022570433753985934 0.0012523775994175415 0 -0.022461793714982092 0.0013103016990220393 0 -0.022389775130008668 0.0011971597235542893 0 -0.022461793714982092 0.0013103016990220393 0 -0.022607316545694884 0.00079396738078528419 0 -0.022389775130008668 0.0011971597235542893 0 -0.022607316545694884 0.00079396738078528419 0 -0.022389775130008668 0.0011971597235542893 0 -0.022538991516014427 0.00071461646934504542 0 -0.022389775130008668 0.0011971597235542893 0 -0.022134750910299747 0.00082164234321335404 0 -0.022538991516014427 0.00071461646934504542 0 -0.022389775130008668 0.0011971597235542893 0 -0.021837460156787804 0.0010931944758912878 0 -0.022134750910299747 0.00082164234321335404 0 -0.022296866267864836 0.0014023671591868294 0 -0.022389775130008668 0.0011971597235542893 0 -0.021837460156787804 0.0010931944758912878 0 -0.021298259055063003 0.00021410337014577551 0 -0.021837460156787804 0.0010931944758912878 0 -0.022134750910299747 0.00082164234321335404 0 -0.021298259055063003 0.00021410337014577551 0 -0.022134750910299747 0.00082164234321335404 0 -0.021918149471562558 0.00013815002455047341 0 -0.021298259055063003 0.00021410337014577551 0 -0.021918149471562558 0.00013815002455047341 0 -0.021229827306757616 -0.0004233830490028918 0 -0.022134750910299747 0.00082164234321335404 0 -0.021918149471562558 0.00013815002455047341 0 -0.022225619695007935 0.00050268263770583558 0 -0.019340432026032771 0.00048086690626402616 0 -0.017471752981050907 -0.0015948753909965764 0 -0.012728649042080048 -0.0010856846660425412 0 -0.012451632992397557 -0.0024300245200962406 0 -0.012853689192327955 -0.0015366459653267722 0 -0.022730349457798546 0.00080076441069871715 0 -0.022331607686956488 -4.3178609875045155e-06 0 -0.022287329720211552 -0.000593962071043188 0 -0.021918149471562558 0.00013815002455047341 0 -0.022331607686956488 -4.3178609875045155e-06 0 -0.022050155620613639 -0.00023807787575587502 0 -0.021918149471562558 0.00013815002455047341 0 -0.022331607686956488 -4.3178609875045155e-06 0 -0.022225619695007935 0.00050268263770583558 0 -0.022134750910299747 0.00082164234321335404 0 -0.022225619695007935 0.00050268263770583558 0 -0.022538991516014427 0.00071461646934504542 0 -0.022331607686956488 -4.3178609875045155e-06 0 -0.022225619695007935 0.00050268263770583558 0 -0.022441986587020232 0.00046089821415752787 0 -0.022225619695007935 0.00050268263770583558 0 -0.022441986587020232 0.00046089821415752787 0 -0.022538991516014427 0.00071461646934504542 0 -0.022730349457798546 0.00080076441069871715 0 -0.022331607686956488 -4.3178609875045155e-06 0 -0.022441986587020232 0.00046089821415752787 0 -0.022730349457798546 0.00080076441069871715 0 -0.022441986587020232 0.00046089821415752787 0 -0.022538991516014427 0.00071461646934504542 0 -0.019340432026032771 0.00048086690626402616 0 -0.020230031823868747 0.00082254311242925039 0 -0.012451632992397557 -0.0024300245200962406 0 -0.012853689192327955 -0.0015366459653267722 0 -0.012828067245188592 -0.0018624725813528756 0 -0.012775262321017198 -0.0021333924895420922 0 -0.012451632992397557 -0.0024300245200962406 0 -0.012828067245188592 -0.0018624725813528756 0 -0.012775262321017198 -0.0021333924895420922 0 -0.012641078685251305 -0.002281462379398956 0 -0.012451632992397557 -0.0024300245200962406 0 -0.012641078685251305 -0.002281462379398956 0 -0.012436257538233615 -0.0023849910316925665 0 -0.012451632992397557 -0.0024300245200962406 0 -0.012641078685251305 -0.002281462379398956 0 -0.012436257538233615 -0.0023849910316925665 0 -0.012939892288111298 -0.0021620835469207725 0 -0.022287329720211552 -0.000593962071043188 0 -0.021674430070558463 -0.00052764462616185757 0 -0.021537658185840063 -0.0010884220743746034 0 -0.022287329720211552 -0.000593962071043188 0 -0.022050155620613639 -0.00023807787575587502 0 -0.021674430070558463 -0.00052764462616185757 0 -0.022331607686956488 -4.3178609875045155e-06 0 -0.022287329720211552 -0.000593962071043188 0 -0.022050155620613639 -0.00023807787575587502 0 -0.021918149471562558 0.00013815002455047341 0 -0.021674430070558463 -0.00052764462616185757 0 -0.021229827306757616 -0.0004233830490028918 0 -0.021918149471562558 0.00013815002455047341 0 -0.022050155620613639 -0.00023807787575587502 0 -0.021674430070558463 -0.00052764462616185757 0 -0.021674430070558463 -0.00052764462616185757 0 -0.021153138089406994 -0.00098490924815498914 0 -0.021537658185840063 -0.0010884220743746034 0 -0.021674430070558463 -0.00052764462616185757 0 -0.021153138089406994 -0.00098490924815498914 0 -0.021229827306757616 -0.0004233830490028918 0 -0.013811808395366509 -0.0014946094429625677 0 -0.013370541140298342 -0.0014901568281687537 0 -0.013397354584473331 -0.0018083698166061854 0 -0.01434671538615289 -0.0012118980646526739 0 -0.013836781998489494 -0.0011113997178865335 0 -0.013811808395366509 -0.0014946094429625677 0 -0.013414430723706006 -0.0011299976476283097 0 -0.013836781998489494 -0.0011113997178865335 0 -0.013811808395366509 -0.0014946094429625677 0 -0.013414430723706006 -0.0011299976476283097 0 -0.013811808395366509 -0.0014946094429625677 0 -0.013370541140298342 -0.0014901568281687537 0 -0.013414430723706006 -0.0011299976476283097 0 -0.012728649042080048 -0.0010856846660425412 0 -0.013036083510982451 -0.0012721207128697065 0 -0.013414430723706006 -0.0011299976476283097 0 -0.013036083510982451 -0.0012721207128697065 0 -0.013132504837856905 -0.0013672964708213034 0 -0.013414430723706006 -0.0011299976476283097 0 -0.013132504837856905 -0.0013672964708213034 0 -0.013370541140298342 -0.0014901568281687537 0 -0.012728649042080048 -0.0010856846660425412 0 -0.013036083510982451 -0.0012721207128697065 0 -0.012853689192327955 -0.0015366459653267722 0 -0.013036083510982451 -0.0012721207128697065 0 -0.013132504837856905 -0.0013672964708213034 0 -0.012853689192327955 -0.0015366459653267722 0 -0.012853689192327955 -0.0015366459653267722 0 -0.013076741580171488 -0.0016395301609302764 0 -0.012828067245188592 -0.0018624725813528756 0 -0.013132504837856905 -0.0013672964708213034 0 -0.012853689192327955 -0.0015366459653267722 0 -0.013076741580171488 -0.0016395301609302764 0 -0.013076741580171488 -0.0016395301609302764 0 -0.012828067245188592 -0.0018624725813528756 0 -0.01304783492371989 -0.0018993852910981523 0 -0.013076741580171488 -0.0016395301609302764 0 -0.013397354584473331 -0.0018083698166061854 0 -0.01304783492371989 -0.0018993852910981523 0 -0.013076741580171488 -0.0016395301609302764 0 -0.013370541140298342 -0.0014901568281687537 0 -0.013397354584473331 -0.0018083698166061854 0 -0.013132504837856905 -0.0013672964708213034 0 -0.013076741580171488 -0.0016395301609302764 0 -0.013370541140298342 -0.0014901568281687537 0 -0.013397354584473331 -0.0018083698166061854 0 -0.012939892288111298 -0.0021620835469207725 0 -0.013487120912028231 -0.0020595025090680455 0 -0.012436257538233615 -0.0023849910316925665 0 -0.012939892288111298 -0.0021620835469207725 0 -0.013742079750339975 -0.0023512920663889864 0 -0.013397354584473331 -0.0018083698166061854 0 -0.01304783492371989 -0.0018993852910981523 0 -0.012939892288111298 -0.0021620835469207725 0 -0.012939892288111298 -0.0021620835469207725 0 -0.013487120912028231 -0.0020595025090680455 0 -0.013742079750339975 -0.0023512920663889864 0 -0.012775262321017198 -0.0021333924895420922 0 -0.012828067245188592 -0.0018624725813528756 0 -0.01304783492371989 -0.0018993852910981523 0 -0.012775262321017198 -0.0021333924895420922 0 -0.01304783492371989 -0.0018993852910981523 0 -0.012939892288111298 -0.0021620835469207725 0 -0.012775262321017198 -0.0021333924895420922 0 -0.012641078685251305 -0.002281462379398956 0 -0.012939892288111298 -0.0021620835469207725 0 -0.013487120912028231 -0.0020595025090680455 0 -0.013833172409937483 -0.0019225517554756189 0 -0.013742079750339975 -0.0023512920663889864 0 -0.013397354584473331 -0.0018083698166061854 0 -0.013487120912028231 -0.0020595025090680455 0 -0.013833172409937483 -0.0019225517554756189 0 -0.013811808395366509 -0.0014946094429625677 0 -0.013397354584473331 -0.0018083698166061854 0 -0.013833172409937483 -0.0019225517554756189 0 -0.014232607305210488 -0.0017137968195426682 0 -0.013811808395366509 -0.0014946094429625677 0 -0.013833172409937483 -0.0019225517554756189 0 -0.014153161532495163 -0.0019349293690210324 0 -0.013833172409937483 -0.0019225517554756189 0 -0.013742079750339975 -0.0023512920663889864 0 -0.0090985064821975589 -0.0029518538267819285 0 -0.010966398696022703 -0.0014174245154909742 0 -0.0080269331905595698 -0.0014011211498964316 0 -0.012436257538233615 -0.0023849910316925665 0 -0.0090985064821975589 -0.0029518538267819285 0 -0.010966398696022703 -0.0014174245154909742 0 -0.012347223077132296 -0.00244629526333085 0 -0.01130487451520846 -0.0025961481348894437 0 -0.0077804855820188604 -0.0027936029009746044 0 -0.0074777576618067325 -0.0016026513409821775 0 -0.0089034211927429621 -0.0019130915493845132 0 -0.0074777576618067325 -0.0016026513409821775 0 -0.0089034211927429621 -0.0019130915493845132 0 -0.0086757522130085016 -0.001152222952327821 0 -0.0077804855820188604 -0.0027936029009746044 0 -0.0074777576618067325 -0.0016026513409821775 0 -0.0059430602907802332 -0.0025070023804004285 0 -0.0074777576618067325 -0.0016026513409821775 0 -0.0059430602907802332 -0.0025070023804004285 0 -0.0061650476678034088 -0.0015110435842764951 0 -0.0088289610879755641 -0.0021533767910694745 0 -0.0071150329736816625 -0.0019810203486755446 0 -0.0059430602907802332 -0.0025070023804004285 0 -0.0061650476678034088 -0.0015110435842764951 0 -0.0054514673698979324 -0.0018532095985108166 0 -0.020298970091287675 -0.0018268782677053931 0 -0.020840523782356533 -0.0014553389134691602 0 -0.021356548472545686 -0.0017665430027076852 0 -0.016002240407903212 -0.0016425902894645042 0 -0.014006267979697494 -0.0014232563994817896 0 -0.020840523782356533 -0.0014553389134691602 0 -0.021208471337566523 -0.0013536252401912365 0 -0.021356548472545686 -0.0017665430027076852 0 -0.021153138089406994 -0.00098490924815498914 0 -0.020840523782356533 -0.0014553389134691602 0 -0.021208471337566523 -0.0013536252401912365 0 -0.021153138089406994 -0.00098490924815498914 0 -0.021208471337566523 -0.0013536252401912365 0 -0.021537658185840063 -0.0010884220743746034 0 -0.021208471337566523 -0.0013536252401912365 0 -0.021537658185840063 -0.0010884220743746034 0 -0.021356548472545686 -0.0017665430027076852 0 -0.012436257538233615 -0.0023849910316925665 0 -0.012451632992397557 -0.0024300245200962406 0 -0.012704761002799693 -0.0017770158541735833 0 -0.022287329720211552 -0.000593962071043188 0 -0.021537658185840063 -0.0010884220743746034 0 -0.021356548472545686 -0.0017665430027076852 0 -0.0088289610879755641 -0.0021533767910694745 0 -0.014006267979697494 -0.0014232563994817896 0 -0.017471752981050907 -0.0015948753909965764 0 -0.014006267979697494 -0.0014232563994817896 0 -0.012436257538233615 -0.0023849910316925665 0 -0.010966398696022703 -0.0014174245154909742 0 -0.012704761002799693 -0.0017770158541735833 0 -0.0077804855820188604 -0.0027936029009746044 0 -0.0099315275182297724 -0.0029592421268010683 0 -0.0089034211927429621 -0.0019130915493845132 0 -0.0089034211927429621 -0.0019130915493845132 0 -0.0095288829759772303 -0.0013021867623465471 0 -0.0086757522130085016 -0.001152222952327821 0 -0.0089034211927429621 -0.0019130915493845132 0 -0.010275322065715438 -0.0016934566596174827 0 -0.0095288829759772303 -0.0013021867623465471 0 -0.014006267979697494 -0.0014232563994817896 0 -0.011369228263847718 -0.0023307670433650824 0 -0.0099315275182297724 -0.0029592421268010683 0 -0.0089034211927429621 -0.0019130915493845132 0 -0.010275322065715438 -0.0016934566596174827 0 -0.010701502745883513 -0.00135840195654477 0 -0.010905190746317907 -0.0012996597121379099 0 -0.01072760596744979 -0.0017803476544831164 0 -0.010701502745883513 -0.00135840195654477 0 -0.01072760596744979 -0.0017803476544831164 0 -0.010530768497926486 -0.0015052611681143464 0 -0.01072760596744979 -0.0017803476544831164 0 -0.010275322065715438 -0.0016934566596174827 0 -0.010530768497926486 -0.0015052611681143464 0 -0.010275322065715438 -0.0016934566596174827 0 -0.010530768497926486 -0.0015052611681143464 0 -0.010434171681863974 -0.0011934693176143376 0 -0.010701502745883513 -0.00135840195654477 0 -0.010530768497926486 -0.0015052611681143464 0 -0.010628189322324849 -0.0013033927926900703 0 -0.010530768497926486 -0.0015052611681143464 0 -0.010628189322324849 -0.0013033927926900703 0 -0.010434171681863974 -0.0011934693176143376 0 -0.010959983757956576 0.0001325082473207246 0 -0.010409861407961575 -0.00041750560284677281 0 -0.010746150556845458 -0.0010857295644414412 0 -0.010409861407961575 -0.00041750560284677281 0 -0.0099820142965425934 -0.00094118210319722728 0 -0.0091461815828898473 -0.00027018087393948661 0 -0.010409861407961575 -0.00041750560284677281 0 -0.010746150556845458 -0.0010857295644414412 0 -0.01040339346594618 -0.00091748870373355889 0 -0.010628189322324849 -0.0013033927926900703 0 -0.010746150556845458 -0.0010857295644414412 0 -0.010434171681863974 -0.0011934693176143376 0 -0.010746150556845458 -0.0010857295644414412 0 -0.010434171681863974 -0.0011934693176143376 0 -0.01040339346594618 -0.00091748870373355889 0 -0.010275322065715438 -0.0016934566596174827 0 -0.010434171681863974 -0.0011934693176143376 0 -0.0099820142965425934 -0.00094118210319722728 0 -0.010434171681863974 -0.0011934693176143376 0 -0.01040339346594618 -0.00091748870373355889 0 -0.0099820142965425934 -0.00094118210319722728 0 -0.010409861407961575 -0.00041750560284677281 0 -0.01040339346594618 -0.00091748870373355889 0 -0.0099820142965425934 -0.00094118210319722728 0 -0.0099820142965425934 -0.00094118210319722728 0 -0.0095288829759772303 -0.0013021867623465471 0 -0.0091461815828898473 -0.00027018087393948661 0 -0.0095288829759772303 -0.0013021867623465471 0 -0.0086757522130085016 -0.001152222952327821 0 -0.0091461815828898473 -0.00027018087393948661 0 -0.010275322065715438 -0.0016934566596174827 0 -0.0099820142965425934 -0.00094118210319722728 0 -0.0095288829759772303 -0.0013021867623465471 0 -0.0086757522130085016 -0.001152222952327821 0 -0.0091461815828898473 -0.00027018087393948661 0 -0.0081403306149059555 -0.00047075975390184407 0 -0.0087706991705610478 0.0012339367076363635 0 -0.0091461815828898473 -0.00027018087393948661 0 -0.0098908063651685172 0.00063406552914413081 0 -0.0087706991705610478 0.0012339367076363635 0 -0.0091461815828898473 -0.00027018087393948661 0 -0.0077295430810717641 0.00039969057052279667 0 -0.010409861407961575 -0.00041750560284677281 0 -0.0091461815828898473 -0.00027018087393948661 0 -0.0098908063651685172 0.00063406552914413081 0 -0.010959983757956576 0.0001325082473207246 0 -0.010849788751397178 0.0015293321766393162 0 -0.0098908063651685172 0.00063406552914413081 0 -0.010959983757956576 0.0001325082473207246 0 -0.010409861407961575 -0.00041750560284677281 0 -0.0098908063651685172 0.00063406552914413081 0 -0.0069933164230654762 -0.00089821956271168098 0 -0.0060308731883103759 -0.00082133183727306502 0 -0.0064669413633512288 -0.00012828582378151057 0 -0.0069933164230654762 -0.00089821956271168098 0 -0.0060308731883103759 -0.00082133183727306502 0 -0.0061650476678034088 -0.0015110435842764951 0 -0.0060308731883103759 -0.00082133183727306502 0 -0.0061650476678034088 -0.0015110435842764951 0 -0.0052425686145492261 -0.0012248263937213494 0 -0.0074777576618067325 -0.0016026513409821775 0 -0.0069933164230654762 -0.00089821956271168098 0 -0.0061650476678034088 -0.0015110435842764951 0 -0.0074777576618067325 -0.0016026513409821775 0 -0.0069933164230654762 -0.00089821956271168098 0 -0.0081403306149059555 -0.00047075975390184407 0 -0.0074777576618067325 -0.0016026513409821775 0 -0.0086757522130085016 -0.001152222952327821 0 -0.0081403306149059555 -0.00047075975390184407 0 -0.0069933164230654762 -0.00089821956271168098 0 -0.0081403306149059555 -0.00047075975390184407 0 -0.0077295430810717641 0.00039969057052279667 0 -0.0069933164230654762 -0.00089821956271168098 0 -0.0077295430810717641 0.00039969057052279667 0 -0.0064669413633512288 -0.00012828582378151057 0 -0.0091461815828898473 -0.00027018087393948661 0 -0.0081403306149059555 -0.00047075975390184407 0 -0.0077295430810717641 0.00039969057052279667 0 -0.0060699821198611521 0.00071481826321314452 0 -0.0077295430810717641 0.00039969057052279667 0 -0.0064669413633512288 -0.00012828582378151057 0 -0.0060308731883103759 -0.00082133183727306502 0 -0.0064669413633512288 -0.00012828582378151057 0 -0.0053899454849323965 -0.00031715697162607243 0 -0.0060699821198611521 0.00071481826321314452 0 -0.0064669413633512288 -0.00012828582378151057 0 -0.0053899454849323965 -0.00031715697162607243 0 -0.0060699821198611521 0.00071481826321314452 0 -0.0045067969852454126 0.00031430057756119846 0 -0.0053899454849323965 -0.00031715697162607243 0 -0.0045067969852454126 0.00031430057756119846 0 -0.0053899454849323965 -0.00031715697162607243 0 -0.0042405832279900245 -0.0005971481229024787 0 -0.0060308731883103759 -0.00082133183727306502 0 -0.0053899454849323965 -0.00031715697162607243 0 -0.0052425686145492261 -0.0012248263937213494 0 -0.0053899454849323965 -0.00031715697162607243 0 -0.0052425686145492261 -0.0012248263937213494 0 -0.0042405832279900245 -0.0005971481229024787 0 -0.0052425686145492261 -0.0012248263937213494 0 -0.0044142520431962049 -0.0013721626401641033 0 -0.0049674138242351085 -0.0016378210732929362 0 -0.0042405832279900245 -0.0005971481229024787 0 -0.0031826321413364286 -0.00056713584613495125 0 -0.0035978060181168889 -0.0012204122644342247 0 -0.0044142520431962049 -0.0013721626401641033 0 -0.0035978060181168889 -0.0012204122644342247 0 -0.00414890659000811 -0.0017383165359615446 0 -0.0052425686145492261 -0.0012248263937213494 0 -0.0044142520431962049 -0.0013721626401641033 0 -0.0042405832279900245 -0.0005971481229024787 0 -0.0044142520431962049 -0.0013721626401641033 0 -0.0042405832279900245 -0.0005971481229024787 0 -0.0035978060181168889 -0.0012204122644342247 0 -0.0034139154610691685 0.00016150071664169173 0 -0.0042405832279900245 -0.0005971481229024787 0 -0.0031826321413364286 -0.00056713584613495125 0 -0.0034139154610691685 0.00016150071664169173 0 -0.0045067969852454126 0.00031430057756119846 0 -0.0042405832279900245 -0.0005971481229024787 0 -0.0034139154610691685 0.00016150071664169173 0 -0.002738329939855285 1.2708926581409525e-05 0 -0.0031826321413364286 -0.00056713584613495125 0 -0.002738329939855285 1.2708926581409525e-05 0 -0.0031826321413364286 -0.00056713584613495125 0 -0.0024059472250061624 -0.00041346657403623286 0 -0.0011164444119456354 -0.00051684905795232436 0 -0.0024059472250061624 -0.00041346657403623286 0 -0.0025229900075859446 -0.0012468690131008516 0 -0.0031826321413364286 -0.00056713584613495125 0 -0.0024059472250061624 -0.00041346657403623286 0 -0.0025229900075859446 -0.0012468690131008516 0 -0.0020977856759154807 0.0002642810227486607 0 -0.0016425183441879827 2.7421102845624938e-06 0 -0.0024059472250061624 -0.00041346657403623286 0 -0.0020977856759154807 0.0002642810227486607 0 -0.002738329939855285 1.2708926581409525e-05 0 -0.0024059472250061624 -0.00041346657403623286 0 -0.0025229900075859446 -0.0012468690131008516 0 -0.0035978060181168889 -0.0012204122644342247 0 -0.0034381969428467262 -0.00173826489257999 0 -0.0031826321413364286 -0.00056713584613495125 0 -0.0025229900075859446 -0.0012468690131008516 0 -0.0035978060181168889 -0.0012204122644342247 0 -0.0034381969428467262 -0.00173826489257999 0 -0.0029380281606700477 -0.0020208466325855176 0 -0.0046329406170615584 -0.0027937845106410239 0 -0.0035978060181168889 -0.0012204122644342247 0 -0.0034381969428467262 -0.00173826489257999 0 -0.00414890659000811 -0.0017383165359615446 0 -0.0025229900075859446 -0.0012468690131008516 0 -0.0034381969428467262 -0.00173826489257999 0 -0.0029380281606700477 -0.0020208466325855176 0 -0.0025142815513789392 -0.0015328014533740459 0 -0.0025229900075859446 -0.0012468690131008516 0 -0.0029380281606700477 -0.0020208466325855176 0 -0.012252377414371948 -0.00068281657315456205 0 -0.013888575506294467 -0.0011453849836635347 0 -0.013345656434626733 -0.0016708609644741361 0 -0.013888575506294467 -0.0011453849836635347 0 -0.013946574902083644 -0.0016426753046582024 0 -0.013345656434626733 -0.0016708609644741361 0 -0.007655658895659256 -0.0017625644998510489 0 -0.009679277409375112 -0.0022540189372653573 0 -0.013888575506294467 -0.0011453849836635347 0 -0.01424411431897938 -0.0017018287289415829 0 -0.014396554967173656 -0.0018097238089329053 0 -0.013888575506294467 -0.0011453849836635347 0 -0.013946574902083644 -0.0016426753046582024 0 -0.01424411431897938 -0.0017018287289415829 0 -0.014371791657846418 -0.0017940639079066551 0 -0.01424411431897938 -0.0017018287289415829 0 -0.014396554967173656 -0.0018097238089329053 0 -0.0090985064821975589 -0.0029518538267819285 0 -0.0080269331905595698 -0.0014011211498964316 0 -0.0046329406170615584 -0.0027937845106410239 0 -0.014153161532495163 -0.0019349293690210324 0 -0.014371791657846418 -0.0017940639079066551 0 -0.014396554967173656 -0.0018097238089329053 0 -0.01130487451520846 -0.0025961481348894437 0 -0.009679277409375112 -0.0022540189372653573 0 -0.014153161532495163 -0.0019349293690210324 0 -0.013742079750339975 -0.0023512920663889864 0 -0.014396554967173656 -0.0018097238089329053 0 -0.0071150329736816625 -0.0019810203486755446 0 -0.0049444283300848213 -0.0019349694897739455 0 -0.0080269331905595698 -0.0014011211498964316 0 -0.0046329406170615584 -0.0027937845106410239 0 -0.0047168799392273931 -0.0019670749725901162 0 -0.0059430602907802332 -0.0025070023804004285 0 -0.0054514673698979324 -0.0018532095985108166 0 -0.0047168799392273931 -0.0019670749725901162 0 -0.0061650476678034088 -0.0015110435842764951 0 -0.0052425686145492261 -0.0012248263937213494 0 -0.0054514673698979324 -0.0018532095985108166 0 -0.0054514673698979324 -0.0018532095985108166 0 -0.0049674138242351085 -0.0016378210732929362 0 -0.0047168799392273931 -0.0019670749725901162 0 -0.0052425686145492261 -0.0012248263937213494 0 -0.0054514673698979324 -0.0018532095985108166 0 -0.0049674138242351085 -0.0016378210732929362 0 -0.0044142520431962049 -0.0013721626401641033 0 -0.00414890659000811 -0.0017383165359615446 0 -0.0047168799392273931 -0.0019670749725901162 0 -0.0044142520431962049 -0.0013721626401641033 0 -0.0049674138242351085 -0.0016378210732929362 0 -0.0047168799392273931 -0.0019670749725901162 0 -0.0034381969428467262 -0.00173826489257999 0 -0.0046329406170615584 -0.0027937845106410239 0 -0.00414890659000811 -0.0017383165359615446 0 -0.0046329406170615584 -0.0027937845106410239 0 -0.00414890659000811 -0.0017383165359615446 0 -0.0047168799392273931 -0.0019670749725901162 0 
</DataArray>
</PointData>
<CellData Scalars="region_id,cross_section_updated," Vectors="" Tensors="stress,">
<DataArray type="Float64" Name="region_id" format="ascii">
6 5 5 5 5 5 5 5 5 6 5 5 5 6 5 5 5 5 5 5 5 5 5 5 5 5 5 5 5 6 5 5 6 5 5 5 6 5 5 5 6 5 5 5 5 5 5 5 5 6 5 5 5 5 5 5 6 5 5 5 5 5 5 5 5 5 6 5 5 6 5 5 5 6 5 6 5 6 6 5 5 5 5 5 5 5 5 5 6 5 6 5 5 6 5 5 5 5 5 5 5 5 5 5 5 5 5 5 5 6 5 5 5 5 6 5 5 6 6 5 5 6 5 5 5 6 6 6 5 6 5 5 5 5 5 5 5 5 5 6 6 5 5 5 5 5 5 6 5 5 5 5 5 6 6 5 5 6 5 5 6 6 5 6 6 5 5 5 5 5 5 5 5 5 5 5 5 6 5 5 6 5 5 5 5 5 5 5 5 5 5 5 5 5 5 5 5 5 5 5 5 6 5 5 5 5 5 5 5 5 5 5 5 5 5 5 5 6 5 5 6 5 5 5 5 6 6 5 5 5 5 5 5 5 5 5 5 5 5 5 5 5 6 5 5 5 6 5 5 5 5 5 5 5 5 6 6 5 5 5 5 5 5 5 5 5 6 5 5 5 5 5 6 5 6 5 5 5 5 5 6 6 5 5 5 6 5 6 5 5 5 6 5 6 5 5 6 5 5 5 6 5 5 5 5 5 6 6 5 5 6 5 6 6 5 5 6 5 6 5 5 5 5 6 5 6 5 5 6 6 6 5 6 5 6 6 5 5 5 5 5 5 5 5 5 6 5 5 5 5 5 5 5 5 5 5 5 5 5 5 5 5 5 5 5 5 5 5 5 5 6 5 6 5 5 5 5 5 6 5 6 5 5 6 5 5 5 5 6 5 6 5 5 5 5 5 5 5 5 5 5 5 5 5 6 5 5 6 5 5 5 5 5 5 5 5 5 5 5 5 5 5 5 5 5 6 5 5 5 5 5 5 5 5 5 5 6 5 5 5 6 6 5 5 5 5 5 5 5 5 5 5 5 5 5 5 5 5 5 5 5 5 5 5 5 6 5 5 6 5 5 6 5 6 5 5 5 6 5 6 6 5 5 5 5 5 5 5 5 5 5 6 5 5 5 5 5 5 5 5 5 5 5 5 5 5 5 5 5 5 5 5 5 5 5 5 5 5 5 5 5 5 5 5 6 5 5 5 5 6 5 5 5 5 5 5 5 6 5 5 5 5 5 5 5 5 5 6 5 6 6 5 5 6 5 6 5 5 5 5 5 5 5 5 6 5 5 5 5 5 6 5 5 5 5 5 5 6 5 5 5 5 5 5 5 5 6 5 6 5 5 5 5 5 6 5 6 5 5 5 5 5 5 6 5 5 5 5 5 5 5 5 5 5 6 6 5 5 5 5 6 5 5 5 5 5 5 5 5 5 5 5 5 6 5 5 6 5 5 5 5 5 5 5 5 5 5 6 6 5 5 5 5 5 5 5 5 5 5 6 5 6 5 5 5 5 5 5 5 5 5 5 5 5 5 5 5 5 5 5 5 5 5 5 5 5 5 5 5 5 5 5 5 5 5 5 5 5 5 5 5 6 5 5 5 6 5 6 5 6 5 5 6 5 6 5 6 5 5 6 5 5 5 5 5 5 5 5 6 5 5 6 5 5 5 5 6 5 5 5 5 5 5 5 5 5 5 6 5 6 5 6 5 6 5 6 5 5 5 6 5 6 5 5 5 5 5 5 5 5 5 5 5 5 6 5 5 6 6 5 5 5 6 5 5 6 5 5 6 5 5 5 6 5 5 5 5 5 6 5 5 6 6 5 5 5 6 6 6 5 5 6 5 5 6 5 5 5 5 5 5 6 5 5 6 5 5 6 5 5 5 5 5 5 5 5 6 5 5 5 5 5 6 6 6 5 5 5 5 5 5 5 5 5 5 5 6 5 5 5 5 6 5 5 5 5 5 5 5 6 5 5 5 6 5 6 5 6 5 6 5 5 5 5 5 5 5 5 5 5 6 5 5 5 5 5 5 5 5 6 5 5 6 5 5 5 5 6 5 5 5 5 5 5 6 5 6 5 5 5 5 5 5 6 6 5 5 5 5 6 5 6 5 5 5 6 5 5 5 5 5 5 5 6 6 5 5 6 5 6 6 6 5 5 5 5 5 5 5 6 5 5 5 5 5 5 5 5 5 5 5 5 5 6 5 5 5 5 5 5 5 5 5 5 6 5 5 6 5 5 5 5 5 6 5 5 5 5 5 5 5 5 6 5 6 5 5 6 5 5 6 5 5 5 5 6 5 5 5 5 5 6 5 5 5 5 5 5 5 5 5 6 5 5 6 6 5 5 5 5 6 5 6 5 5 6 6 5 6 5 6 5 5 5 5 5 6 5 5 5 6 5 5 5 6 5 5 5 5 5 5 5 5 5 5 6 5 5 5 5 5 5 5 5 5 5 5 5 5 5 5 5 5 5 6 5 5 6 5 5 5 5 6 5 5 5 5 5 5 5 5 5 5 5 5 5 5 5 5 5 5 5 5 5 5 5 5 5 5 5 5 5 5 5 5 5 5 5 5 5 5 5 5 5 5 5 5 5 5 5 5 5 5 5 5 5 5 5 5 5 5 6 5 5 5 5 5 5 5 5 5 5 5 5 5 5 5 5 5 5 5 6 5 5 5 5 6 5 5 5 5 5 5 5 5 5 5 5 5 5 5 5 5 5 5 6 5 5 5 5 6 5 5 5 5 5 6 6 5 5 5 5 5 5 5 5 5 5 5 5 5 5 5 5 5 5 6 5 5 5 6 5 6 5 5 5 5 5 5 5 5 5 6 5 5 5 5 6 6 5 5 5 5 5 5 5 5 5 5 5 5 5 5 5 5 5 5 5 6 5 5 5 5 5 5 5 5 5 5 5 5 5 6 5 5 5 5 5 5 5 5 5 5 5 5 5 5 5 5 5 5 5 5 5 5 6 5 5 5 5 5 5 5 6 5 5 5 6 5 5 5 5 5 5 5 5 5 5 5 5 5 5 5 5 5 5 5 5 5 5 5 5 6 5 6 5 5 5 5 6 5 6 5 5 5 5 5 5 5 6 5 5 5 5 6 5 5 5 5 5 5 5 5 5 5 5 6 5 5 5 5 5 5 6 5 6 5 5 5 5 5 6 5 5 6 5 5 6 5 5 5 5 5 5 5 5 5 5 5 5 5 5 5 5 5 5 5 5 5 5 5 5 5 5 5 6 5 5 5 6 5 6 5 5 6 6 5 5 5 6 5 5 5 5 6 5 6 5 5 6 5 5 5 5 5 6 5 5 5 5 5 6 5 5 5 5 5 5 5 5 5 5 5 5 5 5 5 5 5 5 5 5 5 5 5 5 5 5 5 5 5 5 5 5 5 5 5 5 5 5 5 5 5 5 5 6 6 5 5 5 5 5 5 5 5 5 5 5 5 5 5 5 5 5 5 5 5 5 5 5 5 5 5 5 5 6 5 5 5 5 6 5 5 5 5 6 5 5 5 5 5 5 5 6 5 6 5 5 5 5 5 6 5 5 5 5 5 5 5 5 5 5 6 5 5 5 5 5 5 5 5 5 5 5 5 5 5 5 5 5 5 5 5 5 5 5 5 5 6 5 5 5 5 6 5 6 5 5 6 5 6 5 5 5 5 5 5 6 5 5 5 6 5 5 5 5 5 5 5 5 5 5 5 5 5 5 5 5 5 6 5 6 5 5 5 5 5 6 5 6 5 5 5 5 5 5 5 5 6 5 5 5 5 5 5 5 5 5 5 5 5 5 5 5 5 5 5 5 5 5 5 5 6 5 6 5 5 5 5 5 5 5 5 5 5 5 5 6 5 5 5 5 5 5 5 5 5 5 5 5 5 5 5 5 5 5 5 5 5 5 5 5 5 5 5 6 5 5 5 6 5 6 6 5 5 5 5 5 6 5 5 5 5 5 5 5 5 5 5 5 5 5 5 5 5 5 5 5 5 5 5 5 5 6 5 5 6 5 5 5 5 5 5 5 5 6 6 5 5 5 5 5 5 5 5 5 5 6 5 5 6 6 5 6 5 5 5 5 5 6 5 6 6 6 5 5 5 5 5 5 6 5 5 5 5 5 5 5 5 5 6 5 6 5 5 6 5 5 5 5 5 5 5 5 5 5 5 5 5 5 5 5 5 5 5 5 5 5 5 5 5 5 6 6 5 5 5 5 5 5 5 5 5 5 5 5 5 5 5 5 5 5 5 5 5 5 5 5 5 5 5 5 5 5 5 5 5 5 5 5 5 5 5 5 5 5 5 5 5 5 5 5 5 5 5 5 5 5 5 5 6 5 5 5 5 5 5 5 5 5 6 6 5 5 5 6 5 5 5 5 5 5 5 5 5 5 5 5 5 5 5 5 5 5 5 5 5 5 5 5 5 5 5 5 5 5 6 5 5 5 5 5 5 5 6 5 5 5 5 5 5 5 6 5 5 6 5 5 5 5 5 5 5 5 5 6 5 5 6 6 5 5 5 6 5 5 5 5 5 5 5 5 5 5 5 6 5 5 5 5 6 5 6 5 5 6 5 5 6 6 5 5 5 5 5 5 5 5 5 5 6 6 5 5 5 5 5 5 6 5 5 5 5 5 5 6 5 6 5 5 5 5 5 6 6 5 5 5 5 5 5 5 5 5 5 5 5 5 5 5 5 5 5 5 6 6 5 5 6 5 5 5 5 5 5 5 5 5 5 5 6 5 5 5 5 5 5 5 5 5 5 5 5 5 5 5 5 5 5 5 5 5 5 5 5 5 5 5 5 6 5 5 5 5 6 6 5 5 5 5 5 5 5 6 5 6 5 5 5 5 5 5 5 5 5 5 5 5 5 5 5 5 5 5 5 5 6 6 5 6 5 5 5 5 5 6 5 5 5 5 5 5 5 5 5 5 5 5 5 5 5 5 5 6 5 5 5 5 5 5 5 5 5 5 5 6 5 5 5 5 5 5 5 5 5 5 6 5 5 5 5 5 5 5 5 5 6 5 5 5 5 6 5 5 5 6 5 5 5 5 6 5 5 5 5 5 5 5 5 5 6 5 5 5 5 6 5 5 5 5 5 5 5 5 6 5 6 6 5 6 6 5 5 5 6 5 5 5 6 5 6 5 5 5 5 5 6 5 5 5 6 5 5 5 5 5 5 6 6 5 5 5 5 5 5 5 5 5 5 5 6 5 6 6 5 5 5 5 5 6 6 5 5 6 5 5 5 5 6 5 5 5 5 5 6 5 5 5 5 6 6 5 5 6 5 6 6 5 5 5 5 5 5 5 5 5 5 5 5 5 5 5 5 5 5 5 5 5 6 5 5 6 5 6 5 5 5 6 5 5 5 5 5 5 6 6 5 5 5 5 5 5 6 5 5 6 5 5 5 5 5 5 6 5 5 5 6 5 5 5 5 5 5 6 5 5 5 5 5 5 5 5 5 5 5 5 5 6 5 6 5 5 5 5 5 5 5 5 5 6 5 5 5 6 5 5 5 5 5 5 5 5 5 5 6 5 5 5 5 5 5 5 5 5 5 5 5 5 5 5 5 5 5 5 5 5 5 5 5 5 6 5 5 5 6 5 5 6 5 5 5 5 5 6 5 5 5 6 5 5 5 5 5 5 5 6 5 5 5 5 5 5 5 5 5 5 5 5 5 5 5 5 5 6 5 6 5 5 5 5 5 5 5 5 5 6 5 6 5 6 5 6 6 5 5 5 5 6 5 5 5 5 6 5 5 5 5 5 6 5 6 5 5 6 5 5 5 5 5 5 5 5 5 5 5 5 5 5 5 5 5 6 5 5 5 5 5 5 6 5 5 5 5 5 6 5 5 5 5 5 5 5 6 5 5 6 5 5 5 5 5 5 6 5 5 5 6 5 5 5 5 5 5 5 5 5 5 5 5 5 5 5 5 5 6 5 5 5 5 5 6 6 5 5 5 5 5 6 5 6 5 6 5 6 6 5 5 5 6 6 5 5 5 5 5 5 5 5 5 5 5 5 5 5 5 5 5 5 5 5 5 5 5 5 5 5 5 5 5 5 5 5 5 5 5 5 5 5 6 5 5 5 5 5 5 5 6 5 6 5 5 5 5 5 5 6 5 5 5 6 5 5 5 6 6 5 6 5 5 5 5 5 5 6 5 5 6 5 5 5 5 5 5 5 5 5 5 5 5 6 6 6 5 5 5 6 5 5 5 5 5 5 5 5 5 5 5 5 5 5 5 5 5 5 5 5 5 5 6 5 5 5 5 6 5 5 5 5 5 5 5 6 5 5 5 5 5 6 5 5 5 5 5 6 5 5 5 5 5 5 5 5 5 6 5 5 5 5 6 5 5 5 5 5 5 5 5 5 5 6 5 5 6 5 5 5 5 5 5 5 5 5 5 5 5 5 5 5 5 5 5 5 5 6 5 5 5 5 6 5 5 5 5 5 5 5 5 6 5 5 5 5 5 6 5 5 6 5 5 5 5 5 5 5 5 5 5 5 5 6 5 5 5 5 5 5 5 5 5 5 5 5 5 5 5 5 5 5 5 5 5 5 5 5 5 5 5 5 6 5 5 5 5 5 5 5 5 5 5 5 5 5 5 6 5 5 5 5 5 5 5 5 5 5 5 5 5 5 5 5 5 5 5 6 5 5 5 5 5 5 5 6 5 5 5 5 5 5 5 5 5 5 5 5 5 5 5 5 5 5 5 5 5 5 5 5 6 5 5 5 5 5 6 5 5 5 5 5 5 5 5 5 5 6 5 5 6 5 6 5 5 5 5 5 5 5 6 5 6 5 6 5 5 5 5 5 5 5 5 5 5 5 5 5 5 5 5 5 5 5 5 5 5 5 5 5 5 5 5 5 5 5 5 5 5 5 5 6 5 5 5 5 5 5 5 5 5 5 5 5 5 5 5 5 5 5 5 5 5 5 5 5 5 5 5 5 5 5 5 6 5 5 5 5 5 5 6 6 5 5 5 5 5 5 5 5 5 5 5 5 5 6 5 5 5 5 5 5 5 5 5 5 6 6 5 6 5 5 5 6 5 6 6 5 6 5 5 5 5 5 5 5 6 6 5 5 5 5 6 5 5 5 5 6 5 6 5 6 6 5 6 5 5 5 5 5 6 5 6 6 6 6 5 5 5 5 5 6 5 5 6 6 5 5 5 6 5 5 6 5 5 5 5 6 5 5 6 5 5 6 5 5 5 5 5 5 5 5 5 5 5 5 5 5 6 5 6 5 5 5 5 5 6 5 5 6 5 5 5 5 5 6 5 5 5 5 5 5 5 5 5 5 6 5 5 5 5 5 5 5 5 5 5 5 6 5 5 5 5 5 5 6 5 5 5 5 5 5 5 5 5 5 5 5 5 5 6 5 5 5 6 5 5 5 5 5 5 5 6 5 6 5 5 5 5 5 5 5 5 5 5 5 5 5 5 5 5 5 5 5 5 5 5 5 5 5 5 5 5 5 5 5 5 5 5 5 5 6 5 6 5 5 6 5 6 5 5 5 5 5 5 6 5 5 6 6 5 5 5 5 5 5 6 5 5 5 5 5 5 5 6 5 5 5 5 5 5 5 5 5 5 5 5 5 5 5 5 5 5 5 6 5 5 5 6 5 6 5 6 5 5 5 5 6 5 5 5 5 5 5 6 5 5 5 5 5 5 6 5 5 6 5 5 5 5 5 5 6 5 5 5 5 5 5 5 5 5 6 5 6 5 5 5 5 5 6 6 5 5 5 6 6 5 5 5 5 5 5 6 5 5 6 6 5 5 6 5 5 6 5 5 5 5 6 5 5 5 5 5 5 6 5 5 5 5 5 5 5 5 5 5 6 5 5 5 6 6 5 5 5 5 5 5 5 5 5 6 5 5 5 5 5 5 5 5 5 5 5 6 6 5 5 5 5 6 5 5 5 5 6 5 5 5 5 6 5 5 5 6 5 5 5 5 6 5 5 5 5 5 6 5 5 5 5 6 5 5 5 5 5 5 5 5 5 5 5 5 5 5 5 5 5 5 5 5 5 5 5 5 5 5 5 5 5 5 5 5 6 5 5 5 5 6 5 5 5 5 5 5 6 5 5 5 6 5 6 5 5 5 5 5 5 5 5 5 5 5 5 5 5 5 5 5 5 5 5 5 5 5 6 5 6 5 5 5 6 5 5 5 5 5 5 5 5 5 5 5 5 5 6 5 5 6 5 5 6 6 5 6 5 5 5 5 5 5 5 5 5 5 5 5 5 5 5 5 5 6 5 5 5 5 5 6 5 5 5 5 5 5 5 6 5 5 5 5 5 5 5 6 5 5 5 5 5 5 5 5 5 5 5 5 5 5 5 6 5 5 5 6 5 5 5 5 5 5 5 5 5 5 5 6 5 5 5 5 5 5 6 5 5 6 5 6 5 5 5 6 5 5 5 5 5 5 5 5 5 5 5 6 5 5 5 5 5 6 5 5 5 6 5 5 5 6 5 5 5 5 5 6 5 6 5 5 5 5 5 5 5 5 6 5 6 5 5 6 5 6 5 6 5 5 5 5 5 5 5 5 5 5 6 5 6 5 5 5 5 6 5 5 5 6 6 5 5 5 6 5 6 6 5 5 6 6 5 6 6 5 5 6 6 5 5 6 5 5 6 5 6 5 5 6 5 5 6 5 6 5 5 5 6 5 6 5 5 6 6 5 5 5 6 6 5 6 5 5 5 5 5 5 5 5 6 5 5 6 6 5 6 5 6 6 5 5 5 6 5 5 6 5 5 5 5 5 5 6 6 5 5 5 5 5 5 5 6 6 5 5 5 5 6 5 5 5 6 5 5 6 5 5 5 5 5 6 5 5 6 5 5 5 6 6 5 5 6 5 5 5 6 5 5 5 6 6 5 5 6 5 5 5 5 6 6 5 5 6 6 5 6 6 5 5 5 5 5 5 6 5 5 5 5 5 5 5 5 5 5 6 6 5 5 5 5 5 5 5 6 5 5 5 5 5 5 5 5 5 6 5 5 6 5 5 6 5 5 5 5 5 5 5 5 5 5 5 5 5 5 5 5 5 5 6 6 5 5 5 5 6 5 5 6 5 5 5 5 5 5 5 5 5 6 5 5 6 5 5 5 5 5 5 5 5 5 5 5 6 5 6 5 5 5 5 5 5 5 5 5 5 6 5 5 5 5 5 5 5 5 5 5 5 5 5 5 5 5 5 5 5 5 5 5 5 5 5 5 5 5 5 5 5 5 5 5 5 5 5 5 5 6 5 5 5 5 5 5 5 5 5 6 5 5 6 5 5 5 5 5 5 5 5 5 5 5 5 5 5 5 5 6 5 6 5 5 6 5 5 5 6 6 5 6 6 5 6 5 5 6 5 5 6 5 5 5 5 5 5 5 5 5 5 5 5 5 5 5 5 5 5 5 5 5 6 5 5 5 5 5 5 5 5 5 5 5 5 5 5 5 5 5 5 5 6 5 5 5 5 5 6 5 5 5 5 5 5 5 5 5 5 5 5 5 5 5 5 5 5 5 5 5 5 5 5 6 5 5 5 5 5 5 6 5 5 5 5 5 5 5 5 5 5 5 5 5 5 5 6 5 5 5 6 6 5 5 5 6 5 5 5 5 5 5 5 5 6 5 5 5 5 6 5 5 5 5 5 5 5 5 5 5 5 5 5 6 5 5 5 5 5 5 5 5 5 5 5 5 5 5 5 5 5 5 5 5 5 5 5 5 5 5 5 6 5 5 5 5 5 5 5 5 5 5 5 5 5 5 5 6 6 5 5 5 6 5 5 5 5 5 5 5 5 5 5 5 5 5 5 5 5 5 5 5 5 5 5 5 5 5 5 5 5 5 5 6 5 5 5 5 5 5 5 5 5 5 5 5 5 5 5 5 5 5 5 5 5 5 5 5 5 6 5 5 5 5 5 5 5 6 5 5 5 6 5 5 6 5 5 5 5 5 5 5 5 6 6 5 5 5 5 5 6 5 5 5 5 5 5 5 5 5 5 5 5 5 5 5 5 5 5 5 6 5 6 5 6 5 5 5 6 5 6 5 5 5 5 5 5 5 5 5 5 5 5 6 5 5 5 5 6 5 5 6 5 6 5 5 6 5 5 5 6 5 5 5 5 5 5 5 5 5 6 5 5 5 5 6 5 5 5 5 6 5 5 5 5 5 5 6 5 6 5 6 5 5 5 6 5 5 5 5 5 5 6 6 5 5 5 5 5 6 5 5 5 5 5 5 5 5 5 5 5 5 5 5 5 5 5 5 5 6 5 5 5 5 5 5 5 5 5 6 5 6 5 6 5 5 5 5 5 5 5 5 5 5 5 5 6 5 5 6 5 5 5 5 5 5 5 5 5 6 5 6 5 5 5 5 5 5 6 5 5 5 5 5 5 5 5 5 5 5 5 5 5 5 5 5 5 5 5 5 5 5 5 5 5 5 5 5 5 5 5 5 5 5 5 5 5 5 5 5 6 5 5 6 5 6 5 5 5 6 6 5 5 6 5 5 5 5 5 5 5 5 5 5 5 5 6 5 5 5 5 5 5 5 5 5 5 5 5 6 5 5 5 5 5 5 5 5 5 5 5 5 5 5 5 6 5 5 5 5 5 6 5 5 5 5 5 5 5 5 5 6 5 5 5 5 6 5 5 5 5 5 5 5 5 5 5 5 6 5 6 5 6 5 5 5 6 5 5 5 5 5 5 5 5 5 5 5 5 5 5 5 5 5 5 5 5 6 5 5 5 5 5 5 5 5 5 5 5 5 5 5 5 5 5 5 6 5 5 5 5 5 6 5 5 5 5 5 5 5 5 6 5 5 6 5 5 5 5 5 5 5 6 5 5 5 5 5 5 5 5 5 6 5 5 5 5 5 5 5 5 5 5 5 5 5 5 5 5 5 5 5 5 5 5 5 5 6 5 6 5 5 6 5 5 5 5 5 5 5 5 6 5 5 5 5 5 5 6 5 5 5 5 5 5 5 5 5 5 5 5 6 5 5 5 5 5 5 5 5 5 5 5 5 5 5 6 5 5 5 6 5 5 5 5 6 5 5 5 5 5 5 5 5 5 5 5 5 5 5 5 5 5 5 5 5 5 5 5 5 5 5 6 5 5 6 5 5 5 5 5 5 5 5 5 6 5 5 6 5 5 6 5 5 5 5 5 5 5 5 5 5 5 5 5 5 5 5 5 5 5 5 5 5 5 5 5 5 5 5 5 5 5 5 5 5 5 5 5 5 5 5 5 5 5 5 5 5 5 5 5 5 5 5 5 5 5 5 5 5 5 5 5 5 5 6 5 5 5 5 5 5 6 5 5 5 5 5 5 5 5 5 5 5 6 6 5 5 6 5 6 5 5 6 5 5 6 5 5 5 5 5 5 5 5 6 5 5 5 5 5 5 5 5 5 6 5 5 5 5 6 5 5 5 5 5 5 5 5 5 5 5 5 5 5 5 6 5 5 5 5 6 5 6 5 5 5 6 5 5 6 5 5 5 5 5 5 5 5 5 5 5 6 5 5 6 5 5 5 6 5 5 6 6 5 5 6 5 5 5 5 5 5 5 5 6 5 5 5 5 6 5 6 5 6 5 5 5 5 6 5 5 5 6 5 5 5 5 5 5 5 5 5 5 5 5 5 5 5 5 5 5 6 5 5 5 5 5 5 5 5 5 5 5 5 5 5 5 5 5 5 5 5 5 5 5 5 5 5 5 5 5 5 5 5 5 5 5 5 5 5 5 5 6 5 5 5 5 5 6 5 5 5 5 5 5 5 5 5 5 5 5 5 6 5 5 6 5 5 5 6 5 6 5 5 5 5 6 5 5 5 5 5 5 5 5 5 6 5 5 6 6 5 6 5 5 5 5 5 5 5 5 5 5 5 5 5 5 5 5 5 5 5 5 5 5 5 6 5 5 5 6 5 5 5 5 5 5 5 6 5 5 5 5 5 5 5 5 5 5 5 5 5 5 5 5 5 5 5 5 5 5 5 6 5 5 5 5 5 6 5 6 6 5 5 5 6 5 5 6 5 5 5 5 5 5 5 5 5 5 5 6 5 5 5 6 5 6 5 5 5 5 5 6 5 6 5 6 5 5 5 5 5 5 5 5 6 6 6 5 5 6 5 5 5 5 5 5 5 5 5 5 5 5 5 5 5 5 5 5 5 5 5 5 5 5 5 5 5 5 5 5 5 5 5 5 5 5 5 6 5 5 5 5 5 5 5 6 5 5 6 5 5 5 5 5 5 5 5 5 5 5 5 5 5 5 5 5 5 5 5 5 5 5 6 5 5 5 5 5 5 5 5 5 5 6 5 5 5 5 6 5 5 5 5 6 5 6 6 5 5 5 5 6 5 5 6 5 5 6 6 5 5 5 5 5 5 5 6 5 5 5 5 5 5 5 5 5 5 5 5 5 6 5 5 5 5 5 5 5 6 6 5 6 5 6 5 5 5 6 5 5 5 5 5 6 5 5 6 5 5 5 5 5 5 5 6 5 5 5 5 5 5 5 5 6 5 5 5 6 5 5 5 5 5 6 6 5 5 6 5 5 5 5 5 5 5 5 5 5 5 5 5 5 6 5 5 6 5 6 5 5 5 5 6 5 5 5 5 5 6 5 5 6 6 5 5 5 5 6 5 5 5 5 5 5 5 5 6 5 6 5 5 5 5 5 5 5 5 6 5 5 5 5 6 5 5 5 5 5 5 5 5 5 5 5 5 5 5 5 5 5 5 5 5 5 5 5 5 5 5 5 5 5 5 5 5 5 6 5 5 5 5 5 5 5 6 5 5 5 5 5 5 5 5 5 5 5 5 6 5 5 5 5 6 5 5 5 5 5 5 5 5 5 5 5 5 5 6 5 5 6 5 5 5 5 6 5 5 5 5 5 5 5 5 5 5 5 6 5 6 5 5 6 5 5 5 5 6 5 5 5 5 5 5 5 5 5 5 5 5 5 5 5 5 5 5 5 5 5 5 5 5 5 5 5 5 6 5 5 5 5 6 5 5 5 5 5 5 5 5 5 6 5 5 5 6 5 5 5 5 5 5 6 5 6 5 6 5 5 5 5 5 5 5 5 5 5 5 5 5 5 5 5 5 5 5 5 5 5 5 5 5 5 5 5 5 5 5 5 5 5 5 6 5 6 5 5 5 5 5 5 5 5 6 5 5 5 5 5 5 5 5 5 5 5 5 6 5 5 5 5 5 5 5 5 5 5 5 5 5 6 5 5 6 5 5 5 5 6 5 5 5 5 6 5 5 5 5 5 6 6 5 6 5 5 6 5 5 5 5 6 5 6 5 5 5 5 5 5 5 5 6 5 5 5 5 6 5 5 5 5 5 5 5 5 5 5 5 5 5 5 5 5 5 5 5 5 5 5 6 5 5 5 5 5 5 5 5 5 5 5 5 5 5 5 5 5 5 5 5 5 6 5 5 5 5 5 5 5 6 5 6 5 5 5 5 5 5 5 5 5 5 5 5 5 5 5 5 5 5 5 5 5 5 5 5 5 5 6 5 5 5 5 5 6 5 6 5 5 5 5 6 6 6 5 6 5 5 5 6 5 5 5 5 6 5 6 5 5 5 5 6 5 5 5 6 6 6 5 6 5 6 5 5 6 5 5 5 5 5 5 5 5 5 5 6 5 6 5 6 5 5 5 5 6 5 5 5 5 6 5 5 5 5 5 5 5 5 5 5 6 5 6 5 5 6 5 5 6 5 5 5 5 5 6 5 5 5 5 5 5 5 5 5 5 5 5 6 5 5 5 6 5 5 5 5 5 6 5 5 5 5 5 5 5 5 5 5 5 5 5 5 5 5 5 5 5 5 5 6 5 5 5 5 6 5 5 5 6 5 6 5 5 6 5 6 5 5 5 5 5 5 6 5 5 5 5 6 5 6 5 5 5 5 5 5 5 6 5 5 5 5 5 5 5 6 5 5 5 5 5 5 5 5 5 5 5 5 5 5 5 5 5 6 5 5 5 6 5 5 5 5 5 5 5 5 5 5 5 5 5 5 6 5 5 5 5 5 5 5 5 5 5 5 5 5 5 5 5 5 5 5 5 5 5 5 5 5 5 5 6 5 6 5 5 5 6 5 5 5 6 5 5 6 6 5 5 5 5 5 5 5 5 6 5 5 6 5 5 5 5 6 5 6 5 5 5 6 5 5 5 5 5 5 5 5 5 5 6 5 5 6 5 5 6 5 5 5 5 5 5 5 6 5 5 6 6 5 5 5 6 5 5 5 5 5 5 6 5 5 5 5 6 5 5 5 6 5 5 5 5 6 5 5 6 5 5 5 5 5 5 5 5 5 5 5 6 5 5 5 5 6 5 6 5 6 5 6 5 5 5 5 5 5 5 5 5 5 5 6 6 5 5 5 5 5 5 6 5 5 6 5 5 5 5 5 5 6 5 5 5 6 5 6 5 5 5 6 5 5 5 5 5 5 6 5 5 5 5 5 5 6 5 6 5 5 5 6 5 5 5 5 6 5 5 5 5 5 5 5 6 5 6 5 6 5 5 5 6 6 5 5 6 5 5 5 5 5 6 5 6 6 6 6 5 5 5 5 5 6 6 5 5 6 5 5 5 6 5 5 5 5 5 5 5 5 5 6 5 5 5 6 5 5 5 5 5 5 5 6 5 6 5 5 5 5 6 5 6 5 5 5 5 6 5 5 5 5 5 5 5 5 5 6 5 5 5 5 5 5 5 5 5 5 5 5 5 5 5 5 5 5 5 5 5 6 5 5 5 5 6 5 5 5 5 5 6 5 6 5 5 5 5 5 5 5 5 5 5 5 6 5 6 5 6 6 5 6 5 6 5 5 5 6 5 5 5 6 5 5 5 5 6 5 6 5 5 5 5 5 5 5 5 6 5 5 5 5 5 5 5 5 6 5 5 5 5 5 5 5 5 5 6 5 5 6 5 5 5 6 5 5 5 5 5 5 5 5 5 5 5 5 6 5 5 5 5 6 5 5 5 5 5 5 6 5 5 5 5 6 5 6 5 5 5 5 5 5 5 6 5 5 5 6 6 5 5 5 5 6 5 6 5 5 6 5 5 5 5 5 5 5 5 5 5 5 5 5 5 5 5 5 5 5 5 5 5 5 5 5 5 5 5 5 5 5 5 5 5 5 6 5 5 5 6 5 5 5 5 5 5 5 5 5 5 5 5 5 6 5 6 5 5 5 5 5 5 5 5 5 5 5 5 5 6 5 5 6 5 5 5 5 5 6 5 5 5 5 5 5 5 5 5 5 5 5 5 5 5 5 5 5 5 6 6 5 5 6 5 5 6 5 5 5 5 5 5 5 6 5 5 5 5 6 5 5 5 5 5 5 5 5 5 5 5 5 5 5 6 5 5 6 5 5 5 5 5 5 5 6 6 5 5 5 5 5 5 5 5 5 5 5 5 5 5 5 5 6 5 5 5 5 6 5 5 6 5 5 6 5 5 5 5 5 5 5 5 5 5 5 5 6 5 5 5 5 6 5 5 5 5 5 5 5 5 5 6 6 6 5 5 5 6 5 5 6 6 5 6 5 5 5 6 5 5 5 5 5 5 5 5 5 5 5 5 5 5 5 5 5 5 5 5 5 5 5 5 5 5 5 5 5 5 5 5 5 5 5 5 5 5 5 5 5 5 5 5 5 5 5 5 6 5 6 5 5 5 5 5 5 5 5 5 6 5 5 5 5 5 5 6 5 5 5 5 5 6 5 5 5 5 5 5 5 5 5 5 5 5 5 5 5 6 5 5 5 5 5 5 5 6 5 5 5 5 5 6 6 5 5 5 5 6 5 5 5 5 5 5 5 5 5 5 5 5 5 5 5 5 5 5 5 5 5 6 5 5 5 5 5 5 6 5 5 5 6 5 5 5 5 5 5 5 5 5 5 5 5 5 5 5 5 5 5 6 5 6 5 5 5 5 5 6 6 5 5 5 6 5 5 5 5 5 5 6 5 5 5 5 5 6 5 6 5 5 6 5 5 5 5 6 5 5 5 5 6 5 5 5 5 6 5 5 5 5 5 5 5 5 5 5 5 5 5 6 5 5 5 5 5 5 5 5 5 5 5 5 5 5 5 5 6 5 5 5 5 6 5 5 5 5 6 5 5 5 5 5 5 5 5 5 5 6 5 5 5 5 6 5 5 5 5 5 5 5 5 5 5 5 5 5 5 5 6 5 5 5 6 5 5 5 5 5 5 5 5 5 5 5 5 5 5 6 5 5 5 5 5 5 5 5 5 5 5 6 5 5 6 5 5 5 5 5 5 6 6 5 5 5 5 6 5 6 5 5 5 6 5 5 6 5 5 5 5 5 5 5 5 5 5 5 5 5 5 5 5 6 5 5 5 5 5 5 5 5 6 6 5 5 5 6 6 5 6 5 6 5 5 5 5 6 5 5 5 5 5 5 5 5 5 5 5 5 5 6 5 6 5 5 5 5 5 5 5 5 6 6 5 5 6 6 6 5 5 5 5 5 5 6 5 5 6 5 5 6 6 6 6 5 5 5 5 5 5 5 5 5 5 5 5 5 6 5 5 6 5 6 5 5 5 5 5 5 5 6 6 5 5 6 5 5 6 5 5 5 5 6 6 6 6 5 5 5 5 5 5 5 5 5 5 5 5 5 5 6 5 5 6 5 5 5 5 6 5 5 5 6 5 5 6 5 5 6 5 5 6 6 5 6 5 5 5 5 5 5 6 5 5 5 5 6 5 5 5 5 5 6 5 5 6 5 6 6 5 5 5 6 5 5 5 5 5 6 5 5 5 6 5 5 5 6 5 5 5 5 5 5 5 6 5 5 5 5 5 6 5 5 5 5 5 5 5 6 5 6 6 5 5 6 5 5 5 5 5 5 6 5 5 5 5 5 5 6 5 5 5 5 5 5 6 5 6 5 6 5 5 6 5 5 5 5 6 6 6 6 5 5 5 5 5 5 5 5 6 5 5 5 6 5 6 5 5 5 5 5 5 5 5 5 5 5 5 5 5 5 5 6 5 6 5 5 5 5 5 5 5 5 6 5 5 5 5 5 6 5 5 6 5 5 5 5 5 5 6 6 5 5 6 5 5 5 5 5 5 5 5 5 5 5 6 6 5 5 5 5 6 5 5 5 5 5 5 5 5 6 5 5 5 5 6 5 5 5 5 5 5 6 5 6 5 6 5 5 5 5 5 5 5 5 5 5 5 5 5 5 5 5 5 5 6 5 5 5 5 5 5 5 5 5 5 5 5 5 5 5 5 5 6 6 5 5 5 5 5 5 5 5 5 5 5 5 5 5 5 5 5 5 5 5 5 5 5 5 5 5 5 5 5 5 5 5 5 5 5 5 5 5 5 5 5 5 5 5 5 6 5 6 5 5 5 5 5 5 5 6 5 5 5 6 5 6 6 6 5 6 6 5 5 6 6 6 5 5 5 5 5 6 5 6 6 5 5 5 5 5 5 5 6 5 5 6 5 5 6 6 5 5 5 5 5 5 6 5 5 6 6 5 5 6 5 5 5 6 5 5 5 5 6 5 5 5 6 5 5 6 5 5 5 5 5 5 5 5 5 5 5 5 5 5 5 5 5 5 5 6 6 5 5 5 6 5 5 5 5 6 5 5 5 5 5 6 6 5 5 5 5 5 5 5 5 5 6 5 5 5 5 5 5 5 5 5 5 5 5 5 5 5 5 5 5 5 5 5 5 5 5 5 5 5 6 5 6 6 5 5 5 5 5 5 5 5 5 5 5 5 5 5 5 5 5 5 5 5 5 5 5 5 5 5 5 6 5 5 6 5 5 6 5 5 6 5 6 5 5 5 5 5 5 5 6 5 5 5 5 5 5 5 5 5 5 5 5 6 5 6 5 6 5 5 5 5 5 6 5 5 5 5 6 5 5 6 5 5 5 5 5 5 5 5 6 5 5 5 5 5 5 6 5 5 5 5 6 5 5 5 6 5 5 5 5 5 5 5 5 5 5 5 5 5 5 5 5 5 5 6 5 6 5 5 5 6 5 5 5 5 5 5 5 5 5 5 5 5 5 5 5 5 5 5 5 6 5 5 5 6 5 5 5 6 5 5 5 5 5 5 5 5 5 5 5 5 5 5 5 6 5 5 5 5 6 5 5 6 5 5 5 5 5 5 6 5 6 5 6 6 6 5 5 5 6 6 5 5 5 5 5 5 5 6 5 5 5 6 5 6 5 5 5 5 5 5 5 5 5 6 5 5 5 5 5 5 5 5 6 5 5 5 5 6 5 5 5 5 5 5 5 5 5 5 5 5 5 5 5 5 5 5 5 5 5 6 6 5 5 5 5 5 5 5 5 6 5 5 5 5 5 5 5 5 5 5 6 5 5 5 5 5 5 6 5 5 5 5 5 6 5 6 5 5 6 6 5 5 5 5 5 5 5 5 5 5 5 5 5 5 5 5 5 5 5 5 5 5 5 5 5 5 5 5 5 5 5 5 5 5 5 5 5 5 5 5 5 5 5 5 5 5 5 5 6 6 5 5 6 5 5 5 5 5 6 6 5 5 6 6 5 5 5 5 5 5 5 5 5 5 6 5 5 5 5 5 5 5 5 5 5 5 5 5 5 5 6 5 5 5 5 5 5 5 5 5 5 5 5 5 6 5 6 6 6 5 5 5 5 5 5 5 5 6 6 5 5 5 5 6 5 5 5 5 5 5 5 5 6 5 5 5 5 5 5 5 5 5 5 5 5 5 5 5 5 5 6 5 5 5 5 5 5 6 5 5 6 5 5 5 5 5 5 5 5 5 5 5 5 5 5 5 5 5 5 6 5 5 5 6 5 5 6 5 6 6 5 5 6 5 5 5 6 5 5 6 5 6 6 5 5 5 5 6 5 5 5 5 5 5 6 5 6 5 5 5 6 5 5 5 5 6 5 6 6 5 5 5 5 5 6 5 6 5 6 5 6 6 5 5 5 5 5 5 5 6 5 6 5 5 6 5 5 6 5 5 5 5 5 5 5 5 5 5 5 5 5 5 5 5 5 5 5 5 5 5 5 5 5 5 5 5 5 5 5 6 5 5 5 5 5 5 5 5 5 5 5 5 5 5 5 5 5 5 5 5 5 5 5 6 5 5 5 5 5 6 6 5 5 5 5 5 5 5 5 5 5 5 5 5 5 5 5 5 5 5 5 5 6 5 5 5 5 5 5 5 5 5 5 5 5 5 6 5 6 5 5 5 6 5 5 5 5 5 5 5 5 6 5 6 5 5 5 5 5 6 5 5 5 5 5 5 5 5 5 5 5 6 5 5 5 5 5 5 5 5 5 5 5 6 5 5 5 5 5 5 5 5 6 5 5 5 5 5 5 5 5 5 5 5 5 5 5 5 5 5 5 5 5 5 5 5 5 5 5 6 5 5 6 5 5 5 5 5 5 5 5 5 5 5 5 5 5 5 5 5 5 5 5 5 5 5 5 5 5 5 5 6 5 6 5 6 5 5 5 5 5 6 5 5 5 5 6 5 5 5 6 5 5 5 5 5 5 5 5 5 5 5 5 5 5 5 5 5 5 6 6 6 5 5 5 5 5 5 5 5 5 5 5 5 5 6 5 5 5 5 5 5 5 5 5 5 5 5 6 5 5 6 5 5 5 5 5 5 5 5 5 5 5 5 5 5 5 5 5 5 5 5 5 6 6 5 5 5 5 5 5 5 5 5 5 5 5 5 5 6 5 5 6 5 5 5 5 6 5 5 5 5 5 5 6 5 5 5 5 5 5 5 5 5 5 5 5 5 5 5 5 5 5 6 5 5 5 5 5 6 5 5 5 5 5 5 5 5 5 5 5 5 5 5 5 5 5 5 5 5 5 5 5 5 5 5 5 5 6 5 6 5 5 5 5 6 6 5 5 5 5 5 5 5 5 5 5 5 5 5 5 5 5 5 5 5 5 5 5 5 5 5 5 5 5 5 5 5 5 5 5 5 6 5 5 5 5 6 5 5 5 5 5 5 5 5 5 5 5 6 5 5 5 5 5 5 5 5 5 5 5 5 5 5 5 5 5 6 6 5 6 5 5 5 5 5 5 5 5 5 5 6 5 5 5 5 5 5 5 5 5 5 5 5 5 5 5 5 5 6 5 5 5 5 6 5 5 5 5 5 5 5 5 5 5 5 5 5 5 5 5 5 5 5 5 5 5 5 5 5 5 5 5 5 5 5 5 5 5 5 5 5 5 5 5 5 5 5 5 5 5 5 5 5 5 5 5 5 5 5 5 5 5 5 5 5 5 5 5 5 5 5 5 5 5 5 5 5 5 5 5 5 5 5 5 5 6 5 5 5 5 5 5 5 6 5 5 6 5 5 5 5 5 5 5 5 5 5 5 5 6 5 6 5 6 5 5 5 5 5 5 5 5 6 5 5 5 5 5 5 5 5 5 6 5 5 5 5 5 5 5 5 5 5 5 5 5 5 5 5 5 5 5 5 5 6 5 5 5 5 5 5 5 5 5 5 5 5 6 5 5 5 5 5 6 5 5 6 5 5 5 5 6 6 5 5 6 5 5 5 5 5 5 5 6 6 5 5 5 5 5 5 5 5 5 5 5 5 6 5 5 5 5 6 5 5 5 5 5 5 5 5 6 5 5 5 5 6 5 5 5 5 6 5 5 5 5 5 5 5 6 5 5 5 5 5 6 5 5 5 6 5 5 5 5 5 6 5 5 5 5 5 5 5 5 5 5 5 5 5 5 6 5 5 6 5 5 5 5 5 5 5 5 5 5 5 5 5 5 5 5 5 5 5 5 5 6 5 5 6 5 5 6 5 5 5 5 5 5 5 5 5 5 5 5 5 5 5 5 5 5 5 5 5 5 5 5 5 5 5 5 5 5 6 5 5 5 5 6 5 5 6 5 6 5 5 5 5 6 5 6 5 5 6 5 6 5 6 6 5 5 6 5 6 5 6 5 5 6 5 5 5 5 5 5 6 5 6 5 5 6 6 5 5 6 5 6 5 5 6 5 5 6 5 5 6 6 6 5 6 5 5 5 5 5 5 5 5 6 5 5 5 5 5 5 5 6 5 5 5 5 5 5 5 5 5 5 5 5 5 5 6 5 5 5 5 5 5 5 5 5 5 5 5 5 5 5 5 5 5 5 6 5 5 5 5 5 5 5 5 5 5 5 5 5 5 5 5 5 5 5 5 5 5 5 5 5 5 5 5 5 5 5 6 5 5 5 6 5 6 6 5 6 5 5 5 6 5 5 5 5 6 6 6 5 5 5 5 5 5 5 5 5 5 5 5 5 5 5 5 5 6 5 5 5 5 5 5 5 5 5 6 5 5 5 6 5 5 5 5 5 5 5 5 5 5 5 5 6 5 5 6 5 5 5 5 5 5 5 5 5 5 5 5 5 5 5 5 5 5 5 5 5 5 6 5 5 5 5 5 5 5 5 5 5 5 5 5 5 5 5 5 5 6 5 5 5 5 5 5 5 6 5 5 5 5 6 5 5 5 5 5 5 5 5 5 5 5 5 5 5 5 5 5 5 5 5 5 5 5 5 5 5 5 5 5 5 5 5 5 5 5 6 6 5 5 5 5 6 5 6 5 5 5 5 5 6 5 5 5 5 5 5 5 5 6 6 5 5 5 5 6 5 5 5 5 5 5 5 5 5 5 5 5 5 5 5 5 5 5 5 5 5 6 5 5 5 5 5 5 6 5 5 6 5 5 5 5 5 5 5 5 5 6 5 5 5 5 5 5 5 5 6 5 5 5 5 5 5 5 5 5 5 5 5 5 5 5 5 5 6 5 5 6 5 5 5 5 5 5 5 5 5 5 5 5 5 5 5 5 5 5 5 5 5 5 5 5 5 5 5 5 5 6 5 6 5 5 5 5 5 5 5 5 5 5 5 5 5 5 5 5 5 5 5 5 5 5 6 5 5 5 6 5 5 5 5 5 5 5 5 5 5 5 5 6 5 5 5 6 6 5 5 6 5 5 5 5 5 5 5 5 5 6 5 5 5 5 5 5 5 5 5 5 5 5 5 6 5 6 5 5 5 5 5 5 5 5 5 5 5 5 5 5 5 5 5 5 5 5 5 5 5 5 5 5 5 5 5 6 5 5 5 5 5 5 6 5 5 5 5 5 5 5 5 5 5 5 5 5 5 5 5 6 5 6 5 5 5 5 5 5 5 6 5 5 5 6 5 5 5 5 6 5 5 5 5 5 5 6 5 5 5 5 6 5 6 5 5 5 5 5 5 5 5 6 6 5 5 5 6 6 5 5 5 5 5 5 5 6 6 5 6 6 5 5 5 5 6 5 6 5 5 5 5 5 5 6 5 5 5 5 6 5 5 5 5 6 5 5 5 5 5 6 5 5 6 5 5 5 5 6 5 5 5 5 5 5 5 5 5 6 6 5 5 5 5 5 5 5 5 5 5 5 5 5 6 5 6 5 5 5 5 5 5 5 5 5 5 5 5 5 5 5 5 5 5 5 5 5 6 5 5 5 5 5 5 5 5 5 5 5 5 5 5 5 5 5 5 5 5 5 5 5 5 5 5 6 5 5 5 5 5 5 5 5 6 5 6 5 5 5 5 5 5 6 5 5 5 5 5 5 5 5 5 5 5 5 5 5 5 5 5 5 5 5 5 5 5 5 5 5 6 5 5 5 5 5 5 5 5 6 5 5 6 5 5 6 5 5 5 5 5 6 5 5 5 5 5 5 5 5 5 6 5 5 5 5 5 5 5 5 5 5 5 5 5 5 5 6 5 5 5 5 5 5 5 5 6 5 5 5 5 5 5 5 5 5 5 5 5 5 5 5 5 5 5 6 5 6 5 6 5 5 6 6 5 5 5 5 5 5 5 5 5 5 5 5 5 5 6 5 5 5 5 5 5 6 5 5 5 6 5 5 5 5 5 5 5 5 5 5 5 5 6 5 5 5 5 6 6 6 5 5 5 5 5 5 5 6 5 5 6 5 6 5 6 5 5 5 5 5 6 5 5 5 5 5 5 5 5 5 5 5 5 5 5 5 5 5 5 5 5 6 5 5 5 6 5 6 6 6 5 5 5 5 5 6 5 5 5 5 5 5 5 5 5 5 5 5 5 5 5 5 5 5 5 5 5 5 5 5 5 5 6 5 5 6 5 5 5 5 5 5 5 5 6 5 6 5 5 5 5 5 5 5 5 6 5 5 5 5 6 5 5 6 5 5 6 5 5 5 6 5 5 5 5 5 5 5 5 5 5 5 5 5 5 5 5 5 5 5 5 6 5 5 5 5 5 5 6 5 5 5 5 5 6 5 5 5 5 5 6 5 6 6 5 5 5 5 5 5 5 5 5 5 5 5 6 5 5 5 5 6 5 6 6 5 5 5 6 5 5 5 5 5 5 5 5 5 5 5 5 5 5 5 5 5 5 5 5 5 5 6 5 6 5 5 6 5 5 6 5 5 6 5 5 5 6 6 5 5 5 5 5 5 5 6 5 5 5 5 5 5 5 5 6 5 5 5 5 5 5 5 6 5 5 5 6 5 6 6 5 5 5 6 5 5 5 5 5 5 5 5 5 5 5 5 5 5 5 5 5 5 5 5 5 5 6 5 5 6 5 5 5 6 5 5 5 5 5 5 5 6 6 5 5 6 5 5 5 5 5 5 5 5 5 5 5 5 5 5 5 5 5 5 5 5 5 5 5 5 5 5 5 5 5 5 5 5 5 5 5 6 5 5 5 5 5 5 5 6 5 5 6 5 5 6 5 5 5 5 5 5 5 5 5 5 5 5 5 5 5 5 5 5 5 6 5 5 5 5 6 5 5 5 5 5 5 5 5 5 5 6 5 5 5 5 6 5 5 5 5 6 6 5 6 5 5 5 5 5 5 5 5 5 5 5 5 5 5 6 5 5 5 5 5 5 5 5 5 6 5 5 5 5 5 5 5 5 5 5 5 5 5 5 5 5 5 5 5 5 5 5 5 5 5 5 5 5 5 5 5 5 5 5 5 5 5 5 5 5 5 6 5 5 5 5 6 5 5 6 5 5 5 5 5 5 6 6 5 5 5 5 6 5 5 5 5 5 5 5 5 5 5 5 5 5 5 5 5 5 5 5 5 5 5 5 5 5 5 5 5 5 5 5 5 5 5 5 5 5 5 5 5 5 5 5 5 5 5 5 5 5 5 5 5 5 5 5 5 5 5 5 5 5 6 5 5 5 5 5 6 5 6 5 5 5 5 5 5 5 5 5 
</DataArray>
<DataArray type="Float64" Name="stress" NumberOfComponents="9" format="ascii">
-13.114826362790552 -3.470283918478509 0 -3.470283918478509 -1.0929521908898523 0 0 0 0 -3439.9424475694705 355.79454979053219 0 355.79454979053219 -1.3133059653513759 0 0 0 0 -60.973313123395201 -3.5714273567652235 0 -3.5714273567652235 -0.53714686048729621 0 0 0 0 -857.42042180988938 -1125.8436638843959 0 -1125.8436638843959 -1259.1851460214775 0 0 0 0 -3496.8962065113164 -1079.4891094770346 0 -1079.4891094770346 237.36785562616592 0 0 0 0 515.58287305710473 -376.76310805000094 0 -376.76310805000094 -899.34470403395619 0 0 0 0 -1401.3556701310445 54.913478287978847 0 54.913478287978847 841.04541784096932 0 0 0 0 -222.41575574732269 -917.66977451026628 0 -917.66977451026628 -618.22425240897064 0 0 0 0 -3489.6492232989258 -192.58886834436825 0 -192.58886834436825 1081.0678382176416 0 0 0 0 -8.9663532649454396 -5.7101650498175758 0 -5.7101650498175758 -2.6806999746658655 0 0 0 0 495.28613672737993 -254.21693484608994 0 -254.21693484608994 -911.11540869569535 0 0 0 0 55.278540091007017 -408.46561290439058 0 -408.46561290439058 -912.21808253184838 0 0 0 0 -694.78477369279426 128.74941538819695 0 128.74941538819695 187.89801554969196 0 0 0 0 -9.3419405286476831 -1.4243632734240492 0 -1.4243632734240492 0.39296084096622602 0 0 0 0 -3474.4470859062535 -932.49143276960717 0 -932.49143276960717 -58.225566304463158 0 0 0 0 -1553.2299942009995 783.575761817066 0 783.575761817066 -738.24928062247409 0 0 0 0 -1726.4735008436546 998.29290122979012 0 998.29290122979012 -723.83844476030708 0 0 0 0 -916.00635403266642 -182.02826120362579 0 -182.02826120362579 -388.92325992823555 0 0 0 0 -1968.0935373348766 450.16263446757074 0 450.16263446757074 -609.23006111778921 0 0 0 0 -710.3858763990429 -762.582016004607 0 -762.582016004607 -592.76038475196947 0 0 0 0 -469.25519244219322 287.59944682206344 0 287.59944682206344 358.31873015049109 0 0 0 0 -735.05874370594393 -163.644116585284 0 -163.644116585284 -407.04000920947419 0 0 0 0 -1016.8428151222215 757.48239975874651 0 757.48239975874651 -1548.0509086698862 0 0 0 0 -1356.2907222540089 -31.297985683815227 0 -31.297985683815227 -136.28326857699631 0 0 0 0 -979.37807066633468 189.4191289896533 0 189.4191289896533 -66.720398870956615 0 0 0 0 -39.544253549538553 -3.7218502700046896 0 -3.7218502700046896 -1.2489689558934622 0 0 0 0 -558.89179212673116 606.59621575047197 0 606.59621575047197 253.79128051158125 0 0 0 0 -906.96399166854098 -394.68641159567005 0 -394.68641159567005 -331.98533257669811 0 0 0 0 -811.48811008960183 -510.16016526898647 0 -510.16016526898647 -202.18505725091788 0 0 0 0 -8.5248587199151871 -6.0951648284551965 0 -6.0951648284551965 -2.7531476531540719 0 0 0 0 471.06888319182053 -563.92675679441766 0 -563.92675679441766 38.620523865568003 0 0 0 0 -920.00523560857982 -493.52754237650026 0 -493.52754237650026 632.19251824132277 0 0 0 0 -33.986128078940283 -3.3880092511185458 0 -3.3880092511185458 0.8453532647684644 0 0 0 0 -870.0681173967314 -1108.8829106792437 0 -1108.8829106792437 1008.4277600658995 0 0 0 0 562.64959507776075 562.85218503966541 0 562.85218503966541 -35.379637519109949 0 0 0 0 58.124671548284823 8.1028712203602478 0 8.1028712203602478 1.3238949713584134 0 0 0 0 -35.598187336783212 2.3218872773617076 0 2.3218872773617076 1.2227015167659694 0 0 0 0 -498.39937239279971 79.68093837624815 0 79.68093837624815 774.32420084939531 0 0 0 0 -28.068371331493836 6.5379872726910566 0 6.5379872726910566 7.7858034269417606 0 0 0 0 -591.30544575447857 767.09133183483482 0 767.09133183483482 1503.8370647463146 0 0 0 0 -14.709810091213456 3.8174749275939992 0 3.8174749275939992 -0.46806514164778168 0 0 0 0 -677.74618817109149 1518.4323664380499 0 1518.4323664380499 -1110.5357011034293 0 0 0 0 -287.88658520305762 1169.1531538677959 0 1169.1531538677959 -801.20556952826155 0 0 0 0 -1019.3896124118182 1182.4526360496893 0 1182.4526360496893 -98.738587758002723 0 0 0 0 -182.67464734896203 488.88391955594068 0 488.88391955594068 -367.46552390621457 0 0 0 0 -184.57657167629532 72.488183719812753 0 72.488183719812753 214.62312117617125 0 0 0 0 -1877.1993538038296 1191.4618530246048 0 1191.4618530246048 -880.1633871071939 0 0 0 0 -1127.0092163087684 180.09471577874965 0 180.09471577874965 139.11064962956021 0 0 0 0 -1480.3732500029873 1590.3850134369764 0 1590.3850134369764 -454.35815853389795 0 0 0 0 1.9590292159505225 1.91817743258067 0 1.91817743258067 1.1071482981075988 0 0 0 0 -1606.3442350643645 -152.03352687146764 0 -152.03352687146764 560.26357417237648 0 0 0 0 -33.445216047897702 -37.870581982091409 0 -37.870581982091409 -80.918703889523385 0 0 0 0 -34.264689955627546 114.09196182269943 0 114.09196182269943 -142.21262903809907 0 0 0 0 -941.09895150183002 237.25616266525003 0 237.25616266525003 -40.727879073168651 0 0 0 0 -143.61049100127184 -96.390347448483595 0 -96.390347448483595 133.4278390857362 0 0 0 0 -631.83730687914067 255.56046048113876 0 255.56046048113876 503.4017410446445 0 0 0 0 -63.961208580583389 3.6316005404873657 0 3.6316005404873657 7.6027465985946829 0 0 0 0 -1894.6837203188043 414.50987224593314 0 414.50987224593314 -355.90105727487844 0 0 0 0 -253.0579253652395 738.85535992618588 0 738.85535992618588 -180.99419642158739 0 0 0 0 -691.19620329096506 1348.1062275713932 0 1348.1062275713932 -981.70576774238907 0 0 0 0 134.21336658963992 163.43742735598062 0 163.43742735598062 -1052.4246299367885 0 0 0 0 -218.09350533771794 376.10996921845702 0 376.10996921845702 -139.65978386794086 0 0 0 0 -260.69840875951922 -110.01287256280193 0 -110.01287256280193 203.20841796878449 0 0 0 0 -2379.4916701450129 1270.2697676901685 0 1270.2697676901685 -826.64178793571136 0 0 0 0 -2847.7993949493903 909.54566092940729 0 909.54566092940729 -336.30289319912583 0 0 0 0 55.943966917438956 -63.277165143120328 0 -63.277165143120328 -272.73857921120361 0 0 0 0 -5.8633184076119118 2.8729441617729776 0 2.8729441617729776 -16.633648392185748 0 0 0 0 -2301.7263602990024 897.14653299032761 0 897.14653299032761 -410.34123293459106 0 0 0 0 -2153.4905740658796 290.82222856350933 0 290.82222856350933 -131.74066020847658 0 0 0 0 0.22862924701672682 -0.62003769225610483 0 -0.62003769225610483 -6.3228344979309004 0 0 0 0 -1631.8632846782421 387.3557575417662 0 387.3557575417662 188.45017211536793 0 0 0 0 -129.39031336642802 -136.65839865384135 0 -136.65839865384135 -181.57237400553595 0 0 0 0 59.09447691841342 -20.289115519579809 0 -20.289115519579809 7.5050763271283358 0 0 0 0 -17.972405426462515 -1.8776259732120479 0 -1.8776259732120479 -4.9583219037994883 0 0 0 0 -15.707215948117664 3.6968706411989842 0 3.6968706411989842 -4.6922961182135623 0 0 0 0 -24.822040262632139 1.0880669594739913 0 1.0880669594739913 -10.336144337801672 0 0 0 0 60.278205576818436 115.5248143039862 0 115.5248143039862 140.74691492113925 0 0 0 0 -18.040785188648442 -2.7745038704466545 0 -2.7745038704466545 -4.465326416332033 0 0 0 0 -55.515152371898125 5.3932697512799876 0 5.3932697512799876 5.2846460334254166 0 0 0 0 31.31092317844741 -209.64754554223873 0 -209.64754554223873 178.86124521023567 0 0 0 0 260.44506959957653 -222.05997908826612 0 -222.05997908826612 -209.20442815279966 0 0 0 0 8.7889934312261175 -5.3438961317519897 0 -5.3438961317519897 -2.7843729932437782 0 0 0 0 -51.25781713618926 141.57991242379012 0 141.57991242379012 -149.62281821247234 0 0 0 0 14.536297716520494 9.9458268536618561 0 9.9458268536618561 18.705287618994134 0 0 0 0 -99.920425774122123 38.672136846210833 0 38.672136846210833 -11.181740978131529 0 0 0 0 -103.80806788356858 29.842532486272603 0 29.842532486272603 9.3323779485890554 0 0 0 0 11.328530189261073 19.679131058567691 0 19.679131058567691 -36.392414402112991 0 0 0 0 -1333.9333411456901 150.60867762404652 0 150.60867762404652 -159.014444780828 0 0 0 0 -12.340723621775723 -12.178125362719072 0 -12.178125362719072 -5.0660735454347021 0 0 0 0 -73.914299755306274 2.9359084089908833 0 2.9359084089908833 -15.597621676027074 0 0 0 0 -7.5616523495375434 0.68570615039442373 0 0.68570615039442373 -9.4114560727722036 0 0 0 0 35.732861068485363 -6.5129762258695791 0 -6.5129762258695791 -39.679925231773268 0 0 0 0 6.7251448493043426 -1.3927181762223881 0 -1.3927181762223881 0.90668672689344021 0 0 0 0 -5.5430855945218696 3.8621022017166666 0 3.8621022017166666 -5.6977590768123889 0 0 0 0 -185.08322654552467 -113.065944501177 0 -113.065944501177 -77.29317033168536 0 0 0 0 0.14954955891880672 -15.20231196647228 0 -15.20231196647228 -82.118724878992992 0 0 0 0 31.882323360913688 3.0346226546938055 0 3.0346226546938055 -82.718250997190808 0 0 0 0 -40.86679996681778 31.993077545510573 0 31.993077545510573 -45.9805125634457 0 0 0 0 28.329962947384047 61.712036510584895 0 61.712036510584895 -38.806027271654784 0 0 0 0 -392.23414292722555 30.056592956443865 0 30.056592956443865 31.48300961188761 0 0 0 0 325.05755538922676 186.40479864222243 0 186.40479864222243 -1067.1170801339449 0 0 0 0 -341.372074002109 271.83186380177403 0 271.83186380177403 -72.073730379072003 0 0 0 0 -143.12292220491508 73.10194276735092 0 73.10194276735092 -18.976873849485855 0 0 0 0 -124.35908626225137 7.47725281554699 0 7.47725281554699 7.9976555472694599 0 0 0 0 -214.27500738739036 77.333523141759997 0 77.333523141759997 11.725098050173074 0 0 0 0 -142.71894227061421 55.942199966016233 0 55.942199966016233 18.117828625868242 0 0 0 0 -157.69628681114409 22.465764052187296 0 22.465764052187296 12.216141387649259 0 0 0 0 -130.09398718441662 0.65870040428399079 0 0.65870040428399079 16.271865738583074 0 0 0 0 -188.7910964832372 -3.3763738092335416 0 -3.3763738092335416 27.974370775648822 0 0 0 0 -6.6383832224564117 -1.5631209371651948 0 -1.5631209371651948 0.041439758695311468 0 0 0 0 -52.001789505229681 -26.204139747288082 0 -26.204139747288082 -19.704297345332634 0 0 0 0 -18.662572490284219 -2.9334061423523963 0 -2.9334061423523963 -60.98981157733806 0 0 0 0 -21.378720672859345 -14.642457680869484 0 -14.642457680869484 -56.148231049361129 0 0 0 0 -15.503026044694707 -22.141008621401852 0 -22.141008621401852 -49.740246798297449 0 0 0 0 -21.239109034991642 -7.7662445054058367 0 -7.7662445054058367 -10.711669118595594 0 0 0 0 -31.179570436710492 -25.88893372419443 0 -25.88893372419443 -28.687224513985711 0 0 0 0 -29.450067687241244 -2.0011324848644563 0 -2.0011324848644563 -6.7331457623413371 0 0 0 0 -3.2855382133197719 -2.0486303743860503 0 -2.0486303743860503 0.021532060722176283 0 0 0 0 -27.82245243710291 -0.083653740849129576 0 -0.083653740849129576 -10.472266330142832 0 0 0 0 -28.094182181783253 7.3272910154091733 0 7.3272910154091733 -42.912025867606644 0 0 0 0 -21.54391016275622 -7.6348879987308464 0 -7.6348879987308464 -7.6859535983785463 0 0 0 0 -1.9003415805199779 -1.6562465206369694 0 -1.6562465206369694 -1.3651117646423394 0 0 0 0 -48.387443670291532 -4.7944942230997682 0 -4.7944942230997682 -1.1599709733091004 0 0 0 0 -18.256568405522557 -6.1436784580758967 0 -6.1436784580758967 -0.7649470988972098 0 0 0 0 -31.087101434755425 -2.0341917726541183 0 -2.0341917726541183 -6.1853264886894976 0 0 0 0 -14.39363088115954 -0.19615746062252981 0 -0.19615746062252981 -3.6463524914324168 0 0 0 0 -9.9098130060743159 -10.293480303153473 0 -10.293480303153473 -3.6143648476237331 0 0 0 0 -23.831534001362826 -4.8059513905556344 0 -4.8059513905556344 0.23774184610355675 0 0 0 0 -53.99110224506876 -5.9727636021020771 0 -5.9727636021020771 -23.824732463403961 0 0 0 0 -16.16427161060416 -8.6650621464544457 0 -8.6650621464544457 0.36345183186115726 0 0 0 0 -110.11993166608954 24.826007608766986 0 24.826007608766986 9.6549157286681293 0 0 0 0 -115.14573632788961 3.3460774452619262 0 3.3460774452619262 9.7752736090542385 0 0 0 0 -132.94878563495877 54.123952878327145 0 54.123952878327145 -23.29682101389335 0 0 0 0 -144.1635163021856 27.718503790487375 0 27.718503790487375 12.625635534715911 0 0 0 0 -115.87832848783 86.215175552396431 0 86.215175552396431 -65.423150708085814 0 0 0 0 -80.918248258705717 21.251371408061459 0 21.251371408061459 -11.333848358955947 0 0 0 0 -249.39715830321074 -104.81135370862739 0 -104.81135370862739 5.6124649655143912 0 0 0 0 -190.53539536590688 -141.36189997725342 0 -141.36189997725342 -47.075306207789254 0 0 0 0 -57.032708010097849 37.456566063765422 0 37.456566063765422 -38.22245395716709 0 0 0 0 -13.64011804488706 -4.0201321359984803 0 -4.0201321359984803 3.0707222492766331 0 0 0 0 -41.312719656937162 -8.6392961469899063 0 -8.6392961469899063 6.1421488262482207 0 0 0 0 -42.878487783309538 -51.572904800610559 0 -51.572904800610559 -3.2081649892570567 0 0 0 0 -131.24084019364091 -37.514602082210331 0 -37.514602082210331 14.454015813210844 0 0 0 0 -130.91207988417955 -35.411021079087618 0 -35.411021079087618 9.4821368661796441 0 0 0 0 -119.57835733186221 -28.669446294587033 0 -28.669446294587033 11.227747243221529 0 0 0 0 -55.501612817344721 -60.524235604798378 0 -60.524235604798378 -11.54400165109837 0 0 0 0 -47.620806487160735 -45.805500499682239 0 -45.805500499682239 15.628264890736318 0 0 0 0 7.7606226037861461 -4.1014464558567312 0 -4.1014464558567312 -4.5104489386062774 0 0 0 0 -56.657281162741128 -66.743482185185712 0 -66.743482185185712 -112.73766104323295 0 0 0 0 -138.03930542083981 -77.010704166121059 0 -77.010704166121059 -13.593794448108383 0 0 0 0 -33.811868454518844 -6.7330175519837212 0 -6.7330175519837212 12.678732429006232 0 0 0 0 -32.320615743268718 -10.08856521179564 0 -10.08856521179564 8.2408544675017765 0 0 0 0 -28.496817148698028 -17.582794108327107 0 -17.582794108327107 20.762249422181412 0 0 0 0 -40.900305841485078 -9.6877917663154278 0 -9.6877917663154278 7.1578472206494128 0 0 0 0 -44.568721190864494 -16.47390000758989 0 -16.47390000758989 12.003430857339286 0 0 0 0 -56.317257190443343 34.406012171556995 0 34.406012171556995 -47.915118247383361 0 0 0 0 -27.629790488979779 -18.609272712566963 0 -18.609272712566963 41.889608015910198 0 0 0 0 -16.881023331481572 -9.1891806945957626 0 -9.1891806945957626 1.0914894150307095 0 0 0 0 -33.267929240042577 -10.142179486300847 0 -10.142179486300847 8.2448925935082116 0 0 0 0 -26.57215425214963 -11.268683337613766 0 -11.268683337613766 6.0065949269155681 0 0 0 0 -19.752158540075698 -7.7819478254595822 0 -7.7819478254595822 2.346633083717101 0 0 0 0 -10.450469562466665 -5.7524649539781194 0 -5.7524649539781194 10.96740149561367 0 0 0 0 5.577586214596522 118.30923933569466 0 118.30923933569466 -331.68198898583341 0 0 0 0 -49.427175921640305 5.0904150862045583 0 5.0904150862045583 -0.69083108426134565 0 0 0 0 -47.10842845643311 2.4760371159714651 0 2.4760371159714651 0.53907785381577966 0 0 0 0 -50.678413645851833 7.8865265457324512 0 7.8865265457324512 -19.264031128693659 0 0 0 0 -28.328523423100705 -31.146414954748025 0 -31.146414954748025 3.9541440034390689 0 0 0 0 -53.369504885296919 35.840478523737147 0 35.840478523737147 -5.1158212408996064 0 0 0 0 -93.410374920269533 -37.213053381274904 0 -37.213053381274904 -118.21513170786602 0 0 0 0 -200.6043951943866 41.811221521594234 0 41.811221521594234 11.189633892841812 0 0 0 0 -279.71212263336201 -29.715874317208318 0 -29.715874317208318 66.332898065738846 0 0 0 0 -134.11547094918205 95.375175759681042 0 95.375175759681042 -68.466544458346107 0 0 0 0 -138.32526159677218 27.35812173566319 0 27.35812173566319 40.152067498012912 0 0 0 0 -61.544372884818586 18.342568678212047 0 18.342568678212047 8.1693129720342768 0 0 0 0 -62.038494087290019 13.252611766803511 0 13.252611766803511 7.5185397212117095 0 0 0 0 -57.411491641345492 13.078185953552634 0 13.078185953552634 20.712274544154752 0 0 0 0 25.002024751949648 8.2728680212553627 0 8.2728680212553627 -65.702110679473662 0 0 0 0 1.1472608503445043 1.3692533634421409 0 1.3692533634421409 -14.330939194969815 0 0 0 0 -54.784797298438207 13.874786106947823 0 13.874786106947823 9.2309601900658436 0 0 0 0 -77.974466774030589 14.511475731722975 0 14.511475731722975 21.192732456814522 0 0 0 0 -9.552013069954981 -9.1806978629310976 0 -9.1806978629310976 -2.241815781518544 0 0 0 0 -1946.1953204622332 573.30955067816694 0 573.30955067816694 -131.98536539706711 0 0 0 0 -1931.7411433099587 543.78705650351174 0 543.78705650351174 -201.4440385638101 0 0 0 0 -51.059062285105028 8.2189185576340975 0 8.2189185576340975 8.4370966881421054 0 0 0 0 -1911.5016181749452 492.00233356702114 0 492.00233356702114 -47.735088770786355 0 0 0 0 -1871.2142123104131 634.20707326607589 0 634.20707326607589 -93.889589015477455 0 0 0 0 -2121.8470877384098 412.49606459715028 0 412.49606459715028 -128.90101475000048 0 0 0 0 -2041.015693519279 586.96758785659461 0 586.96758785659461 -111.9211947239649 0 0 0 0 -2223.3109863045829 683.28277466928989 0 683.28277466928989 -261.83022938068433 0 0 0 0 -2368.6489194258902 375.48498149280744 0 375.48498149280744 -100.36675432919435 0 0 0 0 -2656.9830658628862 549.35579627420611 0 549.35579627420611 -153.96291629259488 0 0 0 0 -2682.104611364688 341.64630357991496 0 341.64630357991496 150.15540874628451 0 0 0 0 -3501.3276171364414 -78.323038573337755 0 -78.323038573337755 290.52798649618546 0 0 0 0 -2796.2027097330865 210.50888451261577 0 210.50888451261577 140.31826421701206 0 0 0 0 -2128.8881291359721 404.17543883657214 0 404.17543883657214 -103.02466632247837 0 0 0 0 -2482.3729919888574 10.614392986396155 0 10.614392986396155 -144.07302839726177 0 0 0 0 -1777.2246499926696 111.5674775730449 0 111.5674775730449 -149.80918737257664 0 0 0 0 -2612.3863302811005 -256.69807230542932 0 -256.69807230542932 -9.5348179193022418 0 0 0 0 -3492.2963683436392 -1649.4081253927291 0 -1649.4081253927291 -25.803902914642087 0 0 0 0 -1047.1574774966193 -394.22493051500692 0 -394.22493051500692 -31.076854077474454 0 0 0 0 -1718.9251720948632 678.56736441294083 0 678.56736441294083 3.5608710242435961 0 0 0 0 -8.6790204996877378 -0.1463665804206471 0 -0.1463665804206471 -0.027100833318965484 0 0 0 0 -2119.6615282092971 466.90606482466274 0 466.90606482466274 -11.89826355587364 0 0 0 0 -1784.3918369241874 654.92025989626427 0 654.92025989626427 -789.52849485640422 0 0 0 0 -1846.689599657373 517.9184188849157 0 517.9184188849157 -97.112950245914305 0 0 0 0 -1606.8284503451941 340.56602296350047 0 340.56602296350047 -267.77532696536207 0 0 0 0 -1997.6186548424012 283.09036744002071 0 283.09036744002071 -360.47092543384559 0 0 0 0 -1869.0217339634546 386.01016136675196 0 386.01016136675196 -58.66565925009094 0 0 0 0 -1331.5192083336021 360.4751563329495 0 360.4751563329495 -212.66782257832384 0 0 0 0 -1838.1909988094412 497.09153947726514 0 497.09153947726514 -111.57103693506117 0 0 0 0 -1816.8119271902251 325.28401625775342 0 325.28401625775342 -53.384470182247753 0 0 0 0 -1557.8674301662686 605.06624358051238 0 605.06624358051238 -139.34016206847869 0 0 0 0 -2013.6488328371343 539.26739689246756 0 539.26739689246756 -17.451869389021457 0 0 0 0 -2011.3742476388143 546.87813963869007 0 546.87813963869007 5.8241096852098551 0 0 0 0 -1858.6477082209767 544.79187240610736 0 544.79187240610736 -67.677473477766341 0 0 0 0 -132.00316389512955 46.438335579288832 0 46.438335579288832 -8.9074505549970127 0 0 0 0 -104.32597503501165 21.811996183168503 0 21.811996183168503 11.755182337034967 0 0 0 0 -69.169286385183682 -16.958699175986403 0 -16.958699175986403 10.569268858829062 0 0 0 0 -24.225751320727795 -60.949362757414711 0 -60.949362757414711 88.441153116973055 0 0 0 0 -50.853855445398949 -74.841270089073078 0 -74.841270089073078 81.211483199673239 0 0 0 0 -74.501733826855912 -13.262026823179255 0 -13.262026823179255 9.8175270475176628 0 0 0 0 -123.80982237638091 -20.694247787495442 0 -20.694247787495442 103.92572863612986 0 0 0 0 -18.421708005029359 -4.2338385964005525 0 -4.2338385964005525 -108.84702138791079 0 0 0 0 -144.07046876010281 -192.58273590324814 0 -192.58273590324814 326.09781299094067 0 0 0 0 -20.334876546534815 -101.18741983546042 0 -101.18741983546042 137.41107056663623 0 0 0 0 -78.261573357243407 -5.0613767789340898 0 -5.0613767789340898 8.8250606804146816 0 0 0 0 -57.628489290740248 -20.505181788564045 0 -20.505181788564045 14.250025783521552 0 0 0 0 9.5423931669138256 -165.71234615034319 0 -165.71234615034319 132.09306723637968 0 0 0 0 -38.512021281232592 -28.575786749338747 0 -28.575786749338747 -24.518170583816001 0 0 0 0 -98.601030400859599 -19.952613301543263 0 -19.952613301543263 -2.6427012553581619 0 0 0 0 -96.991903435060522 -30.602907383369171 0 -30.602907383369171 -0.18287151843175989 0 0 0 0 -75.741312520010979 -22.959048350011646 0 -22.959048350011646 -4.1622061934181644 0 0 0 0 -220.86413778787391 82.38084074669149 0 82.38084074669149 -72.157875685940766 0 0 0 0 -106.25406581444258 -31.377554304536986 0 -31.377554304536986 2.9206594522564178 0 0 0 0 -158.7507045252205 -39.014698403268525 0 -39.014698403268525 0.78411518954824011 0 0 0 0 -296.19530049314199 168.14904228672668 0 168.14904228672668 -302.74660526863136 0 0 0 0 -428.47949657855497 48.221697840537061 0 48.221697840537061 45.660669365230504 0 0 0 0 -384.47321729385294 79.152350896199891 0 79.152350896199891 0.083312623278924122 0 0 0 0 -310.21145368087309 8.3108680798368031 0 8.3108680798368031 -29.067975119878181 0 0 0 0 -354.40982866138802 -3.9910312920525532 0 -3.9910312920525532 26.180600196905111 0 0 0 0 -173.31385129273258 106.7542846301554 0 106.7542846301554 -123.08853365416354 0 0 0 0 -341.09771041876229 -37.678805100060011 0 -37.678805100060011 48.123439903829599 0 0 0 0 -1.2131862850922062 0.47372796300577846 0 0.47372796300577846 0.097478860438740045 0 0 0 0 -153.02164407691453 -20.917141552569657 0 -20.917141552569657 41.964601990534014 0 0 0 0 -181.96052647144825 -124.47357343497275 0 -124.47357343497275 155.73906900789169 0 0 0 0 -406.54362936352845 5.5635876128770096 0 5.5635876128770096 86.196185075679352 0 0 0 0 -7.4786172757677036 0.50724590758747468 0 0.50724590758747468 0.3921031462950415 0 0 0 0 236.95544985195011 644.58921024828862 0 644.58921024828862 -633.87024126361462 0 0 0 0 -248.30986584645871 -42.508880957808955 0 -42.508880957808955 81.816840347148485 0 0 0 0 -91.970051177049754 -117.51086473694488 0 -117.51086473694488 39.227101853786507 0 0 0 0 -389.52048408210976 -309.91673462998591 0 -309.91673462998591 -80.191675471420808 0 0 0 0 -797.83517807118187 6.8743869915995219 0 6.8743869915995219 289.42247598212327 0 0 0 0 -49.87416377561749 119.77400590976913 0 119.77400590976913 199.36218195819038 0 0 0 0 -54.985564254670862 -19.773159258299348 0 -19.773159258299348 35.02591184757398 0 0 0 0 -333.08118609679514 139.69980896305231 0 139.69980896305231 305.08543278424423 0 0 0 0 -79.062989203619054 -15.918550194071557 0 -15.918550194071557 10.64746575858805 0 0 0 0 -25.014438595815193 -0.66012422994816689 0 -0.66012422994816689 6.3821630207325502 0 0 0 0 74.666697990600369 17.837219001599351 0 17.837219001599351 -34.474996259044929 0 0 0 0 -285.55612651898991 82.103825292161076 0 82.103825292161076 72.420669038936353 0 0 0 0 -319.43720459788165 12.434074120671085 0 12.434074120671085 62.266060752656585 0 0 0 0 -25.891667835006956 2.6282890444515488 0 2.6282890444515488 -43.221540612972149 0 0 0 0 -103.65541167446645 3.4377623767732075 0 3.4377623767732075 -32.840771970884816 0 0 0 0 -20.804535045481316 25.67674681192134 0 25.67674681192134 -14.932624910034235 0 0 0 0 -14.47913749566942 1.8850237050444107 0 1.8850237050444107 -2.4129132134940221 0 0 0 0 -189.04757960919233 105.88034026598623 0 105.88034026598623 -66.908600774153228 0 0 0 0 -34.37172978669696 15.96242813676859 0 15.96242813676859 125.41767612488651 0 0 0 0 -22.113811355000678 -1.2028498147959681 0 -1.2028498147959681 0.85927604831885784 0 0 0 0 -16.31962861197826 24.82278337778699 0 24.82278337778699 -22.672790859462509 0 0 0 0 23.716715386632131 38.59743269532963 0 38.59743269532963 -43.788347922635708 0 0 0 0 13.163904720535356 64.686267919056903 0 64.686267919056903 -7.108129742811883 0 0 0 0 -3.6981327706598677 -0.63968663644003243 0 -0.63968663644003243 -61.120147160939865 0 0 0 0 31.585288903181208 4.9907911364373012 0 4.9907911364373012 0.010208027313275754 0 0 0 0 -1.9875046998504899 -1.4775197532565727 0 -1.4775197532565727 0.58315846303326913 0 0 0 0 11.232595501642209 3.6938720570265007 0 3.6938720570265007 9.245116160781464 0 0 0 0 2.3494675190808891 -0.81462025884198397 0 -0.81462025884198397 0.3768588748599826 0 0 0 0 -49.170186642935732 17.087663472749043 0 17.087663472749043 6.6473491194468011 0 0 0 0 1.7451556062005693 36.17734856529912 0 36.17734856529912 -58.474594694438572 0 0 0 0 -55.121911711321445 38.504370026918501 0 38.504370026918501 -1.3125505555803443 0 0 0 0 12.44797462994029 -7.6530481803950714 0 -7.6530481803950714 13.344430117555831 0 0 0 0 49.53599562238378 -4.0788388116679926 0 -4.0788388116679926 -20.044304261189723 0 0 0 0 -7.9753312547562984 -9.3583526664969554 0 -9.3583526664969554 3.999776997830331 0 0 0 0 12.413317406065119 1.3375801190972538 0 1.3375801190972538 0.053265310990552484 0 0 0 0 -107.89237560491893 -55.645081032484804 0 -55.645081032484804 -1.1326464806671745 0 0 0 0 2.9535582759417593 11.595117846680296 0 11.595117846680296 -18.636591495979474 0 0 0 0 63.89579806131951 -77.043563022071339 0 -77.043563022071339 -53.357630735875318 0 0 0 0 -35.57958304304475 -5.5536410186264931 0 -5.5536410186264931 0.61728661309387389 0 0 0 0 -65.733756242261734 10.740339873154994 0 10.740339873154994 45.460462598455479 0 0 0 0 -21.822942311840279 -1.8224997968057153 0 -1.8224997968057153 11.594345174900278 0 0 0 0 -40.013751486658293 -8.7805441766053036 0 -8.7805441766053036 -11.544471889382294 0 0 0 0 -39.582941815082449 2.652378963549836 0 2.652378963549836 -28.964423840548079 0 0 0 0 -42.752314021548955 7.8979059545617929 0 7.8979059545617929 -17.569910142528897 0 0 0 0 -14.773067393666963 1.1628411748237113 0 1.1628411748237113 -4.633246918528136 0 0 0 0 -77.455154261653661 39.677575704348101 0 39.677575704348101 45.527040493180039 0 0 0 0 -61.592169173278592 2.6372521952584336 0 2.6372521952584336 8.5991864423035587 0 0 0 0 -154.43645728266347 -141.1320423551519 0 -141.1320423551519 168.06413751297168 0 0 0 0 -41.628943555377191 17.782090616302867 0 17.782090616302867 -7.0683916617690556 0 0 0 0 -7.0477044080543862 0.50660484999649213 0 0.50660484999649213 -4.5934935595024022 0 0 0 0 -37.471571688714903 19.840526518949446 0 19.840526518949446 -12.902116269320004 0 0 0 0 -21.54858310304553 30.545108465229532 0 30.545108465229532 -6.5979047323862687 0 0 0 0 -35.274059089453658 14.026257135664309 0 14.026257135664309 -25.974526227329306 0 0 0 0 -17.576264643593191 2.7222913904244876 0 2.7222913904244876 -0.98925634633711468 0 0 0 0 -42.278848079893578 16.224368218140285 0 16.224368218140285 1.9028843067844718 0 0 0 0 -67.014791837937082 77.364257409364654 0 77.364257409364654 -54.646352589056278 0 0 0 0 -36.525222108000889 6.9256007476833474 0 6.9256007476833474 -6.2488979154431945 0 0 0 0 -27.348767515803047 -0.41184073427029944 0 -0.41184073427029944 -7.0536333225054477 0 0 0 0 -43.258965174522018 11.594581972334709 0 11.594581972334709 -10.006198140365541 0 0 0 0 -29.255009598201866 10.795078474874771 0 10.795078474874771 -7.536142402501353 0 0 0 0 -23.915472162339825 2.8634944133495424 0 2.8634944133495424 -3.597958614687057 0 0 0 0 -42.028409098619193 1.5611229604965473 0 1.5611229604965473 -2.5338563832347063 0 0 0 0 -43.617507851726259 2.0687109829195833 0 2.0687109829195833 -2.2286004942325235 0 0 0 0 -43.661493918064934 12.397829900901144 0 12.397829900901144 -2.9406859802278262 0 0 0 0 -66.571313702341286 10.388231540756351 0 10.388231540756351 13.809746504844952 0 0 0 0 -50.248622608430423 -1.6270488552080309 0 -1.6270488552080309 2.2742125606054557 0 0 0 0 -27.557538063517853 -3.0110589879814214 0 -3.0110589879814214 -0.043586282452661607 0 0 0 0 -40.021044054549122 1.4650960139577069 0 1.4650960139577069 -2.9223295718093141 0 0 0 0 -223.70488148280128 23.214723842107333 0 23.214723842107333 120.98620456790968 0 0 0 0 -3.7364393577037589 1.0780032524158187 0 1.0780032524158187 -3.3161882619080685 0 0 0 0 -68.295407279714709 78.084235017492688 0 78.084235017492688 -55.679643653310507 0 0 0 0 -47.715593725478868 -6.4381958862714868 0 -6.4381958862714868 4.5420288029738822 0 0 0 0 -44.714187814868637 -75.790314529790976 0 -75.790314529790976 -14.727348478677868 0 0 0 0 -15.725677167969479 -26.402595304632371 0 -26.402595304632371 69.115242292841685 0 0 0 0 -27.520015733286073 50.027054939916823 0 50.027054939916823 123.93210162585638 0 0 0 0 -103.36304664233467 -61.733491966819201 0 -61.733491966819201 2.0102471510177793 0 0 0 0 -11.394876326822313 -1.5097354848767424 0 -1.5097354848767424 4.0040036581656349 0 0 0 0 -70.614814595261123 -32.746131582005162 0 -32.746131582005162 -11.43640210320606 0 0 0 0 -57.273050687803888 -5.4187331277306328 0 -5.4187331277306328 3.5151176683862735 0 0 0 0 -71.34162574592483 1.0306901585128116 0 1.0306901585128116 24.022533498459325 0 0 0 0 -64.81574554364488 9.9845572288943458 0 9.9845572288943458 18.831613925734018 0 0 0 0 -58.412781511288543 9.1989078512868119 0 9.1989078512868119 2.1719561252757025 0 0 0 0 -61.188031246105652 14.096072571332613 0 14.096072571332613 -4.5082395670875428 0 0 0 0 -58.045833548121607 15.739361976455008 0 15.739361976455008 2.6914077630474864 0 0 0 0 -64.526457921649126 14.752336536557095 0 14.752336536557095 12.168139733432326 0 0 0 0 -58.496122715169776 -7.151832893262565 0 -7.151832893262565 12.296793745868914 0 0 0 0 -45.238776958809467 13.61284528586657 0 13.61284528586657 23.148004890323136 0 0 0 0 -53.337886873840546 -0.43277904278407675 0 -0.43277904278407675 13.882506487498489 0 0 0 0 -53.829200785472295 -1.3344012868630415 0 -1.3344012868630415 8.8587768666936864 0 0 0 0 -53.162377803659183 -8.1669856400062599 0 -8.1669856400062599 26.776114236362361 0 0 0 0 -75.639438389946008 8.8748164255432584 0 8.8748164255432584 3.0551908209658905 0 0 0 0 -48.301902917941334 6.7047130538053352 0 6.7047130538053352 27.936402934439684 0 0 0 0 -67.710066275975805 -3.0851177128659799 0 -3.0851177128659799 19.484268344850307 0 0 0 0 -108.44480319524155 8.0497633433342344 0 8.0497633433342344 94.970850578653227 0 0 0 0 -119.72342820187623 -34.990162897201799 0 -34.990162897201799 36.028874756668529 0 0 0 0 -67.76113598633674 -73.96092952190898 0 -73.96092952190898 74.684472668214823 0 0 0 0 -98.471412971193786 -40.652419043746931 0 -40.652419043746931 -60.903364418201818 0 0 0 0 -133.52405267910217 -64.312937437896153 0 -64.312937437896153 79.088681537509729 0 0 0 0 -8.3172707830875368 -5.7200847757700153 0 -5.7200847757700153 1.6281697583240693 0 0 0 0 -56.888328869652469 130.62292847796016 0 130.62292847796016 68.533167696138662 0 0 0 0 -8.1880305161685101 128.98321490032163 0 128.98321490032163 33.024131565898642 0 0 0 0 -93.462850718380651 124.9040959399108 0 124.9040959399108 45.331114797483679 0 0 0 0 -90.767991699423874 45.116439317765526 0 45.116439317765526 12.582851792568817 0 0 0 0 -28.452229339120095 7.9116576273631836 0 7.9116576273631836 -19.015394549056055 0 0 0 0 -85.958854644195526 20.466698677555428 0 20.466698677555428 7.8597394435701062 0 0 0 0 67.424658904550597 58.140960314553269 0 58.140960314553269 5.1211166548202485 0 0 0 0 65.53457304170297 -32.095533693034923 0 -32.095533693034923 20.933306996543934 0 0 0 0 -36.066786578783649 11.932284160409154 0 11.932284160409154 3.0176705465255509 0 0 0 0 -54.765524030575762 -2.4215279384025052 0 -2.4215279384025052 8.9634581005557266 0 0 0 0 -86.929549619031604 6.0482192389990814 0 6.0482192389990814 6.8729451118451834 0 0 0 0 -52.41993300262402 -2.9063587617006306 0 -2.9063587617006306 6.0742691139103044 0 0 0 0 -70.045548389745818 -0.14845515181377777 0 -0.14845515181377777 8.6660487398676196 0 0 0 0 -65.1632047046769 -2.5316094518584578 0 -2.5316094518584578 10.670439011386406 0 0 0 0 -72.315876229782589 4.3786451943599332 0 4.3786451943599332 9.1423001148596086 0 0 0 0 -66.567245173122501 1.9353575497451629 0 1.9353575497451629 6.1428696333896369 0 0 0 0 -51.637814479545341 3.134090696239582 0 3.134090696239582 6.1174751826383726 0 0 0 0 -47.545780272339471 11.019708965187419 0 11.019708965187419 10.247752282588408 0 0 0 0 -50.293586970074102 0.53167519970065769 0 0.53167519970065769 10.613768958727974 0 0 0 0 -55.01681822341925 -13.689988003256758 0 -13.689988003256758 10.346570786882523 0 0 0 0 -57.252885039986722 -7.772436692681822 0 -7.772436692681822 -2.4962775363419496 0 0 0 0 -49.423777527808852 -7.5487510212649624 0 -7.5487510212649624 -14.610803181014887 0 0 0 0 -90.464660674595507 5.9282079882177641 0 5.9282079882177641 15.147270116664004 0 0 0 0 -183.88813072341145 -7.2570825980619702 0 -7.2570825980619702 6.5992565714332159 0 0 0 0 -70.973039212391058 -1.4661512355385398 0 -1.4661512355385398 12.80181953070808 0 0 0 0 -14.9233574513637 351.96032735658446 0 351.96032735658446 -133.94327135611707 0 0 0 0 -4.9916460622091563 -0.407953433545444 0 -0.407953433545444 2.3970288672038578 0 0 0 0 -65.621028666624625 -51.637335439347908 0 -51.637335439347908 -36.725959654001599 0 0 0 0 -5.748847799070063 14.157833023074545 0 14.157833023074545 -54.840185099814335 0 0 0 0 -187.83627314383193 -77.275782340188471 0 -77.275782340188471 -29.72992574528962 0 0 0 0 -284.60896191503707 -218.07401008226975 0 -218.07401008226975 15.844686047714276 0 0 0 0 -161.24597494358022 123.10889736599665 0 123.10889736599665 -1.8664065595239663 0 0 0 0 -68.380853062652591 -11.897529148604832 0 -11.897529148604832 15.767188458608263 0 0 0 0 -68.809243832918582 0.45364362404234981 0 0.45364362404234981 -5.5319960941446809 0 0 0 0 -136.6068815483091 2.4156975274437542 0 2.4156975274437542 5.6973866672340954 0 0 0 0 -121.20614763916092 -91.514615828838032 0 -91.514615828838032 200.60148956119406 0 0 0 0 -60.942108744813595 -26.807883597499313 0 -26.807883597499313 30.315303434870202 0 0 0 0 -68.761800581234951 -21.367816626495411 0 -21.367816626495411 11.221279486720718 0 0 0 0 584.99883206028608 -609.74017865686005 0 -609.74017865686005 -20.655263353841541 0 0 0 0 138.7802154400124 -90.413235435126694 0 -90.413235435126694 59.265383833022952 0 0 0 0 -610.24066657471849 -169.81429736295581 0 -169.81429736295581 572.82637054987072 0 0 0 0 -340.67569455123885 167.75443165555839 0 167.75443165555839 -37.872876952600109 0 0 0 0 -19.796275964750684 -6.1038103754174244 0 -6.1038103754174244 0.46137451692017883 0 0 0 0 -111.61661591281154 -7.0317023371443383 0 -7.0317023371443383 9.8650132507846138 0 0 0 0 -62.226154163331984 -15.698221481530588 0 -15.698221481530588 10.273649049331059 0 0 0 0 -70.822989928259631 2.7731564207495012 0 2.7731564207495012 -8.9526607968737153 0 0 0 0 -112.55459481403523 11.542936385826579 0 11.542936385826579 14.034651172662961 0 0 0 0 -100.69839237410633 18.404222188302356 0 18.404222188302356 0.17059508390047995 0 0 0 0 -82.161304254143033 6.8129651371509681 0 6.8129651371509681 6.2260064820038679 0 0 0 0 -83.704887544125086 4.4119347873356674 0 4.4119347873356674 7.3591450322073797 0 0 0 0 -88.357854207977653 8.5051329020407138 0 8.5051329020407138 8.0030368025109055 0 0 0 0 -92.809457572147949 7.1185027773099137 0 7.1185027773099137 10.110782147031387 0 0 0 0 -96.199474277964327 14.750822119562145 0 14.750822119562145 4.8479956415176275 0 0 0 0 -89.112295840765 7.2355135838720344 0 7.2355135838720344 8.1766958599473583 0 0 0 0 -87.276248807145748 4.2817428752650812 0 4.2817428752650812 9.4656731892387143 0 0 0 0 -100.61517437413568 3.6748992262328102 0 3.6748992262328102 8.8147506229506973 0 0 0 0 -84.839041711593381 -0.37606744385510638 0 -0.37606744385510638 7.1769797542283413 0 0 0 0 -110.24828892324149 7.7788710318766334 0 7.7788710318766334 14.086577711902464 0 0 0 0 -9.6839970531632673 -3.4730324804885555 0 -3.4730324804885555 0.59090802730670333 0 0 0 0 -83.936611374927452 0.64182996209547127 0 0.64182996209547127 5.8761185654852852 0 0 0 0 -186.65669780122698 18.818165920673891 0 18.818165920673891 54.534887071206413 0 0 0 0 -55.347959907455191 8.5938611770244897 0 8.5938611770244897 6.1534661165272908 0 0 0 0 -106.49102283014508 5.2259648348785959 0 5.2259648348785959 11.815682082329204 0 0 0 0 476.4244924948498 228.01158367963049 0 228.01158367963049 -370.41082307888246 0 0 0 0 -126.26878542869235 54.9215147930081 0 54.9215147930081 439.68497899604699 0 0 0 0 -261.27727675765345 -148.15581891856573 0 -148.15581891856573 347.51110599520916 0 0 0 0 -223.58703017322114 -321.92057730690294 0 -321.92057730690294 134.4400216734166 0 0 0 0 -76.774006881256355 -165.81849935402988 0 -165.81849935402988 122.29701693032894 0 0 0 0 -8.3031595261418261 -281.55741517532988 0 -281.55741517532988 -148.17386289098295 0 0 0 0 -322.03092066840327 -342.39143792992672 0 -342.39143792992672 -156.63738951219284 0 0 0 0 -115.82495383839705 -360.57707211021489 0 -360.57707211021489 -38.570870731929972 0 0 0 0 -458.55240034812596 1271.7833318949602 0 1271.7833318949602 -798.17884068741296 0 0 0 0 -1110.5329456649488 94.657264632597389 0 94.657264632597389 -246.73774503479171 0 0 0 0 -1196.200414118357 359.63628307679511 0 359.63628307679511 130.21670525287118 0 0 0 0 -1449.2928010902251 -1099.8392759152034 0 -1099.8392759152034 1428.3688684851961 0 0 0 0 -1823.7784488302132 2267.3344012127109 0 2267.3344012127109 -1400.7432415418625 0 0 0 0 -758.19584889842372 532.18410160675285 0 532.18410160675285 -200.69203148940073 0 0 0 0 -458.5455953151104 333.50326582026173 0 333.50326582026173 -337.48541620343144 0 0 0 0 -388.92318451638857 390.86334436857811 0 390.86334436857811 -388.31688047251725 0 0 0 0 -24.589094501172326 -1.4083953220002063 0 -1.4083953220002063 -0.42264919459375644 0 0 0 0 -8.0676580237704911 -290.69448950787324 0 -290.69448950787324 -258.34919082841049 0 0 0 0 191.39397096668108 -169.60412880954368 0 -169.60412880954368 -192.76223211638325 0 0 0 0 -6.1563719075347763 -265.87519689579494 0 -265.87519689579494 -66.284984119000001 0 0 0 0 10.863456347156898 -187.85506485611131 0 -187.85506485611131 -47.083107577996998 0 0 0 0 144.01419110482675 -70.543483093774739 0 -70.543483093774739 -16.392816963120822 0 0 0 0 -60.248487487100647 -56.067541089661972 0 -56.067541089661972 104.86095691221908 0 0 0 0 -102.11608824892028 -174.94151376579748 0 -174.94151376579748 143.82208975708818 0 0 0 0 -682.42302018826012 -47.386803198232883 0 -47.386803198232883 52.48510447699482 0 0 0 0 -214.18179520698322 -69.475740186658641 0 -69.475740186658641 53.47193489548863 0 0 0 0 -14.073546644169255 33.624145895285892 0 33.624145895285892 -39.618458461744467 0 0 0 0 2.4099938652856423 0.77418584434125393 0 0.77418584434125393 -6.0935097608927986 0 0 0 0 -904.95072200591676 -30.339097599387514 0 -30.339097599387514 308.3980340461286 0 0 0 0 362.24590536186588 -399.69997669687609 0 -399.69997669687609 -207.1105878162914 0 0 0 0 -169.91240413502965 8.1645875300874877 0 8.1645875300874877 79.565407893620602 0 0 0 0 -0.50231737627933626 4.1704374545082423 0 4.1704374545082423 -2.3331466369127538 0 0 0 0 -65.843526734904358 4.0847523302661681 0 4.0847523302661681 0.7670508738888786 0 0 0 0 375.21649179703672 183.18267228869979 0 183.18267228869979 17.838580736512498 0 0 0 0 -62.507738489697658 144.42100903393731 0 144.42100903393731 -132.5621431350836 0 0 0 0 13.363979442601703 31.577810925445533 0 31.577810925445533 -41.00785212242954 0 0 0 0 -106.59680072037008 94.948198859583187 0 94.948198859583187 -40.46265848074836 0 0 0 0 -109.99480664272414 92.538055276545037 0 92.538055276545037 10.601930501363313 0 0 0 0 -228.22880920550233 60.551573918782651 0 60.551573918782651 -118.36920270396513 0 0 0 0 -239.40543942933436 231.01502294587908 0 231.01502294587908 -375.50080050268275 0 0 0 0 -373.36259652868466 216.62827674328935 0 216.62827674328935 -34.780230863551878 0 0 0 0 -368.75998863893619 33.796997014805584 0 33.796997014805584 148.30126206833074 0 0 0 0 -241.61417075048666 158.40261433470437 0 158.40261433470437 -21.348870148167407 0 0 0 0 -172.16579874441959 43.235984128805285 0 43.235984128805285 82.384756306141753 0 0 0 0 -95.292022539546451 -13.981903367301925 0 -13.981903367301925 67.653225111586835 0 0 0 0 -122.50917658059916 56.047215613973094 0 56.047215613973094 41.330730894570934 0 0 0 0 -142.04304282605153 83.863085645632509 0 83.863085645632509 8.6516282874526951 0 0 0 0 -338.3654847110538 18.537426606160807 0 18.537426606160807 31.878642604922788 0 0 0 0 -49.719857563795813 4.8562253572681584 0 4.8562253572681584 138.70555233568393 0 0 0 0 -454.95311926584691 -155.29037796050761 0 -155.29037796050761 87.248872784064588 0 0 0 0 -129.15964097338383 -136.37062512914372 0 -136.37062512914372 483.93474120514111 0 0 0 0 73.276568204229989 -94.408805797251262 0 -94.408805797251262 169.84188006019576 0 0 0 0 -244.02543338082251 -179.12063811788812 0 -179.12063811788812 274.68668773115678 0 0 0 0 -324.62666636334598 139.91981880038361 0 139.91981880038361 154.12742462471761 0 0 0 0 -2.6659837540282751 -0.28189367187587777 0 -0.28189367187587777 168.79281529436776 0 0 0 0 -75.934932196072623 -21.313290841678509 0 -21.313290841678509 228.02658577261718 0 0 0 0 -23.636615555362013 4.36659755594901 0 4.36659755594901 1.0137288090805789 0 0 0 0 -139.2274522506159 -65.918106270441967 0 -65.918106270441967 -45.381561206526385 0 0 0 0 -145.32966093102004 -23.122490558971549 0 -23.122490558971549 -19.766260179367237 0 0 0 0 -7.9699911922842972 -1.1789653371905757 0 -1.1789653371905757 -8.8624896177990475 0 0 0 0 -85.710954140420654 23.135983304095589 0 23.135983304095589 19.968597795611458 0 0 0 0 -18.619339231736376 -55.077215484852331 0 -55.077215484852331 81.027803472090454 0 0 0 0 -42.272757742174491 -1.3998949081600252 0 -1.3998949081600252 7.5155205131848248 0 0 0 0 -22.765958572264935 -32.514967850726862 0 -32.514967850726862 -5.417695264819713 0 0 0 0 -6.2272165884301387 4.9350915848949981 0 4.9350915848949981 7.8596000334738036 0 0 0 0 -3.0596542963121465 -120.88006768035075 0 -120.88006768035075 181.73636699484632 0 0 0 0 -66.532760324953415 11.060257643694058 0 11.060257643694058 -31.07264493285038 0 0 0 0 -73.086095856395332 -17.422281333373121 0 -17.422281333373121 -0.012051889008034777 0 0 0 0 1.079597091347428 2.5371253696433556 0 2.5371253696433556 1.8585806881963158 0 0 0 0 -78.648518567144492 -13.032929809409325 0 -13.032929809409325 17.592293616414736 0 0 0 0 -51.971008806846612 1.6268649153056849 0 1.6268649153056849 9.2284680439112847 0 0 0 0 -16.340505745498461 1.6641292558817824 0 1.6641292558817824 5.3110145726132636 0 0 0 0 33.52379799776827 12.740866069728781 0 12.740866069728781 -19.587045093730922 0 0 0 0 -40.491729507040873 38.098834108933261 0 38.098834108933261 11.874697185934565 0 0 0 0 -70.190428948873887 82.919937291695533 0 82.919937291695533 88.908497419503647 0 0 0 0 -114.18786614246346 -53.756913752419223 0 -53.756913752419223 31.641955837747673 0 0 0 0 -58.992446197953541 0.52249621191822371 0 0.52249621191822371 18.88221168209202 0 0 0 0 61.942148422724131 46.324897729676195 0 46.324897729676195 34.404157288752685 0 0 0 0 78.613178004456131 77.529452023016802 0 77.529452023016802 92.582625936358454 0 0 0 0 -55.16990787686882 -3.0548929579772448 0 -3.0548929579772448 133.49223243496635 0 0 0 0 -15.489130119414767 66.59786973160908 0 66.59786973160908 254.39908563313838 0 0 0 0 8.8611988254851894 -89.042060368841703 0 -89.042060368841703 234.17322795644463 0 0 0 0 2.2299946950341365 1.4513996921363628 0 1.4513996921363628 1.4726990810952572 0 0 0 0 -267.75969400149916 149.67916574080391 0 149.67916574080391 298.51327885561841 0 0 0 0 280.02200108975558 -422.93393364837993 0 -422.93393364837993 319.21363400511109 0 0 0 0 29.094535507822002 -36.812233399314209 0 -36.812233399314209 366.04035267518339 0 0 0 0 139.40240057545088 -253.54428298714174 0 -253.54428298714174 301.62622905331591 0 0 0 0 286.13972463817481 -58.437502354959179 0 -58.437502354959179 -16.435508073000165 0 0 0 0 16.239559355628444 -129.52269246900323 0 -129.52269246900323 73.422180899490741 0 0 0 0 26.190298524496029 -130.95941330912228 0 -130.95941330912228 4.3320542058172578 0 0 0 0 -61.993140464255703 -133.15502995518 0 -133.15502995518 119.880520594892 0 0 0 0 -49.70908405092996 -71.361400238958822 0 -71.361400238958822 93.164749792080329 0 0 0 0 -46.969587392144604 -99.197169140933056 0 -99.197169140933056 274.14218263850853 0 0 0 0 90.073010804058868 -146.20024044811726 0 -146.20024044811726 76.977937665307763 0 0 0 0 -98.263766580043011 -75.060008364810074 0 -75.060008364810074 27.181556576866569 0 0 0 0 -130.86186138810444 -106.93447291652865 0 -106.93447291652865 55.452806235042544 0 0 0 0 -134.86406367224845 -40.952511281208899 0 -40.952511281208899 71.628684619155365 0 0 0 0 -157.26434581089052 -75.480922747163277 0 -75.480922747163277 29.730048597498353 0 0 0 0 -153.01333804388923 -47.54245838050997 0 -47.54245838050997 -5.6720327022485435 0 0 0 0 -147.77118046734722 -62.561232985057586 0 -62.561232985057586 35.84175645328105 0 0 0 0 -177.98707751143957 -4.539227567262742 0 -4.539227567262742 10.823807465720165 0 0 0 0 -122.83263628872101 12.111457264755643 0 12.111457264755643 4.0242396249996091 0 0 0 0 -173.38619089517306 -20.057588221612605 0 -20.057588221612605 59.157848795316568 0 0 0 0 -70.936845709024055 31.689056666957185 0 31.689056666957185 92.102554505327817 0 0 0 0 -116.44663802191644 -76.437498987962954 0 -76.437498987962954 138.36329542007752 0 0 0 0 -121.21321263313439 -7.1112797139098802 0 -7.1112797139098802 63.05131023177637 0 0 0 0 -128.77545522143919 -6.7056624157680744 0 -6.7056624157680744 -22.982349075752609 0 0 0 0 -39.014849192292786 66.393312223710836 0 66.393312223710836 36.544437302327424 0 0 0 0 -65.598945235047722 87.88405698822362 0 87.88405698822362 -34.857759361417209 0 0 0 0 -281.56856937636985 -21.45076859272649 0 -21.45076859272649 23.33253521370716 0 0 0 0 -161.28653532821772 97.153831426158604 0 97.153831426158604 11.648312597836593 0 0 0 0 -71.459074706173851 72.626772730342964 0 72.626772730342964 5.6912027407274763 0 0 0 0 3.9354547851908137 176.82579150087577 0 176.82579150087577 85.165027417117017 0 0 0 0 19.407403848710146 11.618533981748129 0 11.618533981748129 12.890846053498535 0 0 0 0 -195.6229204406045 -185.30307931984953 0 -185.30307931984953 -91.052835964929841 0 0 0 0 -2.9927094225223243 0.41896569625838964 0 0.41896569625838964 2.1496450593048451 0 0 0 0 -121.26832202750347 62.430759357043343 0 62.430759357043343 30.61783711183034 0 0 0 0 -110.23631083356304 54.804105555397655 0 54.804105555397655 35.832977824527916 0 0 0 0 -262.43816025077103 -40.550935802368258 0 -40.550935802368258 12.559899741644927 0 0 0 0 -264.83024432804541 -29.990920061743509 0 -29.990920061743509 -5.9003330007435579 0 0 0 0 1.3393417919707673 -1.6861725513402419 0 -1.6861725513402419 -1.5592202844906407 0 0 0 0 -144.32869845872483 -163.303535350738 0 -163.303535350738 -79.577030772279613 0 0 0 0 -119.69963244825885 -35.273069713719707 0 -35.273069713719707 -87.180296352630648 0 0 0 0 -129.73120736058627 86.225253534636522 0 86.225253534636522 -14.22087914507415 0 0 0 0 -273.44478888834419 -68.69227614056058 0 -68.69227614056058 56.963174419862298 0 0 0 0 -70.226025162803126 -28.488211525582756 0 -28.488211525582756 64.837320125721817 0 0 0 0 -132.19221194821876 -95.891137276707468 0 -95.891137276707468 42.570256338213767 0 0 0 0 -97.894015978730749 -13.429496063195984 0 -13.429496063195984 112.2082874113089 0 0 0 0 0.40760100849590941 -4.5461764062833367 0 -4.5461764062833367 4.3281558101015207 0 0 0 0 -14.138564167060395 -20.344370875030791 0 -20.344370875030791 25.892805100243095 0 0 0 0 -91.548111968790181 -78.926202907657625 0 -78.926202907657625 145.5024267704357 0 0 0 0 -86.193093076668447 -190.52715902745877 0 -190.52715902745877 59.421850947466282 0 0 0 0 -76.411320098894066 -63.175057360955179 0 -63.175057360955179 52.98115443595816 0 0 0 0 -100.71282060920203 -112.37689071785871 0 -112.37689071785871 23.611662159052685 0 0 0 0 -17.198473597993143 -41.207840846781437 0 -41.207840846781437 -106.55107472898908 0 0 0 0 -29.064232709206408 -58.130179691966532 0 -58.130179691966532 -68.966028326953165 0 0 0 0 4.1128296111128293 17.514356630172188 0 17.514356630172188 2.7963262993725948 0 0 0 0 2.6852221016015392 7.3654190414272307 0 7.3654190414272307 1.8056548819949967 0 0 0 0 -0.34665451957587834 -5.3192015663691592 0 -5.3192015663691592 7.5941614868861542 0 0 0 0 -14.825253966155287 -0.86959007731616111 0 -0.86959007731616111 14.378085425484642 0 0 0 0 -5.6594231529671504 -0.8872767161710442 0 -0.8872767161710442 10.764977917574935 0 0 0 0 -6.1800993684433507 -3.1536119175552457 0 -3.1536119175552457 7.7437635725462268 0 0 0 0 -8.3423885677475482 -2.5558354191689432 0 -2.5558354191689432 4.4597263715513691 0 0 0 0 -3.1158117348895757 3.9605093073311082 0 3.9605093073311082 46.347235087720037 0 0 0 0 -11.246709028267901 6.4069193321081457 0 6.4069193321081457 14.490287635323501 0 0 0 0 -29.440942052664468 -2.8348678433380883 0 -2.8348678433380883 18.788573092839215 0 0 0 0 -40.574845443403589 0.031593508237776291 0 0.031593508237776291 27.625279908696712 0 0 0 0 -4.9172359338772367 16.325152314609113 0 16.325152314609113 53.704755777218452 0 0 0 0 -1.0292184876525425 38.859566030761926 0 38.859566030761926 40.111597198929303 0 0 0 0 0.24153352342545986 42.859185716637512 0 42.859185716637512 16.331297786970026 0 0 0 0 -0.92899599633528851 21.312065763879218 0 21.312065763879218 33.014019559712324 0 0 0 0 2.1496138757502194 8.1566253401470021 0 8.1566253401470021 22.497176547527488 0 0 0 0 -4.2573843155405484 7.2797960230163881 0 7.2797960230163881 37.034156164339947 0 0 0 0 -3.1272227213848964 17.585956535750483 0 17.585956535750483 27.798328698892874 0 0 0 0 -3.3760793753135658 0.93978699419676559 0 0.93978699419676559 24.686981472252228 0 0 0 0 -4.0598098893577799 0.52763738645786162 0 0.52763738645786162 2.8776273021532432 0 0 0 0 -256.32789109969599 -46.191817859500588 0 -46.191817859500588 -0.50276712862705608 0 0 0 0 -0.74689807558024768 14.799746489675726 0 14.799746489675726 14.393880437899497 0 0 0 0 -253.37899964594544 -55.87032056562748 0 -55.87032056562748 12.198889592289675 0 0 0 0 -1.2054537191797863 26.247924344731928 0 26.247924344731928 2.9238664760268875 0 0 0 0 -194.05948231610091 -2.5008248492472376 0 -2.5008248492472376 68.541929151662771 0 0 0 0 -38.693941427827568 4.1575157945896635 0 4.1575157945896635 26.529385210448307 0 0 0 0 0.1969572429661639 43.778247220250705 0 43.778247220250705 0.063991691645242099 0 0 0 0 -73.267342318911687 -33.153199375305803 0 -33.153199375305803 1.4707761589606889 0 0 0 0 -71.310031059852918 -33.382916336446442 0 -33.382916336446442 1.4391261746263808 0 0 0 0 -69.244747725992056 -38.040724168380621 0 -38.040724168380621 -3.2400488461262285 0 0 0 0 -81.199966391617636 -32.49597945075493 0 -32.49597945075493 1.9928368466198663 0 0 0 0 -71.309964567968564 -33.07182705470359 0 -33.07182705470359 -1.4704971507771916 0 0 0 0 -6.9685898452568296 -2.7906557783398469 0 -2.7906557783398469 8.9216095277398644 0 0 0 0 -80.74869180132066 -41.77257015660777 0 -41.77257015660777 -1.8622965579679658 0 0 0 0 -79.516482889070176 -48.25968556894054 0 -48.25968556894054 -34.817168728208344 0 0 0 0 -77.183400463600265 -10.313933133903674 0 -10.313933133903674 22.801474404146575 0 0 0 0 -98.276971770832461 -41.684578072666795 0 -41.684578072666795 22.084144545016443 0 0 0 0 -133.02674381695874 -19.687086439519277 0 -19.687086439519277 -4.7470434307506366 0 0 0 0 -137.35992267100301 -84.614155051158377 0 -84.614155051158377 -23.310967110568072 0 0 0 0 -63.501613046311832 -33.950786093571878 0 -33.950786093571878 -20.689563948286832 0 0 0 0 -13.347395400888445 25.509982651388214 0 25.509982651388214 39.100851718094418 0 0 0 0 -2.4677539314136894 -0.6209797656792162 0 -0.6209797656792162 6.1315714647154564 0 0 0 0 -9.4624169311500737 -6.8791111640912277 0 -6.8791111640912277 10.448624048009151 0 0 0 0 -23.506387364314421 -3.0860574486093348 0 -3.0860574486093348 14.291822865204235 0 0 0 0 -42.977266673249687 -35.827682846676453 0 -35.827682846676453 14.264988824714237 0 0 0 0 -55.233764738057289 -1.2070035447223972 0 -1.2070035447223972 57.65568190851809 0 0 0 0 -35.526377762016637 -16.997680857513842 0 -16.997680857513842 -1.3692955824940327 0 0 0 0 -92.81837349741545 156.70769651336013 0 156.70769651336013 -3.2505552891270781 0 0 0 0 4.6019746026431676 -26.01721428711835 0 -26.01721428711835 -20.635511544658584 0 0 0 0 -23.492931892492948 -2.3794191040859545 0 -2.3794191040859545 13.103714534828375 0 0 0 0 -35.532861162646441 -17.434963821258407 0 -17.434963821258407 21.173732596246737 0 0 0 0 -2.9324090815909116 0.17415604406386365 0 0.17415604406386365 3.9703580269622094 0 0 0 0 -127.03266523736238 -181.70821120269193 0 -181.70821120269193 -9.7349468144157072 0 0 0 0 -95.483432446311781 -79.79718280887846 0 -79.79718280887846 -110.95287063594697 0 0 0 0 -96.832575872704183 -56.63982581118762 0 -56.63982581118762 29.553766270653796 0 0 0 0 -110.8683630223677 -14.67103675767703 0 -14.67103675767703 161.88828077772996 0 0 0 0 -124.83422568111928 -62.551110487819642 0 -62.551110487819642 31.199086282940698 0 0 0 0 -253.68732659275702 -200.38179485925502 0 -200.38179485925502 116.59307819360765 0 0 0 0 -10.190732837115519 1.3823103846615616 0 1.3823103846615616 0.48681463763101718 0 0 0 0 360.39267913054209 -92.298402556800283 0 -92.298402556800283 -432.18459298498055 0 0 0 0 -108.01121763032279 -235.14202809149174 0 -235.14202809149174 22.907558913899265 0 0 0 0 -5.1034051618116791 -346.21140379995086 0 -346.21140379995086 -546.539246367538 0 0 0 0 -246.91630360067848 -133.34138012680205 0 -133.34138012680205 481.16971340541932 0 0 0 0 -200.1041422993585 -938.35346793909412 0 -938.35346793909412 255.74870319062302 0 0 0 0 -57.714495917636668 -23.778921547374921 0 -23.778921547374921 22.745574860883607 0 0 0 0 -30.179901360555959 -109.11958082785713 0 -109.11958082785713 -212.74809695475318 0 0 0 0 -408.93477902597988 690.00089255527962 0 690.00089255527962 -241.26147623878933 0 0 0 0 -145.35916640299911 -36.356579345620958 0 -36.356579345620958 305.52298327134849 0 0 0 0 -23.860455274847482 37.964121098080113 0 37.964121098080113 17.747925352879065 0 0 0 0 2.4594352804260495 5.9024582095126945 0 5.9024582095126945 3.9874238127826374 0 0 0 0 -42.811675262658525 5.1986625276260341 0 5.1986625276260341 21.116813431181203 0 0 0 0 -121.11738561051038 63.155825141963419 0 63.155825141963419 12.510795464681905 0 0 0 0 -48.771860421591555 -94.196941827232877 0 -94.196941827232877 -95.078048341886642 0 0 0 0 -73.412834129707335 18.076713073582368 0 18.076713073582368 38.593997271622015 0 0 0 0 -72.330571157275699 -44.975081353914902 0 -44.975081353914902 -0.54990567242020916 0 0 0 0 -40.385196775490513 5.5269350523207414 0 5.5269350523207414 25.150089337146564 0 0 0 0 -141.31458577111698 -78.075482724432732 0 -78.075482724432732 -19.015560818279482 0 0 0 0 -123.00716107164772 -133.18858849959088 0 -133.18858849959088 -27.919526148458317 0 0 0 0 -27.992799260086031 -128.09780338204837 0 -128.09780338204837 -22.959188868372621 0 0 0 0 -123.14528894988335 -66.46832491425495 0 -66.46832491425495 -62.246348688542639 0 0 0 0 51.233982185047353 -59.283330886311887 0 -59.283330886311887 -127.10392045887056 0 0 0 0 -37.864626418740954 -111.07142281986125 0 -111.07142281986125 -1.7378628645228673 0 0 0 0 87.352440345661307 -6.7516334119227395 0 -6.7516334119227395 -22.393469212595164 0 0 0 0 136.32161277748673 -145.81472662073338 0 -145.81472662073338 -54.458200172333818 0 0 0 0 61.686539315647678 -84.915061265564873 0 -84.915061265564873 -146.14925189481073 0 0 0 0 5.7374493546000167 -52.322958911274327 0 -52.322958911274327 -115.33751998623302 0 0 0 0 -0.81584621094953036 63.23834143320218 0 63.23834143320218 -161.74677540572156 0 0 0 0 -42.013116531288688 -21.298123392346497 0 -21.298123392346497 -134.24241272877407 0 0 0 0 -34.668555434723856 -13.196234928567549 0 -13.196234928567549 -2.0104275707850547 0 0 0 0 -104.47576333714824 -20.621622713798388 0 -20.621622713798388 1.8898814549424969 0 0 0 0 8.4948274257612866 105.93482121350735 0 105.93482121350735 124.43931164541937 0 0 0 0 -2.6401437823180913 -2.452637929702238 0 -2.452637929702238 0.12344957557188962 0 0 0 0 -120.01846955701694 -33.057550969955628 0 -33.057550969955628 74.932484171034048 0 0 0 0 39.471246615539712 -16.666573754646379 0 -16.666573754646379 -3.2092278294603602 0 0 0 0 -99.417795796999826 9.5757523614980187 0 9.5757523614980187 11.569231854864483 0 0 0 0 -253.3156388736279 83.48623250183482 0 83.48623250183482 -11.01896814182146 0 0 0 0 -327.32381466380684 71.826510166496519 0 71.826510166496519 92.899843666135894 0 0 0 0 -370.33530603971667 29.126469460617955 0 29.126469460617955 119.62316404219746 0 0 0 0 -410.34096008888082 55.13488980792863 0 55.13488980792863 164.0631985438813 0 0 0 0 -610.69631353314435 134.25797190477715 0 134.25797190477715 134.71836200100915 0 0 0 0 -259.63418579805511 138.28717011538902 0 138.28717011538902 -72.72946383701219 0 0 0 0 -951.99213228186272 409.16312656194532 0 409.16312656194532 -174.88988346857877 0 0 0 0 -7.4352295568428843 -2.8924329642154305 0 -2.8924329642154305 -1.8865562695639646 0 0 0 0 -19.84081866585457 -9.6480446835626452 0 -9.6480446835626452 -5.3512777805863472 0 0 0 0 5.9167815371183679 38.895068612372597 0 38.895068612372597 -256.54416847331504 0 0 0 0 -79.579775488113228 101.13271639940831 0 101.13271639940831 -182.42827516101897 0 0 0 0 64.456483525671217 36.12907108723256 0 36.12907108723256 -272.56206165748517 0 0 0 0 -206.35702217476137 -145.29451084076345 0 -145.29451084076345 -623.51700929054823 0 0 0 0 -1090.7344959932707 -175.72477086551771 0 -175.72477086551771 1.1505425856630609 0 0 0 0 -1125.8543844511296 143.14818750212123 0 143.14818750212123 200.92245775376404 0 0 0 0 -1295.4771293020312 534.70950887351171 0 534.70950887351171 -73.257524487416333 0 0 0 0 -998.6463806371703 671.70050861488971 0 671.70050861488971 -514.65550229788118 0 0 0 0 -1775.2699681980885 901.8154095430948 0 901.8154095430948 -196.62206437190957 0 0 0 0 -15.973109235288575 123.34233436638922 0 123.34233436638922 -68.648735140494921 0 0 0 0 2.4220912620858144 0.56299752109703149 0 0.56299752109703149 -0.56254867970530675 0 0 0 0 -78.69660555716473 -102.99657329768289 0 -102.99657329768289 25.950557998001841 0 0 0 0 -18.405746311516694 -9.6672720829753871 0 -9.6672720829753871 2.8902279296303188 0 0 0 0 118.98508182937076 -65.003395725456585 0 -65.003395725456585 -247.18902130592687 0 0 0 0 116.99728923575458 13.322138558108691 0 13.322138558108691 -1.8523867491703641 0 0 0 0 -616.42824156474671 533.47017000997846 0 533.47017000997846 -675.96522794715793 0 0 0 0 -1225.0804200424463 518.47730817023228 0 518.47730817023228 -218.44492716553091 0 0 0 0 -110.88442743103224 -267.21131107674756 0 -267.21131107674756 -243.88428001909301 0 0 0 0 -1117.6411563621368 1193.4553505681556 0 1193.4553505681556 -812.12458753574185 0 0 0 0 -2685.3519315508966 1943.1651134844653 0 1943.1651134844653 -892.89305277716244 0 0 0 0 -4327.1138271263335 950.92909956043673 0 950.92909956043673 -62.036116474844228 0 0 0 0 -3500.1963641768452 828.45728472983467 0 828.45728472983467 -2131.1032705670555 0 0 0 0 -3500.2915279310182 1168.2068190404686 0 1168.2068190404686 158.91639779055188 0 0 0 0 -2867.9021109635651 1040.6201906118918 0 1040.6201906118918 -210.27973813383403 0 0 0 0 -2316.3623905800778 1241.0723049643461 0 1241.0723049643461 -188.20946843564695 0 0 0 0 -1956.1602676206676 725.60828404026745 0 725.60828404026745 4.7816251574381567 0 0 0 0 -2943.9009410588478 1219.9017895144543 0 1219.9017895144543 -95.65806005337312 0 0 0 0 -2671.6279089036002 703.68384352085047 0 703.68384352085047 -4.567081929863491 0 0 0 0 -2084.8760976065241 914.3230271079949 0 914.3230271079949 -105.07858380214114 0 0 0 0 -3087.7403270168834 838.69515365667826 0 838.69515365667826 264.5105073493242 0 0 0 0 -2670.717404163428 795.58349419606861 0 795.58349419606861 242.35916497080922 0 0 0 0 -3498.5525832117328 651.04993335731956 0 651.04993335731956 247.62281563093453 0 0 0 0 -2301.2803761138493 701.75659677698525 0 701.75659677698525 -102.77805530785213 0 0 0 0 -2659.6805870689714 666.8991904409479 0 666.8991904409479 -201.35317880510704 0 0 0 0 -2367.364661235566 471.08083926492998 0 471.08083926492998 -210.82818844362683 0 0 0 0 -2047.0165215911256 447.91623820578684 0 447.91623820578684 138.97902246294612 0 0 0 0 -1840.4536074426142 542.70668176564118 0 542.70668176564118 17.319874857909781 0 0 0 0 -1803.1710468053643 538.93562037430127 0 538.93562037430127 -204.59472000900161 0 0 0 0 -1285.5095591541176 570.1760866135495 0 570.1760866135495 -204.12231758288914 0 0 0 0 -89.123712010885356 -125.08493980254033 0 -125.08493980254033 -52.203947531112703 0 0 0 0 -103.56036512067658 -74.261523853007873 0 -74.261523853007873 -183.42997042225261 0 0 0 0 -104.22254604042973 -144.92471721963713 0 -144.92471721963713 -78.194510259693743 0 0 0 0 -55.96832125770743 -117.05277039969141 0 -117.05277039969141 -138.1720214083125 0 0 0 0 -571.30380529092508 283.32436821040534 0 283.32436821040534 -53.464549691731577 0 0 0 0 -887.5541010198358 -112.42839596448374 0 -112.42839596448374 -20.451961147949476 0 0 0 0 -432.4415212245658 133.18981301384724 0 133.18981301384724 -192.54610798206105 0 0 0 0 -181.63560832032817 -35.048598324535845 0 -35.048598324535845 -152.79445284434991 0 0 0 0 -143.23736185819143 35.646706359996301 0 35.646706359996301 -270.16516368268685 0 0 0 0 -176.14564941466961 -64.215589272552933 0 -64.215589272552933 -99.847243514139905 0 0 0 0 -43.294200592441484 -27.461805642822867 0 -27.461805642822867 -191.17098003554366 0 0 0 0 -10.070563045068411 27.743459935288762 0 27.743459935288762 -181.92430820156062 0 0 0 0 -23.067489649904019 -50.308087814330641 0 -50.308087814330641 -54.505136515679908 0 0 0 0 -4.5061223190863728 -2.7826438960173192 0 -2.7826438960173192 -0.82765101698281884 0 0 0 0 -441.42186983767897 -93.405179150246397 0 -93.405179150246397 -53.275099919873952 0 0 0 0 -26.633234685054049 21.329611722453592 0 21.329611722453592 -4.9076941030696162 0 0 0 0 71.004663238149078 71.149410366299549 0 71.149410366299549 -89.056839396288922 0 0 0 0 -5.5552141933768455 0.61227041119582282 0 0.61227041119582282 -18.327767502330982 0 0 0 0 -18.684262025421049 93.421698458717216 0 93.421698458717216 -113.81166634297006 0 0 0 0 -28.229006662859078 -13.707678205432615 0 -13.707678205432615 6.2707172688098876 0 0 0 0 -45.148788748017978 2.5236297949845721 0 2.5236297949845721 -12.283263916668147 0 0 0 0 -14.197602560580176 1.8912888082701613 0 1.8912888082701613 0.36513119682025064 0 0 0 0 -85.640515889928793 6.3407408902271527 0 6.3407408902271527 12.789919052034747 0 0 0 0 -76.196411945653381 13.683561552853462 0 13.683561552853462 15.053764493046401 0 0 0 0 -33.789357277076761 -9.2923799687898736 0 -9.2923799687898736 3.142069646444595 0 0 0 0 -51.629116566841731 0.86007246002581894 0 0.86007246002581894 -0.53242546085425602 0 0 0 0 -36.221810108012278 -16.998623929857558 0 -16.998623929857558 10.107147775687377 0 0 0 0 -53.843054916700112 -12.180700015909522 0 -12.180700015909522 -2.4226679396051622 0 0 0 0 -31.465955572811129 -2.8292450915181035 0 -2.8292450915181035 0.97646036926051316 0 0 0 0 -52.847024649759987 -12.230351155435528 0 -12.230351155435528 -2.5686441150104429 0 0 0 0 61.463560554504511 -125.04477273794038 0 -125.04477273794038 -73.916014114976491 0 0 0 0 -4.2313734681818893 -17.035794426148442 0 -17.035794426148442 -9.8686127896158027 0 0 0 0 -36.757229254857521 -82.356459593834131 0 -82.356459593834131 -77.195794236407949 0 0 0 0 19.21700162847992 -125.87274511463136 0 -125.87274511463136 -74.922669153393713 0 0 0 0 17.233623578391416 -134.64991006230426 0 -134.64991006230426 -10.171074275098476 0 0 0 0 -25.210915082483552 56.593414898623024 0 56.593414898623024 16.030045114595509 0 0 0 0 -10.778306604455224 -70.07315643957854 0 -70.07315643957854 58.796347950097243 0 0 0 0 -10.689106000005268 -51.748411847917055 0 -51.748411847917055 -76.533891092642591 0 0 0 0 -51.351967686088756 -29.660299369273034 0 -29.660299369273034 -15.895258487521005 0 0 0 0 -52.837207657632803 -12.35450076266228 0 -12.35450076266228 7.3654397275022347 0 0 0 0 -9.2772533866335021 -2.3566174932387867 0 -2.3566174932387867 2.1679756272935462 0 0 0 0 -34.779328306249226 -11.586878263764902 0 -11.586878263764902 -0.16885740938641902 0 0 0 0 -21.917740700933791 -7.3981434259184198 0 -7.3981434259184198 2.8449695145377518 0 0 0 0 -24.633133141964862 0.64581991674752004 0 0.64581991674752004 5.6525462325904439 0 0 0 0 -61.440097455953946 -5.7857201939079914 0 -5.7857201939079914 4.4078430285222794 0 0 0 0 -66.896117122159922 -13.205249825029512 0 -13.205249825029512 7.5899500084158831 0 0 0 0 -68.402610209333943 -16.147090561872176 0 -16.147090561872176 1.9912936621856261 0 0 0 0 -60.224254075514182 -8.065336348410078 0 -8.065336348410078 -15.302161137307053 0 0 0 0 -36.656869016345183 -18.391106661535702 0 -18.391106661535702 9.1124292613046407 0 0 0 0 -93.515037077726447 -0.98313334946396935 0 -0.98313334946396935 10.332056421480956 0 0 0 0 -52.383778328076005 -18.942687975386434 0 -18.942687975386434 12.194322098739349 0 0 0 0 -75.526569401685265 0.018336551011628899 0 0.018336551011628899 7.6631642319683806 0 0 0 0 -54.731373992195586 -6.2935551959108125 0 -6.2935551959108125 3.6383000251439626 0 0 0 0 -61.278801922351704 -0.15071156322466095 0 -0.15071156322466095 2.9392985978914865 0 0 0 0 -61.472854809933779 -11.371184277566746 0 -11.371184277566746 12.310660090587135 0 0 0 0 -50.636198186635738 -18.809361964634945 0 -18.809361964634945 13.985137102758017 0 0 0 0 -51.628923589167243 -13.181091085430467 0 -13.181091085430467 5.1215192831787135 0 0 0 0 -35.120542535412824 -5.325706363857762 0 -5.325706363857762 17.447722413709016 0 0 0 0 -31.699698911426822 -8.9044670022835817 0 -8.9044670022835817 11.957520023845973 0 0 0 0 -6.2977550860824838 -7.3688352096641268 0 -7.3688352096641268 10.833004833729714 0 0 0 0 -49.475415395994787 -7.7565942742796778 0 -7.7565942742796778 18.27183368061128 0 0 0 0 -14.972500517126221 1.0657556043024741 0 1.0657556043024741 11.060006691333076 0 0 0 0 -77.705204432801111 -24.131218509908194 0 -24.131218509908194 -2.2210104050773225 0 0 0 0 -30.584241070761735 -25.478532182366255 0 -25.478532182366255 9.5107030732815296 0 0 0 0 -26.858208945952356 -7.0752337019835068 0 -7.0752337019835068 16.265009868945526 0 0 0 0 -21.023012277839534 -13.586951400723294 0 -13.586951400723294 9.2906396312870161 0 0 0 0 -30.141187224213354 -5.8258572857801028 0 -5.8258572857801028 11.164039210098053 0 0 0 0 -26.524925834110917 -3.9162728284952948 0 -3.9162728284952948 16.556804974590989 0 0 0 0 -50.012918283391627 -34.232697269813229 0 -34.232697269813229 2.5212158864412686 0 0 0 0 -43.829806407877186 -21.376677035902901 0 -21.376677035902901 7.9420196387318356 0 0 0 0 -32.225915805601403 -26.400045899036755 0 -26.400045899036755 5.7993744735092605 0 0 0 0 -9.7644622881752525 -2.2948838266928604 0 -2.2948838266928604 6.2787680828260237 0 0 0 0 -40.769815718114842 -26.88085953958489 0 -26.88085953958489 10.579590242644827 0 0 0 0 -20.686665664024758 -15.461100282807131 0 -15.461100282807131 3.5426906341212505 0 0 0 0 -35.429817885029479 -21.892795098991655 0 -21.892795098991655 11.030653479636015 0 0 0 0 -42.499519862583838 -4.8828712931743894 0 -4.8828712931743894 13.626762090436387 0 0 0 0 -35.169198949733982 -18.580640962307143 0 -18.580640962307143 26.807426876409409 0 0 0 0 -27.462228010204853 -21.56071397356186 0 -21.56071397356186 7.6544272681594521 0 0 0 0 -33.746944893966429 -18.294972597198239 0 -18.294972597198239 5.9585715184880428 0 0 0 0 -46.83929940420785 -19.520393539154611 0 -19.520393539154611 6.7976847041406927 0 0 0 0 -58.853223438127316 -9.0163371697029788 0 -9.0163371697029788 7.1312867198184904 0 0 0 0 -41.382734952436294 -13.268709701103717 0 -13.268709701103717 4.8347078350068386 0 0 0 0 -51.839248358621262 -11.99445194416819 0 -11.99445194416819 12.786484479361434 0 0 0 0 -50.35443113288693 1.5860754837995117 0 1.5860754837995117 3.2295503476575504 0 0 0 0 -36.085702412863611 -9.6451956232766634 0 -9.6451956232766634 3.0718049656753408 0 0 0 0 0.52225263068976346 -8.8318972026881966 0 -8.8318972026881966 1.5036831906654697 0 0 0 0 -17.720017130668793 -9.7079710740837726 0 -9.7079710740837726 -3.5093325798100476 0 0 0 0 -30.809655998662492 -22.844372050007394 0 -22.844372050007394 21.465196479801307 0 0 0 0 -10.7127419913013 -22.732353705195692 0 -22.732353705195692 7.2756628343544207 0 0 0 0 -8.3174327252201863 -1.4714811429974901 0 -1.4714811429974901 2.8070899417595028 0 0 0 0 -10.101976301164322 -13.369432510543369 0 -13.369432510543369 0.89831594290222672 0 0 0 0 -59.942135411707568 -32.271646765643709 0 -32.271646765643709 -2.7681898047994764 0 0 0 0 -27.287489506270504 -11.798397677060137 0 -11.798397677060137 5.4832914311288619 0 0 0 0 -33.691958321163838 -32.424092234193154 0 -32.424092234193154 7.4725682433447673 0 0 0 0 -16.912464437165639 -7.8106858849098799 0 -7.8106858849098799 10.814764706217247 0 0 0 0 18.747948655451182 -81.892867395016211 0 -81.892867395016211 -34.919132662870751 0 0 0 0 -72.368131701550737 -4.9434635569365355 0 -4.9434635569365355 11.110093678428939 0 0 0 0 -27.124942469279944 -28.445617337515372 0 -28.445617337515372 -0.25601345163642719 0 0 0 0 -47.26095305175113 -14.256233865787635 0 -14.256233865787635 -9.0940955375299382 0 0 0 0 -174.10923961828939 -34.642510255142639 0 -34.642510255142639 41.743718293820166 0 0 0 0 -11.179979787826708 7.5167661306955011 0 7.5167661306955011 6.3152985656953957 0 0 0 0 1.4936422556493198 44.511743180313033 0 44.511743180313033 -101.57203797257466 0 0 0 0 -33.864412128918048 -7.6771902148944946 0 -7.6771902148944946 3.9032754792959921 0 0 0 0 -256.91532524779905 -2.7938793043920782 0 -2.7938793043920782 121.3952705816821 0 0 0 0 -0.56893270535482721 6.8346558723294208 0 6.8346558723294208 0.56416253863201415 0 0 0 0 -172.16075515568082 43.023592020182832 0 43.023592020182832 -3.71600989360536 0 0 0 0 -111.8296021646529 -24.722956179695927 0 -24.722956179695927 -6.9117353209676935 0 0 0 0 -127.35278774687322 -45.154299522870005 0 -45.154299522870005 53.696629196655365 0 0 0 0 177.36669274827 -96.379553640279596 0 -96.379553640279596 45.410424086794535 0 0 0 0 -176.54168542451157 -107.32310196225789 0 -107.32310196225789 70.355460365540239 0 0 0 0 -18.637595793897312 -20.056524192098721 0 -20.056524192098721 -6.9712349152611406 0 0 0 0 -8.2322818623952116 -101.32195190096608 0 -101.32195190096608 -35.758970314635917 0 0 0 0 -61.822597548554768 -13.836832031182666 0 -13.836832031182666 -6.6927734870274662 0 0 0 0 -19.334395332502538 -28.440588711701793 0 -28.440588711701793 -0.31517691491180244 0 0 0 0 -23.332885921496739 -40.0128216162624 0 -40.0128216162624 0.031388774148301657 0 0 0 0 -154.31479748149286 -8.580584110122345 0 -8.580584110122345 -25.394868668560775 0 0 0 0 -74.0785288066254 -6.7420715961739006 0 -6.7420715961739006 9.363202133883533 0 0 0 0 -353.86550917648128 106.5670817553621 0 106.5670817553621 -109.17918086839995 0 0 0 0 -96.484422202843106 1.5790640837941083 0 1.5790640837941083 11.387427440997644 0 0 0 0 -55.191258682361067 -49.992661790284401 0 -49.992661790284401 4.0046111214108144 0 0 0 0 -39.673422553862714 -15.385688249239934 0 -15.385688249239934 5.2148631068766571 0 0 0 0 -390.8486810189911 -195.72960854794655 0 -195.72960854794655 262.54112207276489 0 0 0 0 -370.48861511831228 198.86892986775919 0 198.86892986775919 -160.57349655165945 0 0 0 0 -3.1049206617728515 2.2781201444648929 0 2.2781201444648929 -1.0978662837798796 0 0 0 0 -191.11111134830571 -79.513580520659502 0 -79.513580520659502 -41.953550545348435 0 0 0 0 -13.851468724176812 -60.656849892159471 0 -60.656849892159471 73.389210639747716 0 0 0 0 -1.7885140613228145 0.85699259313825138 0 0.85699259313825138 -1.3696299171826098 0 0 0 0 100.99103943528462 -82.214952703626295 0 -82.214952703626295 -31.16974660144092 0 0 0 0 8.5269307964517793 -47.102230073940063 0 -47.102230073940063 -131.71861851408653 0 0 0 0 -136.22133765145554 4.8939509022061429 0 4.8939509022061429 -187.72589237057218 0 0 0 0 -68.216055440709169 -105.15066490335425 0 -105.15066490335425 56.751186202737699 0 0 0 0 7.8951688041561283 -90.127529683559487 0 -90.127529683559487 -166.45328057680149 0 0 0 0 -48.558924422351993 -222.54710421948948 0 -222.54710421948948 -110.55653717678774 0 0 0 0 -14.03898024815166 -1.2029242700881753 0 -1.2029242700881753 -0.29777422508819562 0 0 0 0 -73.43523361028565 -24.80695169568537 0 -24.80695169568537 39.020866019314781 0 0 0 0 -227.77314015971626 -21.937696401793293 0 -21.937696401793293 40.647564541175598 0 0 0 0 -16.263265645688918 0.47165624671846729 0 0.47165624671846729 12.608031316035914 0 0 0 0 -29.832703435487929 -4.0423244447372326 0 -4.0423244447372326 11.065078971140792 0 0 0 0 -52.38298292265705 -20.569859216584465 0 -20.569859216584465 24.306826482923242 0 0 0 0 0.33984316881090626 -9.4649371912477349 0 -9.4649371912477349 6.9792141502049976 0 0 0 0 -32.372776354874077 -12.523162042342619 0 -12.523162042342619 16.403894827977638 0 0 0 0 -17.765392124827486 -12.354842140475967 0 -12.354842140475967 5.5582588117179057 0 0 0 0 0.33731725858524442 7.2855661654646156 0 7.2855661654646156 22.420895188044199 0 0 0 0 -30.035373661849007 -18.995200972739156 0 -18.995200972739156 34.284061181255993 0 0 0 0 -9.7680778862268198 -13.882239561804113 0 -13.882239561804113 20.760379582244546 0 0 0 0 -9.7077666940749623 -23.70025820302584 0 -23.70025820302584 72.052221861762064 0 0 0 0 -0.6808305556041887 -46.396608843625643 0 -46.396608843625643 -84.003306507382831 0 0 0 0 -7.2000893123185961 15.800750925941429 0 15.800750925941429 64.031947950052796 0 0 0 0 -1.015088464804478 -0.67230638829030198 0 -0.67230638829030198 2.0315427483391337 0 0 0 0 -64.399074647000816 -55.667460277494229 0 -55.667460277494229 -5.5955633150533686 0 0 0 0 1.2918704827388865 -94.409460228461398 0 -94.409460228461398 -67.787063488062813 0 0 0 0 -67.105982063338161 -70.529707593816283 0 -70.529707593816283 -41.232255234645891 0 0 0 0 -29.220686428030604 -14.019420242865635 0 -14.019420242865635 14.37075729511821 0 0 0 0 -41.98483218876936 -3.8375778731906394 0 -3.8375778731906394 11.719071316499139 0 0 0 0 -4.2000277151281828 -9.709078603017133 0 -9.709078603017133 8.7634171735720372 0 0 0 0 -8.7521942839685209 -5.9446961025862493 0 -5.9446961025862493 5.1005598094967368 0 0 0 0 -0.46200996287681628 -19.817680256944847 0 -19.817680256944847 -1.585599477842301 0 0 0 0 -50.519065986325586 -37.10816916788508 0 -37.10816916788508 -12.943650137814984 0 0 0 0 -60.406409530667588 -17.872987071089938 0 -17.872987071089938 2.2085323572373454 0 0 0 0 -68.408265203048359 -44.469933080936016 0 -44.469933080936016 -2.8657301795919921 0 0 0 0 -88.458851774812501 -34.739778167113855 0 -34.739778167113855 0.58111877102328435 0 0 0 0 -90.962034387470339 -53.464206999982252 0 -53.464206999982252 25.111431155171431 0 0 0 0 -67.733434793408378 -28.379824369783819 0 -28.379824369783819 -8.3187756935176367 0 0 0 0 53.396500826711417 -193.5509880389892 0 -193.5509880389892 -163.08215724907456 0 0 0 0 -111.1806358852773 -55.074245042693747 0 -55.074245042693747 -5.0379321086699633 0 0 0 0 -127.14840623561122 -88.081832618133149 0 -88.081832618133149 -19.127755640066425 0 0 0 0 -125.16089460731155 -73.751711691964232 0 -73.751711691964232 -92.823550822311972 0 0 0 0 -108.35024173899728 -148.52520741041894 0 -148.52520741041894 57.793115934424833 0 0 0 0 -3.4692667655218088 0.74785520735507305 0 0.74785520735507305 16.812258332363729 0 0 0 0 -26.753723815927515 145.85107932830414 0 145.85107932830414 -60.566689275517547 0 0 0 0 -274.87267787174642 -257.28782447621683 0 -257.28782447621683 -128.53108910287025 0 0 0 0 -190.87559582338145 115.1141738120384 0 115.1141738120384 -25.557160311770993 0 0 0 0 -417.91684583733149 138.71820724171619 0 138.71820724171619 80.182134494443218 0 0 0 0 -0.50006513390191287 2.3164977573209313 0 2.3164977573209313 -2.486533659458392 0 0 0 0 -31.469945959186589 70.989542584704111 0 70.989542584704111 -43.528818087362325 0 0 0 0 -24.80883780715476 -37.04841908399785 0 -37.04841908399785 9.4109483043636573 0 0 0 0 -71.3857129482858 -2.211428648679842 0 -2.211428648679842 -13.935216391033155 0 0 0 0 -129.83147619532247 9.605169925333243 0 9.605169925333243 -13.846411819307809 0 0 0 0 -88.811232174259203 -27.807328735999864 0 -27.807328735999864 14.180492541579071 0 0 0 0 -68.717463823675644 -36.687973321597831 0 -36.687973321597831 -7.8666152295289269 0 0 0 0 -69.348293519400613 -5.130734137360605 0 -5.130734137360605 24.122628568749803 0 0 0 0 -29.426739125334137 -27.237471810792812 0 -27.237471810792812 -3.3871611173166052 0 0 0 0 18.846065827921848 -109.94374839096139 0 -109.94374839096139 63.236679399405944 0 0 0 0 -65.628841498823022 -21.154324119037966 0 -21.154324119037966 -22.336863166273531 0 0 0 0 -88.936795840323612 -2.5266655005674252 0 -2.5266655005674252 31.19217587025166 0 0 0 0 -23.510198792632963 -4.6328618849286443 0 -4.6328618849286443 0.88633815765633261 0 0 0 0 -89.890733166786958 2.6228826672951655 0 2.6228826672951655 7.7678109464630296 0 0 0 0 -38.673307624267295 -21.537080723382964 0 -21.537080723382964 -3.8149552726652503 0 0 0 0 -93.865748983233061 -73.868373751042782 0 -73.868373751042782 -14.320521075183365 0 0 0 0 -56.494002854009835 -40.25434672329412 0 -40.25434672329412 11.7365445560669 0 0 0 0 -101.14249675007886 -21.127811040386405 0 -21.127811040386405 82.096955109932424 0 0 0 0 -49.698679103255813 20.199915679674774 0 20.199915679674774 -12.80451011933355 0 0 0 0 -149.02786408095199 54.459677738920618 0 54.459677738920618 398.93897847024436 0 0 0 0 146.16278782550216 23.093057636872857 0 23.093057636872857 -19.226117650032567 0 0 0 0 -275.0408056501692 -220.76051809695855 0 -220.76051809695855 346.39692766378357 0 0 0 0 114.11798368037853 -312.61375711685787 0 -312.61375711685787 -361.3296805993964 0 0 0 0 -137.69198444734502 -337.00485826523573 0 -337.00485826523573 -79.812916708529428 0 0 0 0 2.4243612489808584 -178.56681333748315 0 -178.56681333748315 -61.093286394268034 0 0 0 0 -30.25061286023265 -176.59994235346176 0 -176.59994235346176 159.61275461645528 0 0 0 0 -4292.8886103664554 945.68283862770579 0 945.68283862770579 -356.79599742213992 0 0 0 0 -3369.4931555277981 -397.05531058461548 0 -397.05531058461548 -339.00775914798828 0 0 0 0 -380.3615696511406 1067.4118875347299 0 1067.4118875347299 -1075.6042896184981 0 0 0 0 -14.733688109996251 11.42124292245515 0 11.42124292245515 -9.0233251843527871 0 0 0 0 225.87682510710511 -107.29861411068801 0 -107.29861411068801 -198.38296147501563 0 0 0 0 -455.71007696865126 -726.57394580803589 0 -726.57394580803589 -334.34701795433813 0 0 0 0 -99.637544143275591 425.5934049333128 0 425.5934049333128 285.34286960472275 0 0 0 0 -2984.7108733187779 775.8509021234571 0 775.8509021234571 362.18705334992546 0 0 0 0 -3500.3183809016919 155.3493165128464 0 155.3493165128464 -38.071866478676661 0 0 0 0 -3564.5210702109471 172.03356289950145 0 172.03356289950145 11.957663323456313 0 0 0 0 -3776.7337539679975 21.277700381445918 0 21.277700381445918 234.83674386051962 0 0 0 0 -1499.9963872140215 -221.84352516628729 0 -221.84352516628729 260.6588094359999 0 0 0 0 -4.5367454124725555 2.791359556679879 0 2.791359556679879 0.17791051612222719 0 0 0 0 -58.607165691821137 -214.29375161705741 0 -214.29375161705741 -56.170668184741146 0 0 0 0 -402.69183729733049 -119.55331354287421 0 -119.55331354287421 31.946286466195318 0 0 0 0 -19.290137087490166 0.14384724552914463 0 0.14384724552914463 3.0246850067258606 0 0 0 0 -598.04693836587103 479.01071458512502 0 479.01071458512502 -315.54344713036033 0 0 0 0 -3337.1399831784802 507.128376408713 0 507.128376408713 324.27278424026554 0 0 0 0 -3499.5040109229667 882.09792377386168 0 882.09792377386168 -259.62050928559484 0 0 0 0 -653.07195962050173 686.08883032290714 0 686.08883032290714 -462.27202310056651 0 0 0 0 -4.2661150172703941 4.6362411524831799 0 4.6362411524831799 -4.9427212080330101 0 0 0 0 142.75778680657822 208.64329087772921 0 208.64329087772921 -188.23345076251803 0 0 0 0 -4656.0905801892295 330.4976861185325 0 330.4976861185325 -127.23746039760155 0 0 0 0 -203.94721449700228 8.1157710093356172 0 8.1157710093356172 93.070557484843903 0 0 0 0 9.4637258021175512 -156.92061224878557 0 -156.92061224878557 -66.877344911462728 0 0 0 0 -92.722222218668321 29.076439531611413 0 29.076439531611413 94.102801195847775 0 0 0 0 -69.307656484901599 -2.215218988765173 0 -2.215218988765173 23.937093775404492 0 0 0 0 -28.143280387387478 -21.19402943538946 0 -21.19402943538946 9.7607925482755711 0 0 0 0 -3501.8990295488329 -493.33630591890039 0 -493.33630591890039 32.137679307315608 0 0 0 0 -16.268143199516153 13.249327002188636 0 13.249327002188636 -12.721032738036634 0 0 0 0 -2422.0184448364998 146.34087195112059 0 146.34087195112059 -16.75664484354531 0 0 0 0 -106.2552261714809 -33.138979579345985 0 -33.138979579345985 -7.377732998647704 0 0 0 0 -94.854613401024835 -12.236429847968749 0 -12.236429847968749 -19.779554676967898 0 0 0 0 -152.76382561928767 -44.930222206670287 0 -44.930222206670287 -38.194993471609543 0 0 0 0 -66.018553892761702 -9.5022502864527354 0 -9.5022502864527354 13.702321063593075 0 0 0 0 -67.959199911554606 8.6877660732362614 0 8.6877660732362614 -1.9878078343413819 0 0 0 0 -28.168418521958685 -23.211237448756393 0 -23.211237448756393 7.6605862820422486 0 0 0 0 -16.064576085615556 -1.6404197848294331 0 -1.6404197848294331 -1.997734210135679 0 0 0 0 -53.962842461354739 -11.037604388178636 0 -11.037604388178636 9.7303857242534377 0 0 0 0 -60.522870809152664 -19.725267448300201 0 -19.725267448300201 -0.87521453386829862 0 0 0 0 -26.455458140684641 -13.494599922952887 0 -13.494599922952887 -5.1848408525320338 0 0 0 0 -400.15051822710666 193.26338965112382 0 193.26338965112382 222.18250236245669 0 0 0 0 -8.9587372535279997 -12.991917078710859 0 -12.991917078710859 -1.7233849667996999 0 0 0 0 -16.190142430437845 62.427468782699535 0 62.427468782699535 247.27864238193251 0 0 0 0 0.83793367203011826 0.64758966451974231 0 0.64758966451974231 -2.2886411374173874 0 0 0 0 -323.85881625203183 -124.12337064164299 0 -124.12337064164299 -2.4547252176133725 0 0 0 0 -134.1450489768813 -127.15794381116872 0 -127.15794381116872 18.494154766589645 0 0 0 0 -180.8822975067178 -262.98107189044185 0 -262.98107189044185 396.06956210343196 0 0 0 0 -79.548197895933413 -37.038412561916026 0 -37.038412561916026 -9.8157044730925129 0 0 0 0 -50.628085362946877 -3.7649093750276563 0 -3.7649093750276563 14.976341976921049 0 0 0 0 2.409065242503857 -288.47293228237186 0 -288.47293228237186 301.20328869486639 0 0 0 0 66.587587968341722 -301.91456595161981 0 -301.91456595161981 -240.86299321820934 0 0 0 0 -144.81776649531184 -66.688415687343422 0 -66.688415687343422 176.65515246060477 0 0 0 0 -2727.6236063527613 216.96535996096719 0 216.96535996096719 -16.359167412866956 0 0 0 0 -64.506508807087812 -23.366420730181403 0 -23.366420730181403 49.460351863593587 0 0 0 0 -48.277488945343066 -24.083162221825205 0 -24.083162221825205 0.80467020769242481 0 0 0 0 -29.714378860825839 -11.187019311558728 0 -11.187019311558728 3.8228051944653902 0 0 0 0 -52.172766072115294 -28.797227091825448 0 -28.797227091825448 -14.257081944676649 0 0 0 0 -3494.956828280734 1603.5802088681492 0 1603.5802088681492 -145.96326281258513 0 0 0 0 -30.395661781369199 -12.303275005646356 0 -12.303275005646356 -10.119480556135386 0 0 0 0 -17.277937305101247 -7.601897256846101 0 -7.601897256846101 -11.188775703780038 0 0 0 0 -504.65103818535863 -188.17713770630598 0 -188.17713770630598 680.60205041007885 0 0 0 0 -21.036138077750678 -16.814203564550581 0 -16.814203564550581 -14.665042015368925 0 0 0 0 0.82232806779209966 -1.3382693191583037 0 -1.3382693191583037 -12.732260109639235 0 0 0 0 -6.3853771662779408 -5.3708887581257088 0 -5.3708887581257088 -16.198261611239325 0 0 0 0 -3486.3262274341469 -19.977768618920059 0 -19.977768618920059 -25.862737052806057 0 0 0 0 479.17900417764031 -138.11589914526397 0 -138.11589914526397 -3577.7477828428619 0 0 0 0 -415.31375260173809 -2559.619720255484 0 -2559.619720255484 -4506.2748763655463 0 0 0 0 -3493.7486514890552 -3095.2868682452163 0 -3095.2868682452163 -529.20422991728537 0 0 0 0 -1438.3534885529843 -2913.269876552155 0 -2913.269876552155 499.05483320408769 0 0 0 0 -902.98929651631988 -1621.3909475706189 0 -1621.3909475706189 -911.63916113135394 0 0 0 0 -1058.2465626356161 -796.38259550413352 0 -796.38259550413352 -932.71672947984462 0 0 0 0 -10.744390569067207 -1.4905372416365523 0 -1.4905372416365523 0.060236464453435445 0 0 0 0 529.85973053832367 -43.143022567778416 0 -43.143022567778416 -373.49058027648971 0 0 0 0 -540.17936393447781 -786.42053850697323 0 -786.42053850697323 -2093.1978756146391 0 0 0 0 -483.53756874764372 -1593.9724336761999 0 -1593.9724336761999 -1013.9055479703202 0 0 0 0 136.03564796945466 -579.19659452962355 0 -579.19659452962355 -1102.4730853119272 0 0 0 0 -102.41662953809282 -107.29236737570523 0 -107.29236737570523 -292.15735799418758 0 0 0 0 116.51628264935874 -291.96568214575069 0 -291.96568214575069 -927.87976746942013 0 0 0 0 108.43912836257655 -669.07610723111497 0 -669.07610723111497 -803.73928704102718 0 0 0 0 -576.5434149934772 -352.35905078696112 0 -352.35905078696112 -618.51329694150763 0 0 0 0 -405.65287687844466 -745.20561164412095 0 -745.20561164412095 -1319.1011444500828 0 0 0 0 -2215.7582865852582 -1605.4381200169312 0 -1605.4381200169312 -520.36696087472478 0 0 0 0 -1043.1702093990471 65.745974420953303 0 65.745974420953303 502.37154740119377 0 0 0 0 799.43957103247521 61.791514614851621 0 61.791514614851621 -811.66352895433693 0 0 0 0 1354.8244820943457 -1027.5399691042337 0 -1027.5399691042337 -836.24183378120665 0 0 0 0 -18.322723322591592 -18.755446371647608 0 -18.755446371647608 -11.736023317676 0 0 0 0 -366.84770970324189 -473.49868546427729 0 -473.49868546427729 641.40810992203797 0 0 0 0 -257.49175133841527 -1522.4933437918035 0 -1522.4933437918035 529.81161266846027 0 0 0 0 -1196.5799555762405 459.77116815716926 0 459.77116815716926 131.57946046714343 0 0 0 0 -2163.9814103100616 -235.68279635366423 0 -235.68279635366423 257.22390627835034 0 0 0 0 -1421.3058704559589 135.36055578684227 0 135.36055578684227 -230.90776980692266 0 0 0 0 -992.5242776228406 123.20990749979728 0 123.20990749979728 898.22246860690893 0 0 0 0 -3499.6131253738986 -1648.683418920089 0 -1648.683418920089 1204.4503694291859 0 0 0 0 -1308.596615263159 -1500.5478286492068 0 -1500.5478286492068 593.83239087684137 0 0 0 0 -4865.4181995388317 464.58250819567496 0 464.58250819567496 708.83078493508901 0 0 0 0 990.39991786989049 -2548.0839643684217 0 -2548.0839643684217 -323.21121220598639 0 0 0 0 -8.0820205306492845 -8.7633832918419827 0 -8.7633832918419827 0.030413149407379603 0 0 0 0 388.13043964202717 -36.533508077777654 0 -36.533508077777654 67.491121949148237 0 0 0 0 -203.78452790040501 -124.91420558891764 0 -124.91420558891764 115.14202863030596 0 0 0 0 0.30731699164202342 -0.21693210531797824 0 -0.21693210531797824 7.784939153127862 0 0 0 0 98.42330957758918 -188.48453324857945 0 -188.48453324857945 240.76838265003079 0 0 0 0 -675.00595808067101 -250.28352802733616 0 -250.28352802733616 620.7438337707955 0 0 0 0 -619.1941962453202 -333.64375716216148 0 -333.64375716216148 347.51813376202585 0 0 0 0 -475.90567042980365 -121.13370107718379 0 -121.13370107718379 333.5383176224658 0 0 0 0 -1791.2783038505568 282.06022221770922 0 282.06022221770922 216.5680137803331 0 0 0 0 -7.0665369504559195 -8.4883218870077801 0 -8.4883218870077801 -8.660259577811642 0 0 0 0 -389.75281133186309 -648.04393022090085 0 -648.04393022090085 -699.23342808855 0 0 0 0 -1563.4099243016772 -638.55791923809397 0 -638.55791923809397 264.99751687691378 0 0 0 0 -90.66808038066074 193.14356099160591 0 193.14356099160591 -684.69350909608011 0 0 0 0 -680.34983460766762 -556.98096601021098 0 -556.98096601021098 -211.19317870178293 0 0 0 0 -793.77336438654129 228.43446875984409 0 228.43446875984409 35.082453984417043 0 0 0 0 -66.256352766720511 20.409179311477828 0 20.409179311477828 30.929140547259522 0 0 0 0 204.45202378271551 245.42947404603365 0 245.42947404603365 -46.114824958255213 0 0 0 0 628.694554592043 65.107100296833778 0 65.107100296833778 -284.05676076277018 0 0 0 0 1.3963206121740555 2.3753784957556459 0 2.3753784957556459 24.998932803453997 0 0 0 0 322.70099406168617 140.24239531886289 0 140.24239531886289 42.162878502311287 0 0 0 0 -8.5506478188089901 -0.018515610428275764 0 -0.018515610428275764 46.039365010028334 0 0 0 0 18.620482021083262 186.59689023577994 0 186.59689023577994 324.36994616167613 0 0 0 0 -102.65102871862109 321.69703681730198 0 321.69703681730198 188.71103142147604 0 0 0 0 -54.229118577661737 -16.826086542907252 0 -16.826086542907252 25.635258140831219 0 0 0 0 -77.055262430335404 -21.250749209057233 0 -21.250749209057233 22.852409253957831 0 0 0 0 -60.369740951813583 -26.532831353497158 0 -26.532831353497158 18.126151054170236 0 0 0 0 -7.1866661175298363 -26.315743771991777 0 -26.315743771991777 13.577759370669474 0 0 0 0 -48.262557546035566 -42.593530949082997 0 -42.593530949082997 -1.2515872438943916 0 0 0 0 -92.747121253521982 -43.517060064689758 0 -43.517060064689758 0.34614197273913305 0 0 0 0 -140.47333638177997 -53.255171698616778 0 -53.255171698616778 142.52817537934607 0 0 0 0 -46.862299062424427 -32.92050545989855 0 -32.92050545989855 54.913741830716162 0 0 0 0 -55.74432606821405 -27.76114244530649 0 -27.76114244530649 14.459297091147365 0 0 0 0 -256.36067798832937 135.90063764646129 0 135.90063764646129 454.55252686408039 0 0 0 0 -60.174624951905571 -154.20685459626941 0 -154.20685459626941 196.92758914309385 0 0 0 0 -283.74436654589954 37.615186016357455 0 37.615186016357455 68.480561646498018 0 0 0 0 205.04440788450302 125.58793891945547 0 125.58793891945547 -73.310072268293865 0 0 0 0 -135.54595319048531 15.555672058901084 0 15.555672058901084 142.7581909873461 0 0 0 0 -53.815271818353821 -5.6694806076042745 0 -5.6694806076042745 6.2783228636619031 0 0 0 0 8.411653561732237 -94.798905542512017 0 -94.798905542512017 60.055230580242146 0 0 0 0 -293.67772714635612 -100.12158612117094 0 -100.12158612117094 60.372619636174832 0 0 0 0 -63.679207610475714 5.9942777013086292 0 5.9942777013086292 13.689507016861455 0 0 0 0 -94.546535502711777 44.923689233746103 0 44.923689233746103 23.445144186347179 0 0 0 0 -93.016679189939168 37.137090253670323 0 37.137090253670323 1.5984738960978433 0 0 0 0 -77.256191055070303 54.872668801407016 0 54.872668801407016 -4.3822467977775261 0 0 0 0 -187.41294994222699 24.690371086009435 0 24.690371086009435 17.63966641436663 0 0 0 0 -131.65911602675655 -49.519138261665347 0 -49.519138261665347 80.760244199409499 0 0 0 0 -89.350890152981947 -33.301109762211937 0 -33.301109762211937 43.539967233315565 0 0 0 0 -10.988207395970578 -24.128187456263323 0 -24.128187456263323 26.370327415354605 0 0 0 0 -52.18030721321702 -28.443136371427045 0 -28.443136371427045 30.380200511088219 0 0 0 0 -75.339691970523745 -69.971980953077036 0 -69.971980953077036 27.902452776967039 0 0 0 0 -26.059378882174542 -0.91603659583872155 0 -0.91603659583872155 9.1139897893950028 0 0 0 0 -59.898629180274511 -16.075779044470139 0 -16.075779044470139 4.2273714521634753 0 0 0 0 -73.637065214359609 -38.109714729256609 0 -38.109714729256609 52.111837457270127 0 0 0 0 -50.042048426064184 -10.153299362656675 0 -10.153299362656675 41.527484498614967 0 0 0 0 -19.304368954377424 -123.15080540903926 0 -123.15080540903926 92.797172353840864 0 0 0 0 95.939616343131092 -35.164809595428437 0 -35.164809595428437 11.791154774148069 0 0 0 0 -17.035651171759582 -10.281394814474055 0 -10.281394814474055 23.863749911835725 0 0 0 0 -106.80150426377077 -38.746960958163527 0 -38.746960958163527 -9.6359557864780072 0 0 0 0 -16.530384718916267 -21.644941425326394 0 -21.644941425326394 3.2118852022202056 0 0 0 0 -55.661905435264771 -25.319513451227664 0 -25.319513451227664 24.742933578751035 0 0 0 0 -49.422022716324136 -13.74977409688654 0 -13.74977409688654 15.985137213858252 0 0 0 0 -64.78065951480734 -13.441768948682395 0 -13.441768948682395 28.240157720387643 0 0 0 0 -40.1641954464355 -50.594141884131808 0 -50.594141884131808 32.633752363365517 0 0 0 0 -68.096054133377308 -37.868838010500831 0 -37.868838010500831 34.043659102704623 0 0 0 0 -39.179806277735103 -26.929262905230438 0 -26.929262905230438 14.473001599260847 0 0 0 0 -48.642447597064347 -16.363972028550961 0 -16.363972028550961 56.647087245701186 0 0 0 0 -51.185110851679617 -20.822322322249196 0 -20.822322322249196 4.7261280588949379 0 0 0 0 -79.552524237902617 -50.469685596988711 0 -50.469685596988711 45.392377124690029 0 0 0 0 -73.116370808666034 -57.976875909143018 0 -57.976875909143018 55.395913432588713 0 0 0 0 -110.756908074889 -30.365669082550994 0 -30.365669082550994 53.650891430559568 0 0 0 0 -99.162356668493885 -47.026389639228 0 -47.026389639228 54.109895840560512 0 0 0 0 -75.959309272249811 -7.3110910461982712 0 -7.3110910461982712 61.377082503637212 0 0 0 0 -44.350241656412422 -0.15112810394752429 0 -0.15112810394752429 4.2736871610392679 0 0 0 0 -70.064400580600704 0.47150777013121115 0 0.47150777013121115 43.665328141254577 0 0 0 0 -194.95273024852031 3.6619609985004899 0 3.6619609985004899 -2.8625430335468991 0 0 0 0 -51.722925310492883 34.771501342153442 0 34.771501342153442 73.557592222408857 0 0 0 0 -33.674382968582307 13.015578455910395 0 13.015578455910395 -2.6232690243760857 0 0 0 0 -154.57910641589024 -134.58437084412412 0 -134.58437084412412 -62.394952274407842 0 0 0 0 -85.598197817556866 -79.64475973296112 0 -79.64475973296112 -70.627881746731873 0 0 0 0 -23.725302384162433 96.347684229747244 0 96.347684229747244 142.21601265131721 0 0 0 0 -26.209102976308131 12.470156433619659 0 12.470156433619659 -2.860820171299693 0 0 0 0 -89.226264511486079 14.13811288194313 0 14.13811288194313 75.0251114596158 0 0 0 0 -37.66180771620202 21.581396480194144 0 21.581396480194144 61.374725783422946 0 0 0 0 -132.589671778107 15.019640595221517 0 15.019640595221517 87.701610687790435 0 0 0 0 -51.008827628416384 8.2999914394757752 0 8.2999914394757752 93.808810466655814 0 0 0 0 -45.319092359832666 8.2434978811196515 0 8.2434978811196515 21.512364978265396 0 0 0 0 -115.4775416390512 -35.731892322842896 0 -35.731892322842896 79.353093969349629 0 0 0 0 -242.15756037989559 -10.204598641415942 0 -10.204598641415942 58.217513928819244 0 0 0 0 -113.01392056522491 -44.498317627178949 0 -44.498317627178949 -61.461496927472581 0 0 0 0 -148.58941029355447 -133.57801603940197 0 -133.57801603940197 -57.275601784806895 0 0 0 0 -37.992563106664576 13.967449780051821 0 13.967449780051821 47.92467473028546 0 0 0 0 -3.0803130803101837 -0.66942044390151434 0 -0.66942044390151434 5.7136116296341948 0 0 0 0 -68.019526252988726 -61.033502247026263 0 -61.033502247026263 -10.114415935360739 0 0 0 0 -130.00083979845385 -80.581103424986395 0 -80.581103424986395 18.980215388970464 0 0 0 0 -151.24187895489558 -19.478053613593147 0 -19.478053613593147 66.769869172209155 0 0 0 0 -112.68880883663996 -20.031533048853476 0 -20.031533048853476 38.808895242966173 0 0 0 0 -461.85133263449643 -50.510420288422324 0 -50.510420288422324 145.46268641063125 0 0 0 0 -415.80337615461212 7.8604056446461072 0 7.8604056446461072 127.61054125093142 0 0 0 0 -408.14436583975839 17.495111892186287 0 17.495111892186287 118.26289980502122 0 0 0 0 -258.60654701476415 -34.33559971980003 0 -34.33559971980003 35.834840558582073 0 0 0 0 -417.02344380222712 -139.89735348241811 0 -139.89735348241811 -18.1209964964346 0 0 0 0 -257.83361708830853 -39.156279893786859 0 -39.156279893786859 -4.260961471904011 0 0 0 0 -43.146412253416202 20.332784983271722 0 20.332784983271722 12.221606008375602 0 0 0 0 -48.133651918906253 -100.63799344805648 0 -100.63799344805648 -58.864744692491513 0 0 0 0 -104.19332005213619 -53.600492950137777 0 -53.600492950137777 -94.821496123572615 0 0 0 0 -118.27077017543706 -113.06919971265006 0 -113.06919971265006 -83.238756846022625 0 0 0 0 -14.593502122390419 101.203270975436 0 101.203270975436 232.16187794502957 0 0 0 0 6.3810333896108204 50.38042383258653 0 50.38042383258653 82.775940347282358 0 0 0 0 49.584296916295557 78.476204185863736 0 78.476204185863736 117.17096199583375 0 0 0 0 -242.62825278399396 -140.03678286937156 0 -140.03678286937156 -141.11122446140439 0 0 0 0 -22.19104649590038 9.7297395352083083 0 9.7297395352083083 -1.5697033278453674 0 0 0 0 -244.22184633268489 -131.95871700669719 0 -131.95871700669719 -98.735582458124554 0 0 0 0 -477.64065684959496 -314.6614186773063 0 -314.6614186773063 -216.18801361154055 0 0 0 0 -15.623518742795277 6.9734256781257002 0 6.9734256781257002 -1.541234243572589 0 0 0 0 26.510733242992501 243.60967057840162 0 243.60967057840162 364.24052866465172 0 0 0 0 -477.56657719439079 -196.15432870495044 0 -196.15432870495044 -14.335438834745219 0 0 0 0 -237.61952564002695 579.59829938547432 0 579.59829938547432 207.58325369148997 0 0 0 0 30.76712563872934 58.493161075091763 0 58.493161075091763 -83.387747564197866 0 0 0 0 -5.1480778636316913 2.7484305451043607 0 2.7484305451043607 -1.9909800636942254 0 0 0 0 -81.038663032990371 24.16744419998372 0 24.16744419998372 239.44567834359441 0 0 0 0 -7.9909903529410258 -23.994413532963051 0 -23.994413532963051 -21.317004009270022 0 0 0 0 -83.015839341069295 45.751216332271269 0 45.751216332271269 163.47422715525636 0 0 0 0 -86.521943822516874 -56.294752496641067 0 -56.294752496641067 30.8971317671203 0 0 0 0 -166.49648687275567 -16.318776283557099 0 -16.318776283557099 27.697710729634991 0 0 0 0 -176.49424497237487 108.53123094267187 0 108.53123094267187 -109.71168851564732 0 0 0 0 -120.83746104345346 79.337263765499017 0 79.337263765499017 -144.55292222653853 0 0 0 0 -162.48667421020582 76.397363054489261 0 76.397363054489261 -46.382217429884477 0 0 0 0 -94.202130743018643 93.320310316324395 0 93.320310316324395 -198.21710639025889 0 0 0 0 -215.19541615037815 248.64313261237589 0 248.64313261237589 -299.13152304821051 0 0 0 0 -487.97567701114167 316.23140143390867 0 316.23140143390867 -292.60792066649333 0 0 0 0 -355.57917861141505 155.1978448890747 0 155.1978448890747 -319.95081596956538 0 0 0 0 -260.98527273684704 285.47180350906518 0 285.47180350906518 -205.64609082132574 0 0 0 0 -33.38865892543982 -22.164167257102484 0 -22.164167257102484 47.840660758006379 0 0 0 0 -150.11545885493433 -3.0190421902251501 0 -3.0190421902251501 60.685674710807348 0 0 0 0 -150.24751776917992 -91.04417280308482 0 -91.04417280308482 43.064304435272788 0 0 0 0 -117.21161488947746 -69.845456210420139 0 -69.845456210420139 35.897359144922348 0 0 0 0 -107.43009830831852 -13.776014684923439 0 -13.776014684923439 117.08512839747095 0 0 0 0 -137.01009593947219 -75.134372201271958 0 -75.134372201271958 62.129535551846175 0 0 0 0 -130.43025578523293 -33.971934384722168 0 -33.971934384722168 -11.538324827069424 0 0 0 0 -203.01869554205132 107.08197948863858 0 107.08197948863858 -58.82369647279711 0 0 0 0 -157.10652368540013 -37.472495839418386 0 -37.472495839418386 67.117174339438506 0 0 0 0 -130.73027133131654 97.762871036439151 0 97.762871036439151 136.62615837846533 0 0 0 0 -112.02712815500445 -85.165202065025042 0 -85.165202065025042 112.45610080988411 0 0 0 0 -49.909054588109029 -18.307932531961626 0 -18.307932531961626 52.008019175102319 0 0 0 0 -117.46360927690421 227.58162444299478 0 227.58162444299478 601.85082199729675 0 0 0 0 -105.29376887849003 113.35850970485131 0 113.35850970485131 32.127181878124247 0 0 0 0 25.319473527257287 235.08041908586074 0 235.08041908586074 53.933703182729914 0 0 0 0 53.43325342353728 327.45341657311133 0 327.45341657311133 -399.73404310693149 0 0 0 0 181.61691653000526 41.523936325204659 0 41.523936325204659 -419.94725474234292 0 0 0 0 92.93841160034026 33.184284562275934 0 33.184284562275934 -130.26062837330664 0 0 0 0 -44.88290115604741 110.553112748324 0 110.553112748324 -148.37607898376075 0 0 0 0 -45.971750368184985 62.083324539208206 0 62.083324539208206 -104.27027563534421 0 0 0 0 30.774941312070951 99.574914901526881 0 99.574914901526881 -147.23022892682854 0 0 0 0 -55.904498912820145 130.45127595456657 0 130.45127595456657 -105.74793496976235 0 0 0 0 -154.12288255039402 22.212485730529693 0 22.212485730529693 -8.6896888746489367 0 0 0 0 -318.75164245820133 261.13356277873129 0 261.13356277873129 -237.54966990384059 0 0 0 0 -203.13830941239303 81.743115244710907 0 81.743115244710907 -111.04585099820997 0 0 0 0 -157.85336156101403 122.61237200329151 0 122.61237200329151 -99.150028987306086 0 0 0 0 -169.98484513136464 157.09263399005295 0 157.09263399005295 -163.75320617303328 0 0 0 0 -388.8217075930429 130.51200965863359 0 130.51200965863359 -36.326151575077347 0 0 0 0 -231.34635374455502 135.72181832369597 0 135.72181832369597 2.028187763110509 0 0 0 0 -324.35649527740452 219.88395910048121 0 219.88395910048121 -53.204999544856946 0 0 0 0 -218.20630695481123 156.18824884498099 0 156.18824884498099 3.9731557637605874 0 0 0 0 98.842963116710962 37.930979077212214 0 37.930979077212214 -40.692626693803049 0 0 0 0 -28.186296261246753 25.25868926542671 0 25.25868926542671 -14.021824822175404 0 0 0 0 61.518695721670156 52.136688103007828 0 52.136688103007828 -134.97138470383379 0 0 0 0 -76.881683011155019 111.77263522156932 0 111.77263522156932 -95.806910668698038 0 0 0 0 -140.77838070316375 72.830592437925588 0 72.830592437925588 -53.785415520948845 0 0 0 0 -446.1615110393177 354.1063669289374 0 354.1063669289374 -254.33546457418151 0 0 0 0 -396.38639274292018 263.67270689500947 0 263.67270689500947 -105.57838992990582 0 0 0 0 -323.62332763542418 295.04994088450087 0 295.04994088450087 -355.75006791256556 0 0 0 0 -313.44789353117039 252.84793351022645 0 252.84793351022645 -234.53481760063028 0 0 0 0 -251.72413702845915 281.31469461252277 0 281.31469461252277 -270.84079488958491 0 0 0 0 -218.00600887698783 55.251349546683059 0 55.251349546683059 -141.74921443282847 0 0 0 0 -245.6071673328961 260.31045483804564 0 260.31045483804564 -199.92638191420883 0 0 0 0 -301.49370708394054 229.65621995894503 0 229.65621995894503 -206.09317370801273 0 0 0 0 -795.31610847047978 224.5120335944564 0 224.5120335944564 -15.508677509482368 0 0 0 0 -0.52849194484194917 0.037567138685467683 0 0.037567138685467683 -1.9341908438611704 0 0 0 0 -513.42878457560801 271.92342397268521 0 271.92342397268521 22.406415948221138 0 0 0 0 142.96146331777061 164.53392843730228 0 164.53392843730228 -194.01177313656672 0 0 0 0 -426.92120345819239 328.28708477644739 0 328.28708477644739 -70.745714240487359 0 0 0 0 -360.87773417601238 137.34325319395839 0 137.34325319395839 59.223343718331762 0 0 0 0 -513.71676880247469 319.71000733460096 0 319.71000733460096 -9.9531997995418351 0 0 0 0 -487.78817595106375 359.63801101837635 0 359.63801101837635 -83.118794422007454 0 0 0 0 -503.10054117969412 348.86337414973013 0 348.86337414973013 -45.075573177468868 0 0 0 0 -525.52138651405039 417.7910882005126 0 417.7910882005126 -402.2675815472594 0 0 0 0 -808.63331368465515 483.66309261250353 0 483.66309261250353 -291.19265299602154 0 0 0 0 -607.87236421073612 387.83963124771515 0 387.83963124771515 -287.28466308812494 0 0 0 0 -620.52809859432432 505.99223997609573 0 505.99223997609573 -312.02789691365797 0 0 0 0 -554.95730634779102 384.14101913099421 0 384.14101913099421 -130.17878052776587 0 0 0 0 -610.32513427529921 372.44959304018266 0 372.44959304018266 -25.896343524266968 0 0 0 0 -547.53482150910168 397.68070559853686 0 397.68070559853686 -128.26923532712135 0 0 0 0 -484.32913416246538 275.21583115117164 0 275.21583115117164 -64.884106970365792 0 0 0 0 -626.57502118385128 387.39857020612772 0 387.39857020612772 -286.22719727704862 0 0 0 0 -720.8068670924913 388.24706547945971 0 388.24706547945971 -65.713415801041833 0 0 0 0 -731.00416641526135 187.26059373847329 0 187.26059373847329 28.69820462490452 0 0 0 0 -208.98229613623062 147.79195919607218 0 147.79195919607218 -90.625092555070296 0 0 0 0 -0.62547510920237626 1.8874622326385229 0 1.8874622326385229 -4.342590672922924 0 0 0 0 -377.24054231049206 173.59638067946076 0 173.59638067946076 31.054779072419478 0 0 0 0 -306.37621384588783 110.85265806028474 0 110.85265806028474 76.687310862905633 0 0 0 0 -210.35090687765205 350.78182621527503 0 350.78182621527503 -316.36317070418772 0 0 0 0 126.68592094970914 119.73060024871162 0 119.73060024871162 -207.64960839914784 0 0 0 0 -0.66462870948086117 0.69799601208984896 0 0.69799601208984896 -2.3874158964847929 0 0 0 0 -582.27527579478192 340.46603598557158 0 340.46603598557158 -291.57624701909526 0 0 0 0 -622.43424987550952 259.063331956105 0 259.063331956105 -68.29737755439055 0 0 0 0 -633.83664846387546 362.8923442934356 0 362.8923442934356 -343.83377182631261 0 0 0 0 -708.93519918840138 297.96812954040161 0 297.96812954040161 25.899205021863963 0 0 0 0 -719.8352014289103 489.8828648442468 0 489.8828648442468 -353.44791524167857 0 0 0 0 -975.91092860938204 420.92475175498538 0 420.92475175498538 -193.47383692389485 0 0 0 0 -710.47090623533882 422.73778717498249 0 422.73778717498249 -369.26484617763708 0 0 0 0 -762.11836367071373 374.81608955484171 0 374.81608955484171 -267.90190908137174 0 0 0 0 -701.94949399338657 441.27903562719393 0 441.27903562719393 -451.94003080295442 0 0 0 0 -1049.4990892437163 532.51995545798854 0 532.51995545798854 -297.71207595712076 0 0 0 0 -813.35399886694995 366.10844391447267 0 366.10844391447267 -237.830222086508 0 0 0 0 -817.31475932572357 409.99227892244471 0 409.99227892244471 -255.58730270130764 0 0 0 0 -689.24225405006291 395.16528102565826 0 395.16528102565826 -253.89441597763425 0 0 0 0 -380.6153950730295 18.005928607395617 0 18.005928607395617 208.14811584629092 0 0 0 0 -814.54942760232734 331.71444619481827 0 331.71444619481827 253.82176774435356 0 0 0 0 -687.23246542553238 233.18390639739857 0 233.18390639739857 -181.82039609760977 0 0 0 0 -926.97368508288491 367.79671401072846 0 367.79671401072846 -228.22474045146373 0 0 0 0 -744.50721175346189 682.46470816018996 0 682.46470816018996 -195.08462828069605 0 0 0 0 -4.2006287636596085 3.5246115673623866 0 3.5246115673623866 3.2995598754883257 0 0 0 0 -117.63507808570284 -274.20946022413227 0 -274.20946022413227 640.42715962523289 0 0 0 0 -492.36045838885548 38.591111346539037 0 38.591111346539037 519.72418436696535 0 0 0 0 -446.18605322317308 -103.84204933189721 0 -103.84204933189721 436.4965457046892 0 0 0 0 -0.85987803886200709 43.510002429388351 0 43.510002429388351 542.45769327042217 0 0 0 0 -3.4674194828045728 1.3683066100514809 0 1.3683066100514809 2.8222102552630837 0 0 0 0 -913.78594120478283 849.89550283186577 0 849.89550283186577 -658.64912521702354 0 0 0 0 -94.373678005915281 -89.024636897180244 0 -89.024636897180244 38.267403828635906 0 0 0 0 -595.34246043758139 557.34684757090145 0 557.34684757090145 -639.40316744580741 0 0 0 0 -89.983193359507823 -41.499277084213645 0 -41.499277084213645 70.814682877703035 0 0 0 0 -335.87995727219095 93.817853059294066 0 93.817853059294066 -56.864411408798787 0 0 0 0 -2.6781876287246575 3.9501748627483924 0 3.9501748627483924 -4.5973825453627075 0 0 0 0 -4.2545950969592958 7.2595841272193482 0 7.2595841272193482 -10.257512768257886 0 0 0 0 -8.6098700309516971 4.1340803361507596 0 4.1340803361507596 -8.5820032821002314 0 0 0 0 -105.68333684466597 63.994354949870285 0 63.994354949870285 64.921431677566034 0 0 0 0 31.229898218850394 107.29640507795398 0 107.29640507795398 5.6719019726770057 0 0 0 0 -289.80213903110734 120.32297874321534 0 120.32297874321534 69.932989820004877 0 0 0 0 -104.86703846114597 61.827231772028881 0 61.827231772028881 12.005664858152159 0 0 0 0 -355.48501744489204 166.69963189864984 0 166.69963189864984 52.040013746743625 0 0 0 0 -337.56553585187976 188.30674222784501 0 188.30674222784501 -3.5666337869911331 0 0 0 0 -351.94455173872666 177.76594022563995 0 177.76594022563995 23.106544908825526 0 0 0 0 -413.70306718303073 235.65586793987495 0 235.65586793987495 -28.45546252198892 0 0 0 0 -304.90757758500058 175.67139706872649 0 175.67139706872649 4.0191344910886073 0 0 0 0 -392.14315434959099 151.87113289497574 0 151.87113289497574 10.968781115433103 0 0 0 0 -273.41000723873503 139.23623265258766 0 139.23623265258766 7.2264609447520343 0 0 0 0 -370.08487923640041 137.4153196205657 0 137.4153196205657 -53.940204042637561 0 0 0 0 -566.87108040161456 240.20944244028306 0 240.20944244028306 -89.300686490165845 0 0 0 0 -237.73786225871027 147.92488164040878 0 147.92488164040878 -203.9398675526445 0 0 0 0 -323.98298299344151 304.38803197853395 0 304.38803197853395 -449.25039361677955 0 0 0 0 -326.41625438636765 86.386631589144599 0 86.386631589144599 -464.94045607271977 0 0 0 0 -139.33265353390766 -414.42447718703988 0 -414.42447718703988 -696.14603740242092 0 0 0 0 0.034101969972489599 1.0430159303739899 0 1.0430159303739899 -9.2859717093716014 0 0 0 0 -998.06325329106039 456.03463009579764 0 456.03463009579764 -306.50449373056063 0 0 0 0 -429.61466084689118 75.468369757101073 0 75.468369757101073 -76.703170419172238 0 0 0 0 -283.2278441293347 116.06811259591996 0 116.06811259591996 -83.117630049971012 0 0 0 0 -1.9668392994599149 8.0370882986067826 0 8.0370882986067826 -21.402842847462068 0 0 0 0 11.91114796400143 37.82523281362802 0 37.82523281362802 -99.176914547548677 0 0 0 0 -13.615422677732489 7.3807659976109257 0 7.3807659976109257 1.2411529701464814 0 0 0 0 -22.34550728727433 -28.885720016887035 0 -28.885720016887035 -227.02531520439015 0 0 0 0 179.18356132525241 -26.279177181815612 0 -26.279177181815612 -227.57743853457578 0 0 0 0 588.00054330242801 108.41986527499967 0 108.41986527499967 -406.92179980431661 0 0 0 0 123.18550846775383 110.31419607401017 0 110.31419607401017 -296.34749862956505 0 0 0 0 824.37227799594712 389.09806180596752 0 389.09806180596752 -235.15171338360233 0 0 0 0 226.94870625896328 579.82403900903046 0 579.82403900903046 -181.72018745507376 0 0 0 0 814.65093069377281 499.38680898580787 0 499.38680898580787 -958.28755968986763 0 0 0 0 334.72759708055855 1848.4821199054886 0 1848.4821199054886 -623.26456585504093 0 0 0 0 -211.60995086971343 -308.01504312144721 0 -308.01504312144721 228.34772028501857 0 0 0 0 -29.656400080785833 -1.3749387943046329 0 -1.3749387943046329 2.4400816784860475 0 0 0 0 155.12681543515646 756.14059934425939 0 756.14059934425939 1313.358181304131 0 0 0 0 101.96263052095139 -90.483929692316451 0 -90.483929692316451 -265.72868207615829 0 0 0 0 -153.31554657539255 178.92969761949757 0 178.92969761949757 -198.75808431267365 0 0 0 0 362.63505153904134 489.51394930895617 0 489.51394930895617 -243.99977214634475 0 0 0 0 -7.295137703783098 -1.3010902366864627 0 -1.3010902366864627 -0.25565520912090633 0 0 0 0 -4.0258415295918377 0.6558749389008085 0 0.6558749389008085 -6.4347667703410121 0 0 0 0 -15.783756119898044 7.2533266801017362 0 7.2533266801017362 -8.0435413531702125 0 0 0 0 -1.2811433146373474 123.94207727350158 0 123.94207727350158 -271.38976410750627 0 0 0 0 -310.26257753878463 73.789199164360525 0 73.789199164360525 85.846835694325875 0 0 0 0 -429.36362554280419 520.06117673414826 0 520.06117673414826 -562.93193900678898 0 0 0 0 -647.53738506406671 328.89665424372555 0 328.89665424372555 -30.364776813294554 0 0 0 0 -775.34369020972633 27.916740585078117 0 27.916740585078117 113.90580951348932 0 0 0 0 -1476.3573812144211 -328.89610769871484 0 -328.89610769871484 -240.64019792430207 0 0 0 0 -916.91545466141679 346.23519285578072 0 346.23519285578072 -169.79569456072159 0 0 0 0 -1679.9545359019385 65.085943444677525 0 65.085943444677525 116.34499684154298 0 0 0 0 -1347.5333209938517 132.41652773682404 0 132.41652773682404 -128.99781600241437 0 0 0 0 -2738.3102441483657 537.79358923436757 0 537.79358923436757 164.96036247176789 0 0 0 0 -2900.3873523633097 -754.94877859000042 0 -754.94877859000042 -74.525675240119654 0 0 0 0 -2553.6921949095358 -519.2290220187565 0 -519.2290220187565 59.223389477754552 0 0 0 0 -2315.6723798697894 -183.80693067057609 0 -183.80693067057609 -44.480263966858274 0 0 0 0 -2945.1362365793766 -1500.3091769671701 0 -1500.3091769671701 -1549.9657558277822 0 0 0 0 -4640.3826283295311 -841.75261650548055 0 -841.75261650548055 -78.3431018021748 0 0 0 0 -3049.5664142319729 1186.8103116105617 0 1186.8103116105617 -359.2427015125304 0 0 0 0 -583.74701459153084 790.85994734524377 0 790.85994734524377 -506.61805375140284 0 0 0 0 -3263.9897893696652 -1152.6751769463133 0 -1152.6751769463133 -1017.8157168653385 0 0 0 0 -17.6141624830951 -2.8214805627130328 0 -2.8214805627130328 0.47782646983804877 0 0 0 0 -1777.8141128308548 -2976.115948276899 0 -2976.115948276899 -417.99339101673559 0 0 0 0 -2799.2399263452262 -726.22941507090843 0 -726.22941507090843 -663.88971168112857 0 0 0 0 -3208.744838421032 -240.69149322617704 0 -240.69149322617704 -1443.0975105963785 0 0 0 0 -3755.5444248655926 -563.19451719185838 0 -563.19451719185838 -469.56274617517829 0 0 0 0 -2413.5501119973196 -1186.0916131756569 0 -1186.0916131756569 -960.98414590150446 0 0 0 0 -2767.4102438045197 -663.57136470177443 0 -663.57136470177443 -489.74680310842439 0 0 0 0 -2802.8427669406565 -799.50911518017438 0 -799.50911518017438 -702.33866011185819 0 0 0 0 -1895.1196906782229 -728.43211454205641 0 -728.43211454205641 -591.56818745500516 0 0 0 0 -2368.0729176083996 -1018.8917146791173 0 -1018.8917146791173 -402.71541237975703 0 0 0 0 -2774.6402034894809 -1323.8821924475692 0 -1323.8821924475692 -631.33882103448957 0 0 0 0 -2466.7826873336144 -1092.3915755566597 0 -1092.3915755566597 -674.24612798718431 0 0 0 0 -2706.8220833802652 -1039.7899189469431 0 -1039.7899189469431 -683.42410876474196 0 0 0 0 -3498.4295298288416 -729.99260773096535 0 -729.99260773096535 143.32370989353794 0 0 0 0 -4.0982589829511635 -0.69625987743711981 0 -0.69625987743711981 -3.1151512269660548 0 0 0 0 -2337.2362181740195 -747.20060204832907 0 -747.20060204832907 -33.079551693497052 0 0 0 0 -3501.7262447251392 -1313.7575867425428 0 -1313.7575867425428 -294.55164252242884 0 0 0 0 -2045.4568547257127 -1417.8317919627855 0 -1417.8317919627855 -558.10253989141177 0 0 0 0 -2703.1690747474718 -1244.6862127653251 0 -1244.6862127653251 -445.22176901690864 0 0 0 0 -2642.5732072387013 -1668.2504962988637 0 -1668.2504962988637 -278.08912664378556 0 0 0 0 -2123.224654269341 -804.33793002420407 0 -804.33793002420407 -434.78393237457976 0 0 0 0 -2191.2707177420571 -1197.1353091419635 0 -1197.1353091419635 -737.97522496581632 0 0 0 0 -2294.372103767455 -1199.29855100195 0 -1199.29855100195 -497.42288562495708 0 0 0 0 -1999.764047405617 -841.1855472545974 0 -841.1855472545974 -370.08185871695605 0 0 0 0 -1757.6045765208435 -919.53587277938755 0 -919.53587277938755 -400.52917965496545 0 0 0 0 -1853.0192899856975 -545.661372737492 0 -545.661372737492 -78.914768138306727 0 0 0 0 -1606.2723818250502 -367.84326429235159 0 -367.84326429235159 2.5024919390093601 0 0 0 0 -1207.6165604202552 -668.20768529846475 0 -668.20768529846475 -338.18270841326773 0 0 0 0 -1699.8618145756268 -1215.0344256897774 0 -1215.0344256897774 -251.6055411143825 0 0 0 0 -885.1718525616327 -361.81689415849962 0 -361.81689415849962 -138.02565700952641 0 0 0 0 -2190.2881358840386 -2221.8097000157704 0 -2221.8097000157704 -999.31690230694824 0 0 0 0 -3490.6763167845875 -1834.8515128532583 0 -1834.8515128532583 -266.44702194340925 0 0 0 0 -1860.8191233116058 -1077.6582832379772 0 -1077.6582832379772 -366.85135018000113 0 0 0 0 -1946.2550135668407 -733.88702855609722 0 -733.88702855609722 -73.725822439962371 0 0 0 0 -1836.894102092514 -526.79520829482226 0 -526.79520829482226 -424.11997233728835 0 0 0 0 1345.2207253794677 -1339.6964995177514 0 -1339.6964995177514 -1414.81072947297 0 0 0 0 -98.580219065253914 -1641.5928996458422 0 -1641.5928996458422 -1128.8637865862863 0 0 0 0 -7.4047640224791884 -8.555674103286627 0 -8.555674103286627 -5.6004836281312098 0 0 0 0 -3500.2373614592475 995.54366937780162 0 995.54366937780162 -27.706341498543871 0 0 0 0 335.92081442545259 -65.435239778989853 0 -65.435239778989853 -561.6533034062245 0 0 0 0 -2916.2639737675891 -797.3284649466367 0 -797.3284649466367 1091.640188193312 0 0 0 0 -3211.4798365798952 309.96742049490155 0 309.96742049490155 874.23254412751942 0 0 0 0 -1740.8965649968459 -851.93202740433799 0 -851.93202740433799 586.01731927582637 0 0 0 0 -2772.7926135553971 -111.41244973266463 0 -111.41244973266463 871.87381288750032 0 0 0 0 -3498.0613279974168 995.07012020871298 0 995.07012020871298 -27.951608845175713 0 0 0 0 -16.167607864911329 -19.322440262526438 0 -19.322440262526438 -4.1009720366376614 0 0 0 0 -718.95447999873431 -407.57532766844611 0 -407.57532766844611 462.76140205278148 0 0 0 0 -696.51237760894946 -65.124030662482255 0 -65.124030662482255 239.92897839006537 0 0 0 0 -997.61452111850849 -1351.9980685151336 0 -1351.9980685151336 302.9444518269579 0 0 0 0 -10.725006926115377 -9.3288418308004335 0 -9.3288418308004335 -4.6446126297164358 0 0 0 0 835.65818221165046 -1315.9884888172178 0 -1315.9884888172178 184.26848238182151 0 0 0 0 -1849.8683365577381 204.28358677850233 0 204.28358677850233 797.6215139492424 0 0 0 0 -122.51492611735625 -5.8626910518249815 0 -5.8626910518249815 602.75733875626656 0 0 0 0 -1038.7086870449789 -306.0040295877526 0 -306.0040295877526 549.19465383244074 0 0 0 0 -790.69732717332317 -38.21986249961023 0 -38.21986249961023 498.0765549116993 0 0 0 0 -861.64405285302473 -196.15569111689592 0 -196.15569111689592 281.07114968762266 0 0 0 0 -858.02012066493171 -113.64713085938965 0 -113.64713085938965 143.07237432926331 0 0 0 0 -681.17536672111237 -93.377859827771772 0 -93.377859827771772 62.070864168962544 0 0 0 0 -659.19627745214984 -357.70142895252343 0 -357.70142895252343 370.29194916106644 0 0 0 0 -943.90360178595984 -380.6222905555644 0 -380.6222905555644 437.17118199599986 0 0 0 0 -288.52768084795025 -527.46185543914612 0 -527.46185543914612 454.46159592132381 0 0 0 0 -635.11718069568815 -203.58638209111507 0 -203.58638209111507 155.91764393555286 0 0 0 0 395.51688269641954 166.14696625417912 0 166.14696625417912 -28.430782471032671 0 0 0 0 -472.38872324057957 40.856752582271838 0 40.856752582271838 -42.115081078363801 0 0 0 0 -809.617450589491 455.20507846347755 0 455.20507846347755 -266.76590438628773 0 0 0 0 -280.98781052052527 13.427400777183038 0 13.427400777183038 -471.49273382116689 0 0 0 0 -871.54706200867349 356.37683121277473 0 356.37683121277473 -422.34092833794512 0 0 0 0 -509.18969519435632 -279.27913219711581 0 -279.27913219711581 58.502360274302873 0 0 0 0 -588.79802166609215 68.671608283331807 0 68.671608283331807 -261.92518740485457 0 0 0 0 -706.85420313255872 31.623205611322646 0 31.623205611322646 -208.32578677333936 0 0 0 0 -763.59069061628088 208.20583537427672 0 208.20583537427672 -68.330317503430251 0 0 0 0 -811.90178993621885 303.93280185275171 0 303.93280185275171 -244.46825649616696 0 0 0 0 -776.77947554655566 41.154046983535636 0 41.154046983535636 85.516546459749549 0 0 0 0 -768.21118937729955 232.09794152647086 0 232.09794152647086 -47.831450523954118 0 0 0 0 -1.4205801753683849 0.58954572306935216 0 0.58954572306935216 -4.0742861645750832 0 0 0 0 208.07771859805825 -78.285634046439782 0 -78.285634046439782 -187.05788382929313 0 0 0 0 -0.1385052750779785 -0.70679593629604565 0 -0.70679593629604565 -1.6638277527169585 0 0 0 0 -1142.1623588422494 209.2643569959148 0 209.2643569959148 59.022817124293397 0 0 0 0 55.448340019766874 35.342835550977952 0 35.342835550977952 65.43539653143489 0 0 0 0 144.45029487547185 120.45858412110715 0 120.45858412110715 -31.380281087262119 0 0 0 0 -10.921018795437931 2.4279941500191171 0 2.4279941500191171 -9.5207638186468557 0 0 0 0 -0.62290385966525497 0.34901811978724684 0 0.34901811978724684 -6.7965740136847792 0 0 0 0 -371.79841802095382 122.04653505880131 0 122.04653505880131 -119.09893978546279 0 0 0 0 -1.8051470865538617 3.6821230595532883 0 3.6821230595532883 -7.5901403786084956 0 0 0 0 -957.6818372849948 192.08774670632545 0 192.08774670632545 59.855137271656531 0 0 0 0 -946.33916057492206 62.946482155060494 0 62.946482155060494 -84.22366172559623 0 0 0 0 -1128.2667933346384 20.95845892571117 0 20.95845892571117 253.23079815097211 0 0 0 0 -908.64253745810743 151.93066223050829 0 151.93066223050829 -27.086301172763342 0 0 0 0 -866.03199650430543 107.4562557232108 0 107.4562557232108 -12.949400198693183 0 0 0 0 -1359.7465297611761 193.49982910860399 0 193.49982910860399 146.80504494413299 0 0 0 0 -1430.7884318536162 84.73384919636419 0 84.73384919636419 -18.597065131580621 0 0 0 0 -9.1224453237007168 -2.8299311195801025 0 -2.8299311195801025 -1.1828938744898192 0 0 0 0 -656.51727080511409 706.4008422866109 0 706.4008422866109 -547.63431023533576 0 0 0 0 -1692.5472225837912 509.95232311874634 0 509.95232311874634 -128.18170255737186 0 0 0 0 -665.50045396949963 -723.53979435321116 0 -723.53979435321116 412.6327011168321 0 0 0 0 -1703.9651105385728 1245.7126121041981 0 1245.7126121041981 -823.63404530305525 0 0 0 0 -16.922836417177681 -0.89221018036712074 0 -0.89221018036712074 -0.23300317025309081 0 0 0 0 -2484.5687680630772 121.15490338818199 0 121.15490338818199 52.439336025035118 0 0 0 0 -1058.571131031671 -40.552098872411079 0 -40.552098872411079 -942.6154735105647 0 0 0 0 -1276.1509573288658 848.79851665903152 0 848.79851665903152 -480.05327827371048 0 0 0 0 -117.20817435678418 261.70604096347961 0 261.70604096347961 -372.22534208492243 0 0 0 0 -248.12622057127919 19.798521183176035 0 19.798521183176035 -230.64449700297519 0 0 0 0 395.64434024962065 -12.232699886995761 0 -12.232699886995761 -452.79999025328743 0 0 0 0 -712.13086028071939 522.7920639566596 0 522.7920639566596 -194.40533348497411 0 0 0 0 142.47754112256371 -273.31687369288557 0 -273.31687369288557 17.261260029712048 0 0 0 0 126.9235732747311 46.974764102563313 0 46.974764102563313 -155.74251498174272 0 0 0 0 -101.76083229938467 37.003765805072362 0 37.003765805072362 -89.805521195227811 0 0 0 0 -22.082452046914113 -16.14380675845905 0 -16.14380675845905 5.1406034540918881 0 0 0 0 -16.399619330753424 -10.467174154723882 0 -10.467174154723882 -4.7095059379685171 0 0 0 0 58.811408899142407 -192.0733740217529 0 -192.0733740217529 213.33297669624517 0 0 0 0 -6.473600668789004 -11.438268603541474 0 -11.438268603541474 -2.0779849665505026 0 0 0 0 8.6574204477246894 458.41830550070881 0 458.41830550070881 -371.51795721157396 0 0 0 0 -45.508218967868743 6.172611755950129 0 6.172611755950129 -24.184281224501319 0 0 0 0 -27.798739553672931 -14.286175879723032 0 -14.286175879723032 -24.75594746896877 0 0 0 0 -0.38595807549063466 -42.511991275124274 0 -42.511991275124274 -40.322912069962513 0 0 0 0 0.56682868802903386 -4.3707550506955783 0 -4.3707550506955783 -0.48148393903463216 0 0 0 0 -26.078833330200723 -24.371238929861534 0 -24.371238929861534 -9.6769804744326393 0 0 0 0 -15.812008357986247 -13.69107204552494 0 -13.69107204552494 -3.8488026445779973 0 0 0 0 -24.783491537193868 -17.589762067149593 0 -17.589762067149593 2.0937563433362811 0 0 0 0 -38.624443829994561 -9.8923226285733108 0 -9.8923226285733108 3.2894668846784043 0 0 0 0 -24.843406676798622 -16.389050339246751 0 -16.389050339246751 -19.96319669787772 0 0 0 0 -20.908629065608693 -24.165298744423126 0 -24.165298744423126 -13.119595350751297 0 0 0 0 -23.018934055895443 -34.761330800412907 0 -34.761330800412907 -12.331180920897168 0 0 0 0 -35.745729479042375 -39.537288300942791 0 -39.537288300942791 6.4118520209339422 0 0 0 0 -9.5218290853808867 -52.500416775196754 0 -52.500416775196754 0.1968703714737785 0 0 0 0 -7.1547485201226664 -28.337525862139955 0 -28.337525862139955 1.184031965779468 0 0 0 0 -32.428586783766022 -34.813224308298174 0 -34.813224308298174 -9.1238520773845124 0 0 0 0 -68.91142250689154 -39.082424194053601 0 -39.082424194053601 -21.042876122606685 0 0 0 0 20.829733219849004 -65.014345176077768 0 -65.014345176077768 -52.603734177806018 0 0 0 0 -1.5906624195208252 -4.8066839262080236 0 -4.8066839262080236 -1.6252482417547025 0 0 0 0 18.371359362506155 -58.554817760891183 0 -58.554817760891183 -68.73167547556659 0 0 0 0 -224.44221992815255 -194.59790028303541 0 -194.59790028303541 -104.98101962332657 0 0 0 0 -487.31859612322296 -28.391312028649736 0 -28.391312028649736 51.764521259825415 0 0 0 0 -562.09446994765858 63.173005839274083 0 63.173005839274083 148.4431077774334 0 0 0 0 -547.59988352621076 47.751025850523547 0 47.751025850523547 16.170238903486734 0 0 0 0 56.73275539568931 -59.194955290711732 0 -59.194955290711732 -242.62622863735669 0 0 0 0 19.365421236434486 -2.7717849055352417 0 -2.7717849055352417 -159.35769249328791 0 0 0 0 -1773.5285108058106 56.00491403852584 0 56.00491403852584 217.19272245473985 0 0 0 0 -787.89169699793729 -565.23484561987789 0 -565.23484561987789 -75.48305070103379 0 0 0 0 -1087.3952947620073 687.47921167078403 0 687.47921167078403 -334.94832756612777 0 0 0 0 -1475.9996391150326 764.87011522640387 0 764.87011522640387 -15.536491575302534 0 0 0 0 -930.81983561015841 551.26364335631661 0 551.26364335631661 68.139453928907187 0 0 0 0 -1125.7814005149976 340.47980873665529 0 340.47980873665529 110.04006387082427 0 0 0 0 -400.6634634810689 386.6935183712003 0 386.6935183712003 -5.2384666198768173 0 0 0 0 -1101.4416218249717 796.30479473720061 0 796.30479473720061 57.02300203786217 0 0 0 0 -1035.0834711689458 397.72475527104143 0 397.72475527104143 266.37529203451004 0 0 0 0 -1194.5242834965547 678.66681280616831 0 678.66681280616831 -4.0714442920361762 0 0 0 0 -1936.6753309482447 505.39485741199678 0 505.39485741199678 253.63622890475517 0 0 0 0 -676.99257671716759 -119.26302000219255 0 -119.26302000219255 -74.806183743197835 0 0 0 0 -26.523038364781314 13.351308756958133 0 13.351308756958133 -99.049410286498528 0 0 0 0 -898.52868886200577 426.02919145088163 0 426.02919145088163 9.1134003352690343 0 0 0 0 -331.41841987498265 22.282721353446505 0 22.282721353446505 47.006700652245854 0 0 0 0 -479.10212021939697 256.14224926674297 0 256.14224926674297 -23.868838932443396 0 0 0 0 -726.24695935843738 584.62048863093469 0 584.62048863093469 -336.79296541645817 0 0 0 0 -487.11366031504804 238.85197868061096 0 238.85197868061096 -57.040372444322429 0 0 0 0 -1044.2634603554261 523.27606259732897 0 523.27606259732897 68.436727698503091 0 0 0 0 -51.477578780313706 13.909047956380164 0 13.909047956380164 22.583345575183557 0 0 0 0 -18.547929718182704 14.845407635128964 0 14.845407635128964 2.4286031310038716 0 0 0 0 -148.56627784440207 102.8828890751588 0 102.8828890751588 -89.852050110554046 0 0 0 0 38.638454762232868 4.6770774008273293 0 4.6770774008273293 -54.414257423414711 0 0 0 0 6.2935025212645996 -5.6377968745091493 0 -5.6377968745091493 -48.767439876214667 0 0 0 0 0.13996370860056828 -0.5222520525476213 0 -0.5222520525476213 0.61722839610755065 0 0 0 0 -8.2609946859702177 -47.575569908507532 0 -47.575569908507532 -40.902788292110017 0 0 0 0 -24.835671326656136 -8.0777265416781638 0 -8.0777265416781638 12.761230300300411 0 0 0 0 7.2205182749603409 -49.063326678369776 0 -49.063326678369776 15.001193909243739 0 0 0 0 3.8921997547586216 -21.744102972656037 0 -21.744102972656037 13.883795071509667 0 0 0 0 2.1590994806691128 -0.88471432283943585 0 -0.88471432283943585 -0.20649592356438973 0 0 0 0 -44.233687223001297 5.4318828330501425 0 5.4318828330501425 6.5723558383220126 0 0 0 0 -85.740659866040005 -54.353408076410005 0 -54.353408076410005 131.45800299857092 0 0 0 0 5.2928695806646147 -38.35305463975152 0 -38.35305463975152 -3.2980561445019703 0 0 0 0 -19.913594503080276 -54.83251590224927 0 -54.83251590224927 -127.09621947439337 0 0 0 0 -4.0115964296981659 2.5100711901103505 0 2.5100711901103505 1.0289814649104239 0 0 0 0 -35.076230833727095 103.88558775983893 0 103.88558775983893 -66.798447948637659 0 0 0 0 -14.459693327588866 -13.088993887924971 0 -13.088993887924971 5.5882885853905009 0 0 0 0 -223.95759250283277 138.63085692048571 0 138.63085692048571 326.93636183248509 0 0 0 0 13.065688608694927 -18.010691507429783 0 -18.010691507429783 -6.9670471716672182 0 0 0 0 -7.2148117122504791 -2.5017194334946868 0 -2.5017194334946868 1.75747021149723 0 0 0 0 -11.767130811141215 -24.478729575519083 0 -24.478729575519083 25.476094920192281 0 0 0 0 -26.864931998802653 -11.680042948500267 0 -11.680042948500267 12.104298554594951 0 0 0 0 82.480247759803206 312.74032960420936 0 312.74032960420936 -289.72992027141754 0 0 0 0 -291.05798983540444 179.41244062441365 0 179.41244062441365 652.45288789816823 0 0 0 0 -14.483904978254131 3.7745138593951744 0 3.7745138593951744 -0.26739732181198539 0 0 0 0 33.791831309775262 14.336609783855693 0 14.336609783855693 -17.432816022452243 0 0 0 0 -290.64212957696327 134.49717145442446 0 134.49717145442446 -191.90460191632474 0 0 0 0 -370.07337808199918 113.77645833343604 0 113.77645833343604 35.970952738419328 0 0 0 0 -82.622622360788228 79.262169571425147 0 79.262169571425147 -108.332757641439 0 0 0 0 34.247904556799767 -174.88906980687898 0 -174.88906980687898 -0.1307798613572686 0 0 0 0 -40.719487567991273 -5.2106264391484682 0 -5.2106264391484682 4.1526952150102119 0 0 0 0 150.00158508404911 -1109.3494464687719 0 -1109.3494464687719 253.78910183799962 0 0 0 0 -253.60366923616539 -225.05548593841922 0 -225.05548593841922 1036.234541518299 0 0 0 0 48.37758858446432 58.982137313902058 0 58.982137313902058 1286.110514962078 0 0 0 0 -558.42797548358203 1206.6371991614269 0 1206.6371991614269 749.64206400209696 0 0 0 0 63.471160524865809 -390.37021376435769 0 -390.37021376435769 797.88440799299133 0 0 0 0 -9.6467687524379375 0.34937513208466342 0 0.34937513208466342 6.3539814347928392 0 0 0 0 -179.73740362093804 305.00138092242423 0 305.00138092242423 276.55602306724359 0 0 0 0 -130.91327820582319 246.13784122473953 0 246.13784122473953 -43.144824814308322 0 0 0 0 -33.814900641541229 123.21902729627709 0 123.21902729627709 106.16640524127251 0 0 0 0 -103.37439483831412 91.360972015702828 0 91.360972015702828 763.34031659302036 0 0 0 0 156.23859784727836 -24.871072475424398 0 -24.871072475424398 115.64100566664183 0 0 0 0 -420.63059541815903 -307.06018399576556 0 -307.06018399576556 30.964683771720047 0 0 0 0 -146.47047565434582 54.589602131743504 0 54.589602131743504 56.805838606982434 0 0 0 0 -225.32814855422066 76.645000062892905 0 76.645000062892905 181.00497667157151 0 0 0 0 -212.61449476175494 144.53785441555738 0 144.53785441555738 144.11150347422063 0 0 0 0 -229.22215873211121 174.44087425675173 0 174.44087425675173 341.60076925078101 0 0 0 0 -205.14582290873273 72.14975273578284 0 72.14975273578284 114.24861735528793 0 0 0 0 -249.03194345982183 81.888917939996645 0 81.888917939996645 261.23429003212186 0 0 0 0 -210.44725147159761 -46.695340521568369 0 -46.695340521568369 -13.086727758557572 0 0 0 0 -220.33878250173575 88.910985874061453 0 88.910985874061453 72.631867611867165 0 0 0 0 -301.29812745153367 21.558781486428416 0 21.558781486428416 149.37220694455618 0 0 0 0 -312.24097313074799 44.616160926714656 0 44.616160926714656 -15.761217833198316 0 0 0 0 -514.77603738097184 -34.607353988519208 0 -34.607353988519208 22.592985791386809 0 0 0 0 -517.39051745402276 -25.388015334985539 0 -25.388015334985539 27.551294503998633 0 0 0 0 -134.4359491643545 -65.108056882048459 0 -65.108056882048459 515.14469140390156 0 0 0 0 77.866886531287037 17.084218163199921 0 17.084218163199921 177.00312782646006 0 0 0 0 -197.11328161895699 40.334892334243705 0 40.334892334243705 286.47686749866807 0 0 0 0 -178.05274559656027 145.10295324046092 0 145.10295324046092 289.44970375919365 0 0 0 0 -198.60703681398354 64.541888330637448 0 64.541888330637448 266.76927471737963 0 0 0 0 -174.46148934726807 47.871473898420845 0 47.871473898420845 105.56906939712007 0 0 0 0 -161.02329471953135 29.488772305570137 0 29.488772305570137 -77.184423733267067 0 0 0 0 -198.57165068087033 95.422637531307373 0 95.422637531307373 33.142397600021468 0 0 0 0 -33.837446192100288 34.666767065778686 0 34.666767065778686 53.707283176965575 0 0 0 0 -245.6646002318339 -11.015191613557363 0 -11.015191613557363 30.108654944326872 0 0 0 0 -60.007475714994939 157.03291551250982 0 157.03291551250982 49.103829145871714 0 0 0 0 -62.496544384146318 78.452570926918838 0 78.452570926918838 -9.1276925596021101 0 0 0 0 -66.376125516786942 111.54536455913353 0 111.54536455913353 -156.71812767582196 0 0 0 0 -180.6008680658706 139.66540597965559 0 139.66540597965559 -156.92604586077186 0 0 0 0 -258.63782027794616 249.51136715471492 0 249.51136715471492 -301.48386026092157 0 0 0 0 -214.41025726912721 75.332035445991096 0 75.332035445991096 -115.79055207423244 0 0 0 0 -290.22392373716679 6.7923737182449742 0 6.7923737182449742 -130.47912228324276 0 0 0 0 -285.35338117130664 94.665095190351735 0 94.665095190351735 -280.82383238901866 0 0 0 0 -273.98581391407879 197.83755834013709 0 197.83755834013709 -181.12337254161525 0 0 0 0 -290.18902377243012 86.143936323556318 0 86.143936323556318 -18.786670530506171 0 0 0 0 -62.165079638432871 67.102034574848403 0 67.102034574848403 -98.478992289391499 0 0 0 0 -6.3301846057242983 45.86077113481241 0 45.86077113481241 -162.20848153202087 0 0 0 0 3.1038763436481531 47.208492184104443 0 47.208492184104443 -354.72716183111834 0 0 0 0 -23.712834170407405 90.766463625048345 0 90.766463625048345 -390.22355784561216 0 0 0 0 -72.085650192006142 -74.576335109359206 0 -74.576335109359206 -89.519644854090075 0 0 0 0 -4.4159336689989495 -0.89893032632483849 0 -0.89893032632483849 -1.1733388880869837 0 0 0 0 -1.4732789580207204 -0.70316285188632754 0 -0.70316285188632754 0.23991609627883914 0 0 0 0 -667.62402168009055 -15.568277879319567 0 -15.568277879319567 27.954129995127005 0 0 0 0 -476.01948249947418 58.698573346422677 0 58.698573346422677 -89.492272559692083 0 0 0 0 -458.39146145020891 24.635286362332181 0 24.635286362332181 -82.285673951670105 0 0 0 0 -287.15138712845828 -39.785340566591231 0 -39.785340566591231 -58.103718049526833 0 0 0 0 -442.03662690047963 110.47794338672566 0 110.47794338672566 -152.65252693606408 0 0 0 0 -290.86196799663981 37.759974368480869 0 37.759974368480869 -143.08804370241069 0 0 0 0 -517.97421424691208 33.771009341242234 0 33.771009341242234 -86.634813284599659 0 0 0 0 -631.14289863172735 160.10974221625429 0 160.10974221625429 -203.25965383049999 0 0 0 0 -770.71225527192462 94.656775698294041 0 94.656775698294041 -6.9656103188303149 0 0 0 0 -834.73747805723838 221.97362278273289 0 221.97362278273289 -214.81052201365128 0 0 0 0 -994.31786514907242 137.83932492705657 0 137.83932492705657 176.88219939224564 0 0 0 0 -983.30553409925233 109.36310730731566 0 109.36310730731566 152.30875785593571 0 0 0 0 -999.83176273467734 179.36239728700718 0 179.36239728700718 140.38428003899662 0 0 0 0 -736.26608785490794 75.2195444078734 0 75.2195444078734 0.71601909335890923 0 0 0 0 -810.91983920693224 -105.10055617556191 0 -105.10055617556191 179.43440359906435 0 0 0 0 -880.93793064324859 22.515133774222249 0 22.515133774222249 210.78043801520744 0 0 0 0 -1255.3333832989415 11.984271773390901 0 11.984271773390901 297.36356809575454 0 0 0 0 -1218.1803125309482 378.64225330278992 0 378.64225330278992 136.18710506586558 0 0 0 0 -731.72283876704114 333.57796685330686 0 333.57796685330686 -14.892816856799072 0 0 0 0 -2286.4923329552457 54.491635973470238 0 54.491635973470238 445.9912601938031 0 0 0 0 -963.97758060132082 -134.92696979476386 0 -134.92696979476386 347.36074326137259 0 0 0 0 -862.85184042364654 -112.53692188530749 0 -112.53692188530749 178.72917927730532 0 0 0 0 -284.48935540775921 149.85047394724859 0 149.85047394724859 64.776393235982141 0 0 0 0 137.38645158638792 -49.952905569793984 0 -49.952905569793984 -106.51536091360413 0 0 0 0 -712.87117896163181 373.38237104902737 0 373.38237104902737 -51.47972908844622 0 0 0 0 -286.63791259772461 203.21262078371274 0 203.21262078371274 -39.811048591990584 0 0 0 0 -798.88930159155188 241.06842275903841 0 241.06842275903841 84.296144698378157 0 0 0 0 -801.48787954065438 199.78581121191678 0 199.78581121191678 171.60213496481401 0 0 0 0 -5.6936703188534716 14.096967790794643 0 14.096967790794643 -16.523668554648992 0 0 0 0 -121.29871283483453 213.89658907459193 0 213.89658907459193 -91.454989166573796 0 0 0 0 -380.95532765393136 -19.161560396567324 0 -19.161560396567324 64.048464299130501 0 0 0 0 133.02743397877703 94.278131708688505 0 94.278131708688505 -12.071554619107133 0 0 0 0 -801.93945990410566 49.086361055559621 0 49.086361055559621 62.970706951914366 0 0 0 0 -6.680783883619406 11.074104681156788 0 11.074104681156788 -11.436361399719928 0 0 0 0 -857.49140084787723 -24.490778894005075 0 -24.490778894005075 18.816229754721689 0 0 0 0 180.12307356984161 196.25703900377022 0 196.25703900377022 -33.015678262066558 0 0 0 0 -213.13483073709278 -29.738488315452983 0 -29.738488315452983 -0.73693262701351614 0 0 0 0 -241.75986131364425 -15.328438790864141 0 -15.328438790864141 39.163819185029638 0 0 0 0 -0.43251937010043578 1.6403842476874086 0 1.6403842476874086 2.9376090050082002 0 0 0 0 -111.62599495341647 36.569171638417828 0 36.569171638417828 116.35857553316055 0 0 0 0 -216.60138523724379 -12.589087804246901 0 -12.589087804246901 23.417176305401469 0 0 0 0 -173.68639371545851 26.8229341795697 0 26.8229341795697 35.582372792861378 0 0 0 0 -108.89051581370245 -62.621937434143263 0 -62.621937434143263 30.255607093964045 0 0 0 0 -148.58458794698345 -4.5361491688876185 0 -4.5361491688876185 -9.2093009175674467 0 0 0 0 -124.27048335473921 17.009093476223484 0 17.009093476223484 -15.887858632418101 0 0 0 0 -261.79160856188537 -13.866624681473695 0 -13.866624681473695 56.751768103677023 0 0 0 0 -15.947392351300611 -1.2516909777129115 0 -1.2516909777129115 10.662231160655047 0 0 0 0 -94.481031319730391 -1.0572390163188174 0 -1.0572390163188174 26.828586120738237 0 0 0 0 -20.831151946672669 -31.538405939173753 0 -31.538405939173753 23.258967128072975 0 0 0 0 -194.62822204834811 36.240778984074495 0 36.240778984074495 48.713877706715209 0 0 0 0 -134.80436127625217 10.895697610179013 0 10.895697610179013 36.183478541839577 0 0 0 0 -193.86613369812221 27.347543670319737 0 27.347543670319737 188.87305563239079 0 0 0 0 -320.0316218882399 -110.91040579186119 0 -110.91040579186119 52.479579107720028 0 0 0 0 -397.15901443919233 260.66813060651396 0 260.66813060651396 184.0617364524187 0 0 0 0 1.1306734134457024 -2.4027599341212493 0 -2.4027599341212493 1.9386210267296597 0 0 0 0 -3.6700112375601748 121.02585351701214 0 121.02585351701214 208.18949146747582 0 0 0 0 -27.84138244845235 65.343231903584638 0 65.343231903584638 87.045879677179983 0 0 0 0 -151.11320159621391 -61.881450312164816 0 -61.881450312164816 508.0465101717482 0 0 0 0 -124.37875860890199 -107.4696279630507 0 -107.4696279630507 109.49888500873999 0 0 0 0 -37.35149349835774 -93.238553573000445 0 -93.238553573000445 25.443976810533968 0 0 0 0 -66.265591488432619 -139.02677435752912 0 -139.02677435752912 -43.711394156460301 0 0 0 0 -190.66919287998826 81.104585070008852 0 81.104585070008852 -407.81799147984384 0 0 0 0 -157.62214097083051 -515.99797682244389 0 -515.99797682244389 50.158878373311381 0 0 0 0 -102.44507628840802 -39.546376550217246 0 -39.546376550217246 -86.152649201596432 0 0 0 0 -312.61840947400196 -135.16261696331549 0 -135.16261696331549 67.042793108219485 0 0 0 0 -5.8711441364252295 -0.63739357224985405 0 -0.63739357224985405 0.29310372078077673 0 0 0 0 -132.37628831015536 -207.49001616769783 0 -207.49001616769783 88.744102063620176 0 0 0 0 -380.12590006782557 -67.027158312952452 0 -67.027158312952452 50.694529564059849 0 0 0 0 -270.1412994528655 -101.91948902638069 0 -101.91948902638069 60.519146683021972 0 0 0 0 -198.41435149578319 -161.0170624691018 0 -161.0170624691018 36.858938735434094 0 0 0 0 -260.80079265873064 -162.51191778574957 0 -162.51191778574957 68.322066491775331 0 0 0 0 -266.40469497066806 -131.24943020633691 0 -131.24943020633691 23.834875074699085 0 0 0 0 -263.31093002507987 -114.77671534911315 0 -114.77671534911315 35.561316948695094 0 0 0 0 -253.12087602572865 -130.31639114284189 0 -130.31639114284189 52.101121592712389 0 0 0 0 -298.18934782616998 -125.45501469386363 0 -125.45501469386363 51.803418143394083 0 0 0 0 -251.59796906516931 -141.70815096282649 0 -141.70815096282649 2.6627198820242484 0 0 0 0 -201.20846663427074 -104.3571529744263 0 -104.3571529744263 23.735602531492987 0 0 0 0 -277.00331428566278 -124.72595517145419 0 -124.72595517145419 22.581043369373674 0 0 0 0 -259.36776071727218 -144.5449146532801 0 -144.5449146532801 27.444894482681775 0 0 0 0 -268.74345232982159 -108.14672754162893 0 -108.14672754162893 -12.220056370972088 0 0 0 0 -255.23085212702426 -133.51861672353243 0 -133.51861672353243 12.439769107781103 0 0 0 0 -143.44613058887262 -88.650238551563234 0 -88.650238551563234 22.748343002461297 0 0 0 0 -41.403818761766161 -90.013831512309025 0 -90.013831512309025 -63.755654906406562 0 0 0 0 -234.04995417245664 -24.367370840030162 0 -24.367370840030162 -13.393545360631833 0 0 0 0 -254.82112726228297 -105.56827815351699 0 -105.56827815351699 43.241356098094911 0 0 0 0 -180.78806624927529 -120.13399448180553 0 -120.13399448180553 11.252989319511471 0 0 0 0 -115.93355099030305 -47.264982829657129 0 -47.264982829657129 26.427453699637908 0 0 0 0 52.718695220966765 -18.839852227039046 0 -18.839852227039046 -4.9136193978392839 0 0 0 0 -38.483208429048318 -70.836380628117809 0 -70.836380628117809 61.991422780827634 0 0 0 0 88.630030985488702 -15.910190231188153 0 -15.910190231188153 -20.809044379453553 0 0 0 0 97.514767617618418 -41.962360800530746 0 -41.962360800530746 -15.6081464398967 0 0 0 0 -26.338984160445154 -29.981474345911177 0 -29.981474345911177 13.529931982078867 0 0 0 0 -228.4573371928808 13.43500204665304 0 13.43500204665304 -47.433686304798812 0 0 0 0 107.4969234349669 35.175845198449416 0 35.175845198449416 -141.67225850025875 0 0 0 0 -171.26559986407278 75.483488278168352 0 75.483488278168352 277.86041757259773 0 0 0 0 -177.26821898216303 119.97819633603399 0 119.97819633603399 131.72002109840469 0 0 0 0 -0.18427654552263301 1.1287016809427306 0 1.1287016809427306 1.1681280301683952 0 0 0 0 -216.44485093440022 -10.675585142715519 0 -10.675585142715519 -6.999013541348063 0 0 0 0 -23.68180086732951 -30.710367298569874 0 -30.710367298569874 18.001784079081478 0 0 0 0 -15.167774043645295 -129.08995708546161 0 -129.08995708546161 -6.3126475437002227 0 0 0 0 -22.975955453181086 47.573237932860138 0 47.573237932860138 3.4927706033590766 0 0 0 0 6.7236393573202307 8.7655777642513595 0 8.7655777642513595 7.9020102897272153 0 0 0 0 -36.808790867971311 81.538802195546168 0 81.538802195546168 18.946092683894676 0 0 0 0 -22.451372209727552 -4.5101936503135871 0 -4.5101936503135871 1.0220888356239177 0 0 0 0 34.697573712566737 -77.03612362435797 0 -77.03612362435797 278.7422550752508 0 0 0 0 -5.1503886958143994 12.339115800990839 0 12.339115800990839 282.3062734397663 0 0 0 0 -49.309142338137463 -49.340953238807288 0 -49.340953238807288 346.70262940611883 0 0 0 0 -18.944046452434122 -65.860631535642369 0 -65.860631535642369 291.30193668475749 0 0 0 0 7.7723906949504453 -34.880431738151856 0 -34.880431738151856 169.13464151149674 0 0 0 0 2.2901474805971702 67.6795365342428 0 67.6795365342428 -41.736335093231901 0 0 0 0 -19.486791992691202 -4.4937374967827193 0 -4.4937374967827193 -0.38546377749994232 0 0 0 0 -81.423328981767554 1.3262476984205023 0 1.3262476984205023 93.828069178991427 0 0 0 0 -55.791791170846409 -30.351799473013443 0 -30.351799473013443 233.56128632793889 0 0 0 0 -67.135513802262722 -18.452353853565455 0 -18.452353853565455 209.36795462004193 0 0 0 0 -14.550593769698061 -2.7172850473151149 0 -2.7172850473151149 0.038692624577122636 0 0 0 0 18.364883055257451 -32.983941669321666 0 -32.983941669321666 135.13824306158858 0 0 0 0 -23.49851103412766 -26.836395959775018 0 -26.836395959775018 70.961449976382482 0 0 0 0 -132.72626796134136 23.92040112752602 0 23.92040112752602 109.24940725208808 0 0 0 0 18.548236465012451 -45.656834626339105 0 -45.656834626339105 -18.766016967056203 0 0 0 0 -197.63997591657244 -26.69070233777984 0 -26.69070233777984 -12.54391700789165 0 0 0 0 -149.68082588964899 -81.468542424351199 0 -81.468542424351199 -1.8009617174775485 0 0 0 0 -274.30211846387101 -59.135033569677034 0 -59.135033569677034 -5.3134256266539523 0 0 0 0 -276.1831640836881 -59.916141373906441 0 -59.916141373906441 -5.1200390072481241 0 0 0 0 -174.99322436737566 153.78425246604638 0 153.78425246604638 -160.68983011041928 0 0 0 0 -248.61777458930737 38.285461267363644 0 38.285461267363644 -47.395403979196999 0 0 0 0 -284.19796896479556 34.174082758780401 0 34.174082758780401 -32.748204311072186 0 0 0 0 -145.75809144656523 -10.621444699583662 0 -10.621444699583662 -18.966154106126851 0 0 0 0 -127.73042780898504 77.902422935743516 0 77.902422935743516 -79.977147034112932 0 0 0 0 -271.40486390038859 123.22479595609684 0 123.22479595609684 92.702838736606282 0 0 0 0 -59.590971164212533 19.196608006866882 0 19.196608006866882 -31.079110118404969 0 0 0 0 -67.89821923240379 67.827690948677628 0 67.827690948677628 -108.96159914642521 0 0 0 0 -65.36817033564148 76.087716444548278 0 76.087716444548278 -98.938791944563889 0 0 0 0 0.76924337668189224 5.8479738208304362 0 5.8479738208304362 6.0325316682445873 0 0 0 0 -103.83879545591481 -47.344288264504939 0 -47.344288264504939 45.04970335852704 0 0 0 0 -6.020701377399746 -1.3973007567262279 0 -1.3973007567262279 0.42138277199094709 0 0 0 0 -33.242118458949335 58.047307522911979 0 58.047307522911979 -100.01848638237971 0 0 0 0 -41.117013505915565 72.345022353053082 0 72.345022353053082 44.13670139432179 0 0 0 0 12.682936485922255 11.582231921858693 0 11.582231921858693 2.0939844341628486 0 0 0 0 -84.710564765591698 54.375658594404285 0 54.375658594404285 29.224206310167801 0 0 0 0 -66.090998159686933 105.93309586037026 0 105.93309586037026 -9.3239333211249686 0 0 0 0 4.6538032210946412 5.0463272479838217 0 5.0463272479838217 1.8929823069946146 0 0 0 0 -29.399487960225088 56.505352093319743 0 56.505352093319743 -17.217625228393445 0 0 0 0 -7.8683745787475985 2.9942293209368636 0 2.9942293209368636 8.7399982855083991 0 0 0 0 -385.5943130502601 302.59513634150971 0 302.59513634150971 -136.46209452844414 0 0 0 0 -372.6758280409158 276.76754875409461 0 276.76754875409461 -129.83995740059663 0 0 0 0 -397.64942113501274 295.43928749458701 0 295.43928749458701 -75.252785325653349 0 0 0 0 -354.61985756624199 313.19921596029872 0 313.19921596029872 -197.16342833784711 0 0 0 0 -466.92107274688715 378.26992403625309 0 378.26992403625309 -169.98866859175359 0 0 0 0 -540.65242187675904 368.02937620950615 0 368.02937620950615 -42.497524978265119 0 0 0 0 -508.65976763403341 487.87013954340557 0 487.87013954340557 -395.58395987214317 0 0 0 0 -52.209496985982696 -6.9548414917408081 0 -6.9548414917408081 -48.070968253333376 0 0 0 0 -5.7752849475945425 2.2389265976816795 0 2.2389265976816795 5.7743743194059221 0 0 0 0 -450.01125512785802 449.83924817579918 0 449.83924817579918 -392.13184598274893 0 0 0 0 -549.83303375449395 353.33789666044368 0 353.33789666044368 -96.730549366717241 0 0 0 0 -538.90621645045394 404.85460961513081 0 404.85460961513081 -127.50395059817311 0 0 0 0 -532.21327280136165 340.1149269463981 0 340.1149269463981 40.646574869912001 0 0 0 0 -540.92089112146641 385.22465672221961 0 385.22465672221961 -50.109158517308515 0 0 0 0 -559.48738389560822 376.26597302325035 0 376.26597302325035 -48.287117149820915 0 0 0 0 -264.87700671550192 135.87864969296288 0 135.87864969296288 36.352896784042969 0 0 0 0 -537.14971188500931 394.05859734081196 0 394.05859734081196 -38.895249776152014 0 0 0 0 -506.26860979682169 361.66814403869694 0 361.66814403869694 58.913781032084444 0 0 0 0 -612.96464433453366 369.45369052562819 0 369.45369052562819 -83.665588910225779 0 0 0 0 -525.54010270031904 280.93357017235985 0 280.93357017235985 -378.39744606510794 0 0 0 0 -515.51189583228188 316.98896867830376 0 316.98896867830376 -61.016658974418533 0 0 0 0 -556.60094235371253 406.26628685449487 0 406.26628685449487 -196.21733158871029 0 0 0 0 -667.48555271426812 248.04540813446692 0 248.04540813446692 -45.19969070472871 0 0 0 0 -546.47321976729654 372.91811275324426 0 372.91811275324426 -428.56933608330746 0 0 0 0 -688.9051746488949 55.584389607649882 0 55.584389607649882 460.4711554034111 0 0 0 0 -364.27423758884106 273.05735244501102 0 273.05735244501102 -45.531841712434016 0 0 0 0 -435.76942669046002 148.42405363540183 0 148.42405363540183 167.60691398677227 0 0 0 0 -433.2721431395039 167.59559887249088 0 167.59559887249088 208.1128599099784 0 0 0 0 61.525578666223737 18.05075267083339 0 18.05075267083339 75.900824163074503 0 0 0 0 109.79736838904864 106.16931523958647 0 106.16931523958647 -31.374883616678972 0 0 0 0 -1.3707535512558024 -364.14072780213303 0 -364.14072780213303 311.7278077258361 0 0 0 0 -232.35163551653568 -242.50154709842786 0 -242.50154709842786 480.59424771267004 0 0 0 0 0.68707441235007138 1.417526209099865 0 1.417526209099865 2.5029270915580817 0 0 0 0 -145.40248324341155 -68.596410309213297 0 -68.596410309213297 217.9966723846992 0 0 0 0 -1.3174133632950245 -0.82600818854486846 0 -0.82600818854486846 -0.7920105323624842 0 0 0 0 -459.93653111055028 233.72748579169001 0 233.72748579169001 -120.59150325463452 0 0 0 0 -264.8897336240916 189.5282627581837 0 189.5282627581837 -167.65771932924872 0 0 0 0 -449.85391648671066 111.06046481625754 0 111.06046481625754 -67.491042251676845 0 0 0 0 -364.37755345238838 -16.421073662142589 0 -16.421073662142589 -24.663872634489053 0 0 0 0 -374.56935427147255 -14.366651795812686 0 -14.366651795812686 -9.064513548024479 0 0 0 0 -642.03629832607839 41.744471773132318 0 41.744471773132318 7.6809126315570211 0 0 0 0 -432.75216050915697 -146.73811816094849 0 -146.73811816094849 14.150892386003761 0 0 0 0 -511.06922538999061 -419.17762791465793 0 -419.17762791465793 386.80800065177982 0 0 0 0 -538.93365278680631 -244.93836687751855 0 -244.93836687751855 -21.879281330086087 0 0 0 0 -66.428885874331172 -141.93112849165436 0 -141.93112849165436 -20.787388073733382 0 0 0 0 -1128.0596681449024 -260.06519984913029 0 -260.06519984913029 -33.183850811406728 0 0 0 0 -288.40084623162329 -439.1736724003822 0 -439.1736724003822 -426.16390355885142 0 0 0 0 -4.1428940601035436 -3.569902406232135 0 -3.569902406232135 -3.2554928920515191 0 0 0 0 -1114.4861965157179 58.615980939418478 0 58.615980939418478 46.360524839365098 0 0 0 0 25.915874219066609 -116.99646284950813 0 -116.99646284950813 -392.12892502319448 0 0 0 0 -135.33534117251475 30.99987199893576 0 30.99987199893576 -126.12731511502352 0 0 0 0 -945.70523758802301 145.95176224525358 0 145.95176224525358 -83.245615328029885 0 0 0 0 -928.92753346780955 247.61737708424698 0 247.61737708424698 38.941445447802835 0 0 0 0 -1023.175837117109 60.605886609896743 0 60.605886609896743 -61.626934001005793 0 0 0 0 -1119.1025106426277 118.25900566115934 0 118.25900566115934 -63.015520511261457 0 0 0 0 -1288.2934932933567 153.42996821597217 0 153.42996821597217 55.21068208274346 0 0 0 0 -1254.7936664216686 452.20484068792803 0 452.20484068792803 -327.4575207352982 0 0 0 0 -965.13043633392226 214.04461512381977 0 214.04461512381977 -160.53932280550089 0 0 0 0 -742.67828252500112 -49.777248474473708 0 -49.777248474473708 -607.89024690719998 0 0 0 0 -774.12515282943741 226.80982045523402 0 226.80982045523402 -216.31322685022133 0 0 0 0 -1099.5507543880485 -50.507292856796596 0 -50.507292856796596 -152.04305292517529 0 0 0 0 -726.14512541922431 347.64302228324948 0 347.64302228324948 -249.11056028068288 0 0 0 0 -552.96698333421955 316.03566521917992 0 316.03566521917992 -257.71518480394479 0 0 0 0 -674.96412330410385 239.60280862574314 0 239.60280862574314 -290.95084098672942 0 0 0 0 -701.05922519364321 300.99688747183291 0 300.99688747183291 -339.49449543468893 0 0 0 0 -997.06558969881189 313.0058622143917 0 313.0058622143917 -290.1060884311355 0 0 0 0 -700.42881688184207 268.87608708511095 0 268.87608708511095 -486.27581200693226 0 0 0 0 -519.86469799633778 310.52589230430794 0 310.52589230430794 -239.56978811830277 0 0 0 0 -515.98196074545194 329.26198817688692 0 329.26198817688692 -367.66879624517105 0 0 0 0 -569.85197695361057 353.59993204633793 0 353.59993204633793 -130.72611369091828 0 0 0 0 17.382656663598027 -11.063247248745029 0 -11.063247248745029 -52.943369982282093 0 0 0 0 4.5795327117230045 -20.03654678200337 0 -20.03654678200337 -22.466177807470103 0 0 0 0 62.288988252072159 -60.51324683308485 0 -60.51324683308485 -5.5247848090766638 0 0 0 0 6.0395512905797659 -8.1303309477293624 0 -8.1303309477293624 -22.097674611244656 0 0 0 0 3.6788646873956168 -21.187402671255541 0 -21.187402671255541 -13.507742547757516 0 0 0 0 -15.499050840729751 -11.658680699886158 0 -11.658680699886158 -0.011002945567796019 0 0 0 0 -41.375962617628829 -36.877972590422587 0 -36.877972590422587 15.862984151825913 0 0 0 0 27.840000680640514 -42.000413943956119 0 -42.000413943956119 25.468040757337803 0 0 0 0 -78.918154575410881 5.9136461075922853 0 5.9136461075922853 -1.4182022861350561 0 0 0 0 -17.016309966743687 0.79441056865811532 0 0.79441056865811532 2.3560959265737544 0 0 0 0 198.31495025526738 38.435677344401256 0 38.435677344401256 -115.35201286590382 0 0 0 0 -21.206996134555112 12.410774893892613 0 12.410774893892613 -18.723317436782096 0 0 0 0 -6.3191384668457218 -17.440515308207722 0 -17.440515308207722 -13.481162003489388 0 0 0 0 90.383828438789351 -14.730836589456885 0 -14.730836589456885 47.601560652790795 0 0 0 0 151.280486883908 -29.287784038378504 0 -29.287784038378504 51.071700305683407 0 0 0 0 -7.9604431166371796 -97.196520221159062 0 -97.196520221159062 -11.698206502176618 0 0 0 0 75.682927259094868 -45.324345528383674 0 -45.324345528383674 4.2386883381459484 0 0 0 0 33.29338306216232 -87.291720389839611 0 -87.291720389839611 57.002358452298267 0 0 0 0 7.0914639947746565 -10.45018335636289 0 -10.45018335636289 -0.26208190210910409 0 0 0 0 90.688190148988724 -48.06143835898547 0 -48.06143835898547 -23.995416710657082 0 0 0 0 -194.24498375773692 -91.978983459650408 0 -91.978983459650408 26.765006634335805 0 0 0 0 -79.958263935772266 -79.835574241240465 0 -79.835574241240465 -45.051911640151047 0 0 0 0 -145.93796588770022 -96.029059202291251 0 -96.029059202291251 -35.456844517530044 0 0 0 0 -62.413212651968934 -33.628248185307712 0 -33.628248185307712 51.301592491139218 0 0 0 0 -346.14171875165812 -127.49331000716882 0 -127.49331000716882 -2.5531786277570063 0 0 0 0 -278.94182005463517 -96.567183037843279 0 -96.567183037843279 -50.048221035705865 0 0 0 0 -196.62287285116327 -108.77789777182386 0 -108.77789777182386 -20.973611834942858 0 0 0 0 -279.31502990622539 -127.13265873548517 0 -127.13265873548517 -15.59309313889753 0 0 0 0 -145.12934899957327 -107.57251531660404 0 -107.57251531660404 -77.636121112162073 0 0 0 0 -402.2756401381921 -154.26363156436673 0 -154.26363156436673 13.271418466433602 0 0 0 0 -79.054187599445868 -11.521897933120272 0 -11.521897933120272 -62.836660534400835 0 0 0 0 -209.72468706880318 -190.8704003980406 0 -190.8704003980406 -132.99868353066086 0 0 0 0 -334.30053617391604 -253.05685210912998 0 -253.05685210912998 -146.5763861002506 0 0 0 0 -172.13785411907156 -72.191236780438885 0 -72.191236780438885 -46.240088899636703 0 0 0 0 -85.676546336260799 -192.78246731944773 0 -192.78246731944773 -140.65208727158824 0 0 0 0 -102.46488602094723 -81.541735945055279 0 -81.541735945055279 -110.9350332601889 0 0 0 0 -33.941820429467043 -6.5623791088369217 0 -6.5623791088369217 -43.823357522305741 0 0 0 0 -26.712785131770943 -25.056647455070561 0 -25.056647455070561 -27.589638781099893 0 0 0 0 -23.715778690180741 19.38448387407152 0 19.38448387407152 -92.632568219898531 0 0 0 0 -32.455642037306461 2.4878991581731498 0 2.4878991581731498 -7.091696505193795 0 0 0 0 -78.457759723132767 30.996435817888596 0 30.996435817888596 29.201814782333713 0 0 0 0 -110.82244154 -135.36721708075083 0 -135.36721708075083 -230.78581113110977 0 0 0 0 3.7444624856561859 48.992764621560468 0 48.992764621560468 -111.14330911954312 0 0 0 0 -11.302910908571334 -7.8094982755430067 0 -7.8094982755430067 -8.6268478859566109 0 0 0 0 -48.760804348044985 -101.26033513361324 0 -101.26033513361324 -82.313688574883145 0 0 0 0 -17.497929501420003 -39.167011628142518 0 -39.167011628142518 50.684170291575128 0 0 0 0 -17.910755789713363 -2.4609289105040624 0 -2.4609289105040624 0.31729538223810838 0 0 0 0 -28.879631998625882 -0.67158738035209353 0 -0.67158738035209353 15.895295150388847 0 0 0 0 -36.81935352713117 14.817960668507112 0 14.817960668507112 -7.6206190596871295 0 0 0 0 -2.5595022479546969 -1.2757928942432954 0 -1.2757928942432954 -7.8115144733455963 0 0 0 0 -4.0948486962897732 5.0836067350816165 0 5.0836067350816165 -23.553963193176969 0 0 0 0 -15.119766616993729 14.948075034552858 0 14.948075034552858 -31.704354117709499 0 0 0 0 -1.4916794414930337 -7.7133993715510769 0 -7.7133993715510769 -19.275515407716739 0 0 0 0 -5.2042175940841844 -9.1799145244467582 0 -9.1799145244467582 -6.2938867737420878 0 0 0 0 -59.185963170719333 -12.435741592949853 0 -12.435741592949853 -28.480651976925401 0 0 0 0 -25.188220906611036 -0.97392924236076794 0 -0.97392924236076794 -0.093926260612342105 0 0 0 0 -11.812060129218438 -4.1922061261270755 0 -4.1922061261270755 0.49577362324201513 0 0 0 0 -7.6755868608452147 -3.0621085391412635 0 -3.0621085391412635 1.0523759608186083 0 0 0 0 -36.958136170593207 -19.99725684099576 0 -19.99725684099576 -7.3075460955647031 0 0 0 0 -58.075907564729278 -24.908071030806241 0 -24.908071030806241 -24.284178127826181 0 0 0 0 -32.299027376706363 -23.559756481551176 0 -23.559756481551176 -28.246139918249355 0 0 0 0 -61.116600573077449 -16.498923761071183 0 -16.498923761071183 -6.9736800763685096 0 0 0 0 -40.750353350063961 -28.501245954888873 0 -28.501245954888873 4.1777780368793174 0 0 0 0 -36.342051001720392 -22.37437767949973 0 -22.37437767949973 -6.2210934983631887 0 0 0 0 -28.316479318702477 -13.502080661678974 0 -13.502080661678974 -4.3143599858217385 0 0 0 0 -22.029178713855799 -16.176099747925946 0 -16.176099747925946 -10.109939538411709 0 0 0 0 -0.93382514209406509 -7.0709690265150584 0 -7.0709690265150584 -29.43305811632581 0 0 0 0 -15.311715512467671 -0.22435715224764152 0 -0.22435715224764152 2.6929455433663616 0 0 0 0 -24.10460914545547 -1.3669477506141448 0 -1.3669477506141448 -3.6430253930695926 0 0 0 0 -19.848173039485118 -0.20390732851592475 0 -0.20390732851592475 -2.4060724715327524 0 0 0 0 -12.327759600532644 -3.7114136938205746 0 -3.7114136938205746 -3.6200294444351506 0 0 0 0 -17.182157971212561 -0.33874978997643979 0 -0.33874978997643979 -0.099579939690438657 0 0 0 0 -19.604322755409157 -0.086137937166995471 0 -0.086137937166995471 -3.0815295551537929 0 0 0 0 -8.6323104755154532 2.8050127065594097 0 2.8050127065594097 -3.8879575111862978 0 0 0 0 -131.13269600144849 67.084858155613802 0 67.084858155613802 26.110512034902058 0 0 0 0 -207.14408623848794 779.44612474333485 0 779.44612474333485 -831.90309274027049 0 0 0 0 -465.49479293099284 631.21978410146176 0 631.21978410146176 -913.28510769354875 0 0 0 0 -913.70236002950696 816.14907053375111 0 816.14907053375111 -779.42146242066372 0 0 0 0 324.90432497387883 784.70617663203006 0 784.70617663203006 -957.63746024245256 0 0 0 0 -22.371063824013874 -0.60767516553092094 0 -0.60767516553092094 0.85481334215681315 0 0 0 0 -17.460269265066017 -2.1593054663899238 0 -2.1593054663899238 5.8461465649270394 0 0 0 0 -19.017904887928239 -3.204326101734349 0 -3.204326101734349 -0.35361095736802683 0 0 0 0 -18.697203116218333 -8.5180362788973198 0 -8.5180362788973198 -5.5827530879003024 0 0 0 0 -3.8460851312791391 -3.1091486821285699 0 -3.1091486821285699 0.43963314221973615 0 0 0 0 73.786374265037011 614.28209103534505 0 614.28209103534505 -629.26470914222068 0 0 0 0 -870.82598780693661 218.68418018899814 0 218.68418018899814 -661.39807071213488 0 0 0 0 -460.45216305363283 -116.17849380992175 0 -116.17849380992175 -138.37905225056852 0 0 0 0 -528.45854388198495 784.68989118875777 0 784.68989118875777 -468.91982164968891 0 0 0 0 -1433.1918013653994 1311.5479439127769 0 1311.5479439127769 -654.79416979852772 0 0 0 0 -226.69393557027797 699.26989121341944 0 699.26989121341944 -1473.0060926566377 0 0 0 0 -1.6566490344455431 5.4762332450254334 0 5.4762332450254334 -9.144626716989956 0 0 0 0 1864.7341889070194 758.85429102339276 0 758.85429102339276 -743.47659680939023 0 0 0 0 58.677547506635165 1215.8744296999535 0 1215.8744296999535 -635.50882385731416 0 0 0 0 663.01680434466834 -98.1792380474742 0 -98.1792380474742 87.40422400247553 0 0 0 0 -2519.3678786072378 353.84746622804676 0 353.84746622804676 -8.3753311134807973 0 0 0 0 -937.07506052916142 60.954536890576833 0 60.954536890576833 -72.872161762869609 0 0 0 0 -581.21571039311675 440.36650810363324 0 440.36650810363324 -508.66438483165734 0 0 0 0 -590.24137662441353 496.07339573495517 0 496.07339573495517 -452.96786225329367 0 0 0 0 -47.644719216381191 -104.93803125118519 0 -104.93803125118519 -358.13818438055529 0 0 0 0 -341.18878164519265 414.77571785117556 0 414.77571785117556 -538.46648280722457 0 0 0 0 -1.2297261656904936 -0.78422238832388302 0 -0.78422238832388302 -1.2092127406741882 0 0 0 0 -38.188345803092716 120.0610252840342 0 120.0610252840342 -17.072189320829239 0 0 0 0 -34.737192880252536 -11.097071466302676 0 -11.097071466302676 -1.9572078919813016 0 0 0 0 -80.594685417221626 -11.706717231026914 0 -11.706717231026914 38.399394763432838 0 0 0 0 -239.76119087972802 140.46557180332505 0 140.46557180332505 -534.19710216676106 0 0 0 0 -8.3030186084766342 -0.16389303471098771 0 -0.16389303471098771 -1.5882625161751225 0 0 0 0 -688.13395705274161 656.6773296582752 0 656.6773296582752 -349.98554902797576 0 0 0 0 -1034.7835007619233 406.49655674142844 0 406.49655674142844 -404.81390525142109 0 0 0 0 -547.08522650837403 294.76266428689689 0 294.76266428689689 -221.6184483386636 0 0 0 0 -492.23156241054789 275.22225300176461 0 275.22225300176461 -488.54583600142178 0 0 0 0 -679.30653524584523 70.839489012144554 0 70.839489012144554 -409.65895458325417 0 0 0 0 -884.92950715702318 455.23772681084756 0 455.23772681084756 -671.81391816118776 0 0 0 0 -694.20555864250127 22.689172218323563 0 22.689172218323563 -828.54084524339009 0 0 0 0 -686.21978412482713 97.081012978685834 0 97.081012978685834 -475.89778519264826 0 0 0 0 -730.14733292625897 -184.55384428515367 0 -184.55384428515367 -388.40221159647882 0 0 0 0 -720.76244983812649 -51.172485253285913 0 -51.172485253285913 -535.17287993799766 0 0 0 0 -918.94661854216247 -141.54931392729577 0 -141.54931392729577 -1038.8961588274515 0 0 0 0 -1130.0584872144227 452.23432451463668 0 452.23432451463668 -821.27684038015605 0 0 0 0 -955.00910453521647 -2.5690299692585086 0 -2.5690299692585086 -513.11897242330394 0 0 0 0 -862.87205152942624 221.42190492264672 0 221.42190492264672 -603.51589192852794 0 0 0 0 -866.89856893712022 287.75089977767823 0 287.75089977767823 -1289.8277832771273 0 0 0 0 -999.84881262394993 363.78179899541647 0 363.78179899541647 -476.56660758241287 0 0 0 0 -1682.0327671042942 531.68740509890222 0 531.68740509890222 -278.0954039499702 0 0 0 0 -1264.2545485009323 687.25525326862453 0 687.25525326862453 -781.78461746563426 0 0 0 0 -1327.7524752235186 468.28424724641263 0 468.28424724641263 -402.53540638219647 0 0 0 0 -1960.4920134781132 1476.5441120244191 0 1476.5441120244191 -1831.6392072173858 0 0 0 0 -1172.3092513432202 213.79971508431345 0 213.79971508431345 -943.47557573794575 0 0 0 0 -1249.9997510776921 -88.323044070317792 0 -88.323044070317792 -2046.6872978233869 0 0 0 0 -1954.0814018374076 144.57673325646829 0 144.57673325646829 -935.07292909931675 0 0 0 0 -1042.2260209005399 1374.7606269625974 0 1374.7606269625974 -1997.2038786679932 0 0 0 0 -2997.180212129686 702.56694901167521 0 702.56694901167521 352.35349078430409 0 0 0 0 -1262.9357575947797 -661.48057517604821 0 -661.48057517604821 -371.90397835694421 0 0 0 0 -6.5668542365667832 3.6197002962785021 0 3.6197002962785021 -1.4920985730342675 0 0 0 0 -1.6994601656874977 3.6830112170364995 0 3.6830112170364995 0.4838189221882212 0 0 0 0 -1159.426152144224 -281.58715085226504 0 -281.58715085226504 159.58576087485562 0 0 0 0 -31.377074409210763 -293.45555497112719 0 -293.45555497112719 -114.24699395952666 0 0 0 0 -338.02027716199518 464.0602063288635 0 464.0602063288635 -1360.7534491514996 0 0 0 0 -415.19455287719757 437.05212261211068 0 437.05212261211068 -551.26982300431746 0 0 0 0 -1105.6881703017425 297.30009922197593 0 297.30009922197593 -575.6370170762292 0 0 0 0 -292.39376714366517 676.04439181251837 0 676.04439181251837 -941.4845449417661 0 0 0 0 -215.83952360710828 177.62434834256885 0 177.62434834256885 -215.35160807465536 0 0 0 0 78.504229419690091 426.85503430854851 0 426.85503430854851 -241.00147438673554 0 0 0 0 -31.342124327366037 367.46437802162791 0 367.46437802162791 44.112522611995416 0 0 0 0 -19.378590044554585 294.30226524272894 0 294.30226524272894 360.28793865699458 0 0 0 0 -400.88920697800495 35.670880715007343 0 35.670880715007343 87.384127470366366 0 0 0 0 -691.60096837651872 129.354599360252 0 129.354599360252 104.73390661809299 0 0 0 0 -397.42800987140981 147.98310420284076 0 147.98310420284076 -262.11217397911105 0 0 0 0 -783.51478424749166 -136.18486236979732 0 -136.18486236979732 -248.13619719568305 0 0 0 0 -1138.6442723354719 -47.273514938443128 0 -47.273514938443128 106.13643978000164 0 0 0 0 -1026.7263395685568 -690.75092847007318 0 -690.75092847007318 -452.84506714071949 0 0 0 0 -881.87508421159873 -245.81605295889358 0 -245.81605295889358 -355.54277530889976 0 0 0 0 -684.75188952375538 62.706330206509392 0 62.706330206509392 -393.31423264560902 0 0 0 0 -939.26958305729204 41.848685077176924 0 41.848685077176924 -102.67155151054044 0 0 0 0 -588.68657442419317 55.753716940174854 0 55.753716940174854 180.682006717273 0 0 0 0 -587.09632986028009 -180.65885234626285 0 -180.65885234626285 10.764923177576748 0 0 0 0 -484.21470825467986 -14.321194366469172 0 -14.321194366469172 -27.247156180491857 0 0 0 0 -537.56769044545945 48.147763774041096 0 48.147763774041096 167.65493869620695 0 0 0 0 -267.23071723222893 184.47677450152059 0 184.47677450152059 156.61162204713179 0 0 0 0 0.25604437768924981 157.48130182018804 0 157.48130182018804 65.668318177877154 0 0 0 0 -20.700972161408572 244.45509422992654 0 244.45509422992654 99.314645945358734 0 0 0 0 -294.70495766527165 301.69408510274729 0 301.69408510274729 181.75813362230747 0 0 0 0 -329.33773224011384 16.269238956815116 0 16.269238956815116 -12.247801826906652 0 0 0 0 210.82429105516894 326.69618783691703 0 326.69618783691703 111.89059960089708 0 0 0 0 42.931598047875923 245.32037902865659 0 245.32037902865659 135.52854776200093 0 0 0 0 59.225482920337527 175.22432603479865 0 175.22432603479865 81.750282259956293 0 0 0 0 149.39451319100408 230.98964024341922 0 230.98964024341922 76.072040511764499 0 0 0 0 255.99966906192276 146.53437068525227 0 146.53437068525227 9.6018540379136539 0 0 0 0 183.86833741195005 121.31747862888187 0 121.31747862888187 1.3583913627335278 0 0 0 0 195.77343468215258 73.897374654618034 0 73.897374654618034 83.25172985979134 0 0 0 0 -63.388768787171102 9.5597456635359777 0 9.5597456635359777 251.72081339110628 0 0 0 0 -79.56629355619225 63.335032828468684 0 63.335032828468684 152.95885764290051 0 0 0 0 -44.001417368106559 149.67399135696087 0 149.67399135696087 121.89459627735778 0 0 0 0 -192.01109727762923 113.25101281781781 0 113.25101281781781 132.19508921742454 0 0 0 0 0.23499990476557286 107.53553814097177 0 107.53553814097177 80.088549783307371 0 0 0 0 -478.03933394274645 -8.849945590570087 0 -8.849945590570087 176.59154198752003 0 0 0 0 -295.74680991899186 66.027227016272718 0 66.027227016272718 163.58285614803845 0 0 0 0 -286.22651693710941 44.139127350786566 0 44.139127350786566 195.28405277741876 0 0 0 0 -474.538374953725 21.709471084723191 0 21.709471084723191 224.65721034132366 0 0 0 0 -474.74157629011097 27.430791017003685 0 27.430791017003685 153.54275858856636 0 0 0 0 -486.99232748367649 226.70457803141778 0 226.70457803141778 -105.36459577671178 0 0 0 0 -641.02236774707853 167.30711588969348 0 167.30711588969348 -95.307462690005195 0 0 0 0 -486.33220373051881 234.52087400691306 0 234.52087400691306 -139.20999182198676 0 0 0 0 -416.50089238325018 339.7354577171846 0 339.7354577171846 -182.5284988842825 0 0 0 0 -431.16719871491659 251.10251963053648 0 251.10251963053648 -189.80380518787877 0 0 0 0 -441.73286469144841 301.56918756143205 0 301.56918756143205 -411.03374783857083 0 0 0 0 -328.28932376456214 304.71372269515331 0 304.71372269515331 -249.78557375823112 0 0 0 0 -680.02485730855551 199.27387800405072 0 199.27387800405072 -67.17913850288528 0 0 0 0 -727.10484911326057 306.7851267791329 0 306.7851267791329 -131.83944333425211 0 0 0 0 -1042.1405200063309 413.38727205454103 0 413.38727205454103 -193.63338795574282 0 0 0 0 774.67184966583955 391.92363704500622 0 391.92363704500622 45.376168827028323 0 0 0 0 -4.6043490744350493 16.513074321355958 0 16.513074321355958 -20.512819006454031 0 0 0 0 -828.41728902412069 144.30030810673389 0 144.30030810673389 -29.818099395230888 0 0 0 0 -800.19832133120508 47.933766508125586 0 47.933766508125586 120.9969219549464 0 0 0 0 -810.45336943219445 176.12929141827817 0 176.12929141827817 -15.294612318055442 0 0 0 0 -653.57418869515823 51.876578272566121 0 51.876578272566121 82.37888873385441 0 0 0 0 -681.40317235472185 193.75181472509936 0 193.75181472509936 -204.29702864393357 0 0 0 0 -701.30810846158965 -32.661003514250083 0 -32.661003514250083 17.733076381305182 0 0 0 0 -255.38624664173221 372.16976670457291 0 372.16976670457291 -546.10541437409483 0 0 0 0 418.03277585962496 279.43970046987488 0 279.43970046987488 -14.090791349658502 0 0 0 0 -385.13635147347668 -89.815267797472643 0 -89.815267797472643 -4.1209485154479353 0 0 0 0 -4.2547930530157743 20.570035820990853 0 20.570035820990853 -23.389667348365233 0 0 0 0 -1.8342442083446358 -1.6654279063228756 0 -1.6654279063228756 -1.2287691192993755 0 0 0 0 -519.33059874820538 -128.90582225540106 0 -128.90582225540106 464.20557057143287 0 0 0 0 -1240.9504376989121 400.75514578936657 0 400.75514578936657 -49.808241483987331 0 0 0 0 -699.68034812941914 113.57826709703204 0 113.57826709703204 -227.99917640714011 0 0 0 0 -4.090776599436424 -2.7480597355935004 0 -2.7480597355935004 -0.31664083151912514 0 0 0 0 -1183.4743666873765 -58.906529185997442 0 -58.906529185997442 -82.311162018285472 0 0 0 0 7.2560173633100931 -87.473176296707607 0 -87.473176296707607 -91.56859397082448 0 0 0 0 -228.31920471107514 174.07353391313927 0 174.07353391313927 -44.38977762443119 0 0 0 0 -342.61076673147312 59.536922653207704 0 59.536922653207704 -84.77930541121259 0 0 0 0 -525.71968292257225 -42.826883213793735 0 -42.826883213793735 -84.047489704168186 0 0 0 0 -340.47775084577734 242.47815508576491 0 242.47815508576491 -144.59072964497295 0 0 0 0 -358.41236445762479 241.12958025841112 0 241.12958025841112 -117.93935954046947 0 0 0 0 -214.27756179174321 150.35881342060929 0 150.35881342060929 -118.62817986089958 0 0 0 0 -312.92319129803946 197.90609186969527 0 197.90609186969527 -128.69594540710386 0 0 0 0 -262.5395971874259 265.3338679106966 0 265.3338679106966 -215.26084861844583 0 0 0 0 -283.05236848531786 224.03387250664309 0 224.03387250664309 -303.94223114306669 0 0 0 0 -462.71519905242894 276.64360242511384 0 276.64360242511384 -367.08506470415978 0 0 0 0 -740.61615453733248 584.34597960137808 0 584.34597960137808 -408.79710973559122 0 0 0 0 -639.90732916313573 408.0428397144442 0 408.0428397144442 -307.56553628384177 0 0 0 0 -627.00761320340098 335.74350481644638 0 335.74350481644638 -200.9499260827165 0 0 0 0 -820.16065514414367 219.91725498708138 0 219.91725498708138 -248.4297964192956 0 0 0 0 -618.06016562559307 271.32961773973062 0 271.32961773973062 -239.18024224394776 0 0 0 0 -464.44707592110353 301.06996155787601 0 301.06996155787601 -267.17352383924481 0 0 0 0 -441.97043525268964 334.29174680158076 0 334.29174680158076 -227.14791481893326 0 0 0 0 -436.42698006900901 275.8094388801095 0 275.8094388801095 -183.90874444047563 0 0 0 0 -593.83051497624547 288.37690819108639 0 288.37690819108639 -137.61246062966006 0 0 0 0 -354.07472191631678 332.59276797044197 0 332.59276797044197 -253.09186170380531 0 0 0 0 -314.52290802488278 299.89816184500182 0 299.89816184500182 -191.38661300494778 0 0 0 0 -338.86141948957811 280.75391758315823 0 280.75391758315823 -158.13375410193453 0 0 0 0 -211.00556458056963 418.41017191052561 0 418.41017191052561 -439.11384312227983 0 0 0 0 -451.66809671279043 533.12361840133508 0 533.12361840133508 -322.01346816145042 0 0 0 0 -444.26887341546535 573.7275582879829 0 573.7275582879829 -488.3527180386518 0 0 0 0 -476.61939915348194 486.44549925163665 0 486.44549925163665 -383.99287658389221 0 0 0 0 -372.70952165884955 526.15825842160621 0 526.15825842160621 -484.80351179525314 0 0 0 0 3006.6077248343281 -1510.2561056334334 0 -1510.2561056334334 1285.3565904586558 0 0 0 0 2.1325428006797793 -0.67927813097833223 0 -0.67927813097833223 -9.2835999906114939 0 0 0 0 -1064.3838174193806 827.95351884772117 0 827.95351884772117 -297.0137590889799 0 0 0 0 -476.16144511279407 973.69114823814289 0 973.69114823814289 -954.76170833909964 0 0 0 0 -1467.5210661228853 652.01534470806826 0 652.01534470806826 -169.1486205378169 0 0 0 0 -1220.5705836908455 278.60675980921314 0 278.60675980921314 -152.66945866436254 0 0 0 0 -603.87845170756191 311.20276893040023 0 311.20276893040023 -176.86145257508019 0 0 0 0 159.17227792569065 -454.42193645549196 0 -454.42193645549196 539.15384583111154 0 0 0 0 52.132751173747238 142.9927556347784 0 142.9927556347784 -775.52804573306457 0 0 0 0 4.5083035573077126 2.6371255594868757 0 2.6371255594868757 -33.17752996404095 0 0 0 0 2048.6529866753881 860.73558163948519 0 860.73558163948519 -2340.5507427415687 0 0 0 0 -92.412427266899613 443.13186176115596 0 443.13186176115596 -1168.0176893608486 0 0 0 0 -308.72137368003314 197.18220590387136 0 197.18220590387136 -16.910265844149762 0 0 0 0 -216.96231529454235 150.31862357416048 0 150.31862357416048 -78.024085079385259 0 0 0 0 -48.433863203026704 285.0768871439268 0 285.0768871439268 -152.8583110401778 0 0 0 0 -83.618238946983183 177.02820589769635 0 177.02820589769635 -385.95515285005968 0 0 0 0 -3.2768839273703634 -54.694760158265581 0 -54.694760158265581 124.86273384086621 0 0 0 0 -7.2864382003151285 2.0727487750269233 0 2.0727487750269233 0.015079437629680115 0 0 0 0 -37.756797230984375 1.678600257918788 0 1.678600257918788 143.15262322695889 0 0 0 0 103.76662313757697 112.67128793414213 0 112.67128793414213 -5.1169907004041306 0 0 0 0 -63.326401970428819 2.87648094985515 0 2.87648094985515 42.240235918839431 0 0 0 0 -156.7060583432467 42.691277000855735 0 42.691277000855735 138.08719960346389 0 0 0 0 -629.66413609789015 75.20620274349676 0 75.20620274349676 581.96193029765345 0 0 0 0 -388.26438190726549 -13.161222362577973 0 -13.161222362577973 -84.406223991270963 0 0 0 0 -248.50639374753882 309.91826776272728 0 309.91826776272728 466.69849690279807 0 0 0 0 -121.68973701048526 148.05320393510738 0 148.05320393510738 -48.867945204017815 0 0 0 0 -250.62109666589822 20.844724367043455 0 20.844724367043455 100.76867354410024 0 0 0 0 -107.56992268603062 -69.194907683603105 0 -69.194907683603105 -101.05374550164925 0 0 0 0 -392.51531848916056 354.01023696285301 0 354.01023696285301 -396.2557979368321 0 0 0 0 -44.316641583922319 -72.861662092765982 0 -72.861662092765982 29.628539308105246 0 0 0 0 1.7597159640863254 -4.8621176673995841 0 -4.8621176673995841 8.0857530706258771 0 0 0 0 -21.808329604728442 -55.261358106612818 0 -55.261358106612818 125.17585331503233 0 0 0 0 -68.941663876234088 -230.67819655731864 0 -230.67819655731864 162.82726225957526 0 0 0 0 -21.968544710493688 -13.954981864384585 0 -13.954981864384585 5.3886614832500204 0 0 0 0 -39.665525567315541 -24.188859061010135 0 -24.188859061010135 72.847055934021228 0 0 0 0 -382.66375039717241 306.26230586145738 0 306.26230586145738 -166.8321899056366 0 0 0 0 -368.66044455811789 315.25145043175985 0 315.25145043175985 -176.78336052266593 0 0 0 0 -325.83277628086944 239.94921399910359 0 239.94921399910359 -142.25001847993167 0 0 0 0 6.2026869092204393 3.1582591399310758 0 3.1582591399310758 -46.642513607270743 0 0 0 0 234.04480042702198 26.581992350220389 0 26.581992350220389 -198.03890076566313 0 0 0 0 -315.55170813708537 209.65900031590715 0 209.65900031590715 -160.24264611294683 0 0 0 0 -349.61521442610683 224.75499890107801 0 224.75499890107801 -121.25916614037197 0 0 0 0 -247.19844913672569 107.91246065790472 0 107.91246065790472 -18.046348300786633 0 0 0 0 -222.60621015393281 250.2019017503336 0 250.2019017503336 -234.34604862625611 0 0 0 0 -225.13118773556198 169.43787336293786 0 169.43787336293786 -117.9060684517232 0 0 0 0 -257.91340142030822 356.47155955871506 0 356.47155955871506 -333.76919323144466 0 0 0 0 -163.13338969239703 -83.617769584958211 0 -83.617769584958211 15.04057910688141 0 0 0 0 -73.154592548948131 191.17656134448856 0 191.17656134448856 -204.34150639551183 0 0 0 0 -80.487587231735233 -6.8553361946378573 0 -6.8553361946378573 13.647676343491412 0 0 0 0 -75.90369412873406 -5.4045527754215072 0 -5.4045527754215072 13.947264224458195 0 0 0 0 -46.360661722921833 -11.560605669170094 0 -11.560605669170094 -8.9319866248518007 0 0 0 0 -65.164482344069256 -12.508698408776581 0 -12.508698408776581 5.8136304219415251 0 0 0 0 -75.067150355280319 -19.629345235179244 0 -19.629345235179244 18.940627573750135 0 0 0 0 -84.076639562488708 -11.478244949290684 0 -11.478244949290684 12.83966781439085 0 0 0 0 -53.409246390721819 -21.509429942669158 0 -21.509429942669158 17.537462843647972 0 0 0 0 -21.317247112822969 4.9831515776669448 0 4.9831515776669448 -1.1308656744336094 0 0 0 0 20.145834196984651 78.297395184600759 0 78.297395184600759 -225.97171183973018 0 0 0 0 -7.519447812911757 6.2141685995690779 0 6.2141685995690779 -52.845728588976527 0 0 0 0 -68.749832346878975 -19.303070545621267 0 -19.303070545621267 25.112058542106752 0 0 0 0 -35.026225491874357 77.742208180337002 0 77.742208180337002 -62.2286401626734 0 0 0 0 -71.55563033373214 4.3125852203914761 0 4.3125852203914761 13.026655307163217 0 0 0 0 -62.375512555869136 -13.70312120574215 0 -13.70312120574215 14.15438853478372 0 0 0 0 -79.056349061585934 -11.614379950093735 0 -11.614379950093735 27.767183674068974 0 0 0 0 -69.852145433941047 -10.63392476303758 0 -10.63392476303758 34.006274506255167 0 0 0 0 -9.7702929587881577 -5.0708836161204403 0 -5.0708836161204403 19.999854377397 0 0 0 0 168.95199106571454 12.190233274385605 0 12.190233274385605 -92.026598912512668 0 0 0 0 4.0097381438536104 18.249385916172969 0 18.249385916172969 84.621699127325428 0 0 0 0 16.775195040616381 -26.271755190935245 0 -26.271755190935245 -23.873409300716943 0 0 0 0 25.345856458006892 127.48348534328751 0 127.48348534328751 -54.823740722729426 0 0 0 0 -74.756816329907451 -8.7782711756249228 0 -8.7782711756249228 13.531541036580961 0 0 0 0 -73.178239872126142 -16.002207990720649 0 -16.002207990720649 2.778385155806518 0 0 0 0 -85.153652406817855 -14.53998119157859 0 -14.53998119157859 10.782341621059913 0 0 0 0 -67.620287429002929 -16.722404950108739 0 -16.722404950108739 2.8453809065194946 0 0 0 0 -910.62423301862873 -658.07328255388347 0 -658.07328255388347 -60.810286940539754 0 0 0 0 4.8416507056826958 60.094229556064306 0 60.094229556064306 97.390190053773495 0 0 0 0 -12.961798877607668 -6.3010720345517228 0 -6.3010720345517228 11.848358147180237 0 0 0 0 -55.284016871638237 -15.000370118333343 0 -15.000370118333343 -0.65490796933313744 0 0 0 0 -61.114283983097266 58.212925919817621 0 58.212925919817621 240.14353757232107 0 0 0 0 -450.95657495170644 906.62673375491568 0 906.62673375491568 -220.57041509391638 0 0 0 0 -13.571247796502576 835.65816155090943 0 835.65816155090943 -484.24958120350311 0 0 0 0 -1104.8892270785036 881.98156251118326 0 881.98156251118326 -73.475094693601022 0 0 0 0 -515.22570101344172 687.13986946147452 0 687.13986946147452 -59.871278680901924 0 0 0 0 1220.0506573953098 227.11600278135302 0 227.11600278135302 -320.14218686989443 0 0 0 0 -19.183295630543721 -4.4526260276210383 0 -4.4526260276210383 0.86791796554116374 0 0 0 0 -744.11014894416985 510.51709194846308 0 510.51709194846308 -49.420310817040445 0 0 0 0 405.71561949233364 400.17538072908792 0 400.17538072908792 -201.18111495716403 0 0 0 0 -1443.4615993862135 1120.1044712351481 0 1120.1044712351481 59.55092191490985 0 0 0 0 -650.94547241795954 712.01084039817306 0 712.01084039817306 72.720283453973934 0 0 0 0 -333.63811067887946 28.086364302895163 0 28.086364302895163 129.69150286608874 0 0 0 0 -80.122916223886477 -29.048101585142462 0 -29.048101585142462 122.44366111080581 0 0 0 0 -66.261959851919684 -16.663397796754239 0 -16.663397796754239 -0.85812782252033681 0 0 0 0 -139.35267759667295 67.765431313867794 0 67.765431313867794 42.959049609244175 0 0 0 0 -64.872226445854508 -21.112181894201687 0 -21.112181894201687 -2.3319286316346668 0 0 0 0 -79.033195455995155 -0.8549068638621975 0 -0.8549068638621975 -9.9523426283267327 0 0 0 0 -71.043259419966489 -29.370757052362933 0 -29.370757052362933 -16.784401968790007 0 0 0 0 -35.659785896466929 -136.48703425807525 0 -136.48703425807525 86.642098650894695 0 0 0 0 -22.78239990070324 -176.0826479046691 0 -176.0826479046691 -46.560898469002268 0 0 0 0 -87.886256743120612 1.9986017376477321 0 1.9986017376477321 -17.062763976037786 0 0 0 0 6.5097227967740423 -6.5323967586883036 0 -6.5323967586883036 -6.0094272761443559 0 0 0 0 -15.737683826156072 -3.9050183142927963 0 -3.9050183142927963 4.5162785945686466 0 0 0 0 -84.157970175103401 3.3491311180778212 0 3.3491311180778212 -33.889921813472029 0 0 0 0 -84.369043348313426 -5.3940511706350662 0 -5.3940511706350662 -35.450076933790115 0 0 0 0 -79.038545863229956 -28.372450949480935 0 -28.372450949480935 -12.51133145656695 0 0 0 0 -95.532742638322816 -9.2952323992506081 0 -9.2952323992506081 0.20737870408356684 0 0 0 0 -78.658131243035314 -20.870567191926966 0 -20.870567191926966 -46.049407232994781 0 0 0 0 -80.157353734539356 -15.611299102290104 0 -15.611299102290104 2.790260383912937 0 0 0 0 -69.24999299566116 -3.0633499471482537 0 -3.0633499471482537 10.419795261951549 0 0 0 0 -72.189764151771669 -9.8586646890556722 0 -9.8586646890556722 5.7797709600072267 0 0 0 0 -78.259452801568841 -11.619792426157801 0 -11.619792426157801 12.70136274519291 0 0 0 0 -69.785518101227353 -11.925930070862705 0 -11.925930070862705 5.7426532469788754 0 0 0 0 -72.850465776362398 -7.8581726501524827 0 -7.8581726501524827 0.34449603652137739 0 0 0 0 -66.326137360167195 -11.348111364736724 0 -11.348111364736724 1.114578481305216 0 0 0 0 -73.022247484943364 -3.0473075686672928 0 -3.0473075686672928 -9.1662866936067076 0 0 0 0 618.42238824974629 -243.05295599282726 0 -243.05295599282726 -81.943024175756818 0 0 0 0 -3218.1281225416606 642.45178903280384 0 642.45178903280384 -247.46250872827648 0 0 0 0 -160.17249347680718 -209.74944316626318 0 -209.74944316626318 85.26813443667379 0 0 0 0 269.96321900180919 -54.160930090865349 0 -54.160930090865349 29.574044463713108 0 0 0 0 362.7873112559173 -659.7404492786718 0 -659.7404492786718 158.60343075575383 0 0 0 0 -150.89943695028705 -422.26462744308355 0 -422.26462744308355 464.83045464691531 0 0 0 0 -37.668577466383056 4.4244017715165498 0 4.4244017715165498 23.427807139153327 0 0 0 0 -62.414110756219699 29.265509930624951 0 29.265509930624951 -7.1678601586922674 0 0 0 0 -65.656536848930045 171.86087813276981 0 171.86087813276981 34.479285933026631 0 0 0 0 -450.32570334245884 92.789771412541086 0 92.789771412541086 893.10850555775505 0 0 0 0 -23.265574640065097 12.981976322290606 0 12.981976322290606 -7.4859559631874699 0 0 0 0 -965.68874864851387 -405.8523779996126 0 -405.8523779996126 -18.456401732242739 0 0 0 0 -2424.7658828349886 -375.67480413959947 0 -375.67480413959947 3.7904028496639057 0 0 0 0 -1391.2399118177054 777.35165688728466 0 777.35165688728466 157.41301996528091 0 0 0 0 -3043.0239750885594 1382.1421907732865 0 1382.1421907732865 -214.97176279396626 0 0 0 0 -2616.701192776909 997.00174982257249 0 997.00174982257249 121.41224810399217 0 0 0 0 -1122.4065118783401 1037.9971306372463 0 1037.9971306372463 -920.47338409257281 0 0 0 0 -404.79357302645076 -1415.6590580405987 0 -1415.6590580405987 -3512.9617768647968 0 0 0 0 -2124.2759958588467 1807.9861966336321 0 1807.9861966336321 -1512.2090869926324 0 0 0 0 -1270.6476225065735 2135.367553433141 0 2135.367553433141 -850.01682994786461 0 0 0 0 -1147.9587414685302 2451.7057540092082 0 2451.7057540092082 -1006.5187726737805 0 0 0 0 -1777.0335238148327 2129.7902052445324 0 2129.7902052445324 -788.83143484334823 0 0 0 0 -28.496903766972949 -2.3292842037367514 0 -2.3292842037367514 1.0247202266029476 0 0 0 0 -529.19005014707363 -553.35299518848535 0 -553.35299518848535 -108.13867063699163 0 0 0 0 -2701.9445553378846 515.76069383801973 0 515.76069383801973 292.52547698665649 0 0 0 0 -1779.3068155664951 -628.21063592371468 0 -628.21063592371468 104.79457410709188 0 0 0 0 -42.230785005034704 169.0552659930288 0 169.0552659930288 158.64241761650021 0 0 0 0 99.503034761364688 96.331342658603475 0 96.331342658603475 -149.96492131195492 0 0 0 0 -460.18037246343738 -245.74907799619371 0 -245.74907799619371 -228.42292867700442 0 0 0 0 -41.348652175296593 68.921238655562604 0 68.921238655562604 -160.84782578320778 0 0 0 0 -539.25418151293707 81.066580042238229 0 81.066580042238229 -59.004260981946572 0 0 0 0 -56.587010880823073 -115.8161511730134 0 -115.8161511730134 -149.96080335218835 0 0 0 0 -711.51530267540147 5.0817717862597647 0 5.0817717862597647 -44.846110733147725 0 0 0 0 -669.52059595691389 -160.62177044538316 0 -160.62177044538316 -64.436987771263688 0 0 0 0 -1395.126778031452 165.61884087732665 0 165.61884087732665 239.82869141498941 0 0 0 0 -1368.9466426046274 219.05734415142683 0 219.05734415142683 285.26917638523389 0 0 0 0 -1117.5304864201826 610.55750495517532 0 610.55750495517532 -93.727203499134475 0 0 0 0 -1557.3163984415987 1327.6372122603577 0 1327.6372122603577 -866.82790433854632 0 0 0 0 -68.903934100097104 73.024159546855174 0 73.024159546855174 -1562.5445470319028 0 0 0 0 361.770421613699 -1.6310895975679529 0 -1.6310895975679529 -740.67010970897798 0 0 0 0 -393.48830836353773 439.09906030379153 0 439.09906030379153 -331.05250726831792 0 0 0 0 -369.23003534122472 492.15329959745975 0 492.15329959745975 -317.52228011235593 0 0 0 0 -479.32151511627853 205.96429733061996 0 205.96429733061996 -46.456569156705882 0 0 0 0 -1539.2595539358554 190.9745651932958 0 190.9745651932958 249.41346499836777 0 0 0 0 -1354.1986140767876 222.08187816021359 0 222.08187816021359 247.68020614182797 0 0 0 0 -869.71160231727481 28.639888865365265 0 28.639888865365265 -64.534629250797934 0 0 0 0 -575.95033086562762 447.7081183010223 0 447.7081183010223 44.492292351926835 0 0 0 0 122.0151640005497 -129.73994137096133 0 -129.73994137096133 -114.97615737827732 0 0 0 0 -583.73753548856257 476.09337964529004 0 476.09337964529004 -104.84654737441724 0 0 0 0 -1497.089887874914 400.38196893326813 0 400.38196893326813 149.59787100616995 0 0 0 0 -1045.1635947337672 177.02801222765834 0 177.02801222765834 224.58451682681243 0 0 0 0 -11.148887485365506 -1.8890770960595162 0 -1.8890770960595162 -1.1337543033779287 0 0 0 0 -1099.142890347197 568.20154058182152 0 568.20154058182152 -121.27865422371201 0 0 0 0 -625.98536256935768 -345.34326583583061 0 -345.34326583583061 155.1147291808536 0 0 0 0 10.912219156700303 -90.492295174303308 0 -90.492295174303308 81.583734911810552 0 0 0 0 -124.06291639678602 -143.1430160424386 0 -143.1430160424386 2.4404221866925582 0 0 0 0 -3.8508970890694627 -5.1081486058008139 0 -5.1081486058008139 5.4540201138461963 0 0 0 0 -84.50718931547803 9.095430688929639 0 9.095430688929639 25.06793866338252 0 0 0 0 152.20985214849134 75.967367629021055 0 75.967367629021055 147.10366854067615 0 0 0 0 -268.65710075326933 265.17425586716081 0 265.17425586716081 -301.75599039221197 0 0 0 0 -474.84362920708372 381.88330335719456 0 381.88330335719456 56.801169405243172 0 0 0 0 -299.40563754554023 412.80043963437311 0 412.80043963437311 236.06411516115077 0 0 0 0 -384.32621429859137 553.24746507032478 0 553.24746507032478 -220.64156814465696 0 0 0 0 -235.86351870687213 214.61050331562819 0 214.61050331562819 -13.325347518768467 0 0 0 0 -523.0062116959125 122.79800426397514 0 122.79800426397514 -34.165179850025197 0 0 0 0 -14.999712959975 8.0827820166072968 0 8.0827820166072968 -0.39937451373984167 0 0 0 0 -1331.964122605903 775.12027216907086 0 775.12027216907086 481.7723292637238 0 0 0 0 -87.730869965644928 34.684817302265813 0 34.684817302265813 -6.7750014289981673 0 0 0 0 -1447.7285995842249 1280.2569033911268 0 1280.2569033911268 -18.669529265830533 0 0 0 0 -977.55752332114207 497.30495750441787 0 497.30495750441787 -412.14235496116453 0 0 0 0 -793.64100583073741 67.569479306060202 0 67.569479306060202 589.06574623378924 0 0 0 0 -275.06205417765159 -473.5563813082149 0 -473.5563813082149 769.46799266907874 0 0 0 0 -1080.459497173586 529.80823218042906 0 529.80823218042906 -95.285589676706877 0 0 0 0 -776.91602588680325 235.6222027958388 0 235.6222027958388 -1066.1370800448622 0 0 0 0 -785.39574795054068 106.13861495609353 0 106.13861495609353 -342.98086152437543 0 0 0 0 -636.22153812171382 258.76520559861819 0 258.76520559861819 -611.79666492313663 0 0 0 0 -784.65248181988136 145.37310126078137 0 145.37310126078137 -691.48408198950597 0 0 0 0 -1146.5971319786913 -140.78158390259296 0 -140.78158390259296 -575.7842352579014 0 0 0 0 -990.56496783862713 169.50300664444021 0 169.50300664444021 -207.26652870327598 0 0 0 0 -1061.1759370437212 393.74929615094038 0 393.74929615094038 -786.89478472581504 0 0 0 0 -990.55384581954422 166.21665380726824 0 166.21665380726824 -283.99634122641146 0 0 0 0 -1098.8670004704181 243.55190365240557 0 243.55190365240557 -35.610603187734796 0 0 0 0 -1080.4430566955707 300.52695164388632 0 300.52695164388632 -147.90874785099811 0 0 0 0 -983.82658262734185 147.48053257374136 0 147.48053257374136 -194.14593518566244 0 0 0 0 -1108.3200625854952 212.25190032863958 0 212.25190032863958 -58.442684277492617 0 0 0 0 2.4861692298436537 32.927636352208452 0 32.927636352208452 11.859013126728314 0 0 0 0 -12.161411009219592 12.738490928933288 0 12.738490928933288 -3.1379863209340328 0 0 0 0 -52.888763820134045 10.088507655139722 0 10.088507655139722 25.588937911529797 0 0 0 0 -12.833184485322676 -11.143965367947217 0 -11.143965367947217 -5.0086721363045177 0 0 0 0 -12.765821579188383 13.117920523677071 0 13.117920523677071 -13.950920914625222 0 0 0 0 -965.30979893127369 45.838768309939724 0 45.838768309939724 -55.773495798130043 0 0 0 0 -3.7146562268261079 -1.6168872609655693 0 -1.6168872609655693 -3.4267391573869084 0 0 0 0 -1410.6169741080521 293.64864533662603 0 293.64864533662603 -75.962790984532234 0 0 0 0 -64.270407705989783 41.7212314143203 0 41.7212314143203 11.187070463668135 0 0 0 0 92.052923186027328 63.303871438058195 0 63.303871438058195 -607.68225436052899 0 0 0 0 5.4617177323889337 -59.393827104078355 0 -59.393827104078355 -157.77464178879291 0 0 0 0 -532.40760233120818 654.31191835776235 0 654.31191835776235 -845.38093134618157 0 0 0 0 -6.0390593542812496 -0.8940523523272077 0 -0.8940523523272077 -3.9827273065345015 0 0 0 0 -754.85676997419796 597.40124275575863 0 597.40124275575863 -798.07266656067168 0 0 0 0 -503.7940836212365 284.12245130265183 0 284.12245130265183 -650.13427436368988 0 0 0 0 -281.38052310609783 318.96014850447227 0 318.96014850447227 -314.45250590898104 0 0 0 0 -490.28315006491539 490.36374636963365 0 490.36374636963365 -409.18621614214317 0 0 0 0 -661.22425736559671 128.11105332792249 0 128.11105332792249 -327.9068307890393 0 0 0 0 -204.3077092757012 507.08636075892286 0 507.08636075892286 -629.07236191469929 0 0 0 0 -462.4017032518168 562.67174984770918 0 562.67174984770918 -402.03031465744698 0 0 0 0 -267.69209920791127 483.89179546100621 0 483.89179546100621 -382.01928284301084 0 0 0 0 -274.80746824176367 538.95937439207353 0 538.95937439207353 -385.40159073145696 0 0 0 0 -352.98759685750701 516.20388052493036 0 516.20388052493036 -384.91579379956647 0 0 0 0 -88.327616808193852 332.793802482091 0 332.793802482091 -367.15908575982377 0 0 0 0 -237.97714839417313 33.094195478851816 0 33.094195478851816 -82.081649143802153 0 0 0 0 -887.07925552351662 348.69158344636071 0 348.69158344636071 -102.06025369419331 0 0 0 0 -661.77980699532782 230.14627097818584 0 230.14627097818584 -76.85589297065053 0 0 0 0 -330.19104227737989 396.37303684303242 0 396.37303684303242 -247.94505291411042 0 0 0 0 -762.97421289519116 516.63135605713887 0 516.63135605713887 -279.88531594458618 0 0 0 0 -1472.1149125854656 925.3334494291812 0 925.3334494291812 -253.05327990565638 0 0 0 0 1.8517879042032916 -0.46691794957297361 0 -0.46691794957297361 -10.884960292191185 0 0 0 0 3061.0664034292495 -1427.0178247444171 0 -1427.0178247444171 1394.4394816369004 0 0 0 0 -650.04172760181245 635.16577351306842 0 635.16577351306842 -480.68348216165941 0 0 0 0 -701.98588661528811 409.92002044569381 0 409.92002044569381 -354.13506418800171 0 0 0 0 -220.33693334848795 372.67535131181648 0 372.67535131181648 -1192.3715013088022 0 0 0 0 -437.93771673988886 -26.53941511103767 0 -26.53941511103767 -126.22179105189571 0 0 0 0 -958.71643621605472 1096.8373771746792 0 1096.8373771746792 -815.06595705154723 0 0 0 0 103.38709956299863 1986.7617271300569 0 1986.7617271300569 -2421.714129816246 0 0 0 0 -281.72486930870218 79.458510926473991 0 79.458510926473991 -95.800223780568103 0 0 0 0 223.77235058226415 -225.35741152161486 0 -225.35741152161486 -501.60447708928768 0 0 0 0 -59.210648412525188 -196.18792715899917 0 -196.18792715899917 229.77280214073562 0 0 0 0 -246.20740326173109 -64.610358499420727 0 -64.610358499420727 -229.13229405353923 0 0 0 0 5.1155468745749531 3.4949470726980678 0 3.4949470726980678 -23.937331740401302 0 0 0 0 10.130152185680345 44.544949385572068 0 44.544949385572068 -312.46383148687062 0 0 0 0 974.7025333179372 -74.897200286520274 0 -74.897200286520274 -855.07363027491374 0 0 0 0 -77.288366423876141 228.68725250740158 0 228.68725250740158 -112.59354231656914 0 0 0 0 -207.50763633752285 133.93554350060617 0 133.93554350060617 -187.13888610305639 0 0 0 0 -290.17046430754272 83.524449529042158 0 83.524449529042158 -47.849996328714951 0 0 0 0 -278.34499152527133 157.02355320362221 0 157.02355320362221 -174.59106493219497 0 0 0 0 -279.05684897283209 91.793308724507824 0 91.793308724507824 -257.49486808635811 0 0 0 0 -432.61438945711416 320.34035699447895 0 320.34035699447895 -318.9387053855844 0 0 0 0 -304.45184972809511 552.69411309670886 0 552.69411309670886 -433.44257486703282 0 0 0 0 -342.95645765269001 80.61424337423432 0 80.61424337423432 -58.865202721199694 0 0 0 0 -1.5591865664146809 -0.6690838414663034 0 -0.6690838414663034 3.8794974604798966 0 0 0 0 -270.52736412043669 127.18544525511243 0 127.18544525511243 -29.922192001308758 0 0 0 0 -201.45163578622305 26.855567175682609 0 26.855567175682609 -95.40126315262296 0 0 0 0 -205.06090907593898 97.699551557123414 0 97.699551557123414 -22.54909706487706 0 0 0 0 -213.70826758246676 58.014280532163184 0 58.014280532163184 9.8332373212324455 0 0 0 0 -251.33756838730187 67.703802688793758 0 67.703802688793758 -32.636647854200419 0 0 0 0 -249.33386102342774 77.01756838482379 0 77.01756838482379 -14.373407861516171 0 0 0 0 -194.20519398975739 54.7699076637291 0 54.7699076637291 -39.128588374627725 0 0 0 0 -27.360782227151503 -77.299235566642892 0 -77.299235566642892 -112.47712019313803 0 0 0 0 -47.697201619454972 32.153213728145147 0 32.153213728145147 -43.248377086832988 0 0 0 0 -7.1804567377513564 -8.7487238082419623 0 -8.7487238082419623 -2.3950020896790676 0 0 0 0 -158.5441050989466 80.714548512781221 0 80.714548512781221 -39.005109083662319 0 0 0 0 -199.37959855006193 65.365705232830805 0 65.365705232830805 -21.150872232758957 0 0 0 0 -147.4340908285094 10.114586313146276 0 10.114586313146276 10.655043914212001 0 0 0 0 48.345896262602764 -43.291827021817426 0 -43.291827021817426 -6.2300917362695145 0 0 0 0 5.7153930529402075 5.1151826174392738 0 5.1151826174392738 -23.845834015024128 0 0 0 0 -73.403933384259744 -74.028676182705112 0 -74.028676182705112 6.4425518290024684 0 0 0 0 -166.13698695373751 240.70384944259604 0 240.70384944259604 164.182068873763 0 0 0 0 -324.7825416249143 128.20555948554897 0 128.20555948554897 -18.127951737862531 0 0 0 0 -1.4395174897694858 0.53286650232968213 0 0.53286650232968213 7.7643810188162128 0 0 0 0 -243.42945985616097 93.469311515562367 0 93.469311515562367 -50.867978675623363 0 0 0 0 130.3331822172986 -39.075690904989187 0 -39.075690904989187 -62.103228945208684 0 0 0 0 32.064520145078859 4.5610664607734179 0 4.5610664607734179 -43.893564063759186 0 0 0 0 -80.879730111446406 130.57403091791275 0 130.57403091791275 -42.00198744400268 0 0 0 0 -1.2860004337855457 0.72387699947630324 0 0.72387699947630324 8.9692727654649538 0 0 0 0 -318.13363690379992 134.0651367788364 0 134.0651367788364 -7.6529231887125206 0 0 0 0 -290.98349666845752 84.02717053486208 0 84.02717053486208 -18.306240391624669 0 0 0 0 -209.39898476227972 106.34362808028345 0 106.34362808028345 -32.783702896947943 0 0 0 0 -266.17192562841956 117.20884664456935 0 117.20884664456935 -23.820952950342871 0 0 0 0 -284.38389734426164 113.33356577136874 0 113.33356577136874 -3.3324573035570211 0 0 0 0 -266.92934480857002 114.36960356706675 0 114.36960356706675 -5.1274922961747507 0 0 0 0 -247.89636029601388 171.70289745698938 0 171.70289745698938 -87.883260899496236 0 0 0 0 -152.11160825929255 115.06433461983033 0 115.06433461983033 -54.69930339943312 0 0 0 0 -268.96331849059789 125.44881571917176 0 125.44881571917176 2.8337577945603698 0 0 0 0 -1.4047638696925588 0.58652563320623585 0 0.58652563320623585 8.0896678870729204 0 0 0 0 -15.97949719405733 44.783552642983068 0 44.783552642983068 -25.045922577850433 0 0 0 0 -268.71382118585007 -5.5987048787437743 0 -5.5987048787437743 20.929396822462877 0 0 0 0 11.149934494880654 15.608980151431865 0 15.608980151431865 18.90140276459897 0 0 0 0 -180.18235258085042 69.463259062612678 0 69.463259062612678 -24.775317176685348 0 0 0 0 -1.5999698770713806 -1.8941322253278656 0 -1.8941322253278656 -0.56208098103275006 0 0 0 0 -157.99486855051509 47.593950590985514 0 47.593950590985514 -29.806487399982871 0 0 0 0 -195.17082695954014 61.428320390359659 0 61.428320390359659 -13.90778956944996 0 0 0 0 -189.18267319257575 66.019243715619268 0 66.019243715619268 -34.343463953218816 0 0 0 0 -204.60685624208054 85.00001441255381 0 85.00001441255381 -35.098561454475202 0 0 0 0 -215.56236438959604 75.983869071567824 0 75.983869071567824 -20.199006145903695 0 0 0 0 -102.44665524418815 29.596685949223684 0 29.596685949223684 21.698062857697096 0 0 0 0 -123.67560948387836 20.656064270368006 0 20.656064270368006 26.611505011946065 0 0 0 0 -167.00749905262637 84.618830449427151 0 84.618830449427151 -37.601134633987385 0 0 0 0 -0.11942678489997149 -0.85709812844442013 0 -0.85709812844442013 1.1890087154078515 0 0 0 0 12.071524517232319 3.0512203225698613 0 3.0512203225698613 23.883482819672281 0 0 0 0 -3.1349850402756338 -7.3267794336410503 0 -7.3267794336410503 -0.76228388215963605 0 0 0 0 1.1034950877666887 2.4558341721047867 0 2.4558341721047867 1.825235903948343 0 0 0 0 -40.852798246211023 5.4714106541589445 0 5.4714106541589445 15.048760322729322 0 0 0 0 -19.84810863474015 17.092747472135017 0 17.092747472135017 4.5791233093915977 0 0 0 0 -26.691547624565061 -2.5230746840481544 0 -2.5230746840481544 11.31802025252825 0 0 0 0 -16.270552437243168 -39.51066558551247 0 -39.51066558551247 -43.349957257399183 0 0 0 0 -114.23188394251338 51.081303837248626 0 51.081303837248626 182.2138553955233 0 0 0 0 -48.102575502120089 -84.814422982869914 0 -84.814422982869914 37.532956252997792 0 0 0 0 -48.483365955678238 11.744434961747576 0 11.744434961747576 3.5382037638922252 0 0 0 0 -332.56605395274528 -53.91387596365098 0 -53.91387596365098 134.6949348579243 0 0 0 0 -462.01145696044841 292.42816733420295 0 292.42816733420295 -252.35782492696126 0 0 0 0 34.479801937748562 9.3131531797916978 0 9.3131531797916978 17.818111010790744 0 0 0 0 -2.1206258102847784 0.91564508570820635 0 0.91564508570820635 -0.52973450554384982 0 0 0 0 -5.5256555787564139 15.753910402789188 0 15.753910402789188 -307.96817463044499 0 0 0 0 -0.57436734672479872 1.0659424427875734 0 1.0659424427875734 -1.4002940218623152 0 0 0 0 -467.60336039331742 -61.096148277836619 0 -61.096148277836619 89.410077653454209 0 0 0 0 -369.23467535802047 178.93465534810639 0 178.93465534810639 -20.75022930853811 0 0 0 0 -576.44630871811569 246.8122471059753 0 246.8122471059753 -20.987397361208423 0 0 0 0 -628.90164134520455 -17.108788751073007 0 -17.108788751073007 120.66545786580173 0 0 0 0 -194.69502368751273 188.07480468090216 0 188.07480468090216 -198.44589260137673 0 0 0 0 -5.862462772924232 -3.4801646485358333 0 -3.4801646485358333 6.3300787564314458 0 0 0 0 -17.735627262838591 66.432546037827763 0 66.432546037827763 -118.00679594304347 0 0 0 0 76.238507294372539 -136.52327773470097 0 -136.52327773470097 -64.757911900599538 0 0 0 0 -270.42716177455441 -25.202771783382559 0 -25.202771783382559 26.326177612114407 0 0 0 0 -46.786359544699337 -5.202557169220384 0 -5.202557169220384 30.576563336194397 0 0 0 0 -332.6034104338396 63.271361728201555 0 63.271361728201555 163.34340791819704 0 0 0 0 -195.54089204134652 108.39365249277944 0 108.39365249277944 40.09991937234463 0 0 0 0 -658.32032886060188 127.54459527905783 0 127.54459527905783 70.822261752920895 0 0 0 0 -438.87974188100634 318.36876623921307 0 318.36876623921307 -368.77304388563061 0 0 0 0 -165.47614400353632 355.40827423590781 0 355.40827423590781 -305.30377023304391 0 0 0 0 -223.72478895907989 164.1059131939528 0 164.1059131939528 73.784937106431244 0 0 0 0 -7.2820877490592864 25.96055559560503 0 25.96055559560503 -5.083575122257141 0 0 0 0 -2.6861827187441847 42.581205597140496 0 42.581205597140496 -20.269850632742141 0 0 0 0 66.971722418631543 109.78676373897542 0 109.78676373897542 -77.586360036013502 0 0 0 0 -71.271242482696834 45.040093879573078 0 45.040093879573078 -16.469117354556147 0 0 0 0 176.86032378946766 160.33701687049006 0 160.33701687049006 -113.0792340883927 0 0 0 0 184.47283368543503 183.06575254202335 0 183.06575254202335 -210.63798575279361 0 0 0 0 68.998722819334944 -12.789200611105571 0 -12.789200611105571 7.8525644114179158 0 0 0 0 95.303848622592341 46.81720554857111 0 46.81720554857111 -21.094205734380012 0 0 0 0 66.895513763454801 -0.85599488366051446 0 -0.85599488366051446 -14.546803400878161 0 0 0 0 50.317042903800029 -14.201136081966979 0 -14.201136081966979 -95.033200406942342 0 0 0 0 102.36678640027822 68.785875499708709 0 68.785875499708709 37.130336095382518 0 0 0 0 -40.539759557752404 -14.734645860429509 0 -14.734645860429509 -4.1421058270134381 0 0 0 0 289.28812989004655 -80.02830140988226 0 -80.02830140988226 115.28170839937957 0 0 0 0 -23.192424046211926 19.485082396030975 0 19.485082396030975 11.578526172090783 0 0 0 0 -207.13316336169373 24.53415925099398 0 24.53415925099398 -13.658900139475008 0 0 0 0 -59.443159346511521 30.119578842019536 0 30.119578842019536 -13.909919751280803 0 0 0 0 -1.359509763900455 -2.2650434973934352 0 -2.2650434973934352 -3.2510759901323496 0 0 0 0 -73.657694973197067 7.3248262297502151 0 7.3248262297502151 -16.079403947712308 0 0 0 0 -75.823755163204623 9.4611193464425014 0 9.4611193464425014 -10.182072052399235 0 0 0 0 -76.757565710475319 6.1352221909401123 0 6.1352221909401123 -7.3859263596546043 0 0 0 0 -100.37056776131794 15.186070184305208 0 15.186070184305208 -7.3595128903874638 0 0 0 0 -217.05871598505473 40.235126507014229 0 40.235126507014229 92.954103584062523 0 0 0 0 -76.800596331669198 -8.6227043103591683 0 -8.6227043103591683 2.4649785839637648 0 0 0 0 -55.013916889220127 -12.368844936857073 0 -12.368844936857073 1.3618168578417738 0 0 0 0 -71.087915234049433 10.202042430965321 0 10.202042430965321 -29.222902749602326 0 0 0 0 -62.634210809512297 827.96229912618207 0 827.96229912618207 -1358.4285748836962 0 0 0 0 -18.023645821878389 -10.34729038404906 0 -10.34729038404906 -23.782558678331675 0 0 0 0 -2412.9399829322501 841.16428867644368 0 841.16428867644368 106.25132073334741 0 0 0 0 -1249.478554449699 389.74412072017333 0 389.74412072017333 220.96625852661407 0 0 0 0 -63.689098242699401 19.54717033441716 0 19.54717033441716 -24.378532070037409 0 0 0 0 -73.26534671652189 11.097470010289271 0 11.097470010289271 -29.108160313682674 0 0 0 0 -6.5204627752950017 -11.598359014897781 0 -11.598359014897781 -18.0455058713695 0 0 0 0 -1311.1331484299226 520.7944042834971 0 520.7944042834971 -34.125852406098531 0 0 0 0 -1141.0704691552528 234.15430437827683 0 234.15430437827683 -34.773490250849143 0 0 0 0 -1144.2544169984903 249.43170602823977 0 249.43170602823977 54.091211969409642 0 0 0 0 -1041.1680569863893 141.26656713752971 0 141.26656713752971 10.994400137842831 0 0 0 0 -1251.160950447098 288.62260316815531 0 288.62260316815531 -10.647500390894038 0 0 0 0 -8.7961087852641526 -12.712429501402525 0 -12.712429501402525 -10.39887790070012 0 0 0 0 -68.88923765157233 -30.778917762488618 0 -30.778917762488618 17.408732264860134 0 0 0 0 -51.674086178281868 -13.050253281014875 0 -13.050253281014875 -31.285304247483509 0 0 0 0 -74.751906400008011 43.544368884685809 0 43.544368884685809 -113.11152498632237 0 0 0 0 19.082273947984504 104.60565238487914 0 104.60565238487914 -116.77292320368269 0 0 0 0 3.5198213635163711 9.7862059728942938 0 9.7862059728942938 -18.339722465643735 0 0 0 0 1.0133243792818263 15.009211527360975 0 15.009211527360975 -18.095062148921283 0 0 0 0 17.714815405102854 5.7481199642975298 0 5.7481199642975298 -9.5097944879364604 0 0 0 0 5.7903362153010676 -5.2277229593169068 0 -5.2277229593169068 4.7247197520409827 0 0 0 0 8.958485050703004 2.6855277997668594 0 2.6855277997668594 -14.932032382823579 0 0 0 0 21.902201661250729 -3.7729051020255611 0 -3.7729051020255611 -5.317829343066478 0 0 0 0 -2.6197179144315754 27.141870770140656 0 27.141870770140656 -15.753001832693741 0 0 0 0 0.61798221853315738 -2.0464040895106166 0 -2.0464040895106166 -1.5761201258073907 0 0 0 0 -84.655436250541243 41.275751427459227 0 41.275751427459227 -36.218567248940417 0 0 0 0 -86.468366149078065 -2.5374027599984856 0 -2.5374027599984856 -2.9881215839814104 0 0 0 0 -170.53596053288493 10.431372940690153 0 10.431372940690153 4.1032118692928634 0 0 0 0 -812.48511925408093 479.56271011699482 0 479.56271011699482 -145.41492289159669 0 0 0 0 -276.90566998948634 20.716496436803936 0 20.716496436803936 -650.16058148477168 0 0 0 0 -39.785248389502158 -46.796417206030583 0 -46.796417206030583 18.306173622107963 0 0 0 0 -168.79242553337826 278.05204301912636 0 278.05204301912636 -14.278848651736439 0 0 0 0 -234.07273687366251 164.53821390706344 0 164.53821390706344 -172.19924893518692 0 0 0 0 -15.516533456087927 77.485023651910979 0 77.485023651910979 -75.051925197816672 0 0 0 0 -215.29310957418056 -164.5654784860817 0 -164.5654784860817 -230.62268983202671 0 0 0 0 -467.5219200888132 8.2903275714634219 0 8.2903275714634219 -2.3947790412676113 0 0 0 0 -845.4032463178205 -272.73704242049632 0 -272.73704242049632 -208.78940174783747 0 0 0 0 -452.9551831498884 -76.412092830317079 0 -76.412092830317079 22.046089277608189 0 0 0 0 -275.21349947210911 22.105659778948393 0 22.105659778948393 123.10467090005386 0 0 0 0 -255.24820658081444 77.766511758028173 0 77.766511758028173 227.07384233599805 0 0 0 0 -135.38778223518966 6.1998761455120075 0 6.1998761455120075 -92.220633710444417 0 0 0 0 -325.17930141406032 62.436030553733872 0 62.436030553733872 143.42971676798106 0 0 0 0 -51.273203503551485 127.9624280258713 0 127.9624280258713 83.349244511387951 0 0 0 0 -44.024603570673207 12.084424969170868 0 12.084424969170868 70.159381955236199 0 0 0 0 100.20122837563758 170.93658508804992 0 170.93658508804992 195.29338369492325 0 0 0 0 340.06340527902285 -95.197314397197715 0 -95.197314397197715 46.747123139202813 0 0 0 0 -19.545730788547047 6.7760714362337495 0 6.7760714362337495 3.5699368617936358 0 0 0 0 -34.664321520329395 103.99386982077976 0 103.99386982077976 121.09416199044244 0 0 0 0 361.02058661205956 33.437340131749806 0 33.437340131749806 -239.0180540243955 0 0 0 0 -23.040703942543757 53.890580818825413 0 53.890580818825413 18.68634406870077 0 0 0 0 11.495830553797532 -76.057223881061759 0 -76.057223881061759 65.837914360405193 0 0 0 0 -0.34008869835748001 1.3733576651364245 0 1.3733576651364245 -2.2128230082442499 0 0 0 0 -357.07882724938099 97.748341292214718 0 97.748341292214718 176.68086658851189 0 0 0 0 348.30222476224299 55.871745650151752 0 55.871745650151752 -244.03999465430297 0 0 0 0 303.5870390850032 76.90512913206021 0 76.90512913206021 -110.7642228014638 0 0 0 0 -18.131232601491838 60.725017598328932 0 60.725017598328932 12.397165960346513 0 0 0 0 -467.89939445230266 13.969781487681303 0 13.969781487681303 115.61312548450678 0 0 0 0 -249.83199387460991 -95.083478270335036 0 -95.083478270335036 60.902752311147196 0 0 0 0 92.304795516363811 -58.843968728706386 0 -58.843968728706386 -29.287732130486802 0 0 0 0 -172.61866682698019 -0.0064145931346502039 0 -0.0064145931346502039 22.772683732880978 0 0 0 0 -20.8874185825116 -118.35718835414991 0 -118.35718835414991 81.835828348200721 0 0 0 0 -32.321811141155194 -127.53795328624437 0 -127.53795328624437 140.40433082491199 0 0 0 0 -24.823780897475757 -19.646209279633041 0 -19.646209279633041 -4.845745225702828 0 0 0 0 -6.9697968004195801 -0.96076701430990852 0 -0.96076701430990852 -12.752407854152167 0 0 0 0 -853.22265958514981 197.88185924590107 0 197.88185924590107 23.144522174792655 0 0 0 0 61.377207458295743 -172.02639256277325 0 -172.02639256277325 37.26037818138866 0 0 0 0 -99.822291818618396 9.8682401190849305 0 9.8682401190849305 -9.3305650320617133 0 0 0 0 -61.500284838512016 45.271713853307119 0 45.271713853307119 -46.044896071078256 0 0 0 0 -119.46767006409209 47.666320023230583 0 47.666320023230583 -9.2754519642458035 0 0 0 0 -210.27539381652969 -94.585399978067244 0 -94.585399978067244 26.999681338107621 0 0 0 0 -48.871075925981415 -29.950007063653729 0 -29.950007063653729 -19.170561924689615 0 0 0 0 -77.394325703920913 -66.894072628751019 0 -66.894072628751019 -14.235302174112803 0 0 0 0 -153.34589388882159 -59.735896740079625 0 -59.735896740079625 10.677033358739209 0 0 0 0 -13.547098357851135 17.709871550198372 0 17.709871550198372 -20.15024799594585 0 0 0 0 -5.3257103969690434 50.452382679433924 0 50.452382679433924 -108.7129093678459 0 0 0 0 -704.87687939749594 217.60038564430261 0 217.60038564430261 -39.36917166563353 0 0 0 0 -918.93754645724403 412.45377002851001 0 412.45377002851001 -150.92970633448749 0 0 0 0 -832.88796527962768 191.98833075753032 0 191.98833075753032 -5.9586016478824604 0 0 0 0 -182.31878067080834 4.051533913014282 0 4.051533913014282 13.213372796218209 0 0 0 0 -742.78886169083853 102.65209669929527 0 102.65209669929527 -55.388638207410622 0 0 0 0 -1.0044484655893342 -1.9690013444731278 0 -1.9690013444731278 -5.8670018827299479 0 0 0 0 -644.65314374940499 216.89252779765798 0 216.89252779765798 -19.439786997478222 0 0 0 0 -680.48230069963574 170.11513790249683 0 170.11513790249683 -46.620042634272068 0 0 0 0 11.605792470720189 -56.500545923286609 0 -56.500545923286609 -36.459533563472633 0 0 0 0 -7.8524162179075461 -6.9939603324898485 0 -6.9939603324898485 -2.2761199926123297 0 0 0 0 -242.50607819482684 116.49754895588853 0 116.49754895588853 -9.4931113581005775 0 0 0 0 -130.97059760095726 -3.4331046085135313 0 -3.4331046085135313 39.258389588185992 0 0 0 0 -207.19222934839127 48.141137290255301 0 48.141137290255301 17.073696098687833 0 0 0 0 -39.103764762650826 58.318238366263358 0 58.318238366263358 -73.823787989497987 0 0 0 0 -321.99392913909287 6.0659038792459796 0 6.0659038792459796 -34.623052360384463 0 0 0 0 -67.963934861138114 -2.1964946129110103 0 -2.1964946129110103 -29.424385914246159 0 0 0 0 -9.3747755327983953 -8.9710587676675431 0 -8.9710587676675431 -3.4676437745382387 0 0 0 0 -712.30302785965614 258.62280407518119 0 258.62280407518119 -22.302541796108017 0 0 0 0 -571.87620015005814 154.17158399522395 0 154.17158399522395 -122.54926470885403 0 0 0 0 -472.8134478610591 257.58755979694524 0 257.58755979694524 -99.98895200901643 0 0 0 0 -574.07781432342745 62.793963557742245 0 62.793963557742245 -35.180645915685091 0 0 0 0 -648.91236220866995 162.49112652427812 0 162.49112652427812 -180.55168340526507 0 0 0 0 -650.09792526616366 223.77051323006162 0 223.77051323006162 5.2097325341344458 0 0 0 0 -509.07274928482366 145.93620199036559 0 145.93620199036559 60.93015221920632 0 0 0 0 -538.70780155919783 -17.669942828519197 0 -17.669942828519197 -58.684720571418438 0 0 0 0 -131.35158361612048 172.69923664742214 0 172.69923664742214 -84.303252120134857 0 0 0 0 -789.34664241311111 -71.640603737465426 0 -71.640603737465426 138.51673382058289 0 0 0 0 -258.39079071966989 12.529511513394937 0 12.529511513394937 53.05252192460739 0 0 0 0 -259.74120103949804 94.53603398156487 0 94.53603398156487 -122.57904659260748 0 0 0 0 75.431404285474855 -259.34793456768602 0 -259.34793456768602 390.92204473638412 0 0 0 0 -15.360192971504574 -10.231402951333521 0 -10.231402951333521 -8.7483429857374873 0 0 0 0 -1123.0830873588275 496.16681719230201 0 496.16681719230201 -77.569475647728723 0 0 0 0 -11.227524002578356 1.0514214563871604 0 1.0514214563871604 0.78619569924114074 0 0 0 0 166.95199303231675 -156.80089029287251 0 -156.80089029287251 285.25722191230307 0 0 0 0 141.27642321510939 -250.57144154133675 0 -250.57144154133675 379.94220606657291 0 0 0 0 533.2466074138938 -645.85105648252784 0 -645.85105648252784 148.72123640331301 0 0 0 0 350.62101177276054 -163.56251117537977 0 -163.56251117537977 257.67707094482466 0 0 0 0 -36.823904686969399 -167.29953477813433 0 -167.29953477813433 177.8479135951784 0 0 0 0 117.34431299912103 -324.13402369353207 0 -324.13402369353207 218.13152753896065 0 0 0 0 47.283577070425963 -636.17917360853971 0 -636.17917360853971 251.7647172683146 0 0 0 0 -1371.1702951156622 1100.1765442947426 0 1100.1765442947426 -274.91857862967095 0 0 0 0 -852.5063332080972 -440.71651113840016 0 -440.71651113840016 221.67540400592497 0 0 0 0 -3.6742845323027495 -3.105698506011862 0 -3.105698506011862 -3.2132641482360818 0 0 0 0 27.36118692148375 268.55363548215962 0 268.55363548215962 -386.68135197810989 0 0 0 0 -553.9746822248926 -156.8146792278028 0 -156.8146792278028 146.16502531341575 0 0 0 0 -65.768709577489062 -228.3781171939554 0 -228.3781171939554 382.84658652449934 0 0 0 0 -53.953650113014703 11.782525442609936 0 11.782525442609936 -0.036812929967959818 0 0 0 0 -285.66370852551336 -90.466264978806521 0 -90.466264978806521 151.37910227941438 0 0 0 0 -115.84974589169724 -158.95075017897261 0 -158.95075017897261 -136.78498096606563 0 0 0 0 -285.89622370009602 -203.71857552367328 0 -203.71857552367328 39.088180377537356 0 0 0 0 -65.546302281902172 -359.26835940739875 0 -359.26835940739875 -110.20180982273382 0 0 0 0 -351.39293425425421 -409.72756604999586 0 -409.72756604999586 143.69465560946264 0 0 0 0 -107.11440068371303 -266.00850899482975 0 -266.00850899482975 43.110436661751805 0 0 0 0 -358.0570773157815 77.796819468041576 0 77.796819468041576 209.37836470093862 0 0 0 0 -715.73064237595827 27.250587810853176 0 27.250587810853176 211.71293616748881 0 0 0 0 -1050.4849702672072 111.69976712935932 0 111.69976712935932 212.14393761873362 0 0 0 0 -604.87419681152096 -464.84360746904213 0 -464.84360746904213 -142.5137313620171 0 0 0 0 -21.646838128321747 2.5176978390059332 0 2.5176978390059332 -0.57371693975603444 0 0 0 0 -171.50452764634611 -261.33578629028148 0 -261.33578629028148 -322.88188379221992 0 0 0 0 -949.17311678202532 -736.35053513745379 0 -736.35053513745379 -583.78594930562986 0 0 0 0 -354.52199851603655 271.9194136692563 0 271.9194136692563 -100.0465878687819 0 0 0 0 -2037.7608573174512 872.47881690674399 0 872.47881690674399 -279.79483014682705 0 0 0 0 -759.79787843034137 358.78056038407158 0 358.78056038407158 5.2109801666874773 0 0 0 0 -420.10276325391897 279.39611816033903 0 279.39611816033903 4.8056662224844331 0 0 0 0 -402.85663976566866 226.9893705674167 0 226.9893705674167 160.75944658704611 0 0 0 0 -304.10888351858739 240.88225595017548 0 240.88225595017548 141.06960406019061 0 0 0 0 -279.44742704258533 82.568349389968716 0 82.568349389968716 222.02434635948885 0 0 0 0 -360.93467284332655 41.55330506564087 0 41.55330506564087 254.55966407773303 0 0 0 0 -413.69277739430254 192.20703520135248 0 192.20703520135248 179.824868421465 0 0 0 0 -477.56178071832983 -64.220843996974963 0 -64.220843996974963 266.54521934109653 0 0 0 0 -112.49429305017838 -85.539754311254001 0 -85.539754311254001 327.72721327599356 0 0 0 0 -118.47161163303826 -109.84921894736181 0 -109.84921894736181 259.55032701212895 0 0 0 0 -308.48475804617919 62.711965881749165 0 62.711965881749165 245.68818014666977 0 0 0 0 -117.66271249737474 -87.519521435746356 0 -87.519521435746356 283.06411250622477 0 0 0 0 -126.70170727018558 -78.521128350284926 0 -78.521128350284926 339.10853144975044 0 0 0 0 289.61767225372023 -255.76463399329987 0 -255.76463399329987 222.03879269946628 0 0 0 0 -43.698348507998162 -83.916419125236644 0 -83.916419125236644 146.7022087916439 0 0 0 0 -41.323063181698672 -67.793576121226579 0 -67.793576121226579 88.83753567102849 0 0 0 0 -188.10929760665749 -66.213637137590013 0 -66.213637137590013 221.0515330432263 0 0 0 0 -217.30080506355807 21.637348273445696 0 21.637348273445696 -21.716081032258444 0 0 0 0 -271.46465172614262 71.084657482003422 0 71.084657482003422 167.59683355864763 0 0 0 0 -318.13568314000076 154.41661953779158 0 154.41661953779158 88.606077097008892 0 0 0 0 163.55654440129547 105.38867025719037 0 105.38867025719037 -6.1737963423402107 0 0 0 0 -0.98058031954174929 3.9592322835070135 0 3.9592322835070135 -6.1031354367665145 0 0 0 0 -123.18887196797368 110.43947813536852 0 110.43947813536852 103.03809380796474 0 0 0 0 87.128466823727649 115.21547181219853 0 115.21547181219853 41.009252300344087 0 0 0 0 247.6775861754686 85.927668372340122 0 85.927668372340122 -49.869914177092141 0 0 0 0 -19.441161560225886 63.15872274576008 0 63.15872274576008 6.231313480698482 0 0 0 0 -331.68907883689099 152.12706705471646 0 152.12706705471646 126.46546613591636 0 0 0 0 -282.24429062470153 173.71631915148919 0 173.71631915148919 83.489156137102327 0 0 0 0 -18.297612220279301 65.077685743582592 0 65.077685743582592 1.0841491482111714 0 0 0 0 233.02053691972105 224.56423567041656 0 224.56423567041656 -83.585179099583911 0 0 0 0 -70.396577506646281 416.3545149027193 0 416.3545149027193 -102.89155548388271 0 0 0 0 -414.88487739869925 429.40595832542004 0 429.40595832542004 -69.133176812935744 0 0 0 0 560.84527471929323 -69.460668504286787 0 -69.460668504286787 -527.02932961969918 0 0 0 0 231.50596627844425 93.298629422978593 0 93.298629422978593 10.085500622422387 0 0 0 0 -1.3426450179917921 5.2324214532824982 0 5.2324214532824982 -8.2781412184604761 0 0 0 0 218.92027068890729 88.908044576055772 0 88.908044576055772 9.0682335885312568 0 0 0 0 -1326.9311987735928 -10.902227147339545 0 -10.902227147339545 356.89150074582813 0 0 0 0 96.426527126110159 -165.69798413004446 0 -165.69798413004446 -625.01265767078257 0 0 0 0 -1.3376627738557758 4.0677711115789705 0 4.0677711115789705 -3.9250520387698096 0 0 0 0 -527.59574638608683 89.738889851078966 0 89.738889851078966 97.004274451832316 0 0 0 0 -623.33352990313142 184.86326412256972 0 184.86326412256972 21.515254687306879 0 0 0 0 269.11142944937819 118.97435525093283 0 118.97435525093283 -99.889474175193754 0 0 0 0 -425.40556154001388 -227.11653990351351 0 -227.11653990351351 -40.002417009037799 0 0 0 0 -583.96225800628963 -16.618775488573647 0 -16.618775488573647 -99.214148478255083 0 0 0 0 -96.962544665911992 -149.96664881312245 0 -149.96664881312245 -155.98008000446043 0 0 0 0 -636.96148713878938 -489.14144288448051 0 -489.14144288448051 -368.93880648921913 0 0 0 0 -9.3720844294763594 0.84813873197769274 0 0.84813873197769274 0.52229536097384077 0 0 0 0 -225.68986435608531 347.33322930838676 0 347.33322930838676 80.241252284443362 0 0 0 0 -388.12919890855846 140.44745219394008 0 140.44745219394008 227.98814774527091 0 0 0 0 -708.01338000463875 358.2411825210138 0 358.2411825210138 228.91587388416519 0 0 0 0 -471.9630075478708 296.46530723710475 0 296.46530723710475 211.43144323697561 0 0 0 0 -727.33486794517012 41.178052439740895 0 41.178052439740895 243.87695282622553 0 0 0 0 -313.9432224181437 -23.729582368807314 0 -23.729582368807314 253.37350545849517 0 0 0 0 -361.96175271538959 154.75433246224111 0 154.75433246224111 200.39402961618543 0 0 0 0 -483.84958805653514 254.25443048237457 0 254.25443048237457 147.0286925086366 0 0 0 0 -399.74014657742373 247.93534588296097 0 247.93534588296097 -21.948040901586864 0 0 0 0 -732.99336572354514 189.93329592265218 0 189.93329592265218 224.18788972934453 0 0 0 0 -119.38569754616765 8.6926962194129374 0 8.6926962194129374 -35.852106853011719 0 0 0 0 -75.46060069615487 27.495250651341621 0 27.495250651341621 -48.375257734873799 0 0 0 0 -70.592947434211965 67.077136881318893 0 67.077136881318893 -20.546083621244634 0 0 0 0 -122.14672624291052 54.346195769652638 0 54.346195769652638 -22.597036692297479 0 0 0 0 -132.97009541286388 21.023291394611988 0 21.023291394611988 19.451439950596978 0 0 0 0 -135.21312956785005 41.608740485715231 0 41.608740485715231 4.4738478606177523 0 0 0 0 -110.36897221216532 -46.525185045661857 0 -46.525185045661857 -8.2974548167662761 0 0 0 0 3.164886007989935 3.5457202298166592 0 3.5457202298166592 -1.4310300609837165 0 0 0 0 -39.851408341390197 4.1956195103480809 0 4.1956195103480809 17.002681316757077 0 0 0 0 -12.162056132440512 -6.6713556517162651 0 -6.6713556517162651 1.7977478788092069 0 0 0 0 155.44514762279141 -405.13156573615333 0 -405.13156573615333 83.047467923130739 0 0 0 0 -68.123644302257162 38.896154359899811 0 38.896154359899811 78.300551157730524 0 0 0 0 -431.73351076444669 -289.6734398426006 0 -289.6734398426006 94.174375649917238 0 0 0 0 -57.075293064899597 -183.36268766344949 0 -183.36268766344949 -55.797976634717998 0 0 0 0 -240.31302368966317 253.82037900649789 0 253.82037900649789 -211.05646734919083 0 0 0 0 -257.2155439035414 -137.09757860030959 0 -137.09757860030959 188.15027308359595 0 0 0 0 -15.439229003281071 482.1467269846936 0 482.1467269846936 79.889030571938747 0 0 0 0 -97.145544741128106 -2.6128538836198345 0 -2.6128538836198345 68.577480028141963 0 0 0 0 -48.497565516561735 28.680652932771409 0 28.680652932771409 72.64210006770918 0 0 0 0 -43.989265544972142 14.060730309652605 0 14.060730309652605 3.0800347885494892 0 0 0 0 -52.993433776604434 347.83562375491374 0 347.83562375491374 646.53884490446035 0 0 0 0 -61.505306345306963 -7.4695003002630251 0 -7.4695003002630251 7.0259521907886615 0 0 0 0 -29.097406097513158 4.0536039561916368 0 4.0536039561916368 23.080717568958335 0 0 0 0 -37.928143240320637 14.989570888774566 0 14.989570888774566 7.9612798592613974 0 0 0 0 -25.385122498526471 22.92571375053808 0 22.92571375053808 68.926658790915212 0 0 0 0 -62.917823220958013 27.781239829636991 0 27.781239829636991 2.7266531452700176 0 0 0 0 -27.59932491127654 62.222917599748158 0 62.222917599748158 -1.0967425327391265 0 0 0 0 1.305914617558301 381.29190073452969 0 381.29190073452969 350.98788259621188 0 0 0 0 209.74372331624909 180.82131280208932 0 180.82131280208932 99.982917536307014 0 0 0 0 192.80194503705025 133.65497576231439 0 133.65497576231439 -30.698118601923852 0 0 0 0 194.61806604946469 267.31444068236533 0 267.31444068236533 -205.40723536297992 0 0 0 0 13.142650489781232 9.9632834679677096 0 9.9632834679677096 -3.0018533490768515 0 0 0 0 295.54582265253703 -217.02312240508832 0 -217.02312240508832 325.67551832052777 0 0 0 0 359.05170823826484 -90.889719913218755 0 -90.889719913218755 -18.358666332080247 0 0 0 0 587.70103794203897 -370.44900979227486 0 -370.44900979227486 -173.54416701896389 0 0 0 0 -68.702885930993943 35.9926514332019 0 35.9926514332019 14.181713829229466 0 0 0 0 -1.4794401411732281 4.4651283666416255 0 4.4651283666416255 2.880840466284234 0 0 0 0 6.954510440271406 20.062772066499974 0 20.062772066499974 -19.411353118886836 0 0 0 0 -12.198039892682573 -43.181741593291918 0 -43.181741593291918 -58.01512627051693 0 0 0 0 -55.059394903539214 -66.323646638913488 0 -66.323646638913488 11.458962047569003 0 0 0 0 -75.280325615269248 39.778058396816959 0 39.778058396816959 27.512061295568856 0 0 0 0 -61.236712580503081 -1.232633601751786 0 -1.232633601751786 100.3312524598723 0 0 0 0 -28.317486091812384 12.573468503510213 0 12.573468503510213 0.090131675376435183 0 0 0 0 -23.754133853450185 -7.6428296006845358 0 -7.6428296006845358 -74.501858631977484 0 0 0 0 -9.060524738723629 -5.3515103371482695 0 -5.3515103371482695 15.81958939976078 0 0 0 0 -28.858465199569764 1.7332878763897952 0 1.7332878763897952 19.346489298985261 0 0 0 0 -8.6483910820388701 11.747718574928285 0 11.747718574928285 -40.533402821345589 0 0 0 0 -9.0407441096922696 13.15569530733562 0 13.15569530733562 -2.5114893759860166 0 0 0 0 -63.312457534048008 -23.82585004654311 0 -23.82585004654311 -6.3919629344102304 0 0 0 0 -20.485146808285208 43.380417347732873 0 43.380417347732873 -41.489725163100047 0 0 0 0 -127.5275139476289 -50.774621943366355 0 -50.774621943366355 -33.152697035011556 0 0 0 0 -160.71123114389047 -74.666498896269786 0 -74.666498896269786 -38.039195379147714 0 0 0 0 -87.4081708460144 3.6174355867115082 0 3.6174355867115082 -26.226506102341773 0 0 0 0 -509.40091852509067 -35.669403714361579 0 -35.669403714361579 42.904370857439289 0 0 0 0 -318.66048911633698 -164.69911232951608 0 -164.69911232951608 -43.554495805505212 0 0 0 0 -223.94901539392595 -28.440186370888114 0 -28.440186370888114 -16.942006758853495 0 0 0 0 -241.34510202462843 -81.033003108105731 0 -81.033003108105731 -22.439150545965333 0 0 0 0 -399.4728442995256 -51.482617111649233 0 -51.482617111649233 45.171817491281104 0 0 0 0 -444.75777634326369 44.305603924990237 0 44.305603924990237 11.723078524675657 0 0 0 0 -515.77356498695735 -31.937138069145931 0 -31.937138069145931 149.98185223135533 0 0 0 0 -604.031794993527 39.087598779943846 0 39.087598779943846 92.832143822813123 0 0 0 0 -382.26704508766124 -319.59383243572904 0 -319.59383243572904 -206.20994964845704 0 0 0 0 -982.88865354155132 -109.73525597364574 0 -109.73525597364574 137.07308209230769 0 0 0 0 -271.19185644399113 -52.330115594344534 0 -52.330115594344534 -56.865100470542473 0 0 0 0 -216.33447923966014 -110.60792992177107 0 -110.60792992177107 -36.978461322110434 0 0 0 0 -23.695566448524772 7.6786084146531408 0 7.6786084146531408 -1.7373680326235901 0 0 0 0 -36.070927055091488 105.33842493361647 0 105.33842493361647 279.05136426288482 0 0 0 0 310.88452225539004 -387.0739671380361 0 -387.0739671380361 191.21025506969727 0 0 0 0 -597.48223679728835 -848.05227543564115 0 -848.05227543564115 184.05235612996239 0 0 0 0 318.84741282084178 421.30974916954494 0 421.30974916954494 -1295.2942965713942 0 0 0 0 -1168.1041164116468 865.64015856816377 0 865.64015856816377 33.062600537660728 0 0 0 0 -976.62587882824118 1137.19605067256 0 1137.19605067256 315.13809203089568 0 0 0 0 -9.4116439597800081 3.5338661912363207 0 3.5338661912363207 -1.1818047115514201 0 0 0 0 -1300.2217213626136 -673.88262418921386 0 -673.88262418921386 -342.22287569106902 0 0 0 0 -1788.8953769065993 385.82703026464992 0 385.82703026464992 18.211007852781222 0 0 0 0 -210.64715026806516 460.69477250977229 0 460.69477250977229 -872.73067397505019 0 0 0 0 158.52269999947021 -311.82781969733628 0 -311.82781969733628 -441.41322233511346 0 0 0 0 190.28427592066146 -154.52894797253634 0 -154.52894797253634 -69.72585705180245 0 0 0 0 0.61576206144833634 3.5698579474690888 0 3.5698579474690888 -10.030647717323099 0 0 0 0 319.57522956614412 200.44237029295527 0 200.44237029295527 -404.07015896168878 0 0 0 0 -18.47608169688101 -52.516038957208821 0 -52.516038957208821 28.131544793604917 0 0 0 0 -700.58256789963343 248.64859090115942 0 248.64859090115942 -2.7290573088844212 0 0 0 0 -573.85725280912447 87.431785778459016 0 87.431785778459016 151.56312009971771 0 0 0 0 -612.36425504885847 96.848079414751965 0 96.848079414751965 51.554202263737807 0 0 0 0 -353.04905052440881 198.38159660956103 0 198.38159660956103 59.821847827350553 0 0 0 0 80.853603785666564 41.510245726556775 0 41.510245726556775 11.562185410706206 0 0 0 0 -1.2654488236385149 3.8236338850053784 0 3.8236338850053784 -7.2994207012448911 0 0 0 0 140.54891955556559 65.519403482095299 0 65.519403482095299 -18.420205797091057 0 0 0 0 -854.19965789479465 120.04870568384581 0 120.04870568384581 98.127193697288021 0 0 0 0 -0.78638295404458347 1.3273733480830998 0 1.3273733480830998 -2.4552237255574596 0 0 0 0 -456.80575663968193 131.80423958302572 0 131.80423958302572 -33.691282937567848 0 0 0 0 -696.72856881222833 62.126791713794091 0 62.126791713794091 61.718879871129047 0 0 0 0 -658.40105522172234 190.86514326089582 0 190.86514326089582 -10.190048338494762 0 0 0 0 -310.09865922454628 105.68328858495966 0 105.68328858495966 -33.641172839192677 0 0 0 0 -547.88859254338604 137.90718683003956 0 137.90718683003956 286.79079212211673 0 0 0 0 -15.492805398462224 122.92613114341702 0 122.92613114341702 -39.481703780199723 0 0 0 0 -97.544242409364188 16.982035273627954 0 16.982035273627954 -2.1105701855174384 0 0 0 0 -218.90219112292107 113.08919926302575 0 113.08919926302575 -12.999518844520239 0 0 0 0 -241.02221934286354 81.167672090841222 0 81.167672090841222 0.035601032250303227 0 0 0 0 -371.79029818113486 114.13746873475961 0 114.13746873475961 23.017717256545851 0 0 0 0 -97.707564515091775 16.656347141310579 0 16.656347141310579 -2.0396756472058128 0 0 0 0 -367.1021344227629 39.343064209553859 0 39.343064209553859 124.62293182073745 0 0 0 0 -336.4397278250508 45.703689952511752 0 45.703689952511752 2.6302537203695948 0 0 0 0 -282.93902399166836 66.632256497641336 0 66.632256497641336 -0.028717083695047718 0 0 0 0 -294.92370448763131 31.49987073034454 0 31.49987073034454 13.501071732973287 0 0 0 0 -294.74972392754717 25.19878594457623 0 25.19878594457623 62.315657599187944 0 0 0 0 -246.24693637171731 8.4126364973968748 0 8.4126364973968748 7.0635970113630719 0 0 0 0 -201.68912692088634 -3.1602939860740662 0 -3.1602939860740662 6.1956186198899559 0 0 0 0 -348.94013354221534 -20.316938267652176 0 -20.316938267652176 25.932697248464137 0 0 0 0 -409.57834317495872 5.8753631426043285 0 5.8753631426043285 103.37512487008507 0 0 0 0 -353.74361959370435 29.391759715272201 0 29.391759715272201 -0.84857498477686022 0 0 0 0 -431.2688627013049 5.7314630151404629 0 5.7314630151404629 35.855153587016048 0 0 0 0 -303.60499955624618 -44.435177287397096 0 -44.435177287397096 13.505902114319724 0 0 0 0 -300.67628330778825 -10.789524124468699 0 -10.789524124468699 1.8499016031723841 0 0 0 0 -192.86264167397167 -51.567141955745228 0 -51.567141955745228 -14.56951645797875 0 0 0 0 -172.73437886541797 -12.538432243040234 0 -12.538432243040234 -11.853186937245482 0 0 0 0 -57.606677909861901 -17.29235006733461 0 -17.29235006733461 -34.543604163108284 0 0 0 0 -102.89210868375812 10.707048660317696 0 10.707048660317696 5.1878036403068108 0 0 0 0 -2.7783285515878617 14.79592967133263 0 14.79592967133263 -17.001616745872486 0 0 0 0 -113.76081031885406 -14.527249565050624 0 -14.527249565050624 -22.26947816227306 0 0 0 0 -134.40528677676048 2.8368745625573411 0 2.8368745625573411 -18.838145229515476 0 0 0 0 -96.938153376264381 -2.1779602723058815 0 -2.1779602723058815 -27.682190386249658 0 0 0 0 -176.45130105374847 42.649524289892383 0 42.649524289892383 -22.770164577272226 0 0 0 0 -198.38976558451213 24.819415131456253 0 24.819415131456253 -25.326429817306689 0 0 0 0 -98.766887682840036 13.507754499550476 0 13.507754499550476 -1.7263044709852458 0 0 0 0 -9.3791888949676832 8.2177169720028331 0 8.2177169720028331 -1.6003861332301845 0 0 0 0 -57.656613451690646 0.52299000038571097 0 0.52299000038571097 0.0073112229908821368 0 0 0 0 -274.92834087212395 52.560207301107312 0 52.560207301107312 23.74472849137544 0 0 0 0 -41.803402295336127 -3.1676762878582374 0 -3.1676762878582374 0.0018656901386413841 0 0 0 0 -57.448601664012131 -2.4305642011725972 0 -2.4305642011725972 2.6101150580869059 0 0 0 0 -58.021786980345496 9.3165595693384375 0 9.3165595693384375 5.7123167381569147 0 0 0 0 -44.944033115838749 1.1471403538353471 0 1.1471403538353471 2.179298145661567 0 0 0 0 -98.344613825101533 -19.094951735974185 0 -19.094951735974185 -14.080938743309616 0 0 0 0 -59.672274297599529 -3.6687280193278013 0 -3.6687280193278013 -5.9739346703304559 0 0 0 0 -80.65038680620637 -0.40145991087763377 0 -0.40145991087763377 -32.840789458825384 0 0 0 0 -25.130281868530147 18.741273194105162 0 18.741273194105162 -29.389281326564088 0 0 0 0 -73.226269596649217 -120.18637335173821 0 -120.18637335173821 83.610798725589603 0 0 0 0 -120.84593155947081 -18.696861982835571 0 -18.696861982835571 21.463025474115167 0 0 0 0 -40.279749139612704 -16.424618106846395 0 -16.424618106846395 9.8273365559776735 0 0 0 0 -55.868958348666638 -39.049752764060564 0 -39.049752764060564 26.531985064817775 0 0 0 0 -66.174736090557417 -100.20645761693362 0 -100.20645761693362 -60.537965978548655 0 0 0 0 -14.390791916877788 -10.208266720044495 0 -10.208266720044495 21.00717799626533 0 0 0 0 -2.1346284566600957 -3.9125220342064608 0 -3.9125220342064608 -1.1819776419588177 0 0 0 0 -14.956061306258384 -3.3887104992588206 0 -3.3887104992588206 -0.66260785604994188 0 0 0 0 -105.08658029139042 -75.950986774393257 0 -75.950986774393257 0.061373822760923645 0 0 0 0 -71.100954499226646 -35.170623141176577 0 -35.170623141176577 -17.991912908896744 0 0 0 0 -101.93979592736287 -43.164767541916575 0 -43.164767541916575 0.67201281292686588 0 0 0 0 -17.104909715621034 -85.64342972932495 0 -85.64342972932495 8.8317023670606041 0 0 0 0 -134.02211683132646 30.887495768370286 0 30.887495768370286 -38.540160805702726 0 0 0 0 -116.71321880769392 11.653220948354829 0 11.653220948354829 -30.968526301207476 0 0 0 0 -96.609804914734923 31.589870005291914 0 31.589870005291914 -13.27856911039089 0 0 0 0 -133.63539288541688 7.9875499489373567 0 7.9875499489373567 -6.4517376805488311 0 0 0 0 -141.79914932616521 10.536726454979089 0 10.536726454979089 -4.7464378407030381 0 0 0 0 -149.40181159365602 25.611282769094259 0 25.611282769094259 1.6209589350146416 0 0 0 0 -114.83906137877784 37.249006608712534 0 37.249006608712534 3.9652640601789244 0 0 0 0 -133.57816989914863 110.54199188532448 0 110.54199188532448 -30.885863849182897 0 0 0 0 -96.916412421385758 181.1131970101178 0 181.1131970101178 20.671024948111608 0 0 0 0 -226.31887270339939 -16.915447167091543 0 -16.915447167091543 126.44632947864193 0 0 0 0 72.748182957526296 196.66334759916481 0 196.66334759916481 123.31324419746579 0 0 0 0 24.415444910060614 -25.426167693025491 0 -25.426167693025491 120.40943807284248 0 0 0 0 -40.970466657909128 197.97513802473412 0 197.97513802473412 39.051989400490129 0 0 0 0 -57.119867361587239 126.41275174251723 0 126.41275174251723 86.47037559191358 0 0 0 0 -68.016588397294981 154.09555794839252 0 154.09555794839252 139.89215250535108 0 0 0 0 -74.968944886641111 112.34784607456459 0 112.34784607456459 35.315233948091532 0 0 0 0 -6.9622344739909749 121.35768260214127 0 121.35768260214127 32.969473283988918 0 0 0 0 -16.835620690340875 157.00734983737084 0 157.00734983737084 -0.95191479173627158 0 0 0 0 110.37976182631974 126.33564983630436 0 126.33564983630436 -52.900255512053718 0 0 0 0 36.781200168305077 142.20927064327412 0 142.20927064327412 -28.667199288906431 0 0 0 0 -175.17764642904513 168.31866760553817 0 168.31866760553817 -27.916085834223395 0 0 0 0 35.257048311577819 131.87628548968567 0 131.87628548968567 -97.119801191670831 0 0 0 0 -80.368029836390633 203.67832410578853 0 203.67832410578853 -35.141158937029104 0 0 0 0 -240.65846782794688 221.91213045630786 0 221.91213045630786 -113.45028550261395 0 0 0 0 -184.05763499625027 62.162787615584193 0 62.162787615584193 -188.30225984502499 0 0 0 0 -1205.9298500451696 247.10631615693342 0 247.10631615693342 63.510907432973454 0 0 0 0 -666.50806230664602 22.089574844197614 0 22.089574844197614 247.51388901123755 0 0 0 0 -822.38048422826978 -303.58124860247699 0 -303.58124860247699 -1.6764001156780068 0 0 0 0 -489.12724780770077 -28.662887006881647 0 -28.662887006881647 158.76863133547681 0 0 0 0 -490.75902405382658 121.60154807489062 0 121.60154807489062 90.371698431125878 0 0 0 0 -363.66088367985503 -122.38458477468066 0 -122.38458477468066 305.31189318913175 0 0 0 0 -15.81064636236988 -21.850491384875568 0 -21.850491384875568 321.16847539793798 0 0 0 0 -477.48928233030165 286.7916361659104 0 286.7916361659104 91.349853514208007 0 0 0 0 -156.29817371318495 299.88474245240013 0 299.88474245240013 -377.07349207409152 0 0 0 0 -4.498654225629366 2.0540534198029903 0 2.0540534198029903 -4.3512168948496885 0 0 0 0 -573.15074131716392 -502.3732127121857 0 -502.3732127121857 -211.34527686289539 0 0 0 0 -124.23435771079676 -336.83257281483384 0 -336.83257281483384 -346.1922536228667 0 0 0 0 -546.33310803340282 -128.18597020701145 0 -128.18597020701145 141.05366962358494 0 0 0 0 -189.14238475634193 -314.62941578790424 0 -314.62941578790424 585.15926180541828 0 0 0 0 69.338326427910943 -75.026580965920402 0 -75.026580965920402 127.48841408429325 0 0 0 0 -221.40287410755991 147.50311585279223 0 147.50311585279223 399.97642346280372 0 0 0 0 168.41933889345091 -368.1632644365227 0 -368.1632644365227 512.14561074248377 0 0 0 0 -16.254704532315557 -2.1823501400101861 0 -2.1823501400101861 4.0705368550609187 0 0 0 0 -2502.9220330632816 -481.90599407372383 0 -481.90599407372383 361.66215680854589 0 0 0 0 -54.214615749848008 -15.891490283513633 0 -15.891490283513633 -7.1890870935589701 0 0 0 0 -20.728528738931345 -215.07428128179322 0 -215.07428128179322 630.05882594716604 0 0 0 0 -163.00241498785908 -80.611688910793646 0 -80.611688910793646 234.35466876803548 0 0 0 0 -185.93559026348521 -74.192291123748873 0 -74.192291123748873 283.36241567271554 0 0 0 0 -114.15034414018737 111.46909850328484 0 111.46909850328484 -6.2006050230274923 0 0 0 0 -72.748219360120856 85.122523469971952 0 85.122523469971952 -51.156688912689788 0 0 0 0 -200.63780586185749 107.69970788456476 0 107.69970788456476 5.7665849500253898 0 0 0 0 5.9222800502531925 21.8092627433997 0 21.8092627433997 -14.696318943336479 0 0 0 0 -147.36564697243739 -136.8473084973175 0 -136.8473084973175 256.51937524636378 0 0 0 0 -71.959810286061838 185.38270835374897 0 185.38270835374897 303.56874737844191 0 0 0 0 -99.657627478285576 112.57271786349247 0 112.57271786349247 112.17173725012799 0 0 0 0 -3.0446841250294199 4.8630774389387739 0 4.8630774389387739 -2.1133562240616968 0 0 0 0 -56.940818849543575 76.581601679820324 0 76.581601679820324 54.201381528749607 0 0 0 0 -48.797914079019392 49.760850641323373 0 49.760850641323373 14.669933257314369 0 0 0 0 -117.4997355446103 95.985571403531594 0 95.985571403531594 100.20419346584731 0 0 0 0 -64.862533745530811 18.863690781920191 0 18.863690781920191 5.7191412094651204 0 0 0 0 -32.067572079919977 48.79609607048603 0 48.79609607048603 13.698482749040959 0 0 0 0 -101.52879589765507 112.32146695439314 0 112.32146695439314 113.40058831305305 0 0 0 0 -34.63013436494451 50.253222261137324 0 50.253222261137324 -16.442059682064212 0 0 0 0 -32.369835478923051 36.634796108639421 0 36.634796108639421 -22.667508928495408 0 0 0 0 -65.241944683242764 47.743033928387604 0 47.743033928387604 -0.88173762884616735 0 0 0 0 -70.503151984958095 127.46446669043689 0 127.46446669043689 26.124638778419467 0 0 0 0 -120.21281532246212 131.19227417507136 0 131.19227417507136 81.322987815156011 0 0 0 0 -94.543535333417822 95.800184176804578 0 95.800184176804578 -5.3883451200381387 0 0 0 0 -156.39439876905817 97.913411534555053 0 97.913411534555053 52.593358042468026 0 0 0 0 -44.592800355724023 4.0606826076262621 0 4.0606826076262621 33.175428291009716 0 0 0 0 -146.19788271987818 -15.984217498702151 0 -15.984217498702151 142.73051728127393 0 0 0 0 6.1782761732320068 -25.82203196640819 0 -25.82203196640819 44.839745636008331 0 0 0 0 -10.39622883689259 -6.5392152018936542 0 -6.5392152018936542 4.8979270155781496 0 0 0 0 -10.409161924908403 -14.345936920851841 0 -14.345936920851841 50.845368241978804 0 0 0 0 -51.349005141135422 41.26576237725601 0 41.26576237725601 -28.518435939262304 0 0 0 0 -26.511776922474382 41.93715592814155 0 41.93715592814155 -152.57567831076881 0 0 0 0 -84.917183984958683 69.807313484587439 0 69.807313484587439 2.9456868323165963 0 0 0 0 -85.467312739012414 73.565842978874343 0 73.565842978874343 5.0052741104161669 0 0 0 0 -67.820547257113503 70.311795178428042 0 70.311795178428042 -12.744722203524361 0 0 0 0 -52.857358924520668 52.004473059675774 0 52.004473059675774 8.3379603777339142 0 0 0 0 -53.287555884831818 31.407604736649546 0 31.407604736649546 -20.084566343185315 0 0 0 0 -48.158223922349862 60.149388272568018 0 60.149388272568018 20.095888635657047 0 0 0 0 -44.508697522323928 2.651603186876514 0 2.651603186876514 66.864678785331307 0 0 0 0 -33.457292520964984 60.146021935744557 0 60.146021935744557 23.988868983673456 0 0 0 0 -38.405499960877933 33.304030594363894 0 33.304030594363894 39.621028442948045 0 0 0 0 -71.114918647185903 34.734529189644384 0 34.734529189644384 24.712168593059246 0 0 0 0 -11.367605823936003 5.6262282424799537 0 5.6262282424799537 -0.3623174219498515 0 0 0 0 -12.219025304416604 4.2219641754803661 0 4.2219641754803661 -4.9631239157120914 0 0 0 0 -232.68706853153708 -102.4379646052941 0 -102.4379646052941 114.06866358928812 0 0 0 0 -307.98259499874257 195.16422928124382 0 195.16422928124382 -83.763491393744857 0 0 0 0 205.97588886601807 158.24372117835736 0 158.24372117835736 -301.41850563694038 0 0 0 0 -4.4009528239603242 0.063970208079631163 0 0.063970208079631163 -0.51318926886656402 0 0 0 0 -116.84189969554427 207.12824337937263 0 207.12824337937263 -260.73796297827101 0 0 0 0 -19.060347639664542 -55.680326645319155 0 -55.680326645319155 -31.311468606494145 0 0 0 0 -50.064759394750581 18.858542919803085 0 18.858542919803085 27.484515924218499 0 0 0 0 -154.08342672682193 146.07400664575846 0 146.07400664575846 -45.944201315075816 0 0 0 0 -168.60460683996189 42.523769463387318 0 42.523769463387318 66.046866582732036 0 0 0 0 160.96647773092263 -40.009310015207348 0 -40.009310015207348 -34.723184220802978 0 0 0 0 -52.271979915502016 10.015732955805106 0 10.015732955805106 35.834452756026167 0 0 0 0 3.6910688428615686 -9.8237779917301395 0 -9.8237779917301395 24.492226852739293 0 0 0 0 -70.954320265358547 33.124059302447449 0 33.124059302447449 37.10914865974425 0 0 0 0 -112.51541749472381 51.896228503164821 0 51.896228503164821 39.571833240582919 0 0 0 0 -92.592318341146893 77.461934000503788 0 77.461934000503788 9.9970528777344043 0 0 0 0 -27.076379418380384 57.764926867230088 0 57.764926867230088 33.613657109950509 0 0 0 0 -63.807481557771098 36.885766700673912 0 36.885766700673912 37.547916382361478 0 0 0 0 -95.224612747559149 47.299200719230043 0 47.299200719230043 8.6195463906367422 0 0 0 0 -50.672220432308677 46.383108716878382 0 46.383108716878382 8.5904643419348758 0 0 0 0 -73.950434492799104 64.431738752355386 0 64.431738752355386 8.0463776152534017 0 0 0 0 -73.46222233264416 65.532555401529123 0 65.532555401529123 10.099553205011489 0 0 0 0 -88.376525988540379 62.627961124231433 0 62.627961124231433 10.199654189257558 0 0 0 0 -88.752188261743868 65.094743401132519 0 65.094743401132519 24.766044693003323 0 0 0 0 -86.644486104240059 50.533783906470035 0 50.533783906470035 30.524483338223945 0 0 0 0 -79.011610536574153 64.379050163720223 0 64.379050163720223 21.747803752220079 0 0 0 0 -86.742663333279779 54.629345626831764 0 54.629345626831764 5.4476290132533904 0 0 0 0 -15.029312968450824 45.7461652693367 0 45.7461652693367 3.7692946581907307 0 0 0 0 -92.44133897809661 44.808213749744709 0 44.808213749744709 -5.414706209599899 0 0 0 0 -85.49036493501626 59.89231849880855 0 59.89231849880855 11.341433568973571 0 0 0 0 132.60467832369613 6.3583855699667851 0 6.3583855699667851 -22.448339271977375 0 0 0 0 -126.87584904716641 26.330456003455538 0 26.330456003455538 17.351841866052382 0 0 0 0 -23.642926282304728 45.552086245223578 0 45.552086245223578 -3.8224512188766777 0 0 0 0 -114.37184063646419 39.232590694433156 0 39.232590694433156 17.762822062518808 0 0 0 0 -106.51502350746887 28.445363998066114 0 28.445363998066114 -2.666504553421305 0 0 0 0 -103.32128570170244 41.006205281308098 0 41.006205281308098 20.360512082834248 0 0 0 0 -79.700767162372358 21.46886458279505 0 21.46886458279505 21.230182130884486 0 0 0 0 -89.738595438102493 35.389384000579867 0 35.389384000579867 12.471844839415553 0 0 0 0 -89.96256179070906 42.005884347572405 0 42.005884347572405 30.803427903814281 0 0 0 0 -35.978058927197708 66.772945676982246 0 66.772945676982246 135.64485509240239 0 0 0 0 -89.531738611231503 19.077878640948107 0 19.077878640948107 -0.054705352307400368 0 0 0 0 -88.8825321507029 32.354320505737633 0 32.354320505737633 8.3874362393130468 0 0 0 0 -27.279914096114226 80.717167255279946 0 80.717167255279946 116.66751668305906 0 0 0 0 45.067138766578864 111.57430283835038 0 111.57430283835038 107.08832131814532 0 0 0 0 66.78703553637024 109.52563777658042 0 109.52563777658042 206.36886054927322 0 0 0 0 8.4714672986592632 144.94416461538486 0 144.94416461538486 231.92763134089319 0 0 0 0 -6.0320586254963189 3.3298149164193376 0 3.3298149164193376 1.3829165582820435 0 0 0 0 -121.18708063662052 102.54624543762475 0 102.54624543762475 227.01674608948633 0 0 0 0 13.057481456635287 21.628717520516602 0 21.628717520516602 19.575904926262467 0 0 0 0 5.8874402994915727 59.016854593721476 0 59.016854593721476 26.744272320003802 0 0 0 0 -62.772609898194787 46.679690348250688 0 46.679690348250688 18.877393331099029 0 0 0 0 -73.493722268525744 42.346260010313927 0 42.346260010313927 38.667230371316691 0 0 0 0 -95.371228509829621 16.162409794181688 0 16.162409794181688 -2.4477994325681061 0 0 0 0 0.84648833010578528 81.190723145878337 0 81.190723145878337 58.958077564353289 0 0 0 0 -141.4293593362454 45.752247250174179 0 45.752247250174179 29.195696582044363 0 0 0 0 -148.70143885984726 86.158833628149992 0 86.158833628149992 101.10303124932537 0 0 0 0 -75.117499307845719 38.289007475360691 0 38.289007475360691 75.820594779486953 0 0 0 0 -159.86357700637745 91.868875612786795 0 91.868875612786795 62.239316234449973 0 0 0 0 -209.45450054917455 121.29379457011756 0 121.29379457011756 16.818782605705096 0 0 0 0 -137.13485966969165 92.844459127494446 0 92.844459127494446 0.039424006757488236 0 0 0 0 48.587793299651821 55.968437002222117 0 55.968437002222117 22.744359321643969 0 0 0 0 18.542618205488452 69.690961769317084 0 69.690961769317084 66.202241634454253 0 0 0 0 -1.3079420465253406 0.62920322035287768 0 0.62920322035287768 0.055298486111394429 0 0 0 0 18.877399169556952 33.527429692449445 0 33.527429692449445 62.751218583141394 0 0 0 0 -80.871282256353879 38.756338028483782 0 38.756338028483782 128.15076784786129 0 0 0 0 64.310071861589677 48.808517767684116 0 48.808517767684116 0.10272314122194241 0 0 0 0 -107.68840411854035 10.79987958093426 0 10.79987958093426 63.196586421681673 0 0 0 0 -0.6828313367049077 0.3436592676175394 0 0.3436592676175394 0.011596650061087788 0 0 0 0 20.730907538840256 19.37656522263309 0 19.37656522263309 60.792507150643786 0 0 0 0 -38.26358796236309 83.816041545908888 0 83.816041545908888 -0.066945162945553208 0 0 0 0 -190.95299456786597 66.205068365212711 0 66.205068365212711 55.210890406693437 0 0 0 0 -286.90241202343896 -59.443408825166976 0 -59.443408825166976 82.117202551171488 0 0 0 0 -101.41305872623343 -29.238497331400652 0 -29.238497331400652 53.359596406472633 0 0 0 0 9.4336235082155326 114.75852571665916 0 114.75852571665916 73.745520215992883 0 0 0 0 43.974023256625514 58.239097387547048 0 58.239097387547048 13.888684673901878 0 0 0 0 66.58052762200532 90.457837495310343 0 90.457837495310343 13.63495420087429 0 0 0 0 115.22143306428916 202.82852542605212 0 202.82852542605212 156.12563022492463 0 0 0 0 97.01211197891098 138.28252242211272 0 138.28252242211272 43.652739942723088 0 0 0 0 7.9747041605853042 12.389122530447096 0 12.389122530447096 -6.8832539699000961 0 0 0 0 7.4638901910220739 177.29865725590867 0 177.29865725590867 299.8053819552797 0 0 0 0 72.499377265237854 -36.643952469403018 0 -36.643952469403018 20.624677045556382 0 0 0 0 -1.1742159494004909 0.048116360316967643 0 0.048116360316967643 0.44958271841016906 0 0 0 0 -446.43593562061142 -36.439272000073231 0 -36.439272000073231 91.306968287773259 0 0 0 0 -402.79784213578387 23.914225671680356 0 23.914225671680356 21.471636465101255 0 0 0 0 -215.03688080335996 203.22307248268268 0 203.22307248268268 30.499691915047038 0 0 0 0 91.478748794732383 165.4878950139385 0 165.4878950139385 -73.559026074266797 0 0 0 0 172.77650445322797 35.068896821787632 0 35.068896821787632 -41.336286626617721 0 0 0 0 -996.6324719200893 469.65604569651146 0 469.65604569651146 200.71815946648849 0 0 0 0 -394.15675398444 56.691006035054443 0 56.691006035054443 -382.82088087435454 0 0 0 0 -971.30182221524592 -156.01620587307445 0 -156.01620587307445 25.036127032962781 0 0 0 0 -450.38148717788226 82.643408408797185 0 82.643408408797185 112.22052450590195 0 0 0 0 -624.76210524782073 81.614974197854878 0 81.614974197854878 134.07202774527863 0 0 0 0 -622.79691091697305 206.95908222836621 0 206.95908222836621 75.252039768581369 0 0 0 0 -383.07888492835264 137.5384397814193 0 137.5384397814193 0.19759321621813325 0 0 0 0 -614.45255554534378 239.13693197389014 0 239.13693197389014 -0.12277577852452563 0 0 0 0 -806.93350988160819 159.03871852451672 0 159.03871852451672 100.04095854413356 0 0 0 0 -671.20430332032265 -150.10358035421191 0 -150.10358035421191 19.45801127776258 0 0 0 0 -494.58930612137192 63.443414119069814 0 63.443414119069814 57.00435788015011 0 0 0 0 -467.03055317084363 101.20131783208092 0 101.20131783208092 107.31956961141003 0 0 0 0 -596.92403643224679 247.35948014382288 0 247.35948014382288 127.58936868839874 0 0 0 0 61.166984122173744 30.535351896724137 0 30.535351896724137 69.471473232207074 0 0 0 0 -8.3812258653342724 100.32032738249832 0 100.32032738249832 -0.056993702888266828 0 0 0 0 -3.0713263492719989 0.75773967603615233 0 0.75773967603615233 0.004648005866152688 0 0 0 0 82.895079181165784 51.206594458634996 0 51.206594458634996 0.11993981567564004 0 0 0 0 -91.770905056677293 -119.28542021032735 0 -119.28542021032735 -0.4837230174742615 0 0 0 0 -58.710062584168554 66.47847009281287 0 66.47847009281287 177.88341041841306 0 0 0 0 -44.056854686612496 170.35810744976882 0 170.35810744976882 103.05476194558673 0 0 0 0 -5.855951097603679 2.4382450983864317 0 2.4382450983864317 -0.35763763213293209 0 0 0 0 -195.86887392464996 -88.35799983766907 0 -88.35799983766907 94.35659681091397 0 0 0 0 -137.49204098114569 -88.346939478714432 0 -88.346939478714432 28.75252458064142 0 0 0 0 -454.25105793478724 207.90073426832407 0 207.90073426832407 133.44133783184219 0 0 0 0 -67.673961754029733 -4.078925565063571 0 -4.078925565063571 61.674440946477375 0 0 0 0 -419.13218169762695 235.4146681033989 0 235.4146681033989 19.60338787681826 0 0 0 0 145.19109718719847 13.651735065897924 0 13.651735065897924 82.393020408413122 0 0 0 0 -302.86164647049736 500.79322824766825 0 500.79322824766825 43.935029326120343 0 0 0 0 -1171.2910667466972 -518.621449028146 0 -518.621449028146 439.28754538170392 0 0 0 0 -10.668749372265552 2.1212165351932271 0 2.1212165351932271 0.21342561941538385 0 0 0 0 -495.42581604973384 -604.38223773333164 0 -604.38223773333164 246.57358371296618 0 0 0 0 -511.6214122580277 -328.16094970559061 0 -328.16094970559061 -90.675438145862245 0 0 0 0 -810.75912559680364 640.00867546708082 0 640.00867546708082 947.49095697597977 0 0 0 0 -212.24110212056257 -396.47371103940964 0 -396.47371103940964 -75.343516802037982 0 0 0 0 -119.86771601004875 103.01022440370332 0 103.01022440370332 451.55072629592769 0 0 0 0 -19.563034669836327 6.5901781831091313 0 6.5901781831091313 -0.76282152502997613 0 0 0 0 8.4896892526157899 76.504227044428603 0 76.504227044428603 16.158340150783772 0 0 0 0 -558.9668353260131 -102.6268846439275 0 -102.6268846439275 300.47217135109827 0 0 0 0 -9.0649007988259882 4.1169979010920983 0 4.1169979010920983 -1.5566286274092302 0 0 0 0 223.67767810501664 922.50149054964174 0 922.50149054964174 -867.15525380913732 0 0 0 0 103.14576189487707 137.2877220620137 0 137.2877220620137 -321.90909344991815 0 0 0 0 8.308042082710017 663.28806696121649 0 663.28806696121649 -1098.6707598475659 0 0 0 0 -504.58862936835794 860.40719995913719 0 860.40719995913719 -764.47254007552306 0 0 0 0 136.94110373179865 392.93398288126764 0 392.93398288126764 -540.16404318689183 0 0 0 0 -73.920228352081267 -126.46571910891097 0 -126.46571910891097 304.67010401203697 0 0 0 0 -252.5684355457488 396.33280712228549 0 396.33280712228549 -414.01148487282137 0 0 0 0 -48.586233098525554 -435.80076078282013 0 -435.80076078282013 -918.64823948173103 0 0 0 0 -93.989129267371027 158.85210289033873 0 158.85210289033873 86.522984752661557 0 0 0 0 -461.91282318744925 588.47557649329019 0 588.47557649329019 -646.25163814535313 0 0 0 0 -2652.6812927447172 -352.05156301655779 0 -352.05156301655779 -1025.1952526845744 0 0 0 0 -1541.279195651121 1813.7215763940367 0 1813.7215763940367 -690.12703551417769 0 0 0 0 -22.276710783070143 -4.8594234025669181 0 -4.8594234025669181 -1.3408195459752381 0 0 0 0 -2514.4387979946623 2990.379755331111 0 2990.379755331111 -1447.7643907402148 0 0 0 0 -27.380494449241496 -699.36119918195834 0 -699.36119918195834 -445.12527029033936 0 0 0 0 -2.6680454042361816 8.9325122722866581 0 8.9325122722866581 81.99435984822685 0 0 0 0 -1322.5562831257412 1335.2430960955542 0 1335.2430960955542 -1010.2633250717104 0 0 0 0 -119.46238211709715 269.38035245485867 0 269.38035245485867 -2171.3971587679507 0 0 0 0 -2230.9254080385726 -791.53870816838071 0 -791.53870816838071 -72.489953588676144 0 0 0 0 -365.86852931779868 5.8874426939509021 0 5.8874426939509021 -320.0373928082156 0 0 0 0 -472.73750379549165 -213.55201295434972 0 -213.55201295434972 43.168130301298561 0 0 0 0 -1285.5468431651243 35.43804783760902 0 35.43804783760902 222.44624479791776 0 0 0 0 -60.285501752980053 95.010288248120673 0 95.010288248120673 274.59797947826723 0 0 0 0 26.825287162151653 -51.546483699873875 0 -51.546483699873875 -56.3733189338991 0 0 0 0 -187.22239759277727 -230.3726854351363 0 -230.3726854351363 357.64772787185871 0 0 0 0 -159.9286971809197 142.01298533602983 0 142.01298533602983 337.01348270239077 0 0 0 0 -227.89955570845632 -89.191682242316347 0 -89.191682242316347 -23.138953235313807 0 0 0 0 -613.42437456402695 39.093166253632262 0 39.093166253632262 -415.64692953113888 0 0 0 0 -121.8226068297372 237.80778093140805 0 237.80778093140805 -339.49580062362509 0 0 0 0 -365.84012349716795 -129.89016282759417 0 -129.89016282759417 -61.197155346398091 0 0 0 0 -377.98413484419871 341.59139710951308 0 341.59139710951308 -712.54336206189339 0 0 0 0 -837.26491811736196 574.61407440052858 0 574.61407440052858 -178.24886433414486 0 0 0 0 -527.23039555305149 133.9596001842603 0 133.9596001842603 -212.39701055515184 0 0 0 0 -415.5080170941701 115.05857320587356 0 115.05857320587356 -260.77637151459726 0 0 0 0 -663.59444948277087 234.4750793324381 0 234.4750793324381 -176.33548780121592 0 0 0 0 -649.90215102421644 197.50197126151119 0 197.50197126151119 -127.40643658093006 0 0 0 0 -698.64331207096257 232.49830526845608 0 232.49830526845608 -119.06772097261012 0 0 0 0 -693.10107540154422 241.02740602305613 0 241.02740602305613 -127.27980519034793 0 0 0 0 -693.96471436110733 241.48962909104893 0 241.48962909104893 -47.657753488960282 0 0 0 0 -712.34532581797976 265.42119270958085 0 265.42119270958085 66.834187817046825 0 0 0 0 -80.282642909776769 340.00841516704406 0 340.00841516704406 -62.695408087159421 0 0 0 0 -3.4248833856368606 1.2551228472970593 0 1.2551228472970593 -0.10598463485275422 0 0 0 0 -691.12130745105969 -86.994524903829216 0 -86.994524903829216 120.64835994262572 0 0 0 0 58.20156942349422 7.0749538636330342 0 7.0749538636330342 9.1245157686059883 0 0 0 0 -829.58861378928486 278.82024955268793 0 278.82024955268793 13.983232011117593 0 0 0 0 -504.30665563027651 149.13109396756172 0 149.13109396756172 0.11754474006181066 0 0 0 0 -366.52204972376057 -16.930139095983467 0 -16.930139095983467 59.915771158811431 0 0 0 0 -700.93257628814899 214.99164795324251 0 214.99164795324251 -21.976551427964523 0 0 0 0 -687.64394621320389 122.24240375401577 0 122.24240375401577 127.46449774706795 0 0 0 0 -707.62036784689553 219.58550177304608 0 219.58550177304608 -13.95682461342126 0 0 0 0 -711.32310685263656 213.38656932939676 0 213.38656932939676 0.072736838808767829 0 0 0 0 -715.92148403289684 204.01670602676833 0 204.01670602676833 -17.006966472964223 0 0 0 0 -723.95733599991945 205.27291935636714 0 205.27291935636714 -0.0090772929554606419 0 0 0 0 -698.26863321417659 206.61436024163768 0 206.61436024163768 -18.406382328876759 0 0 0 0 -751.61394251035381 182.74063278336683 0 182.74063278336683 -2.5081703774576454 0 0 0 0 -896.75247098694672 205.20874835269879 0 205.20874835269879 -0.21849122212082306 0 0 0 0 -2.713655149131796 1.1287473108327788 0 1.1287473108327788 -0.50856778219380305 0 0 0 0 -1099.2113202796281 -136.88394283765376 0 -136.88394283765376 29.019918228356914 0 0 0 0 -499.18863284310646 -150.12421387189355 0 -150.12421387189355 29.197335198537473 0 0 0 0 -742.66781081374211 129.05395795516165 0 129.05395795516165 17.412554136905442 0 0 0 0 -724.30959616844484 130.10057509712857 0 130.10057509712857 4.4826615845501578 0 0 0 0 -645.48184801888419 56.419009101413167 0 56.419009101413167 63.351884248113549 0 0 0 0 -684.22054589007894 141.57763888927536 0 141.57763888927536 -22.585926824322314 0 0 0 0 -436.62416057025985 66.761268875131464 0 66.761268875131464 -75.323746747985524 0 0 0 0 -663.89991664187983 125.25065932683299 0 125.25065932683299 -11.172789695630627 0 0 0 0 -667.62427838485746 140.42422054447201 0 140.42422054447201 -72.043738630330722 0 0 0 0 -647.79662444314818 164.53025251309859 0 164.53025251309859 -43.372355370780951 0 0 0 0 -703.20754079174367 187.06155827902853 0 187.06155827902853 -51.653752119910337 0 0 0 0 -693.81003562350816 157.81288659223685 0 157.81288659223685 8.2154574529446904 0 0 0 0 -416.14722259106384 -47.943042976039663 0 -47.943042976039663 -0.13196936025652406 0 0 0 0 -587.58216601746244 -64.24643092649157 0 -64.24643092649157 23.234098571722189 0 0 0 0 -595.77652926775045 -135.31755682188617 0 -135.31755682188617 -140.82195569549793 0 0 0 0 -138.61396843793045 -26.250564937427399 0 -26.250564937427399 -0.092002764457489922 0 0 0 0 -323.0754227654179 -168.86034451208019 0 -168.86034451208019 -97.568893604183756 0 0 0 0 -223.42568289604969 -58.851624105354603 0 -58.851624105354603 -28.930889135876843 0 0 0 0 -350.34871321464016 -149.86046890451098 0 -149.86046890451098 -33.510896736237086 0 0 0 0 -3.9267391399581584 2.9611674313423748 0 2.9611674313423748 -1.9197670494273669 0 0 0 0 -184.6378323174431 -134.03480989830251 0 -134.03480989830251 -6.9856231997276836 0 0 0 0 -321.55815499976597 83.479779110770806 0 83.479779110770806 64.971762043932927 0 0 0 0 -428.64005702134455 56.27077130242958 0 56.27077130242958 -154.72121506094345 0 0 0 0 -182.2725514593767 148.61163656015981 0 148.61163656015981 -222.87105792611408 0 0 0 0 -399.98102482408285 413.77011920104417 0 413.77011920104417 -456.72715909362353 0 0 0 0 47.427659039134596 191.30354232106225 0 191.30354232106225 -402.77126484626274 0 0 0 0 -743.7996243655507 -59.779109517535773 0 -59.779109517535773 -25.929098632772408 0 0 0 0 -2.1127116122428333 1.5844393130528829 0 1.5844393130528829 -1.3057233842149902 0 0 0 0 -855.90633374179015 49.746974668388987 0 49.746974668388987 -104.28653580250119 0 0 0 0 -464.53551042472373 95.421464323714929 0 95.421464323714929 -344.06904465516322 0 0 0 0 -471.63732190222436 28.620121861857712 0 28.620121861857712 -187.21424939444955 0 0 0 0 -832.26625760548632 201.90336466123904 0 201.90336466123904 -258.47488068548779 0 0 0 0 -803.28656547298306 396.68144349381089 0 396.68144349381089 -599.49814500872299 0 0 0 0 -882.97512449685019 342.95648068925118 0 342.95648068925118 -599.31038656358896 0 0 0 0 80.144243427770562 -8.60962953774672 0 -8.60962953774672 -541.71283839941373 0 0 0 0 -143.7548912409693 -72.680211989490857 0 -72.680211989490857 -250.73254356029912 0 0 0 0 -398.34854133412591 281.63665148054451 0 281.63665148054451 -638.39280047207728 0 0 0 0 -219.27666795122059 -6.9903295613790277 0 -6.9903295613790277 -341.73567309015033 0 0 0 0 -297.72199430337059 -65.875147425045981 0 -65.875147425045981 -369.31526439056671 0 0 0 0 -120.27259719432914 -169.2401058011821 0 -169.2401058011821 -316.93202345321089 0 0 0 0 -317.55422498441476 -141.5944450480404 0 -141.5944450480404 -268.46381757630741 0 0 0 0 -275.62426433342262 -143.73423669854816 0 -143.73423669854816 -275.33307836615529 0 0 0 0 -421.62277824289777 -9.6654125857134972 0 -9.6654125857134972 -138.32140781318139 0 0 0 0 -485.80237068879069 -101.24777920667199 0 -101.24777920667199 -261.29148665685852 0 0 0 0 -80.858835340477526 118.92751750110801 0 118.92751750110801 -68.931640025666169 0 0 0 0 -68.666913078028301 58.678941831126622 0 58.678941831126622 19.057133390129195 0 0 0 0 -94.028546331044708 -82.126883825074444 0 -82.126883825074444 -244.86417371308403 0 0 0 0 -275.4676625696593 -158.41755207823181 0 -158.41755207823181 -129.7067150367462 0 0 0 0 -260.61821838292235 -204.94180135130057 0 -204.94180135130057 -201.7146879719372 0 0 0 0 -130.95756099808204 -77.165793412583639 0 -77.165793412583639 -197.36323545840239 0 0 0 0 -96.56821150558244 -126.277996018314 0 -126.277996018314 -127.5376247119849 0 0 0 0 -23.621612498420291 45.060018618076029 0 45.060018618076029 114.42309427604221 0 0 0 0 -0.17941154194113551 0.99386091967022594 0 0.99386091967022594 -2.1864710917015056 0 0 0 0 172.07636377753806 -148.74042228109204 0 -148.74042228109204 -352.19782735505584 0 0 0 0 10.201879671250936 -211.57654721916862 0 -211.57654721916862 -126.89761552704 0 0 0 0 214.19365983550961 20.507895446841204 0 20.507895446841204 -32.954783765253353 0 0 0 0 35.952289831242524 44.565850760130104 0 44.565850760130104 -23.207728386256804 0 0 0 0 35.072692204528721 25.692645014798416 0 25.692645014798416 154.99151272802783 0 0 0 0 0.8624518234484313 2.6712505717441672 0 2.6712505717441672 -4.0501636526496636 0 0 0 0 -373.83534832169607 180.94824618329025 0 180.94824618329025 38.83772623018217 0 0 0 0 -211.90809565152449 151.07593596605625 0 151.07593596605625 -92.561847255530552 0 0 0 0 -446.68800164134882 158.70806772372509 0 158.70806772372509 7.6941368944640089 0 0 0 0 -803.4808898926467 399.35297555344368 0 399.35297555344368 -151.45976884841343 0 0 0 0 -402.19553006761635 258.10370338254666 0 258.10370338254666 -229.53680756420658 0 0 0 0 -364.73640496052394 192.90305468388829 0 192.90305468388829 -123.96228130472912 0 0 0 0 -476.67346032032219 227.01011091251956 0 227.01011091251956 -68.340853860588595 0 0 0 0 -644.2024359194329 213.72180895156862 0 213.72180895156862 -19.894823618584155 0 0 0 0 -218.51489607593976 -269.30750405304866 0 -269.30750405304866 -301.43429581294271 0 0 0 0 -251.17899131352897 233.72143087672214 0 233.72143087672214 -233.09396055099444 0 0 0 0 -5.749791447241023 0.61733691139295743 0 0.61733691139295743 -0.1562166886389309 0 0 0 0 -100.20114186954925 -57.527048050733697 0 -57.527048050733697 -48.480582673331355 0 0 0 0 -9.15464524392155 -29.530647225000166 0 -29.530647225000166 64.280369828753464 0 0 0 0 -4.6024019957349793 0.70682429613458453 0 0.70682429613458453 0.0016044017593008775 0 0 0 0 266.12114830259452 -284.50071265879774 0 -284.50071265879774 -498.03541557401695 0 0 0 0 -2.7946301302263805 3.8782562092362127 0 3.8782562092362127 -0.54831359605561625 0 0 0 0 51.662051768304082 14.484172068465512 0 14.484172068465512 -163.9077035179057 0 0 0 0 -34.308080439834157 132.09872492985113 0 132.09872492985113 177.80989281297559 0 0 0 0 -11.151893807284068 156.58194593712716 0 156.58194593712716 167.51421896678175 0 0 0 0 -37.487917357226252 156.12946260018219 0 156.12946260018219 169.1921046678201 0 0 0 0 -59.528898210293846 137.66885157735737 0 137.66885157735737 181.3290004432356 0 0 0 0 -4.5482965614792192 -20.814598974561932 0 -20.814598974561932 44.819754225668021 0 0 0 0 -635.19553036488651 -273.45302435784095 0 -273.45302435784095 286.92549191817011 0 0 0 0 -17.260379048252673 -1.4857430524459581 0 -1.4857430524459581 1.2810696710344665 0 0 0 0 23.144723182878806 -35.315557410026486 0 -35.315557410026486 123.80184464222179 0 0 0 0 -10.853705413595094 -3.1694824958500458 0 -3.1694824958500458 0.73375974774134034 0 0 0 0 205.76437937923765 -91.893318655568578 0 -91.893318655568578 -319.35900508074269 0 0 0 0 -6.8148382964828897 -1.7543041677101101 0 -1.7543041677101101 0.45507003900183918 0 0 0 0 -55.313732897659065 -41.600306910500876 0 -41.600306910500876 -220.68665899187044 0 0 0 0 -45.008615830709459 229.36182055961081 0 229.36182055961081 239.69730804150043 0 0 0 0 137.61264664861665 262.17694017467619 0 262.17694017467619 92.993158831059532 0 0 0 0 -51.767325923246972 76.41906378485254 0 76.41906378485254 -15.348969578010838 0 0 0 0 0.22308067893027328 180.07118353140459 0 180.07118353140459 72.975769211293596 0 0 0 0 -661.91466638012207 129.61468370400848 0 129.61468370400848 -102.10088910994224 0 0 0 0 -798.11268825412844 33.116503941186807 0 33.116503941186807 -93.178781823190604 0 0 0 0 -621.27273698179488 64.139475397577826 0 64.139475397577826 -88.113262151837944 0 0 0 0 -678.00228932780738 99.577074612441663 0 99.577074612441663 -71.601903593945849 0 0 0 0 -637.5421809276304 127.72878235260845 0 127.72878235260845 -103.19308605873789 0 0 0 0 -592.4874982128531 86.413032245313957 0 86.413032245313957 -67.579649319475834 0 0 0 0 -584.04899349242623 122.87060145851171 0 122.87060145851171 -95.701192760909123 0 0 0 0 -601.85699125438987 123.36062262749442 0 123.36062262749442 -80.7412367250746 0 0 0 0 -491.59290510850497 136.3067739273277 0 136.3067739273277 -115.0428619923232 0 0 0 0 -595.14789592724264 140.27568540223484 0 140.27568540223484 -260.86948544591064 0 0 0 0 -659.5917981521925 8.5522281569991492 0 8.5522281569991492 -189.72872538927481 0 0 0 0 -470.90105436045269 54.732778034273224 0 54.732778034273224 -398.62510126498807 0 0 0 0 -411.61448434412159 179.7263180119794 0 179.7263180119794 -252.39754837439625 0 0 0 0 -774.57584381527704 239.75837945821678 0 239.75837945821678 -62.513393071930295 0 0 0 0 -578.15702649097511 374.40999586266906 0 374.40999586266906 -389.45624089482908 0 0 0 0 -697.84581645882281 152.54337414685682 0 152.54337414685682 -81.323184251451494 0 0 0 0 -1095.8509314860203 562.10264029802636 0 562.10264029802636 -384.26630626789301 0 0 0 0 -1522.6215033807489 -39.253226224751053 0 -39.253226224751053 -257.60456686318457 0 0 0 0 -599.20475859477301 220.57278357484063 0 220.57278357484063 -843.44566976033116 0 0 0 0 -666.02144982253958 154.63675334629727 0 154.63675334629727 -274.92446196362607 0 0 0 0 -787.70053460494091 -20.954710078181506 0 -20.954710078181506 374.68713490367099 0 0 0 0 -359.7736294525821 112.63972723782393 0 112.63972723782393 -396.88166264002757 0 0 0 0 -613.03791908658604 166.35556927078358 0 166.35556927078358 -262.09486821631185 0 0 0 0 -519.63166454221209 187.10608438672534 0 187.10608438672534 -220.51119605690496 0 0 0 0 -222.42909195277025 -181.76241816316309 0 -181.76241816316309 97.482988585523799 0 0 0 0 -228.59804812812945 68.971195032630021 0 68.971195032630021 230.54643624048299 0 0 0 0 -458.96190145410219 89.95758434740452 0 89.95758434740452 230.67325215062465 0 0 0 0 -63.417672825788031 115.61812121354183 0 115.61812121354183 187.02460999003029 0 0 0 0 -1013.301838426989 -372.68699926750833 0 -372.68699926750833 846.93874117273481 0 0 0 0 -187.13080106804773 -236.94072814623084 0 -236.94072814623084 782.18816432226663 0 0 0 0 273.28806274620001 652.81798331799484 0 652.81798331799484 918.32890974984571 0 0 0 0 -0.7038506733590566 -1.8855373533864679 0 -1.8855373533864679 7.827005549892343 0 0 0 0 -854.22244863000378 -458.55919648597694 0 -458.55919648597694 312.03085514968353 0 0 0 0 372.5938485734805 -477.63912563977044 0 -477.63912563977044 598.72965522205163 0 0 0 0 -703.27067276992602 -538.11390095899083 0 -538.11390095899083 652.38524314444203 0 0 0 0 -296.58560107388621 86.971633457685243 0 86.971633457685243 994.19501312997545 0 0 0 0 -295.10295445992961 -197.10139390042798 0 -197.10139390042798 858.21511706473257 0 0 0 0 -33.417702585225925 -153.25817549956051 0 -153.25817549956051 508.18209404226673 0 0 0 0 -619.13829140168673 -199.64115191915363 0 -199.64115191915363 244.73100388828973 0 0 0 0 -792.78339878925181 -132.9170961023494 0 -132.9170961023494 507.76119322755812 0 0 0 0 -561.57442691779579 -157.17457236944557 0 -157.17457236944557 284.70347753301996 0 0 0 0 -633.78367562747735 -51.912817088555869 0 -51.912817088555869 915.22545732981803 0 0 0 0 37.410737215919653 -83.1105950189434 0 -83.1105950189434 233.97950128551201 0 0 0 0 53.015256470622262 -48.834977685982722 0 -48.834977685982722 194.53622490108989 0 0 0 0 15.736905998119255 -58.712122472093384 0 -58.712122472093384 204.66091995803663 0 0 0 0 -38.013458193017868 -28.407453515483098 0 -28.407453515483098 172.54331602060233 0 0 0 0 11.251520433068436 -13.969615537741447 0 -13.969615537741447 176.10018984434873 0 0 0 0 -107.62459272572596 -112.45365300279809 0 -112.45365300279809 145.94877536910212 0 0 0 0 -17.27360611873155 -13.338535875438424 0 -13.338535875438424 78.983746337124558 0 0 0 0 -13.453090946699376 -8.1894456883358089 0 -8.1894456883358089 58.789596229922836 0 0 0 0 -220.51670278456731 -85.48070907849069 0 -85.48070907849069 551.66265430568615 0 0 0 0 -17.564848439134948 18.272717143034583 0 18.272717143034583 300.2470923671392 0 0 0 0 -282.1767909470218 -222.16084582197027 0 -222.16084582197027 249.01157776569221 0 0 0 0 -122.30092651117593 -95.095857147553943 0 -95.095857147553943 162.02474425557557 0 0 0 0 -240.60053874349978 -248.71073845981505 0 -248.71073845981505 -23.745992253258464 0 0 0 0 -475.45220711608999 -286.07266157462368 0 -286.07266157462368 33.019804307932191 0 0 0 0 -390.11396434046037 -166.82081118611626 0 -166.82081118611626 196.40546174845417 0 0 0 0 -298.65458212510566 -187.00967993768973 0 -187.00967993768973 190.37015357429482 0 0 0 0 -230.34342580888503 -280.25052787879707 0 -280.25052787879707 282.46094302268602 0 0 0 0 -246.7893718086998 127.93750989356761 0 127.93750989356761 499.71156514165796 0 0 0 0 -28.293001705911593 100.94797525243746 0 100.94797525243746 341.98198683524242 0 0 0 0 -159.23721059411764 66.027381235660869 0 66.027381235660869 332.42118177057671 0 0 0 0 -356.42374263434613 -68.573103573182038 0 -68.573103573182038 335.99147817333142 0 0 0 0 -2.5062630526141447 -1.9241942861345824 0 -1.9241942861345824 0.56820384335506713 0 0 0 0 -92.532686636986909 -115.84535348091345 0 -115.84535348091345 -81.45167621233827 0 0 0 0 17.882386468547338 18.701624258920901 0 18.701624258920901 184.72418306272994 0 0 0 0 -50.922599756995623 -2.6235409555262095 0 -2.6235409555262095 183.95580966681382 0 0 0 0 24.435083920201578 -170.27731298465756 0 -170.27731298465756 466.94005108180772 0 0 0 0 28.073924782962422 -149.37417109317721 0 -149.37417109317721 60.538448391091151 0 0 0 0 -39.487620614323532 -2.6309091383573104 0 -2.6309091383573104 27.859278693687429 0 0 0 0 -15.912931234761317 -0.46889043005704423 0 -0.46889043005704423 6.156766860767366 0 0 0 0 -8.6531612142369454 6.324980475902592 0 6.324980475902592 1.8071794330481339 0 0 0 0 -79.995471786627604 -6.5430851950873148 0 -6.5430851950873148 603.21941737664565 0 0 0 0 89.907920586490945 132.37711974953163 0 132.37711974953163 357.83585873043648 0 0 0 0 -71.076794887922006 -14.788631593475316 0 -14.788631593475316 356.55316368624517 0 0 0 0 -186.95057710321751 55.649677185052823 0 55.649677185052823 338.88607441326076 0 0 0 0 -186.89124629838625 16.764026558121259 0 16.764026558121259 388.85623487596695 0 0 0 0 -151.47895326852267 -3.0407991722725001 0 -3.0407991722725001 318.13489162129372 0 0 0 0 -147.24491079953441 28.512675668269367 0 28.512675668269367 355.38251993156427 0 0 0 0 -192.23574512022606 68.858564460761045 0 68.858564460761045 188.2489690405655 0 0 0 0 -182.42738190125965 -8.8914319105565482 0 -8.8914319105565482 319.73053481562783 0 0 0 0 -112.37701934931101 -93.839755434764811 0 -93.839755434764811 402.59979628462816 0 0 0 0 -160.95378292459645 33.146472114666722 0 33.146472114666722 357.74518208576228 0 0 0 0 -137.7171368891868 6.7540419964689136 0 6.7540419964689136 134.81780222415364 0 0 0 0 -62.639487769192783 -58.603395076713241 0 -58.603395076713241 123.10540022942462 0 0 0 0 -1.6846383396071616 1.1304083495308532 0 1.1304083495308532 0.92827800209894917 0 0 0 0 -157.1430687635002 -95.912027452967322 0 -95.912027452967322 103.68626140600372 0 0 0 0 -129.93465683575778 31.768161774993132 0 31.768161774993132 311.96033473774969 0 0 0 0 -147.97884340156452 65.139479070028756 0 65.139479070028756 319.94685729548291 0 0 0 0 -146.47808831255588 44.544434642823802 0 44.544434642823802 302.57649278616645 0 0 0 0 48.667048039962538 173.02703869130983 0 173.02703869130983 277.8980304056513 0 0 0 0 -133.50050508172717 122.51070918410778 0 122.51070918410778 365.1678613065269 0 0 0 0 -110.83251631668827 -57.780260595721757 0 -57.780260595721757 85.819315192393333 0 0 0 0 -88.955984584768885 -1.9447757131690651 0 -1.9447757131690651 55.444152246685917 0 0 0 0 1.1800539836549433 244.83585985507989 0 244.83585985507989 54.99428628842179 0 0 0 0 -284.42596618600874 -81.495427821900194 0 -81.495427821900194 157.68594112264964 0 0 0 0 -68.759665371369238 25.233018139008223 0 25.233018139008223 -5.7085559344083405 0 0 0 0 -14.56209914148485 -14.921265881027921 0 -14.921265881027921 29.330552267117042 0 0 0 0 -172.00002304122609 -154.81194572350205 0 -154.81194572350205 -110.68763046963568 0 0 0 0 -124.99807297993758 -2.3470331454637474 0 -2.3470331454637474 24.318440845852226 0 0 0 0 339.75400296141743 -19.475807705393891 0 -19.475807705393891 -630.14696042091236 0 0 0 0 -111.27790252640261 363.19650894517235 0 363.19650894517235 175.5502606601251 0 0 0 0 -178.0338263944177 -56.523518377058963 0 -56.523518377058963 -94.542130853804338 0 0 0 0 -61.78169484286704 -12.391448862809767 0 -12.391448862809767 -20.598547957761923 0 0 0 0 -160.10865376751462 -83.501525503302901 0 -83.501525503302901 -73.543529811073768 0 0 0 0 -60.87127798200936 7.692812489951919 0 7.692812489951919 10.615813436073147 0 0 0 0 -71.916796509626963 -29.313586971852956 0 -29.313586971852956 -13.593323759075044 0 0 0 0 -43.431801444501616 -6.8194611753060599 0 -6.8194611753060599 17.503882666234858 0 0 0 0 -126.1447229296387 -20.377744914276633 0 -20.377744914276633 9.4409936676967163 0 0 0 0 -50.526453682032297 9.9356070706735409 0 9.9356070706735409 -12.690569875063375 0 0 0 0 -90.09678701433586 -30.86109649124046 0 -30.86109649124046 -8.0337832395853184 0 0 0 0 -103.81474380579311 -34.622257425091448 0 -34.622257425091448 -31.967479731440108 0 0 0 0 -93.605289443279617 -54.061845147975873 0 -54.061845147975873 -60.153280026519496 0 0 0 0 -93.989382108891732 -23.251902260988118 0 -23.251902260988118 1.9954374619255759 0 0 0 0 -129.46293773764046 -74.120288632148004 0 -74.120288632148004 -33.365503868364613 0 0 0 0 -139.04169721994549 -29.393040245391603 0 -29.393040245391603 -16.547792702629522 0 0 0 0 -83.629333855360272 -6.3226584054913957 0 -6.3226584054913957 -8.5662205996657725 0 0 0 0 -83.864565769426804 -7.0596285554251068 0 -7.0596285554251068 16.198608054801067 0 0 0 0 -100.66985468874918 -43.115507274793345 0 -43.115507274793345 -4.1744494802405825 0 0 0 0 -100.38172710774234 -44.240282798478802 0 -44.240282798478802 -17.023469908503102 0 0 0 0 -106.37726932818623 -24.242717263632358 0 -24.242717263632358 -29.501781354094419 0 0 0 0 -173.09605975903105 -39.512068351083144 0 -39.512068351083144 -5.0668651951555148 0 0 0 0 -34.84711001175927 -6.1116569299423702 0 -6.1116569299423702 -0.44938515385153366 0 0 0 0 -163.35875520389527 -57.109768963252463 0 -57.109768963252463 1.12771773355189 0 0 0 0 -62.197995669674128 -20.090813374169556 0 -20.090813374169556 -39.02190634614908 0 0 0 0 -81.63844099355947 -14.835286994622571 0 -14.835286994622571 -2.4895214696462062 0 0 0 0 -81.352807867733645 -30.180782938545235 0 -30.180782938545235 6.5323684453233 0 0 0 0 -65.579901184450648 -31.208252808846979 0 -31.208252808846979 -2.9507448731240657 0 0 0 0 -52.02272067002923 -26.745478978647611 0 -26.745478978647611 6.305216889571966 0 0 0 0 -99.36930783127508 -38.814120161618661 0 -38.814120161618661 8.7034262328825545 0 0 0 0 -55.576504405587912 -22.210544660046935 0 -22.210544660046935 16.179445821262789 0 0 0 0 -95.526563174048249 -31.327913416543964 0 -31.327913416543964 8.3219702937394811 0 0 0 0 -80.295867058225156 -25.472891942923493 0 -25.472891942923493 -3.5862523347867725 0 0 0 0 -119.32387395395199 -13.261970492956607 0 -13.261970492956607 38.644804491188552 0 0 0 0 -116.60670042269086 -39.089675598810956 0 -39.089675598810956 -14.449391077913344 0 0 0 0 -97.878355017688591 13.311193423429359 0 13.311193423429359 -21.412519521429203 0 0 0 0 -145.64159363578074 -42.552225118073693 0 -42.552225118073693 10.862820073063631 0 0 0 0 -192.47229362023063 -48.409972172310518 0 -48.409972172310518 -33.941994316224736 0 0 0 0 -94.815733055365854 -38.886317525775667 0 -38.886317525775667 -93.762956288150235 0 0 0 0 -51.707462258160376 -49.177056446652557 0 -49.177056446652557 -61.670680189143241 0 0 0 0 -0.30229422539630946 -0.70558670508307131 0 -0.70558670508307131 -2.0103221104191338 0 0 0 0 -106.27627939620288 -26.714820248066644 0 -26.714820248066644 -21.962735836949832 0 0 0 0 -42.924835262609044 -29.525305866828774 0 -29.525305866828774 -41.824066466284428 0 0 0 0 -50.207059129216788 -8.5618923175948254 0 -8.5618923175948254 -7.7146733690388274 0 0 0 0 -56.307970345273134 -22.230304642014616 0 -22.230304642014616 -0.11391500080583938 0 0 0 0 -59.220506692853832 -19.14059164532847 0 -19.14059164532847 15.754426342972197 0 0 0 0 -95.875028161462978 -30.159258407348261 0 -30.159258407348261 7.7973452902301688 0 0 0 0 -108.93752606054477 -14.169634300367761 0 -14.169634300367761 13.498688931595098 0 0 0 0 -98.730719444618444 -8.3486172773808107 0 -8.3486172773808107 21.620646217010744 0 0 0 0 -96.762322607828537 -12.834192569958759 0 -12.834192569958759 11.839853341243725 0 0 0 0 -100.25088170409435 -13.160598900748482 0 -13.160598900748482 6.5855078225076795 0 0 0 0 -106.96032556815607 -5.5826467676824763 0 -5.5826467676824763 28.727381122594068 0 0 0 0 -95.878202202489774 -12.301829214658483 0 -12.301829214658483 -0.272017904160748 0 0 0 0 -99.46726395827136 -3.3771028277869846 0 -3.3771028277869846 -9.1372228345862823 0 0 0 0 -58.800801026795 -25.094559107684773 0 -25.094559107684773 0.18680344954825401 0 0 0 0 -41.187484139637604 24.296838508685994 0 24.296838508685994 10.030254493328961 0 0 0 0 -102.86105223559207 -14.28870899279741 0 -14.28870899279741 -0.043635858903144253 0 0 0 0 314.37466703183873 199.44813429171356 0 199.44813429171356 630.07941789756114 0 0 0 0 -4853.9277414748503 -934.80399731877719 0 -934.80399731877719 -1600.1885496942934 0 0 0 0 -117.92296163866024 -3.7716298157800168 0 -3.7716298157800168 25.747704051782865 0 0 0 0 319.05560500116553 598.00760934263349 0 598.00760934263349 794.12266171326428 0 0 0 0 -505.2488565275853 -718.79413950788694 0 -718.79413950788694 -659.60803221429524 0 0 0 0 -10.339309817666106 23.154107309826177 0 23.154107309826177 14.412215701393652 0 0 0 0 -11.898933838063385 308.26777615767151 0 308.26777615767151 1725.1791481783675 0 0 0 0 -818.37846335186623 -466.71849471813766 0 -466.71849471813766 -649.97479169009603 0 0 0 0 -852.94057511398569 -142.08714947182307 0 -142.08714947182307 -680.50474047171883 0 0 0 0 -296.4235323693938 -2.1217654339070577 0 -2.1217654339070577 -1284.7255756877676 0 0 0 0 -89.219582676718971 -34.42278564278827 0 -34.42278564278827 -6.5750973183267023 0 0 0 0 -1189.644497063462 -607.40319575064404 0 -607.40319575064404 290.78594728545977 0 0 0 0 122.20791141843074 216.2556357703229 0 216.2556357703229 696.04563256416805 0 0 0 0 -17.136363724228318 -13.937172843079992 0 -13.937172843079992 -3.0017397605632405 0 0 0 0 -221.03711295050744 524.1760468108057 0 524.1760468108057 777.48411666747961 0 0 0 0 -889.81482633094856 122.5937868600106 0 122.5937868600106 550.16378978172611 0 0 0 0 -28.625316076215341 8.8908049501206676 0 8.8908049501206676 1.3289979924073783 0 0 0 0 407.81537021120312 561.49487920957563 0 561.49487920957563 177.87801509889607 0 0 0 0 717.88070068085472 546.03199218037889 0 546.03199218037889 778.0255273434027 0 0 0 0 -391.52262084805989 35.274740593742536 0 35.274740593742536 166.66665722222044 0 0 0 0 1553.9363487681549 -1428.230728470297 0 -1428.230728470297 70.425539601850232 0 0 0 0 192.1559812076157 698.72025511610832 0 698.72025511610832 933.08736836228854 0 0 0 0 -4990.5486893259804 -3027.9600645509977 0 -3027.9600645509977 -6.5417576900158565 0 0 0 0 -1689.3952955488348 -843.86143849305631 0 -843.86143849305631 659.73305799395359 0 0 0 0 -874.70837146765552 123.17935972650457 0 123.17935972650457 48.423617104868185 0 0 0 0 -1334.2611939693925 309.04847503635676 0 309.04847503635676 354.12251973592629 0 0 0 0 -269.66264600964496 189.78486368167557 0 189.78486368167557 -180.38016156794765 0 0 0 0 -702.63923213852104 869.22204682433107 0 869.22204682433107 -398.02356427594532 0 0 0 0 -3593.9002150461019 1589.0790065771432 0 1589.0790065771432 56.782305911218373 0 0 0 0 -1308.0801288567891 518.95615863896182 0 518.95615863896182 353.2407662812098 0 0 0 0 -373.97425474827469 -240.04920154615706 0 -240.04920154615706 3.635116504744019 0 0 0 0 1.7976789663014756 -5.7956907902542412 0 -5.7956907902542412 21.166881380280799 0 0 0 0 -168.88114268379286 120.00245666909086 0 120.00245666909086 -132.31422200715883 0 0 0 0 -50.807295862374133 16.247092163334798 0 16.247092163334798 -2.9368757335280682 0 0 0 0 -113.53109570793458 199.55127454972262 0 199.55127454972262 532.60479366056552 0 0 0 0 -426.36278359452263 -51.629265308785762 0 -51.629265308785762 -401.02789649847227 0 0 0 0 49.182272666861536 -197.1666509915367 0 -197.1666509915367 -100.52448360119388 0 0 0 0 -71.527704243009794 -298.04634610451421 0 -298.04634610451421 497.99264023026899 0 0 0 0 -635.67046313121682 915.07998280270067 0 915.07998280270067 -69.38882000825862 0 0 0 0 -20.392011474491113 2.2625442609639634 0 2.2625442609639634 2.8508514407206671 0 0 0 0 885.55224494371214 766.33896115916764 0 766.33896115916764 174.36435825313708 0 0 0 0 -1064.7598859366844 -1866.8502821573302 0 -1866.8502821573302 -2358.4818641066099 0 0 0 0 -21.325137177631689 4.9950061663516721 0 4.9950061663516721 -1.1875424512533832 0 0 0 0 452.7967211897485 -109.49398549943862 0 -109.49398549943862 -176.73961112426565 0 0 0 0 208.95284315390745 436.24176024545295 0 436.24176024545295 -244.97693625897159 0 0 0 0 -147.76635516934402 -732.73593673678624 0 -732.73593673678624 -667.76011424212265 0 0 0 0 -46.264784220384172 -596.5373918006062 0 -596.5373918006062 -529.54839172687934 0 0 0 0 -1848.7475710607905 34.669795451875643 0 34.669795451875643 1007.3541625496537 0 0 0 0 -130.39096096153861 5.8135938755366681 0 5.8135938755366681 33.157838663228397 0 0 0 0 -176.4907983179728 -195.242366561783 0 -195.242366561783 -328.52832451293352 0 0 0 0 -1423.8296248504812 473.01223762020209 0 473.01223762020209 159.60854610020579 0 0 0 0 -1981.4212909724574 -612.01300298964611 0 -612.01300298964611 109.37411016265469 0 0 0 0 -1952.7725955498172 393.75326668810703 0 393.75326668810703 176.28143656212251 0 0 0 0 -252.29987518766211 -731.10893064524544 0 -731.10893064524544 -867.6134870150745 0 0 0 0 -1172.4032856724734 -1098.0783510168949 0 -1098.0783510168949 -493.41073391669306 0 0 0 0 -711.62401915495866 -337.76225353903465 0 -337.76225353903465 -191.69822786186614 0 0 0 0 2.1445750928978669 -698.71247507361068 0 -698.71247507361068 -1206.8651276655801 0 0 0 0 -1572.7294265188029 312.05921445234799 0 312.05921445234799 74.42373513621169 0 0 0 0 -1720.3862749213295 -976.47508434017072 0 -976.47508434017072 -604.92615108448126 0 0 0 0 -6.6971663211091226 -7.7652413035149088 0 -7.7652413035149088 -8.2907329958369171 0 0 0 0 -119.11769837969769 -521.11615174195231 0 -521.11615174195231 -598.31494093818037 0 0 0 0 76.892815506008446 -64.154450980005663 0 -64.154450980005663 -52.923721133689469 0 0 0 0 -384.38195385807194 -635.8347523124321 0 -635.8347523124321 -531.3664879234193 0 0 0 0 -360.76440603705123 -646.77928678895478 0 -646.77928678895478 -582.32314675579619 0 0 0 0 -463.31766088276345 -208.16643204957472 0 -208.16643204957472 -717.97162686679803 0 0 0 0 -314.41148852747574 -425.20175726468369 0 -425.20175726468369 -498.38945061204868 0 0 0 0 -382.49247172479136 0.60190364547599984 0 0.60190364547599984 -227.14035056904504 0 0 0 0 -248.18719297415373 -296.13393426246785 0 -296.13393426246785 235.40430728697402 0 0 0 0 -147.352605278189 -60.504648600411116 0 -60.504648600411116 -175.9834827842551 0 0 0 0 -268.23135629161698 368.53750432693096 0 368.53750432693096 709.85760370933622 0 0 0 0 71.697356736971415 -111.812089206152 0 -111.812089206152 -199.31900868133084 0 0 0 0 -2.2496854605358294 -3.9194644282458668 0 -3.9194644282458668 5.0309415831283921 0 0 0 0 27.314442739038441 -147.28516486240341 0 -147.28516486240341 -213.96023286531818 0 0 0 0 116.99313775133487 571.31777201303885 0 571.31777201303885 -1168.3709727796813 0 0 0 0 90.862385613749666 653.44492616923276 0 653.44492616923276 -145.2537951245522 0 0 0 0 -435.6648400572376 -411.6235422743548 0 -411.6235422743548 -845.59526817679944 0 0 0 0 -722.00761178727407 390.49206023805436 0 390.49206023805436 -522.97042084941313 0 0 0 0 -231.47283689555479 -416.99048103809173 0 -416.99048103809173 -4.8341055917389895 0 0 0 0 -69.153883500495169 -27.404592701837394 0 -27.404592701837394 -10.066980221523261 0 0 0 0 -358.88272492778196 -375.16004111937036 0 -375.16004111937036 706.41098275444529 0 0 0 0 -558.12259451090358 -96.558391025237597 0 -96.558391025237597 505.59227931902228 0 0 0 0 -291.97292669124727 -174.38802593556034 0 -174.38802593556034 99.438585217519631 0 0 0 0 -1006.1165636806254 -37.982854780814478 0 -37.982854780814478 79.538530560628601 0 0 0 0 -333.94430225811084 -390.14016313867751 0 -390.14016313867751 -11.86173611949755 0 0 0 0 -195.18679951286322 -339.58604055421665 0 -339.58604055421665 -42.538938819297073 0 0 0 0 -300.70115094933135 -315.77454479580979 0 -315.77454479580979 -47.834071650626925 0 0 0 0 -74.833356443545199 318.0796435125493 0 318.0796435125493 -155.00728233591508 0 0 0 0 -173.43024666197016 181.25467937522444 0 181.25467937522444 125.29029351997269 0 0 0 0 -558.06793711232604 59.390543336106248 0 59.390543336106248 198.98738477706775 0 0 0 0 -282.02781522371515 354.5618581259032 0 354.5618581259032 -132.06355643969368 0 0 0 0 -106.30979451470193 239.73518631500701 0 239.73518631500701 150.09230856886256 0 0 0 0 72.334986324611236 -144.45879909358564 0 -144.45879909358564 257.57805643644588 0 0 0 0 -167.09751029722975 58.575521218293034 0 58.575521218293034 493.37942515512395 0 0 0 0 -52.916662047310496 -16.734608804047085 0 -16.734608804047085 -5.2749602161501619 0 0 0 0 -118.80349997224403 241.1368184272319 0 241.1368184272319 -811.24900810892723 0 0 0 0 -342.02476227447914 -10.23097789637086 0 -10.23097789637086 -599.46337595560999 0 0 0 0 -375.16835535155406 -309.92127250800377 0 -309.92127250800377 -241.72831953186551 0 0 0 0 -3.5042595155784113 -2.2471852490853479 0 -2.2471852490853479 2.4052812152691061 0 0 0 0 -21.149044629157288 -40.561364924556074 0 -40.561364924556074 -593.11943433491251 0 0 0 0 -329.61481577684026 111.82124606249272 0 111.82124606249272 -365.01543424335523 0 0 0 0 52.243889830337139 -17.40892414754353 0 -17.40892414754353 -589.47204878517869 0 0 0 0 -162.45280539396981 20.562512736369854 0 20.562512736369854 -185.05221064842317 0 0 0 0 -150.83862443811086 73.14713222575574 0 73.14713222575574 73.734209994698062 0 0 0 0 -77.671091008167423 108.54117991802775 0 108.54117991802775 -326.58944114854694 0 0 0 0 -56.016662482405081 234.2208312404955 0 234.2208312404955 -794.88896992451828 0 0 0 0 -33.881640244057451 -9.0867383754918034 0 -9.0867383754918034 -3.3596149435153055 0 0 0 0 -1028.7705209104024 645.8911895398046 0 645.8911895398046 -407.70117627309583 0 0 0 0 -12.450903028177152 -1.9901750404800396 0 -1.9901750404800396 -1.6463747109235829 0 0 0 0 -165.70919783548015 -33.99933931316491 0 -33.99933931316491 -1096.5494235994242 0 0 0 0 -552.23287404717121 570.53994706774097 0 570.53994706774097 -477.58664212693725 0 0 0 0 -1216.5602205812738 257.6838699867036 0 257.6838699867036 -138.11372484914318 0 0 0 0 -493.71785397277381 346.05827568273145 0 346.05827568273145 -181.43034303805143 0 0 0 0 -511.71257177938242 268.43343332712925 0 268.43343332712925 -209.12276563547994 0 0 0 0 -552.58469322691963 234.06382405131217 0 234.06382405131217 -120.31193958218057 0 0 0 0 -868.88785550225293 267.41342230466057 0 267.41342230466057 -93.482846191034923 0 0 0 0 -974.89877439302654 108.85819202860193 0 108.85819202860193 -77.91571613912447 0 0 0 0 -974.75057407103304 213.50294763249235 0 213.50294763249235 -10.020721707032294 0 0 0 0 -40.323437028615444 198.34511578548342 0 198.34511578548342 -185.70179334871136 0 0 0 0 -1.1980686467286432 84.692184847378485 0 84.692184847378485 16.180722211227476 0 0 0 0 -157.33529935291153 220.20772306645279 0 220.20772306645279 -253.183877383972 0 0 0 0 -290.17187974099943 272.8134841831826 0 272.8134841831826 -188.24939824990463 0 0 0 0 -142.24377199944865 277.86020910479624 0 277.86020910479624 -88.465380848944278 0 0 0 0 -83.725597250020655 296.72442324555391 0 296.72442324555391 -245.27408658062905 0 0 0 0 -97.730178973230068 307.28023989749659 0 307.28023989749659 -51.897778412132311 0 0 0 0 -49.700092142094945 267.96438023729939 0 267.96438023729939 -163.70814130381063 0 0 0 0 13.026727589502116 293.51528221703569 0 293.51528221703569 -245.37848871610896 0 0 0 0 -20.56865840908722 200.57112269253389 0 200.57112269253389 -214.63464811041712 0 0 0 0 -252.15252040367341 131.20082919440054 0 131.20082919440054 -102.63877055014723 0 0 0 0 -308.52052974209073 65.710290769753612 0 65.710290769753612 347.05244290703047 0 0 0 0 126.32972564951888 290.87450183453143 0 290.87450183453143 -162.51448306420787 0 0 0 0 145.29021667805728 13.296253889247982 0 13.296253889247982 -71.531311533100705 0 0 0 0 11.506829637597548 171.85376472534355 0 171.85376472534355 -208.65044577979364 0 0 0 0 -30.905940702330554 128.60072695579163 0 128.60072695579163 311.98232213200026 0 0 0 0 -851.069852369008 101.0765336514288 0 101.0765336514288 35.998365030008699 0 0 0 0 -870.8896936171659 178.17437266361074 0 178.17437266361074 36.911839622643051 0 0 0 0 -442.12903366640967 93.332318933930594 0 93.332318933930594 -115.89726495770969 0 0 0 0 -256.42770182083768 143.08007061491517 0 143.08007061491517 -133.00602287046183 0 0 0 0 -299.80906283565855 66.820064685585123 0 66.820064685585123 4.486385657842078 0 0 0 0 -663.04619131250365 -60.989854459697327 0 -60.989854459697327 59.065118809028817 0 0 0 0 -996.94483746665355 101.6589077656417 0 101.6589077656417 145.10834834836663 0 0 0 0 -1359.8740615991555 285.45338139579468 0 285.45338139579468 168.26221294957747 0 0 0 0 -972.77100757158769 -199.03077369231784 0 -199.03077369231784 155.47679174423786 0 0 0 0 -270.81205168077213 248.36120470651508 0 248.36120470651508 316.58773999182267 0 0 0 0 -100.39682712961803 38.726068245717101 0 38.726068245717101 60.366223866334764 0 0 0 0 -45.016657898902196 15.728715932395566 0 15.728715932395566 -3.3303331252104611 0 0 0 0 2.0840370794248884 -563.9112248388775 0 -563.9112248388775 112.76330821047236 0 0 0 0 -18.485378754527432 8.8875874076423926 0 8.8875874076423926 -3.2855125498514224 0 0 0 0 -1681.5065170141024 -568.47670249810324 0 -568.47670249810324 160.88433461729483 0 0 0 0 -695.8371811057732 2314.0453645985795 0 2314.0453645985795 -411.32012974958764 0 0 0 0 -55.486982100926554 12.642017764071987 0 12.642017764071987 -0.47743881261320942 0 0 0 0 108.33729305493762 100.88735198250174 0 100.88735198250174 4.0603975075366634 0 0 0 0 -1.2975130072139223 7.6080526469653691 0 7.6080526469653691 1.3740804489158145 0 0 0 0 -164.79204825879424 31.995814293324315 0 31.995814293324315 1044.9562053240409 0 0 0 0 105.40530186890101 212.49743378150458 0 212.49743378150458 168.82969128777694 0 0 0 0 -457.38868942363479 498.86020938041258 0 498.86020938041258 1746.4378171761846 0 0 0 0 68.49856374758383 -138.10352078576022 0 -138.10352078576022 274.33620532552442 0 0 0 0 -54.683966917415091 90.267976373752447 0 90.267976373752447 396.77898645582445 0 0 0 0 -14.577902280900162 -7.3666428805621536 0 -7.3666428805621536 346.89014536142508 0 0 0 0 -52.953968076216483 1.7075073548838162 0 1.7075073548838162 4.6456904429942103 0 0 0 0 -200.15621393227775 -70.001406357432984 0 -70.001406357432984 22.002464558546166 0 0 0 0 -211.31052451983123 -131.35954068001038 0 -131.35954068001038 820.51369224214079 0 0 0 0 -0.32035075866866691 -2.6525226021910413 0 -2.6525226021910413 0.53254668813221073 0 0 0 0 -37.029000990313989 -0.40465059154215766 0 -0.40465059154215766 3.8379161559522936 0 0 0 0 -666.66017129342072 551.81071229291956 0 551.81071229291956 -355.82529568264351 0 0 0 0 -155.6340794004791 224.87451621290199 0 224.87451621290199 -151.14898645902184 0 0 0 0 -45.300646469872845 -397.56823467023906 0 -397.56823467023906 1038.2899800872478 0 0 0 0 -196.12129775322683 113.77871434083613 0 113.77871434083613 640.67159460807386 0 0 0 0 -1416.4061180535323 1567.9350105845645 0 1567.9350105845645 -1368.6304026070111 0 0 0 0 -333.81603219081444 -689.80738137847027 0 -689.80738137847027 704.36402477769707 0 0 0 0 -14.361507957353012 0.92980056195404615 0 0.92980056195404615 1.1587098673544811 0 0 0 0 -461.15745277056703 570.59798583662814 0 570.59798583662814 -608.59335078042966 0 0 0 0 -608.44624210254551 705.68470908765119 0 705.68470908765119 -1.1784352550836275 0 0 0 0 -359.18645875462971 1222.7738230798338 0 1222.7738230798338 610.56632266596546 0 0 0 0 -1052.0490147273995 579.56427491905856 0 579.56427491905856 145.30467620671971 0 0 0 0 -826.85024810342475 861.01091024866707 0 861.01091024866707 57.479001864940301 0 0 0 0 346.45238312678703 374.20140986251613 0 374.20140986251613 250.22311930088495 0 0 0 0 -432.64676747836347 -583.76042666132435 0 -583.76042666132435 -422.32502721854257 0 0 0 0 -11.110287892640144 4.5303129984571768 0 4.5303129984571768 -1.0023300508259307 0 0 0 0 -1303.5811351054435 -851.73660023113803 0 -851.73660023113803 -422.07387790798271 0 0 0 0 -649.10872967743489 -44.223744715810653 0 -44.223744715810653 -136.8601266880994 0 0 0 0 -1865.7294886853415 226.34277163897303 0 226.34277163897303 -71.369295646701175 0 0 0 0 -210.33709818210627 245.37708464875334 0 245.37708464875334 -166.88911416241314 0 0 0 0 -670.91923519986267 575.65617737465675 0 575.65617737465675 -365.48173638772096 0 0 0 0 -28.037554106151219 381.96730130014157 0 381.96730130014157 -340.68648639555067 0 0 0 0 -226.83932257661945 375.85069979474531 0 375.85069979474531 -176.1625193437128 0 0 0 0 -120.00815704319393 153.39300942613437 0 153.39300942613437 -185.41575970621719 0 0 0 0 -82.941259500257729 246.92880943382377 0 246.92880943382377 -167.67533917530432 0 0 0 0 -204.20223722435185 242.4086181668699 0 242.4086181668699 -147.07917000705868 0 0 0 0 -617.1863854673793 663.80524015679964 0 663.80524015679964 -933.67689204854662 0 0 0 0 -281.10067531012464 92.208425824101255 0 92.208425824101255 -424.59210960176216 0 0 0 0 -1029.3216792152198 86.987413225945559 0 86.987413225945559 -116.82357772280523 0 0 0 0 -1880.8892016034661 93.222625347495608 0 93.222625347495608 -43.295697669393192 0 0 0 0 -1872.4184698436584 33.2812920844827 0 33.2812920844827 237.51521570657749 0 0 0 0 -3500.1166251004252 -373.71207683526609 0 -373.71207683526609 527.27925711102398 0 0 0 0 -1383.6469451237353 -622.64054557497889 0 -622.64054557497889 102.21197239498974 0 0 0 0 -1408.0252171203465 -125.78913453080673 0 -125.78913453080673 298.68582237820988 0 0 0 0 -165.90576954324206 57.185821968152595 0 57.185821968152595 -193.61630618199649 0 0 0 0 -40.96102547651148 18.140960786843436 0 18.140960786843436 -4.0546834704867072 0 0 0 0 -96.591664548861445 -44.529505015916357 0 -44.529505015916357 110.44016387805959 0 0 0 0 -180.56011724371638 281.3502378648044 0 281.3502378648044 119.37318813370004 0 0 0 0 -60.27971967709891 -42.790994090097342 0 -42.790994090097342 -10.09091559118815 0 0 0 0 3.0852269816243449 -12.728357290647452 0 -12.728357290647452 7.1827492490843312 0 0 0 0 -85.90729153995926 -13.885486133903271 0 -13.885486133903271 53.433683801248321 0 0 0 0 -2.3401172617167845 -1.1451410177664627 0 -1.1451410177664627 2.748734612458823 0 0 0 0 210.35184546613891 60.918270106756772 0 60.918270106756772 -202.02120439061039 0 0 0 0 -15.353979418391901 8.5172262728512891 0 8.5172262728512891 5.7967061729173839 0 0 0 0 -74.200857573174289 -6.043913519505395 0 -6.043913519505395 8.022847743715829 0 0 0 0 46.11922867289104 -198.14226421892363 0 -198.14226421892363 -58.719058390735881 0 0 0 0 67.889001096239099 269.07620645448435 0 269.07620645448435 -461.89950332802186 0 0 0 0 -5.3657746449898696 -85.848691492433488 0 -85.848691492433488 122.60035611704427 0 0 0 0 -47.747319025885531 -5.5393215856259683 0 -5.5393215856259683 0.55675667287700836 0 0 0 0 -135.88711702468572 -351.9516755854022 0 -351.9516755854022 -335.00649338881772 0 0 0 0 90.980117972831067 -193.19595116919231 0 -193.19595116919231 -435.39704059520659 0 0 0 0 -191.38918077750714 -214.49741656584956 0 -214.49741656584956 -116.78297775547162 0 0 0 0 -67.631413926006644 2.7592959049769092 0 2.7592959049769092 -672.28271687742154 0 0 0 0 -1195.7055911743664 -876.10889668538584 0 -876.10889668538584 -1245.6484090202409 0 0 0 0 -1705.3230058487461 786.06979288568709 0 786.06979288568709 -232.95817938692568 0 0 0 0 -19.037027843936414 -2.7192705294377699 0 -2.7192705294377699 -1.5320941557479331 0 0 0 0 -3744.1652320380817 -199.28917434137531 0 -199.28917434137531 276.9338710625924 0 0 0 0 -3501.2710355442614 75.854197908357904 0 75.854197908357904 -1471.2764927630976 0 0 0 0 -3567.8624832784772 637.32288957516676 0 637.32288957516676 -96.132992764028927 0 0 0 0 -3491.8841318472114 24.195500949198067 0 24.195500949198067 368.71815486827683 0 0 0 0 -509.68488687299759 -55.852612310512797 0 -55.852612310512797 -0.86662888806714855 0 0 0 0 -1739.7219858848584 975.85742225919807 0 975.85742225919807 672.80088329596049 0 0 0 0 -16.204610360434742 -1.9629382960138901 0 -1.9629382960138901 0.74109402187278106 0 0 0 0 -1293.4167464437633 -186.41478772620979 0 -186.41478772620979 204.20496182144259 0 0 0 0 -3486.279317489134 -1868.9880498709458 0 -1868.9880498709458 -53.017781586149397 0 0 0 0 -25.663708299721236 -3.5214978516419073 0 -3.5214978516419073 0.69251095268242646 0 0 0 0 -84.997470751492074 -381.37824747941181 0 -381.37824747941181 288.38044539575787 0 0 0 0 315.64948552426358 -674.06701260365662 0 -674.06701260365662 -757.08787634239559 0 0 0 0 -25.010532934655203 -311.61887720578648 0 -311.61887720578648 -359.13817297460326 0 0 0 0 -108.8871499283814 -518.14939259746097 0 -518.14939259746097 -846.17390556183727 0 0 0 0 -846.18876972024373 146.54774779199738 0 146.54774779199738 -33.795241079591989 0 0 0 0 -674.24366447541979 -584.20230193345594 0 -584.20230193345594 -218.57416668964072 0 0 0 0 -9.6045053974639814 -2.5705960935688932 0 -2.5705960935688932 -0.23472258728785783 0 0 0 0 -628.0991344479844 -105.48659553107899 0 -105.48659553107899 177.03036313382478 0 0 0 0 -331.09571737921942 -367.47403140675544 0 -367.47403140675544 -142.2137531509197 0 0 0 0 -224.42376583966325 -106.61434943539759 0 -106.61434943539759 -28.031445016066385 0 0 0 0 -68.652257050147455 -105.70324662969172 0 -105.70324662969172 26.779852631191318 0 0 0 0 247.4119794034923 98.458836309508584 0 98.458836309508584 -62.771528085864588 0 0 0 0 -15.665778024078463 -73.208231799949431 0 -73.208231799949431 -467.68987430795215 0 0 0 0 -107.37150396636571 12.340209224016235 0 12.340209224016235 -107.50415655567599 0 0 0 0 -136.30764695633115 -26.15635304338366 0 -26.15635304338366 212.90781484712625 0 0 0 0 -194.28317453352793 -114.5858394586634 0 -114.5858394586634 13.534627395081316 0 0 0 0 -1.4272487697643896 2.6151190443841585 0 2.6151190443841585 1.571520299171921 0 0 0 0 223.63449637289159 341.18509868337895 0 341.18509868337895 -78.569499137427954 0 0 0 0 -16.284131366375107 -2.6927811638018113 0 -2.6927811638018113 -7.3144280888079694 0 0 0 0 -85.121645247352717 -2.2687471407650435 0 -2.2687471407650435 -20.488728608260999 0 0 0 0 -119.88487726689709 -63.019008512307948 0 -63.019008512307948 -3.5732904946764847 0 0 0 0 -135.67825395279215 -73.297391754463888 0 -73.297391754463888 -92.201411339572587 0 0 0 0 -58.25001903087832 -15.583014997466762 0 -15.583014997466762 -1.6415145195219338 0 0 0 0 -5.9772642179450486 2.7851598201195884 0 2.7851598201195884 -97.439264020493283 0 0 0 0 -10.518448452738539 -28.552865003204715 0 -28.552865003204715 -36.912525217211822 0 0 0 0 -83.747696194782804 -27.158526486462787 0 -27.158526486462787 1.2618438245933219 0 0 0 0 -145.39721661189105 -80.115236526191438 0 -80.115236526191438 3.6262199433458591 0 0 0 0 -135.69854327430949 -128.14583276292615 0 -128.14583276292615 -75.078368056722866 0 0 0 0 -165.30533030971128 -122.11466269741686 0 -122.11466269741686 -36.977551692565612 0 0 0 0 -20.479392310253161 -7.5271519300065677 0 -7.5271519300065677 -7.6709032421800636 0 0 0 0 -21.353261146390878 -6.9929483124422802 0 -6.9929483124422802 0.18548720320639589 0 0 0 0 0.9138632556569064 214.02482623007074 0 214.02482623007074 97.428938518564337 0 0 0 0 -544.54303364176303 -92.981310811664798 0 -92.981310811664798 142.60310632367009 0 0 0 0 -86.203166312552639 28.805411920696315 0 28.805411920696315 120.14006684480148 0 0 0 0 -178.24190977949183 -306.53576122902086 0 -306.53576122902086 -237.26524517307502 0 0 0 0 -141.03408605132427 -173.21743617422726 0 -173.21743617422726 -23.785814430788378 0 0 0 0 -210.92900101729902 -244.73231263223397 0 -244.73231263223397 71.029083129047649 0 0 0 0 -73.096668075891557 -17.692226382275685 0 -17.692226382275685 1.5221386252846478 0 0 0 0 -96.355459227474057 -15.731961503934372 0 -15.731961503934372 28.6802003278776 0 0 0 0 -47.881953292111575 -95.689633218008794 0 -95.689633218008794 172.23318643193033 0 0 0 0 -17.088195238651238 -3.2663506913038134 0 -3.2663506913038134 -0.066039171849411105 0 0 0 0 -24.064279264329869 -0.26410939015482882 0 -0.26410939015482882 10.685151316868348 0 0 0 0 -84.143345512879023 -9.8855300484772215 0 -9.8855300484772215 7.3513193058061006 0 0 0 0 -122.01955611878657 -9.201812339428443 0 -9.201812339428443 245.9548579854054 0 0 0 0 -73.643177355185173 -15.066585940441993 0 -15.066585940441993 2.3675254289603922 0 0 0 0 -100.8869595427168 -48.019309444745204 0 -48.019309444745204 2.5368019214187498 0 0 0 0 -1100.1945532809914 -255.73746393702095 0 -255.73746393702095 330.31787536282627 0 0 0 0 -32.215761347640296 0.018780610612139981 0 0.018780610612139981 13.919457148000296 0 0 0 0 -92.607807810580198 -7.7588774910196321 0 -7.7588774910196321 3.5455285245880077 0 0 0 0 -88.088409313946613 -21.545715987470203 0 -21.545715987470203 -25.022303860949933 0 0 0 0 -95.066527719318401 -13.671960148443759 0 -13.671960148443759 8.6890558559718443 0 0 0 0 -74.27260900363035 -5.154213579849511 0 -5.154213579849511 -2.1659858212533436 0 0 0 0 -18.160391057115959 13.01464382636378 0 13.01464382636378 10.566141858940227 0 0 0 0 -137.23294774843816 -22.431023587792424 0 -22.431023587792424 15.821821619880438 0 0 0 0 -143.35401540380553 -73.242363917229341 0 -73.242363917229341 -16.99178853804527 0 0 0 0 -106.01112209848361 -45.545382530401696 0 -45.545382530401696 15.6294116156689 0 0 0 0 -279.18649653115426 -97.939010326012976 0 -97.939010326012976 -23.36375154281663 0 0 0 0 -359.64840745442052 -591.76527780924516 0 -591.76527780924516 -178.64336382933061 0 0 0 0 -116.85517032690041 -5.647636191337611 0 -5.647636191337611 -54.610074190546811 0 0 0 0 13.470805022132083 -7.1740906675719316 0 -7.1740906675719316 -6.7926097406593682 0 0 0 0 15.694919491169458 1.8056357959325808 0 1.8056357959325808 -27.246966939376307 0 0 0 0 13.819645889278036 -16.54973508366993 0 -16.54973508366993 -26.867525325196766 0 0 0 0 -26.208461430203897 -7.0092034366465299 0 -7.0092034366465299 -19.410000467089731 0 0 0 0 -25.214515438929084 -8.9790395868449195 0 -8.9790395868449195 -37.167133972247825 0 0 0 0 -31.440645061344185 -3.6321643349419048 0 -3.6321643349419048 -21.246759963089289 0 0 0 0 -73.788542320136912 9.7951300241209651 0 9.7951300241209651 -17.336270334286553 0 0 0 0 -31.105971962175317 -6.8031428773594556 0 -6.8031428773594556 7.4372959131791276 0 0 0 0 -16.310552117535735 14.660713219806677 0 14.660713219806677 -9.5757490445707845 0 0 0 0 -64.039035316382069 -1.5779994384042766 0 -1.5779994384042766 -5.3298412333512033 0 0 0 0 -18.587566346497624 -4.8370831928847338 0 -4.8370831928847338 -17.284860845094954 0 0 0 0 0.38188898387139147 -7.9833017034441411 0 -7.9833017034441411 -13.12933362689267 0 0 0 0 -148.91453904216178 -63.461351859651586 0 -63.461351859651586 -123.45803762255673 0 0 0 0 -103.07171783759259 -103.86927706626284 0 -103.86927706626284 -35.303786505234712 0 0 0 0 -80.651105913042556 32.3949837442633 0 32.3949837442633 -24.500423455683631 0 0 0 0 -5.1746513504311338 0.22462135366798464 0 0.22462135366798464 1.6981336979788857 0 0 0 0 2.5993984326658008 -9.5718077704778182 0 -9.5718077704778182 -7.8933777834791776 0 0 0 0 -146.95424391944834 -18.582975578182641 0 -18.582975578182641 2.1487275077172399 0 0 0 0 -1986.6004800635055 -415.06730210084379 0 -415.06730210084379 -1.6652348088270799 0 0 0 0 -88.281671785603976 0.77231104066891021 0 0.77231104066891021 -3.3459836944025483 0 0 0 0 -63.718720374680743 -12.881051925846197 0 -12.881051925846197 -20.089087257907977 0 0 0 0 -188.25235204254568 -20.957251688569954 0 -20.957251688569954 -1.058707446086828 0 0 0 0 -92.535520933750377 -16.846619938188084 0 -16.846619938188084 -28.121283004352733 0 0 0 0 -94.64344553052797 -18.18192740322246 0 -18.18192740322246 -6.4570516740223525 0 0 0 0 -2300.9605111041164 -1276.3257108407081 0 -1276.3257108407081 -513.86097920723068 0 0 0 0 -2470.9060902188794 -422.02759995359042 0 -422.02759995359042 73.927619235622956 0 0 0 0 -11.340947490035688 1.1773638825827391 0 1.1773638825827391 1.8666126688117215 0 0 0 0 77.091054960761539 376.79027133051278 0 376.79027133051278 215.75653732537103 0 0 0 0 -1198.2368695585028 -824.50325315446628 0 -824.50325315446628 -330.45149915102098 0 0 0 0 -679.2016753543503 -212.57215464524802 0 -212.57215464524802 -6.7519147280759171 0 0 0 0 -2009.0519738044532 -414.8987650123529 0 -414.8987650123529 95.365863833751774 0 0 0 0 -1507.3090831176742 -558.09876920008139 0 -558.09876920008139 -128.71034523719322 0 0 0 0 -1150.851919596862 -684.73333996084489 0 -684.73333996084489 -204.33061783412245 0 0 0 0 -1458.7348037428383 -438.91580267151107 0 -438.91580267151107 6.0149657633540983 0 0 0 0 -1200.3117012291186 -216.21149669758756 0 -216.21149669758756 -301.84280854230155 0 0 0 0 -1567.6855469430593 -610.06851051606554 0 -610.06851051606554 -32.260923453345299 0 0 0 0 -1576.8006139948702 -572.66747822630384 0 -572.66747822630384 -77.158402644076773 0 0 0 0 -1531.5831986490957 -584.41512923893958 0 -584.41512923893958 -256.61169472301958 0 0 0 0 -1.4512213441236099 -15.924335057742383 0 -15.924335057742383 -11.419833063488218 0 0 0 0 -49.717248321554621 6.9473518752892858 0 6.9473518752892858 16.057683233926241 0 0 0 0 -107.48686695234937 -22.523145447519255 0 -22.523145447519255 -7.0537005921755735 0 0 0 0 -61.38705055275932 -18.077169454985778 0 -18.077169454985778 -24.24010679979915 0 0 0 0 -102.38595759944292 -34.751573458151597 0 -34.751573458151597 -14.173004232253788 0 0 0 0 -71.635519833056605 2.8120788939622798 0 2.8120788939622798 -0.49222861660078365 0 0 0 0 -54.659937118323001 3.7414455498781081 0 3.7414455498781081 10.554508609839665 0 0 0 0 -186.26479762548115 -121.29264505360584 0 -121.29264505360584 -10.208580733421286 0 0 0 0 -52.22570763387921 -47.557203831032552 0 -47.557203831032552 -173.67430136643748 0 0 0 0 -400.3875768163125 -122.495725006344 0 -122.495725006344 0.36242255822441527 0 0 0 0 -147.6923346912663 -7.523138300405634 0 -7.523138300405634 24.568165622683814 0 0 0 0 -2.7780449028874727 4.0252850739346968 0 4.0252850739346968 -0.21433902006230987 0 0 0 0 -21.698378931709158 42.553187331694687 0 42.553187331694687 -55.138542125061051 0 0 0 0 -236.50160034128749 -72.31549051413829 0 -72.31549051413829 30.841560334415135 0 0 0 0 -151.27910026365862 23.542625190787703 0 23.542625190787703 46.118492544648689 0 0 0 0 -221.26995959559281 -132.929850359988 0 -132.929850359988 -9.7521496698114731 0 0 0 0 -1.3421362464981996 0.78974904297041348 0 0.78974904297041348 0.26622930079409918 0 0 0 0 -312.75123243265261 -120.84682952596538 0 -120.84682952596538 65.024290576826928 0 0 0 0 -100.39886523770838 -31.681569557280504 0 -31.681569557280504 4.7498044569481053 0 0 0 0 94.933690597681561 50.585519342882201 0 50.585519342882201 -96.236910902334813 0 0 0 0 -1.730340545115439 0.880519099176297 0 0.880519099176297 -0.4104235338127506 0 0 0 0 -1234.9274995613378 -72.039659914080971 0 -72.039659914080971 121.0595601415171 0 0 0 0 -149.05327655081055 107.6541488262869 0 107.6541488262869 -254.49045967030588 0 0 0 0 -1323.8770132526333 -156.31228097085574 0 -156.31228097085574 126.71156712939955 0 0 0 0 -326.5391172151576 -256.53043317672314 0 -256.53043317672314 112.52438088228942 0 0 0 0 -0.47769741112696806 1.2967375768986074 0 1.2967375768986074 1.5054063793218189 0 0 0 0 -1054.6649883900609 -243.68718130371684 0 -243.68718130371684 14.159688784207333 0 0 0 0 -1380.0030613039789 -178.91282888958764 0 -178.91282888958764 206.73692506412362 0 0 0 0 -1402.2255596772311 -381.27485775343388 0 -381.27485775343388 -39.57700714301393 0 0 0 0 -1228.1252387238492 -385.06851627974117 0 -385.06851627974117 -87.849897138844199 0 0 0 0 -1432.1755356872964 -654.07860853552006 0 -654.07860853552006 -437.31781341296096 0 0 0 0 -11.007616301066406 -0.53662933310295102 0 -0.53662933310295102 7.1786047435355869 0 0 0 0 -42.073014213965507 -27.73651279078689 0 -27.73651279078689 -152.26483324257686 0 0 0 0 -726.59438598607812 356.63811845016176 0 356.63811845016176 -187.54667112361903 0 0 0 0 -1678.0299913496201 -427.33520277218122 0 -427.33520277218122 114.38390910572753 0 0 0 0 -2175.2157937077282 -898.92170179166874 0 -898.92170179166874 -362.29411198107164 0 0 0 0 -10.845141647700643 -1.4363761997938695 0 -1.4363761997938695 -0.77696705168243962 0 0 0 0 -1254.6063974611025 -476.36649235127192 0 -476.36649235127192 -282.60225531164519 0 0 0 0 -1577.4401351952547 -104.96861157883711 0 -104.96861157883711 -594.57028769646445 0 0 0 0 -853.29292951291427 -370.13588620779376 0 -370.13588620779376 -294.06660374049466 0 0 0 0 -985.90956874360563 -244.66522797173749 0 -244.66522797173749 -338.70919108046348 0 0 0 0 -693.35826001928945 -197.30779802914168 0 -197.30779802914168 -263.05216291456668 0 0 0 0 -693.07511266284564 -291.91655786521977 0 -291.91655786521977 -274.41746443004354 0 0 0 0 -1150.3299078804121 -489.91877238085118 0 -489.91877238085118 -267.32809168267909 0 0 0 0 -1083.3754347733484 -330.4132712804402 0 -330.4132712804402 -78.100211496237591 0 0 0 0 -829.65193636025651 -186.37453390124057 0 -186.37453390124057 -0.17959599790230674 0 0 0 0 -901.31492277838697 -265.74066771984963 0 -265.74066771984963 -92.321162719208075 0 0 0 0 -605.35084697130515 -201.92178644278385 0 -201.92178644278385 -188.05168410962668 0 0 0 0 -474.1924101212353 -173.17885192943479 0 -173.17885192943479 -244.09925590461879 0 0 0 0 -694.0942276220012 -251.30648986388317 0 -251.30648986388317 -197.39830410964612 0 0 0 0 -611.78385850848281 -189.89829986469556 0 -189.89829986469556 -180.35203947508512 0 0 0 0 -636.40820523355796 -237.14408706141364 0 -237.14408706141364 -248.12088728877416 0 0 0 0 -578.39617454979452 -176.47733254046506 0 -176.47733254046506 -243.83690676413411 0 0 0 0 -493.37750180142757 -200.78828896584167 0 -200.78828896584167 -210.04416793275854 0 0 0 0 -570.75470955222772 -202.59658979345792 0 -202.59658979345792 -193.86454465877694 0 0 0 0 -251.42857110037585 -172.7019528614413 0 -172.7019528614413 -308.5382894504026 0 0 0 0 -446.86139770408772 -268.97647768317375 0 -268.97647768317375 -197.65905108908225 0 0 0 0 -457.10968572388811 74.099291616506093 0 74.099291616506093 -355.2303994000539 0 0 0 0 -441.41036434068519 -338.54378270803488 0 -338.54378270803488 -382.80944178755226 0 0 0 0 -693.49093175453891 -316.23681285059808 0 -316.23681285059808 -188.35386040594989 0 0 0 0 -713.73669151864397 -191.08900277745468 0 -191.08900277745468 -35.551577660649116 0 0 0 0 -564.80508042308793 -250.95649501652099 0 -250.95649501652099 -360.9908885752269 0 0 0 0 -625.34357772996009 -102.86653362193957 0 -102.86653362193957 -172.30861661494458 0 0 0 0 -1005.3519955065349 -419.54298315553956 0 -419.54298315553956 -148.58212562831687 0 0 0 0 -567.51637500876677 -205.03329189210001 0 -205.03329189210001 -165.43064211899187 0 0 0 0 -629.40234077065543 -507.93199074563404 0 -507.93199074563404 114.23424005130835 0 0 0 0 -240.56705317579326 -342.67328899660578 0 -342.67328899660578 -176.73891516938329 0 0 0 0 -911.22289454605198 -204.49248757663986 0 -204.49248757663986 33.889089021486257 0 0 0 0 -286.69894968792505 350.31088887648502 0 350.31088887648502 374.84176031545303 0 0 0 0 -9.297002484264226 0.50397990022111117 0 0.50397990022111117 2.0270651290587525 0 0 0 0 -653.89315902373346 -736.34766299301918 0 -736.34766299301918 -504.37290120978423 0 0 0 0 -714.83803292560333 -1271.8375379933502 0 -1271.8375379933502 -932.63320768853384 0 0 0 0 -500.18422754862695 -683.84421195657137 0 -683.84421195657137 -681.61263249079025 0 0 0 0 -739.26744587639405 -142.30922769870261 0 -142.30922769870261 208.79473685991343 0 0 0 0 -19.193529442163367 2.7143416597444912 0 2.7143416597444912 3.8306438021577316 0 0 0 0 -1169.318691667344 -172.97944652305 0 -172.97944652305 73.439841086888691 0 0 0 0 -1123.326225620287 -344.45623705460071 0 -344.45623705460071 393.73721924004053 0 0 0 0 -1097.5758736888429 -818.49221803270825 0 -818.49221803270825 116.96277395479547 0 0 0 0 -195.28974194657349 -716.45186266925111 0 -716.45186266925111 -406.28076637913887 0 0 0 0 -553.1112358825776 -784.82599406256759 0 -784.82599406256759 -484.7576380443345 0 0 0 0 -553.47954796321574 46.229772749074527 0 46.229772749074527 656.77890445925618 0 0 0 0 -10.059850763333714 -2.9800454035572894 0 -2.9800454035572894 0.78001272124002241 0 0 0 0 81.625116197354146 323.96164560984278 0 323.96164560984278 -15.314343753798312 0 0 0 0 219.90352910579531 -553.78925356558318 0 -553.78925356558318 -398.43637389119431 0 0 0 0 -144.95536679285578 -46.177524663291933 0 -46.177524663291933 -81.508503983976652 0 0 0 0 -3.6716683266855057 -2.2621698968329547 0 -2.2621698968329547 0.43729476183821425 0 0 0 0 -444.14510432152019 83.22272423944662 0 83.22272423944662 583.79824268843254 0 0 0 0 -16.571798018587458 -3.241867946097944 0 -3.241867946097944 1.2242270676422473 0 0 0 0 -273.02484578808071 -168.73074483867927 0 -168.73074483867927 -51.907862358693819 0 0 0 0 134.03176670615665 -70.315178902344414 0 -70.315178902344414 -76.819613866784948 0 0 0 0 153.63088104318012 44.610723898529727 0 44.610723898529727 -262.27150506274586 0 0 0 0 -1276.8423416714795 -574.75418233131143 0 -574.75418233131143 -122.70701160572492 0 0 0 0 -298.60475199736538 -815.50263680938644 0 -815.50263680938644 -597.65848643229958 0 0 0 0 7.1279297621513251 11.522093619643556 0 11.522093619643556 168.29632874608996 0 0 0 0 -5.370533683380927 -34.380384021588725 0 -34.380384021588725 358.17469600524555 0 0 0 0 -44.92154298859532 -69.85051575716443 0 -69.85051575716443 379.95356226062233 0 0 0 0 43.251598027294676 -77.572133255981043 0 -77.572133255981043 222.9010779508003 0 0 0 0 20.540101033664541 -49.388423089171738 0 -49.388423089171738 214.42438509855265 0 0 0 0 14.434433059330331 -8.9611321845818566 0 -8.9611321845818566 158.99167937673928 0 0 0 0 6.9851193710819643 -31.542395953520668 0 -31.542395953520668 237.15401990598821 0 0 0 0 38.431684341747314 -104.41704197373087 0 -104.41704197373087 140.41150205842632 0 0 0 0 -48.521104331157403 -163.18135359803568 0 -163.18135359803568 254.93702007788056 0 0 0 0 -74.185971697879722 -75.069824035550823 0 -75.069824035550823 106.42297595854416 0 0 0 0 -311.42325611668639 -237.54283395766743 0 -237.54283395766743 94.48544465808709 0 0 0 0 -353.50819837517338 -208.86197326932063 0 -208.86197326932063 180.90072915501969 0 0 0 0 -777.25787320467498 -614.270536755291 0 -614.270536755291 -84.956690278967926 0 0 0 0 -828.38385201193159 -709.46956112283192 0 -709.46956112283192 158.5887781987899 0 0 0 0 -156.57993218488627 -294.37568198883685 0 -294.37568198883685 -184.80038513999716 0 0 0 0 -736.94087639998179 -749.9514956744415 0 -749.9514956744415 -450.39458965762884 0 0 0 0 -95.631956867153349 -83.471893005404127 0 -83.471893005404127 208.37282061617998 0 0 0 0 -189.8992045235791 11.585404846058282 0 11.585404846058282 115.028199647864 0 0 0 0 -9.2132559087162917 -3.8911324497220363 0 -3.8911324497220363 0.79064634823659508 0 0 0 0 -672.01741319792927 181.59514217506171 0 181.59514217506171 399.89129440106126 0 0 0 0 -5.3355526752744709 -2.7188766636426149 0 -2.7188766636426149 0.26596365023736013 0 0 0 0 13.265695159529059 -147.30827620825829 0 -147.30827620825829 -119.80358161394633 0 0 0 0 4.3484954998075409 -172.22729454706632 0 -172.22729454706632 44.307303114840579 0 0 0 0 1.108921917504631 -90.180916167455621 0 -90.180916167455621 218.51530286561888 0 0 0 0 -6.4158092238464519 -3.404351544974503 0 -3.404351544974503 0.7915505361866163 0 0 0 0 53.455321723085945 -56.02328489900583 0 -56.02328489900583 37.203541820872317 0 0 0 0 -16.628347996218508 -44.406803972969215 0 -44.406803972969215 159.21175598989248 0 0 0 0 144.11616935108032 -55.81634597968241 0 -55.81634597968241 154.85851570574891 0 0 0 0 -16.648676792363403 12.539448981925943 0 12.539448981925943 395.5103913722478 0 0 0 0 -3.0386731861653971 43.741172229535152 0 43.741172229535152 138.46513732479798 0 0 0 0 -1.0419757391646272 169.34836338471314 0 169.34836338471314 156.73527375709455 0 0 0 0 -40.584880269547284 206.95399597362257 0 206.95399597362257 197.54164159665561 0 0 0 0 -2.2048341422050726 242.2367586227374 0 242.2367586227374 316.27980964511471 0 0 0 0 114.95860445835569 153.13858868420448 0 153.13858868420448 19.494411241576927 0 0 0 0 -85.617346655606525 15.356755672667532 0 15.356755672667532 45.244095072638856 0 0 0 0 23.449041362960998 96.510569314430541 0 96.510569314430541 43.466896680394711 0 0 0 0 -38.661664246552391 124.67832341541998 0 124.67832341541998 169.90184064817731 0 0 0 0 -36.208329888118897 106.00098800782644 0 106.00098800782644 123.03804706715619 0 0 0 0 -81.215979020562486 -11.696678825226897 0 -11.696678825226897 5.6122146578585017 0 0 0 0 -63.577101272272557 64.531081010991556 0 64.531081010991556 171.55008502043529 0 0 0 0 -93.548777904405142 -6.1262867891555288 0 -6.1262867891555288 41.155986065637308 0 0 0 0 -64.518565255385283 -2.8870968972275701 0 -2.8870968972275701 15.61520655253014 0 0 0 0 -122.34413455284084 -31.143052134454592 0 -31.143052134454592 44.818901268246123 0 0 0 0 -82.735041554376949 1.6506481820360932 0 1.6506481820360932 14.332602520292312 0 0 0 0 -47.704293649704823 10.681201908127889 0 10.681201908127889 19.548785424180263 0 0 0 0 -54.250754293954316 -10.020303950497677 0 -10.020303950497677 -2.1606800504341148 0 0 0 0 -140.15022038313327 -8.6476740192338184 0 -8.6476740192338184 135.69769190175975 0 0 0 0 -32.222907103169376 -3.7369892960707602 0 -3.7369892960707602 2.7076031948052393 0 0 0 0 23.302193608149537 -36.007821704063645 0 -36.007821704063645 -9.1607769737902345 0 0 0 0 17.927203200772055 82.78461756512479 0 82.78461756512479 -90.728785503868494 0 0 0 0 -113.82805749999898 0.45098441444770287 0 0.45098441444770287 97.783943448475839 0 0 0 0 -55.74216950693517 96.697570152897242 0 96.697570152897242 248.87283466996087 0 0 0 0 -111.47551843571273 287.29998990177955 0 287.29998990177955 315.49606141255572 0 0 0 0 -149.74133121610066 88.108276627496707 0 88.108276627496707 647.23201819061978 0 0 0 0 -15.704132326132822 130.91753453064507 0 130.91753453064507 81.995108172109212 0 0 0 0 -70.741820183087839 195.55267750387975 0 195.55267750387975 223.11247194516579 0 0 0 0 -8.4999321591749322 61.848178632282725 0 61.848178632282725 107.07858925516916 0 0 0 0 -289.52841961284867 200.96914860447919 0 200.96914860447919 71.995083491053265 0 0 0 0 6.972442650125231 65.153899226684985 0 65.153899226684985 -212.14393898928392 0 0 0 0 -319.20714432183013 -166.74971224280011 0 -166.74971224280011 -273.03211442047996 0 0 0 0 -1054.0217225511728 -9.5017116911503194 0 -9.5017116911503194 -57.886192669952834 0 0 0 0 -1089.1877986591717 -604.9062319045056 0 -604.9062319045056 -798.8485879772511 0 0 0 0 -486.96817356858082 -723.61225899736905 0 -723.61225899736905 -239.26570966319741 0 0 0 0 -1155.1852389240812 -704.76880483342848 0 -704.76880483342848 26.541816044666575 0 0 0 0 -716.90688863136165 220.24257076867798 0 220.24257076867798 238.2556111328131 0 0 0 0 -24.83177274231457 -10.752445214639458 0 -10.752445214639458 -1.009399185339932 0 0 0 0 -53.232611281622667 -240.07424095951501 0 -240.07424095951501 514.72434284879364 0 0 0 0 -449.21069176986202 213.86153535844687 0 213.86153535844687 1380.6794104654537 0 0 0 0 902.54788755638583 -269.1955665254718 0 -269.1955665254718 -77.028659014016739 0 0 0 0 -90.560998721564829 396.41065318224446 0 396.41065318224446 -625.29367429360536 0 0 0 0 -309.21112228216589 -23.985541557361103 0 -23.985541557361103 -67.298702065938414 0 0 0 0 -39.76615396679199 -0.53906570566969947 0 -0.53906570566969947 5.3475871487030275 0 0 0 0 55.851524489524309 -70.509331943518191 0 -70.509331943518191 6.0106349919024069 0 0 0 0 6.6683297892814153 37.1377183876657 0 37.1377183876657 -239.82759606201853 0 0 0 0 -1699.7840833152004 -248.64820844003862 0 -248.64820844003862 159.87647867952433 0 0 0 0 -3967.6449715622875 -289.92240222530654 0 -289.92240222530654 174.77248437627895 0 0 0 0 -1906.2422879576698 297.35805496323519 0 297.35805496323519 -55.349854729828621 0 0 0 0 -959.14229582574626 -1563.0009270627907 0 -1563.0009270627907 -179.86262567249833 0 0 0 0 -1962.324279739616 1186.0690905657939 0 1186.0690905657939 -726.39114364560919 0 0 0 0 -23.764348411747278 -6.5054969304986443 0 -6.5054969304986443 0.38514768592555981 0 0 0 0 -1891.7698408694996 -1914.5134398390737 0 -1914.5134398390737 100.2222334494495 0 0 0 0 -1664.7697552881 -1084.2507343172347 0 -1084.2507343172347 -1248.841958003135 0 0 0 0 -1810.110978193974 563.85285706873265 0 563.85285706873265 -838.13840364593852 0 0 0 0 -3584.7316756042783 -904.41436882588869 0 -904.41436882588869 406.29069880657516 0 0 0 0 -2167.8904427106099 -1025.1720240959976 0 -1025.1720240959976 343.74632291413843 0 0 0 0 -2151.7597961190622 -370.48646203454746 0 -370.48646203454746 -120.28735415911342 0 0 0 0 -1777.2420573270501 -979.62821638575247 0 -979.62821638575247 -76.085244824053007 0 0 0 0 -13.888121993359675 -8.0132890100789353 0 -8.0132890100789353 -4.3631360590602677 0 0 0 0 -1792.5727348896035 474.61187190206329 0 474.61187190206329 14.000579893236591 0 0 0 0 380.07113966722682 -985.10533445195779 0 -985.10533445195779 -91.850796875824471 0 0 0 0 212.00655153927801 175.28640164083527 0 175.28640164083527 -295.45967704230793 0 0 0 0 -2061.7926939456956 -323.77186050089676 0 -323.77186050089676 155.94454100993471 0 0 0 0 -2863.5423009870137 -432.05025229288265 0 -432.05025229288265 150.99479275263184 0 0 0 0 -2285.7295453503102 -1105.1937742230473 0 -1105.1937742230473 -410.69324636153306 0 0 0 0 -1362.3814115333589 -552.81989743323879 0 -552.81989743323879 -239.09947321874552 0 0 0 0 -1316.1184879036591 -632.27454252129928 0 -632.27454252129928 -173.99034949432479 0 0 0 0 -2088.3664940585086 -541.77111469774024 0 -541.77111469774024 -39.133554618385006 0 0 0 0 -1843.7922388193401 -409.49068542109694 0 -409.49068542109694 15.906429430160415 0 0 0 0 -1578.5751301152122 -129.93201941334371 0 -129.93201941334371 143.22268519472482 0 0 0 0 -790.73788381351255 41.58298277282249 0 41.58298277282249 274.27014755544837 0 0 0 0 -1971.1350387058483 -329.8706909989703 0 -329.8706909989703 239.81773107308936 0 0 0 0 -2033.376897457907 -544.64642522741951 0 -544.64642522741951 2.3116601188366985 0 0 0 0 -1934.282291515643 -305.56131791941129 0 -305.56131791941129 -343.15437595925459 0 0 0 0 -0.18016129919620028 -5.3558772628599058 0 -5.3558772628599058 -5.3147164010055352 0 0 0 0 -92.293005141167669 28.923466232234432 0 28.923466232234432 -42.76535051046335 0 0 0 0 -55.515955312468577 -8.7251501271364305 0 -8.7251501271364305 -50.610818966104944 0 0 0 0 -369.33929531246213 55.603486472969109 0 55.603486472969109 22.984738915258731 0 0 0 0 -1.3982293441403115 -1.2501732911742636 0 -1.2501732911742636 -1.4237092645423104 0 0 0 0 -2011.4977487893411 -353.53340437773534 0 -353.53340437773534 93.252117905130717 0 0 0 0 -1945.063041951209 -308.37014155887641 0 -308.37014155887641 85.591072253776929 0 0 0 0 56.11883108226175 -33.086499200245271 0 -33.086499200245271 -34.766044825571726 0 0 0 0 -55.285742893684073 -13.909084567798345 0 -13.909084567798345 -16.848267528731867 0 0 0 0 8.8580367525792099 5.3201940072235629 0 5.3201940072235629 -26.493703968752015 0 0 0 0 -69.397078574893385 -9.3860064043681177 0 -9.3860064043681177 -23.367479549487598 0 0 0 0 -7.7617078192997724 -0.9026274243037733 0 -0.9026274243037733 -40.108317163548577 0 0 0 0 -4.9323419254069449 -12.766158460751853 0 -12.766158460751853 -23.077032549093701 0 0 0 0 13.620912096856046 -8.5030817712427051 0 -8.5030817712427051 -37.399174015645826 0 0 0 0 20.968273308331845 -21.686560775320942 0 -21.686560775320942 -18.193605069780688 0 0 0 0 -278.53054839827382 -350.31488427353952 0 -350.31488427353952 5.5811833160340569 0 0 0 0 11.404959253353866 -11.853650698542495 0 -11.853650698542495 -3.1807696496483695 0 0 0 0 4.6288403656944865 -34.047593276302678 0 -34.047593276302678 -2.4454184528126461 0 0 0 0 -196.15980376723019 -300.53360746212149 0 -300.53360746212149 -387.99047776941188 0 0 0 0 -81.613449361582752 -5.72950963914775 0 -5.72950963914775 -52.22194854108875 0 0 0 0 -160.95514542868113 264.61376659669241 0 264.61376659669241 -105.2533152451515 0 0 0 0 -104.22836404901318 264.49411950562273 0 264.49411950562273 -44.588407374832059 0 0 0 0 -84.668928208669968 132.57757269548949 0 132.57757269548949 -449.1050282979204 0 0 0 0 -20.785315212887667 12.593116826632311 0 12.593116826632311 6.8695668741372522 0 0 0 0 -898.019210925675 81.824255612464185 0 81.824255612464185 -23.003466010934062 0 0 0 0 -905.93534113888563 14.104714428003362 0 14.104714428003362 39.90184363796925 0 0 0 0 5.2461746579573685 -3.9968447771187314 0 -3.9968447771187314 -5.2289364882609739 0 0 0 0 -850.56529939276516 43.40574367210138 0 43.40574367210138 -2.5582686225689031 0 0 0 0 -6.8923473682318104 -1.1086927143755503 0 -1.1086927143755503 0.51381543675388475 0 0 0 0 -865.26856164579294 -16.134478257401298 0 -16.134478257401298 41.680815126191192 0 0 0 0 -315.97809698841593 36.803011357809737 0 36.803011357809737 -71.661168542750602 0 0 0 0 -346.78185945236237 -172.91479463210032 0 -172.91479463210032 172.07085232103009 0 0 0 0 -31.318000839271321 -14.637439473435947 0 -14.637439473435947 -3.9562601584227899 0 0 0 0 36.605524037244322 -70.554461455297542 0 -70.554461455297542 15.498854475834605 0 0 0 0 -155.11719537515455 0.25284938838218807 0 0.25284938838218807 346.29997275686878 0 0 0 0 -156.48072642939223 277.86257193434443 0 277.86257193434443 261.36517225530179 0 0 0 0 -402.77154421482555 -47.042367202183186 0 -47.042367202183186 131.43550233255291 0 0 0 0 -212.56676534381404 27.518423329551069 0 27.518423329551069 154.08954295686522 0 0 0 0 -62.237808822836087 40.875923498753082 0 40.875923498753082 -32.459015035023185 0 0 0 0 -100.65309076628182 81.863885608545161 0 81.863885608545161 94.060670612670037 0 0 0 0 -0.19567695672594709 88.748527959915236 0 88.748527959915236 -44.079766788960342 0 0 0 0 -109.05596937163955 147.79543348907515 0 147.79543348907515 -74.765236388619996 0 0 0 0 -2.6287113720900379 58.725990261760217 0 58.725990261760217 -411.24019441396808 0 0 0 0 -111.73598621136625 351.73388350091716 0 351.73388350091716 -109.33924982688109 0 0 0 0 -32.237176450962664 -14.922577401822096 0 -14.922577401822096 -5.2831112897157793 0 0 0 0 139.06511418686387 -203.75183315849358 0 -203.75183315849358 86.143266000848143 0 0 0 0 -459.4676914472584 -490.63205584406921 0 -490.63205584406921 890.46545983080205 0 0 0 0 -277.39779312734026 517.56720275872476 0 517.56720275872476 -139.96603901922344 0 0 0 0 -381.21712617486628 428.95031403995563 0 428.95031403995563 -196.87284430667023 0 0 0 0 -82.612952583727747 -72.442997712895931 0 -72.442997712895931 -144.00184281219299 0 0 0 0 -0.90331947819771941 2.9810921736910387 0 2.9810921736910387 -7.0284455727732329 0 0 0 0 -1122.7249958095927 -195.5772358798904 0 -195.5772358798904 -54.256893175712776 0 0 0 0 -334.25500998758071 366.91114500345816 0 366.91114500345816 -123.38231260389239 0 0 0 0 -1158.2405021387021 -189.13831268685612 0 -189.13831268685612 128.462267102439 0 0 0 0 0.22432869707436964 3.5830672920099147 0 3.5830672920099147 -16.791932091585377 0 0 0 0 490.25325331979548 83.368685692630152 0 83.368685692630152 -648.88320448808918 0 0 0 0 -45.895353816114948 -7.0460744770525707 0 -7.0460744770525707 -4.7749994087134837 0 0 0 0 300.51355994775804 107.29571320166542 0 107.29571320166542 -283.66207165119522 0 0 0 0 -4.3991715317265587 -1.4493839081555819 0 -1.4493839081555819 -15.914464720670455 0 0 0 0 -1974.0545976373251 -613.93312599968158 0 -613.93312599968158 256.12590310750238 0 0 0 0 -917.91129879164509 -711.82887828931689 0 -711.82887828931689 -139.83302942217324 0 0 0 0 7.3660931775921199 -22.961421934334908 0 -22.961421934334908 -24.09232819643421 0 0 0 0 -35.168012893547711 -19.76477144119599 0 -19.76477144119599 15.374523320740536 0 0 0 0 -32.896996393115842 -22.075239772453642 0 -22.075239772453642 -7.1569232946023362 0 0 0 0 -15.963223727573933 -12.256007132403568 0 -12.256007132403568 -8.6507760018619138 0 0 0 0 -36.860729771156912 4.2909446344910975 0 4.2909446344910975 -9.1660582317242074 0 0 0 0 -13.291204073351111 -12.791336644376472 0 -12.791336644376472 -10.558924905657818 0 0 0 0 -19.2829516785132 -34.634906491400159 0 -34.634906491400159 -11.399204316037867 0 0 0 0 -4.2405806260503596 -34.689540649702849 0 -34.689540649702849 3.2395059617929292 0 0 0 0 -11.670978159541846 8.3261799905701537 0 8.3261799905701537 -34.943426815695602 0 0 0 0 -46.734183220688465 -1.8741458769920598 0 -1.8741458769920598 -8.7642426537968277 0 0 0 0 -85.397145470546093 -26.638144691092748 0 -26.638144691092748 -12.586380625862148 0 0 0 0 -24.076023359419196 19.234912152840707 0 19.234912152840707 -134.94915501574178 0 0 0 0 -25.891325529785263 11.120818964783979 0 11.120818964783979 -19.469442842038916 0 0 0 0 -7.0356833150144666 -16.411661191298208 0 -16.411661191298208 -9.7741331990200706 0 0 0 0 -14.257663523191695 4.6760868337807295 0 4.6760868337807295 2.6099023438792401 0 0 0 0 -32.47991247237951 -3.3658022055004722 0 -3.3658022055004722 -2.0043225297076788 0 0 0 0 -22.436740601277094 -4.2842864791224997 0 -4.2842864791224997 -3.0886676026597346 0 0 0 0 -36.189176194980973 -9.958193110152024 0 -9.958193110152024 -5.6457958023638639 0 0 0 0 -19.529231795648229 -5.116649928844744 0 -5.116649928844744 -9.456912228881265 0 0 0 0 -24.766621607343893 -2.81925551133439 0 -2.81925551133439 -2.374570709334713 0 0 0 0 -58.356940951642173 -53.462328304269818 0 -53.462328304269818 -33.557542540667782 0 0 0 0 -16.125962518431336 -11.704814721456145 0 -11.704814721456145 -9.4300564218975964 0 0 0 0 2.4586226512110443 16.076721943136079 0 16.076721943136079 -7.8435059317412197 0 0 0 0 0.077484042809089715 1.1972736589029331 0 1.1972736589029331 -0.55429294312974708 0 0 0 0 -60.149874345497665 -48.749710611412269 0 -48.749710611412269 -42.477467983061615 0 0 0 0 -88.392060505408153 -3.6447655091491242 0 -3.6447655091491242 37.444131951923282 0 0 0 0 -5.2472098822508997 7.2998022611948272 0 7.2998022611948272 -0.922957723773834 0 0 0 0 6.7167524632022833 -18.724191286911946 0 -18.724191286911946 -9.2781969317775292 0 0 0 0 -49.780075600399869 -16.673496432316597 0 -16.673496432316597 -9.5316066919908735 0 0 0 0 -50.68421583941381 -16.497648544745289 0 -16.497648544745289 -6.1830098825307687 0 0 0 0 -36.599335416452959 -18.820327321047444 0 -18.820327321047444 -6.1641842482943616 0 0 0 0 134.39175230481487 42.792700525482587 0 42.792700525482587 434.13379617169221 0 0 0 0 72.396594480378553 -353.35331411264997 0 -353.35331411264997 956.12096001686587 0 0 0 0 -120.6325973689236 -84.621964370365276 0 -84.621964370365276 918.24367052378363 0 0 0 0 -7.9450921910986096 5.9526910289051607 0 5.9526910289051607 8.0619037832748557 0 0 0 0 -482.83151610320783 -467.33762165919188 0 -467.33762165919188 942.96151547589284 0 0 0 0 -29.845631399876169 -16.657352493992253 0 -16.657352493992253 -7.1711256211224841 0 0 0 0 -20.68923131399788 0.082169152603796647 0 0.082169152603796647 -20.609776475575472 0 0 0 0 -28.922822419039221 -0.11178795980725909 0 -0.11178795980725909 -6.0944902387082038 0 0 0 0 -165.58339684395469 5.7212376655770356 0 5.7212376655770356 -2.6984614197440919 0 0 0 0 -3492.3972438771234 561.51881473955416 0 561.51881473955416 246.152324202079 0 0 0 0 -9.3902150690952553 1.5806482916413671 0 1.5806482916413671 5.6138432448662972 0 0 0 0 -24.867903632140951 65.738725430890668 0 65.738725430890668 -121.24514458256638 0 0 0 0 -181.41568935205396 94.833140046775725 0 94.833140046775725 428.35707269023851 0 0 0 0 164.22153588400397 355.75041971987338 0 355.75041971987338 406.31016460468334 0 0 0 0 -12.59818328162217 6.8529496357661657 0 6.8529496357661657 0.76058581127177138 0 0 0 0 -8.5883832167722431 -1.2279247218417453 0 -1.2279247218417453 -3.3058537153975207 0 0 0 0 -70.489475025635329 -38.735384315126339 0 -38.735384315126339 -23.301849172301445 0 0 0 0 -23.62252576375613 -2.0959878470331148 0 -2.0959878470331148 -0.30260800008306887 0 0 0 0 -14.838490801950684 3.2796005449513359 0 3.2796005449513359 2.6901904223796009 0 0 0 0 -15.594314471982642 1.0756575763224774 0 1.0756575763224774 0.32486277113041329 0 0 0 0 -13.53161162592005 4.2634955389949027 0 4.2634955389949027 2.8315715957464818 0 0 0 0 -42.508613592582975 -15.794429084899491 0 -15.794429084899491 -3.7351365059600665 0 0 0 0 -17.245925514154209 1.4644858701329255 0 1.4644858701329255 2.3903400762140485 0 0 0 0 -12.828324286441784 4.8693583196577492 0 4.8693583196577492 3.245687152733268 0 0 0 0 -13.783492820046376 4.0997018665459564 0 4.0997018665459564 3.2937443320374769 0 0 0 0 -20.998334662445473 -2.2446589349922874 0 -2.2446589349922874 -1.9223388623561939 0 0 0 0 -19.526212181744711 -6.4005927063628718 0 -6.4005927063628718 -2.2788484930137463 0 0 0 0 -7.0207476761424914 -2.0247624588645294 0 -2.0247624588645294 3.4984323637256693 0 0 0 0 -20.43259587348129 -6.9906582363592058 0 -6.9906582363592058 -1.8858580116372616 0 0 0 0 -14.683305746535396 0.33123111128440996 0 0.33123111128440996 0.20627043974067405 0 0 0 0 -3489.1795796009246 4.9200048405039896 0 4.9200048405039896 -2.6195638071875669 0 0 0 0 -19.645006306091091 0.14177522211059568 0 0.14177522211059568 0.12963669376824782 0 0 0 0 -14.416133466430907 0.33354998337760833 0 0.33354998337760833 -3.1317219283388322 0 0 0 0 -13.23599427577858 4.459237608823976 0 4.459237608823976 1.6997914659106816 0 0 0 0 -10.571993446879787 4.0707961952570031 0 4.0707961952570031 1.1988239951274409 0 0 0 0 -10.531097198516363 4.2044388195688498 0 4.2044388195688498 1.4439279074963451 0 0 0 0 -12.923229935035778 1.8744165022678203 0 1.8744165022678203 -0.042222162277124387 0 0 0 0 -28.188548769336194 -28.23494637085048 0 -28.23494637085048 43.421982552131453 0 0 0 0 -42.794686299923342 25.137241155834772 0 25.137241155834772 -32.488769339660394 0 0 0 0 -6.9756241433934036 1.7836509458890504 0 1.7836509458890504 -2.9612124946262943 0 0 0 0 -16.128987903008237 17.362864785880674 0 17.362864785880674 -68.614496590624185 0 0 0 0 -4.2309404588828841 2.4126191386470524 0 2.4126191386470524 -2.4398616687594314 0 0 0 0 -3187.2645622853306 -637.4634213033255 0 -637.4634213033255 -97.046862318613393 0 0 0 0 -12.809658559752279 4.1629675338092644 0 4.1629675338092644 -72.452607359795451 0 0 0 0 -3.7132184760885139 0.69263151046793325 0 0.69263151046793325 -1.7307773846821548 0 0 0 0 -3631.3021764038422 -1490.0043700911174 0 -1490.0043700911174 70.836699000540364 0 0 0 0 -9.6978727922978578 -0.69367612979027626 0 -0.69367612979027626 2.9131843707090184 0 0 0 0 -7.5094710243494376 -0.68875567775749147 0 -0.68875567775749147 -0.1072995085096714 0 0 0 0 -2433.1310739065884 -1999.3943763316279 0 -1999.3943763316279 -1284.9186063883644 0 0 0 0 -12.312847087338696 -1.0633182726755592 0 -1.0633182726755592 0.42330594375971531 0 0 0 0 -1322.4787445806578 -1464.6366100329396 0 -1464.6366100329396 -1034.6618014702242 0 0 0 0 -32.239740194272599 -6.7859843842848022 0 -6.7859843842848022 -3.7628196239614908 0 0 0 0 -23.629589955903384 -1.8205657371511834 0 -1.8205657371511834 -1.331420109735177 0 0 0 0 -16.072206276898669 2.9136601393687123 0 2.9136601393687123 2.4971436753657881 0 0 0 0 -20.180970757981413 -2.7934216540531907 0 -2.7934216540531907 -1.624343036570508 0 0 0 0 -10.826581388905311 -0.14644527199087065 0 -0.14644527199087065 -2.0746983746479035 0 0 0 0 -636.18023746361723 22.404787441029129 0 22.404787441029129 37.590854060321647 0 0 0 0 -16.670942006458063 -3.5415650662678084 0 -3.5415650662678084 -2.8642791857395169 0 0 0 0 -9.6454554700127773 2.1059631750842414 0 2.1059631750842414 -1.2612100804695454 0 0 0 0 -8.2009106299602692 -0.86693954231341763 0 -0.86693954231341763 -2.0497037988080136 0 0 0 0 -626.96944972312485 228.45687653929147 0 228.45687653929147 -90.364857050026558 0 0 0 0 -2135.8620264599303 -631.8143694371463 0 -631.8143694371463 130.69064044289667 0 0 0 0 -51.586621468159137 -16.140920463130669 0 -16.140920463130669 -9.7458838992106394 0 0 0 0 -7.0743026967966074 -0.24453992368941613 0 -0.24453992368941613 -3.0185095555367853 0 0 0 0 -6.1355521207078425 -2.1430050711626762 0 -2.1430050711626762 -8.329498512813732 0 0 0 0 -19.514541344484314 -8.9645661876029408 0 -8.9645661876029408 -7.5544874597017042 0 0 0 0 -7.227669804921959 0.0064457563979942734 0 0.0064457563979942734 -1.6545299131362947 0 0 0 0 -2147.2258135470183 -560.52417801413378 0 -560.52417801413378 484.71523033160184 0 0 0 0 -3121.5036542063899 -797.98366227345593 0 -797.98366227345593 502.6708595288643 0 0 0 0 -2291.9442106021952 365.4162458388459 0 365.4162458388459 485.07269117780595 0 0 0 0 -3501.9962880292805 -175.32593161509345 0 -175.32593161509345 591.97889130059775 0 0 0 0 -3491.3147271447597 543.41902266391412 0 543.41902266391412 463.11126118737496 0 0 0 0 -609.58083420094044 -132.05751322179867 0 -132.05751322179867 17.962607060789395 0 0 0 0 0.86387127885245718 6.4046557128643045 0 6.4046557128643045 -70.235450419615304 0 0 0 0 -2254.3100090272774 91.951630240998099 0 91.951630240998099 -99.568594142982874 0 0 0 0 -2.8691716476574243 0.37954212661801989 0 0.37954212661801989 -2.2589638125349039 0 0 0 0 -118.57677549802611 -46.753323252371274 0 -46.753323252371274 -12.635009102738422 0 0 0 0 -73.21407592567266 -51.680605319422284 0 -51.680605319422284 -42.075695640765844 0 0 0 0 -9.6753921145499362 -5.3133706340265121 0 -5.3133706340265121 -24.338680990084335 0 0 0 0 -8.362321258657019 2.814366000703842 0 2.814366000703842 0.12319063366933314 0 0 0 0 -38.161192417683196 -7.7997195609982555 0 -7.7997195609982555 -1.0708857080192047 0 0 0 0 -15.333901529367267 4.057235764979211 0 4.057235764979211 6.8183211062867919 0 0 0 0 -28.346920793585014 -6.5541879299835273 0 -6.5541879299835273 -12.895994975991925 0 0 0 0 -8.1246265032289102 -2.1237439802546589 0 -2.1237439802546589 -2.2068848506178984 0 0 0 0 0.90270179155439223 -5.437218328028365 0 -5.437218328028365 -17.409613637888228 0 0 0 0 -7.8153222456676303 5.3969244060583605 0 5.3969244060583605 -17.63779997478531 0 0 0 0 -34.210018353332998 -8.1654050685078801 0 -8.1654050685078801 5.420697137260504 0 0 0 0 57.577629640662053 -20.999095839498636 0 -20.999095839498636 7.1045908497090693 0 0 0 0 -8.5236985499509785 3.8617196662483479 0 3.8617196662483479 1.0591440836790875 0 0 0 0 -97.77282624970394 -31.606838870006641 0 -31.606838870006641 5.5772103062240603 0 0 0 0 -98.370396314650861 -197.78436833811463 0 -197.78436833811463 57.295680361330596 0 0 0 0 -10.137947276899183 9.2373895130658354 0 9.2373895130658354 6.7586326774060606 0 0 0 0 -51.638684390534763 -15.427517238806331 0 -15.427517238806331 -0.57839753641724201 0 0 0 0 -113.79276489492622 -27.72989303910208 0 -27.72989303910208 -104.10260174457835 0 0 0 0 -146.35886201126777 -80.536833693156211 0 -80.536833693156211 115.82457773518399 0 0 0 0 -67.719479974693968 -48.788470815058645 0 -48.788470815058645 -186.48992144113436 0 0 0 0 80.342235851650912 -66.510603583543173 0 -66.510603583543173 -57.465074255030913 0 0 0 0 19.054999094947561 -213.16682520262873 0 -213.16682520262873 -361.56478193543222 0 0 0 0 -0.69666321117610153 1.4712614148300958 0 1.4712614148300958 0.68549186190781519 0 0 0 0 7.5154009778508026 -8.4704713687887789 0 -8.4704713687887789 -7.159685884404043 0 0 0 0 -74.435677516710712 -86.048458933966458 0 -86.048458933966458 -147.42006397844989 0 0 0 0 -61.921871543905581 -17.629400005414482 0 -17.629400005414482 -50.125510269081133 0 0 0 0 -47.81017535796127 -4.9089695262075566 0 -4.9089695262075566 -44.025260097430419 0 0 0 0 -125.04576922510751 -72.541228763409208 0 -72.541228763409208 66.745314124310653 0 0 0 0 -118.12257416931971 -100.81821605858221 0 -100.81821605858221 -47.208643902708445 0 0 0 0 -55.136211002823984 -76.222469505270027 0 -76.222469505270027 -36.87237062793838 0 0 0 0 -166.33487314596823 121.08768449981201 0 121.08768449981201 441.04488764478765 0 0 0 0 -34.73536205465777 13.719856427924881 0 13.719856427924881 -4.4503692494468474 0 0 0 0 -15.736886341664047 4.3789027623651862 0 4.3789027623651862 -2.8406308248146899 0 0 0 0 -3494.5227315337106 -1793.8304708847684 0 -1793.8304708847684 -453.22278664040948 0 0 0 0 -2015.1920762291265 1237.1072109000324 0 1237.1072109000324 -323.40853795832646 0 0 0 0 75.027856984495884 637.50437272490876 0 637.50437272490876 -655.13745872939467 0 0 0 0 -560.31833318753343 -222.17080840708525 0 -222.17080840708525 211.58953422840486 0 0 0 0 -16.896275726107586 18.316613489280268 0 18.316613489280268 -0.99416302951571156 0 0 0 0 -10.798116262481926 33.615057210614395 0 33.615057210614395 -19.514592327860271 0 0 0 0 -3470.4776557555051 290.99674187363973 0 290.99674187363973 319.93041360541639 0 0 0 0 -192.79732857107956 -234.51461218436887 0 -234.51461218436887 -366.68481921921227 0 0 0 0 -9.5166088218228424 2.2291054496597305 0 2.2291054496597305 -1.2665220552316971 0 0 0 0 -3494.8437975938468 572.99825860370163 0 572.99825860370163 -132.85520693486365 0 0 0 0 -40.003303282384877 24.468445748473982 0 24.468445748473982 -4.6574684758744525 0 0 0 0 -4.0376042426777516 4.7816356741775969 0 4.7816356741775969 1.3489185027017641 0 0 0 0 -46.554436113055999 -25.212484710962713 0 -25.212484710962713 -79.089323529851526 0 0 0 0 200.5936375345882 -111.0720574391737 0 -111.0720574391737 -145.31115975687922 0 0 0 0 33.164327240127932 19.697107805341147 0 19.697107805341147 24.135326433202863 0 0 0 0 -39.428624462025255 98.828047573543586 0 98.828047573543586 -69.98941790923945 0 0 0 0 -4.7745454471878475 22.205878252751518 0 22.205878252751518 60.821777328606913 0 0 0 0 1.4438518269315281 8.0306137265318682 0 8.0306137265318682 26.695788094704287 0 0 0 0 -10.137814391255233 27.954737942625741 0 27.954737942625741 -15.335982403548655 0 0 0 0 -24.646865801931199 22.710746822717567 0 22.710746822717567 12.104780227080028 0 0 0 0 0.87841227118754261 22.929281139850836 0 22.929281139850836 8.3734337790980859 0 0 0 0 31.789784501874237 17.305167696116769 0 17.305167696116769 64.26623344069958 0 0 0 0 18.127143001056993 38.078328299803275 0 38.078328299803275 57.502292384730936 0 0 0 0 -45.825459602347109 154.39518961151498 0 154.39518961151498 101.95438450629831 0 0 0 0 -28.730682994384026 13.061864531454255 0 13.061864531454255 3.8839829304748363 0 0 0 0 -4.1122997803050438 0.46976089147239364 0 0.46976089147239364 4.8803323371088654 0 0 0 0 98.732809779659874 68.74481295653095 0 68.74481295653095 -178.93394788178193 0 0 0 0 -155.38133310333797 66.56634076253431 0 66.56634076253431 -64.533969985368458 0 0 0 0 0.87116814549218802 5.7994582543507924 0 5.7994582543507924 -3.0684395596621172 0 0 0 0 132.35630834666517 29.948733364231884 0 29.948733364231884 -59.963314603003482 0 0 0 0 10.370031363474482 -30.650115261223618 0 -30.650115261223618 146.10558835153643 0 0 0 0 -0.17825628071659594 9.5895718055662655 0 9.5895718055662655 109.35896215500543 0 0 0 0 -64.29970833754021 -33.375604753893661 0 -33.375604753893661 31.717315941919544 0 0 0 0 0.21395704968017526 -27.515561421524581 0 -27.515561421524581 -208.20853798617827 0 0 0 0 -51.523723777212581 8.390907821240944 0 8.390907821240944 134.43324030601298 0 0 0 0 -54.608810340057971 -39.561988951161652 0 -39.561988951161652 9.9867576201154407 0 0 0 0 -18.823788673171954 -17.61311802056364 0 -17.61311802056364 31.640296323162847 0 0 0 0 -35.040236198770231 -15.747694888033159 0 -15.747694888033159 18.497891147380965 0 0 0 0 22.597019734421337 25.640580740428049 0 25.640580740428049 -143.18931928919574 0 0 0 0 -53.85796141053288 2.0030180379735611 0 2.0030180379735611 21.235756067314924 0 0 0 0 -15.370162927638376 -20.51126903695064 0 -20.51126903695064 5.5377485369149779 0 0 0 0 -49.630215116791078 -12.500152092325322 0 -12.500152092325322 14.784812796264248 0 0 0 0 -24.539908675567858 -11.518024605965138 0 -11.518024605965138 7.3904364375885052 0 0 0 0 -72.918209645300522 -47.76792295549194 0 -47.76792295549194 -15.212081994233756 0 0 0 0 30.385431758637424 39.529619199807257 0 39.529619199807257 44.697847195629066 0 0 0 0 4.5550916235819869 8.5046257454149661 0 8.5046257454149661 9.8356136236388156 0 0 0 0 -26.047171074317461 19.842933690719391 0 19.842933690719391 36.30073790807694 0 0 0 0 -26.86632440550602 7.4088012134141934 0 7.4088012134141934 14.486094458488026 0 0 0 0 7.4372105154179735 -0.14954527431109454 0 -0.14954527431109454 13.462836636998418 0 0 0 0 -6.0292086584860272 5.1219275612794961 0 5.1219275612794961 2.5588614381097052 0 0 0 0 -6.0206671080639182 -5.6950523596462332 0 -5.6950523596462332 -17.691642462663424 0 0 0 0 -3480.6043521065621 -10.799836751721243 0 -10.799836751721243 -42.991921421717571 0 0 0 0 1.1658132602760531 -4.123162909300639 0 -4.123162909300639 -9.4217003634170648 0 0 0 0 -8.7079689540713048 14.01582214176409 0 14.01582214176409 -41.607622426032918 0 0 0 0 -1831.1208884780499 -2292.2690229344053 0 -2292.2690229344053 -1792.8754755685422 0 0 0 0 -1832.229786418864 -757.06968655910373 0 -757.06968655910373 -623.48106879053887 0 0 0 0 -3499.0604872674521 -1294.5380308966985 0 -1294.5380308966985 -214.75776055788904 0 0 0 0 -2352.7704336803363 -618.04910410480511 0 -618.04910410480511 -118.12445746635076 0 0 0 0 -1834.6853001558047 -602.06340947181229 0 -602.06340947181229 -117.99344113140218 0 0 0 0 -2024.4463500480415 -1094.7840158584588 0 -1094.7840158584588 -334.064172523053 0 0 0 0 -7.1667673373698051 13.344307252163482 0 13.344307252163482 -26.460293422448657 0 0 0 0 173.43103154717392 132.38377068307273 0 132.38377068307273 -126.08814294741023 0 0 0 0 -1509.7780999798488 -976.36354928959452 0 -976.36354928959452 -327.61254545361908 0 0 0 0 -30.67763039712554 -68.895060925992766 0 -68.895060925992766 26.744262762193102 0 0 0 0 -1113.4016085188578 -352.64702583309469 0 -352.64702583309469 -812.41034678094957 0 0 0 0 -714.88427291454536 -672.84154683272607 0 -672.84154683272607 -786.26880724617877 0 0 0 0 -855.46399873009068 -850.69863525199935 0 -850.69863525199935 -1010.2107612294043 0 0 0 0 -3490.9173819072421 -58.404626227665993 0 -58.404626227665993 -48.403894265017207 0 0 0 0 -1389.4785373444684 448.5665592942525 0 448.5665592942525 -561.62631374224134 0 0 0 0 -3399.3592105588264 1371.4526884297895 0 1371.4526884297895 530.64769596346275 0 0 0 0 778.70673095673556 737.73460078545122 0 737.73460078545122 -666.71863314769723 0 0 0 0 -3.818203811470454 4.4795632079871979 0 4.4795632079871979 -0.44331441648669645 0 0 0 0 -6.1292407687301562 1.219598345425311 0 1.219598345425311 0.71183099858478838 0 0 0 0 -169.50813993619522 79.95059305352413 0 79.95059305352413 -1024.6913321368954 0 0 0 0 -226.30190578362453 -225.83862549012713 0 -225.83862549012713 -208.33422277321392 0 0 0 0 -422.97927042986703 461.0484749156517 0 461.0484749156517 414.13155805559978 0 0 0 0 -1406.3790072359261 -422.0170137633761 0 -422.0170137633761 99.840494886629358 0 0 0 0 -118.72736072249609 -490.06880538626478 0 -490.06880538626478 -532.14651130245943 0 0 0 0 -3501.7794595988166 -757.28569326178467 0 -757.28569326178467 -175.9324423604256 0 0 0 0 -1827.1228748556459 -446.72594743044107 0 -446.72594743044107 -119.6402662714377 0 0 0 0 -6.1681070145556518 4.1649622412660818 0 4.1649622412660818 2.2056221617044929 0 0 0 0 194.69370075052575 54.02726272152006 0 54.02726272152006 259.34206152349122 0 0 0 0 -554.46093396691867 -687.27219717114133 0 -687.27219717114133 -438.90795107971712 0 0 0 0 -682.8019504669428 385.19161757386996 0 385.19161757386996 -507.80648379535978 0 0 0 0 -406.38784151576692 -274.02909349654277 0 -274.02909349654277 262.38533259852505 0 0 0 0 -887.02028573828284 -1313.6911235298276 0 -1313.6911235298276 -1660.0870460393639 0 0 0 0 -279.40051887206846 -474.6387175800179 0 -474.6387175800179 -1975.3542333593564 0 0 0 0 332.27151075255097 -227.76997851460703 0 -227.76997851460703 -1393.1632743113169 0 0 0 0 -106.4572319737963 338.38890760585639 0 338.38890760585639 -1056.9842727150908 0 0 0 0 -49.225859374952051 555.99624130026018 0 555.99624130026018 -231.61511715011147 0 0 0 0 -4.4289851222057877 5.0127015973542157 0 5.0127015973542157 -9.3534976649557287 0 0 0 0 168.49266785353393 -321.04224251469077 0 -321.04224251469077 -218.22535237818761 0 0 0 0 -278.00768762865482 -269.97260117270707 0 -269.97260117270707 -27.930660288031504 0 0 0 0 -11.937231985043368 -5.2367343303594893 0 -5.2367343303594893 -6.6381975526364911 0 0 0 0 -93.032351822370401 2.1839333405723664 0 2.1839333405723664 -115.08620392185549 0 0 0 0 35.94621815076971 -120.38043729791161 0 -120.38043729791161 -560.35342782547832 0 0 0 0 -95.235044581731643 -26.149678550705438 0 -26.149678550705438 24.849618303252729 0 0 0 0 50.556585422746139 80.981026771192774 0 80.981026771192774 183.6891672723541 0 0 0 0 38.314466915213416 1.4118556918469949 0 1.4118556918469949 397.12025144876043 0 0 0 0 -120.24022988954675 -158.15070762255436 0 -158.15070762255436 95.630549437225454 0 0 0 0 -217.13565955405727 -911.30490828646555 0 -911.30490828646555 -644.59107848640815 0 0 0 0 460.21419712691568 -272.50891052271345 0 -272.50891052271345 -1544.5743424490884 0 0 0 0 144.98003017976589 -42.586421063055241 0 -42.586421063055241 -559.0501236907653 0 0 0 0 357.2068830326898 -151.88748474677232 0 -151.88748474677232 -1068.4661382022914 0 0 0 0 325.55435817814578 -202.88218132549412 0 -202.88218132549412 -691.88352383939696 0 0 0 0 219.43380142265232 -4.5882032122617602 0 -4.5882032122617602 -371.7171403553109 0 0 0 0 416.20466008798394 -2.1998540803078868 0 -2.1998540803078868 -1058.7362320094371 0 0 0 0 138.05454915148584 190.38332583479897 0 190.38332583479897 -485.67481432702266 0 0 0 0 263.05068761131406 40.48524369217148 0 40.48524369217148 -637.68358081031056 0 0 0 0 401.15194252012589 229.87308011912319 0 229.87308011912319 -1326.597307882334 0 0 0 0 287.67994597024517 -74.783369452833654 0 -74.783369452833654 -610.27292993323204 0 0 0 0 74.650855114417936 188.03047136851504 0 188.03047136851504 14.262984036936132 0 0 0 0 224.98137094407866 32.707636627065483 0 32.707636627065483 41.44485003095383 0 0 0 0 156.1381865266776 -83.944691584855008 0 -83.944691584855008 183.11107862478943 0 0 0 0 459.42293120476825 -315.74712816410619 0 -315.74712816410619 296.74619839895695 0 0 0 0 -15.833835976091336 -19.550940908227567 0 -19.550940908227567 -21.169287474609447 0 0 0 0 -10.943204825997412 -13.577467701456037 0 -13.577467701456037 -10.631098864257174 0 0 0 0 208.21919162586346 -576.70701824306161 0 -576.70701824306161 -190.36509471004638 0 0 0 0 -52.933744768830366 -421.58904683972321 0 -421.58904683972321 495.67322329520891 0 0 0 0 -1510.7654778786382 -504.42712216426116 0 -504.42712216426116 -1140.5259668283179 0 0 0 0 -1927.3297654189082 -938.98606145571193 0 -938.98606145571193 -18.065779458971519 0 0 0 0 -8.3879552578729886 -3.9225491035974969 0 -3.9225491035974969 -6.5452276930637883 0 0 0 0 -1446.8502591053548 -26.902589889262345 0 -26.902589889262345 201.63868851478219 0 0 0 0 -772.73521042626817 -955.89742868220401 0 -955.89742868220401 -1131.5683406466251 0 0 0 0 -5.2099494704827087 0.85483255421118542 0 0.85483255421118542 -12.887760728683087 0 0 0 0 -590.8147005570172 -803.59689691414576 0 -803.59689691414576 -1223.9433991473034 0 0 0 0 -653.76491243801138 -627.53210586380192 0 -627.53210586380192 -1442.5299683681442 0 0 0 0 -659.32686139689758 -272.1789139773191 0 -272.1789139773191 -555.54968566007392 0 0 0 0 -1608.2043906631443 -802.59198765655037 0 -802.59198765655037 -844.98727126538597 0 0 0 0 -1670.2854132751427 151.92252734346945 0 151.92252734346945 -432.11065506849263 0 0 0 0 -867.16013103719524 31.938237608343115 0 31.938237608343115 -535.84946635937013 0 0 0 0 -1160.1348976804547 -308.61292962452444 0 -308.61292962452444 -348.7908093123624 0 0 0 0 -177.60993683037941 407.64006046653361 0 407.64006046653361 -946.94910486402296 0 0 0 0 -902.76815804812941 459.22273655244408 0 459.22273655244408 288.06360918613609 0 0 0 0 -115.94630224549883 -18.183877599394307 0 -18.183877599394307 23.276633863577462 0 0 0 0 -424.85065758346173 413.90943437585156 0 413.90943437585156 355.7421245315054 0 0 0 0 166.12253923818571 59.376561057846175 0 59.376561057846175 281.6827783140543 0 0 0 0 -9.877753791573241 1.8092141132113362 0 1.8092141132113362 -0.15695418658353333 0 0 0 0 -346.30253125434683 436.16490579434503 0 436.16490579434503 75.379937860043356 0 0 0 0 -1090.2188355559119 -518.45826199005387 0 -518.45826199005387 -117.00730877147907 0 0 0 0 -1010.5102084487298 787.01128830620155 0 787.01128830620155 168.55052229730245 0 0 0 0 -876.91450768209688 -68.850295346995608 0 -68.850295346995608 85.052198670618964 0 0 0 0 -1706.9977641159203 56.237972996295866 0 56.237972996295866 131.11105904733267 0 0 0 0 -560.36366888246266 -210.92030229764396 0 -210.92030229764396 39.537986958507418 0 0 0 0 -959.67747481400511 -185.30684806900967 0 -185.30684806900967 85.306978238877491 0 0 0 0 -425.91898165350904 -68.99694281066013 0 -68.99694281066013 -63.917101476021344 0 0 0 0 -124.86463063528208 -319.8048799921944 0 -319.8048799921944 -154.22561655051732 0 0 0 0 -93.122575979151179 140.29435263325655 0 140.29435263325655 151.82067033601561 0 0 0 0 -199.61333000104969 120.21211248167674 0 120.21211248167674 358.53445357900637 0 0 0 0 -23.265336266583674 6.1074104754666791 0 6.1074104754666791 -0.67635471338465258 0 0 0 0 -163.64691570194191 -53.95054721240831 0 -53.95054721240831 261.93807425012392 0 0 0 0 -29.301294665661615 7.9288453659372422 0 7.9288453659372422 -2.2100092138690925 0 0 0 0 -119.24171421886604 47.72958929467859 0 47.72958929467859 283.25163691923444 0 0 0 0 -51.446342467272189 185.36846988302113 0 185.36846988302113 278.5032945928042 0 0 0 0 159.09473051394161 124.81147882690357 0 124.81147882690357 -22.087363709388228 0 0 0 0 -61.935546868102392 -22.013624460721985 0 -22.013624460721985 -18.987489088390006 0 0 0 0 -22.441562101739692 153.25401777844945 0 153.25401777844945 -19.625532143048986 0 0 0 0 -72.843465996698797 -4.6995345797276968 0 -4.6995345797276968 -49.221430720080207 0 0 0 0 -73.583327929970437 131.98996664802007 0 131.98996664802007 -277.61926713654429 0 0 0 0 -371.87565042023198 -125.44949799910228 0 -125.44949799910228 -19.278927291258015 0 0 0 0 -361.47300263989109 60.434101767112452 0 60.434101767112452 58.572908961554276 0 0 0 0 -266.17303820233792 -89.037216581516077 0 -89.037216581516077 84.406392887441712 0 0 0 0 -1.2046206839299529 -0.38245571928392152 0 -0.38245571928392152 -0.46422444203141899 0 0 0 0 -27.857671571657193 44.084425366968389 0 44.084425366968389 42.649409846596427 0 0 0 0 -34.341750173310174 -7.71314991623899 0 -7.71314991623899 7.6725092396918626 0 0 0 0 -52.846599576067092 -8.8309065241924145 0 -8.8309065241924145 39.736468547642289 0 0 0 0 15.838934749524924 43.565182983046725 0 43.565182983046725 0.97593812538434577 0 0 0 0 -58.132939611434267 21.16577184235166 0 21.16577184235166 -32.171469176162645 0 0 0 0 -255.37458842942897 -5.709999482818489 0 -5.709999482818489 -6.9152189275828277 0 0 0 0 -246.61481254200407 -33.498578898522283 0 -33.498578898522283 27.26057518590801 0 0 0 0 -646.52362152058413 27.606445529610482 0 27.606445529610482 101.8726335913384 0 0 0 0 -702.62238190028711 -95.5381897918802 0 -95.5381897918802 44.489782139643467 0 0 0 0 -846.63168762262649 -48.010892748668084 0 -48.010892748668084 72.790989830749822 0 0 0 0 -454.2560808859198 -69.372389275560863 0 -69.372389275560863 -61.724947052778589 0 0 0 0 -791.78573319555289 103.68716941788171 0 103.68716941788171 -70.297486013730122 0 0 0 0 -880.5761493352984 30.793880415392778 0 30.793880415392778 15.718080414878386 0 0 0 0 -797.26132041837627 -43.293980463791968 0 -43.293980463791968 75.242659219192319 0 0 0 0 -805.03296209569817 -73.585444211002141 0 -73.585444211002141 -14.810536027449075 0 0 0 0 -745.11525789479492 -95.414274749418155 0 -95.414274749418155 -39.354480490889728 0 0 0 0 -709.10197899801278 -56.325824355596978 0 -56.325824355596978 -205.32708708860036 0 0 0 0 -689.28395676047512 19.06195473284879 0 19.06195473284879 -126.88085867032441 0 0 0 0 -627.61311992389892 77.596293718767356 0 77.596293718767356 -319.40278783142685 0 0 0 0 -669.98517414975868 50.957636151204497 0 50.957636151204497 -226.15757777405906 0 0 0 0 -645.68916624805206 173.70585401798735 0 173.70585401798735 -186.0686728705623 0 0 0 0 -700.01895122151109 123.28426019330618 0 123.28426019330618 -231.15684990604655 0 0 0 0 -708.34797943721424 85.480314800471206 0 85.480314800471206 -150.16928309478226 0 0 0 0 -729.33490903388247 262.85210972284585 0 262.85210972284585 -129.68773968932146 0 0 0 0 -679.22987635189565 175.25871580905005 0 175.25871580905005 -184.50288699432303 0 0 0 0 -519.49515726414029 168.29034808636868 0 168.29034808636868 -194.43323670132486 0 0 0 0 -604.79276468355965 217.26479226963738 0 217.26479226963738 -198.97187951977139 0 0 0 0 -865.24341864919552 254.48078049746709 0 254.48078049746709 -129.40348589077411 0 0 0 0 -1066.7188750666501 235.28956746463973 0 235.28956746463973 -52.713170839160028 0 0 0 0 -912.42253339860144 203.95470342888166 0 203.95470342888166 -52.354564753224622 0 0 0 0 -867.0224745268988 170.59954460195468 0 170.59954460195468 -59.351186495730872 0 0 0 0 -1091.0016745868088 53.590951930386836 0 53.590951930386836 88.763215279862834 0 0 0 0 -823.44395372865347 -18.398849473220935 0 -18.398849473220935 52.503205815876754 0 0 0 0 -1553.4093681137092 11.995893180062922 0 11.995893180062922 134.71970525200049 0 0 0 0 -1026.6893417164392 188.10816921379546 0 188.10816921379546 -162.19618278483722 0 0 0 0 -1492.8357127751506 423.93496001982248 0 423.93496001982248 -269.54301492328887 0 0 0 0 -1656.584094537995 -286.25538612037781 0 -286.25538612037781 -431.87892809917321 0 0 0 0 -1130.6666880090434 90.229373554174572 0 90.229373554174572 -219.31364166924504 0 0 0 0 -879.59797810191958 292.90515057878201 0 292.90515057878201 -180.71087316964076 0 0 0 0 -121.4392128127791 -15.922076899989678 0 -15.922076899989678 21.875369750603859 0 0 0 0 -1314.5461023235766 421.28731579850501 0 421.28731579850501 273.83733113010521 0 0 0 0 -1225.8544634940699 182.15374913759524 0 182.15374913759524 12.227071525247993 0 0 0 0 -1334.5297900908117 3.3194927015820213 0 3.3194927015820213 -257.54629986441341 0 0 0 0 -1273.5599528630719 342.83914941583282 0 342.83914941583282 391.8314010887716 0 0 0 0 -700.63725535541016 304.78937690778912 0 304.78937690778912 -132.52688476627236 0 0 0 0 -1381.8075709160476 -74.555716814327752 0 -74.555716814327752 -25.321098027266999 0 0 0 0 -2005.075996307176 -431.80933567021566 0 -431.80933567021566 64.619578418836682 0 0 0 0 -166.79912028391118 314.80075414829798 0 314.80075414829798 -44.35394503239786 0 0 0 0 -470.97140751105326 -59.905200694111727 0 -59.905200694111727 175.97910855470946 0 0 0 0 -120.6140480583293 -14.728424123163933 0 -14.728424123163933 20.948293800577659 0 0 0 0 -1018.0023742047706 97.252652831043633 0 97.252652831043633 523.46150619002674 0 0 0 0 -166.24055773291184 191.49069577700948 0 191.49069577700948 377.98156862072301 0 0 0 0 -115.0470158458937 -13.677412220537967 0 -13.677412220537967 20.40231992360367 0 0 0 0 -386.41524561979946 -15.59210159374353 0 -15.59210159374353 -130.63275046026502 0 0 0 0 -388.2947747239923 386.38574231977827 0 386.38574231977827 -287.75460947337024 0 0 0 0 -978.14703592622209 291.50948875714926 0 291.50948875714926 -133.20898339585619 0 0 0 0 -593.18912482759333 369.65555814386698 0 369.65555814386698 -206.23820874746616 0 0 0 0 -427.53328905433955 231.82235067358306 0 231.82235067358306 -184.86905310047041 0 0 0 0 -344.47030904765779 95.660146843673829 0 95.660146843673829 -146.56275701735461 0 0 0 0 -288.88311213142151 -67.334425444281806 0 -67.334425444281806 -158.66890863590925 0 0 0 0 -157.55011615429976 -14.915587616852463 0 -14.915587616852463 -143.50625904730168 0 0 0 0 17.265437790927535 27.098504205939207 0 27.098504205939207 38.043997403552567 0 0 0 0 -246.33314673370114 -59.109201207435945 0 -59.109201207435945 12.705952379916198 0 0 0 0 191.40753642191885 -442.122205203357 0 -442.122205203357 98.920403056094074 0 0 0 0 -384.85948151565935 64.25135996310155 0 64.25135996310155 103.75604447639489 0 0 0 0 -185.27744396400158 -2.6606130562504404 0 -2.6606130562504404 -153.36322390073303 0 0 0 0 -182.92825839381476 109.24396895661812 0 109.24396895661812 107.0000997413822 0 0 0 0 -172.6753962374587 -79.834214197019691 0 -79.834214197019691 135.23418671421496 0 0 0 0 -168.05088728339615 -100.2501471308351 0 -100.2501471308351 99.700460709668732 0 0 0 0 -105.95822920339536 -21.735718343264153 0 -21.735718343264153 20.568662047900201 0 0 0 0 -66.749379348068032 124.67564808582586 0 124.67564808582586 136.65264157471847 0 0 0 0 -40.63014175473009 8.3896832993692243 0 8.3896832993692243 19.472952766560667 0 0 0 0 7.6088729821276502 -18.391151556758814 0 -18.391151556758814 -17.264050636500087 0 0 0 0 -77.669710083631799 -4.0337599206434334 0 -4.0337599206434334 43.91414279089679 0 0 0 0 -77.774449893887436 -14.799981896217833 0 -14.799981896217833 16.707235169504834 0 0 0 0 -384.25045855366261 -123.86488893206933 0 -123.86488893206933 11.869352350522604 0 0 0 0 -208.90168235628516 -41.567919696317404 0 -41.567919696317404 -30.007717595093709 0 0 0 0 25.645728272145789 26.299267768414211 0 26.299267768414211 32.849337131941866 0 0 0 0 -8.7289255260224223 5.7402939479928827 0 5.7402939479928827 13.92579153606313 0 0 0 0 -72.151985159451485 -22.703748525083981 0 -22.703748525083981 19.548243138536719 0 0 0 0 -88.968384579522535 -6.0810784350778704 0 -6.0810784350778704 36.725235164150945 0 0 0 0 -66.2140896863786 19.282365544762825 0 19.282365544762825 39.320422669079186 0 0 0 0 -96.334386983331257 -33.723479310482617 0 -33.723479310482617 17.889209786320549 0 0 0 0 -26.700231370516121 27.150796577256187 0 27.150796577256187 61.722181700248257 0 0 0 0 -95.890150307818161 11.05795235984152 0 11.05795235984152 72.456269334341968 0 0 0 0 -128.79262103066139 -104.2025323286507 0 -104.2025323286507 -49.00529233366251 0 0 0 0 -386.24384324488346 572.00206968095426 0 572.00206968095426 -134.26647480443353 0 0 0 0 -14.725665950136332 -10.179274128328224 0 -10.179274128328224 1.4995653088369068 0 0 0 0 -87.044848835425 -575.50588710554257 0 -575.50588710554257 -233.47937254972567 0 0 0 0 -215.09149617675575 -452.21449032809323 0 -452.21449032809323 -339.26395418640459 0 0 0 0 -8.8505528209052216 2.0771313107617715 0 2.0771313107617715 1.5800411476589247 0 0 0 0 -155.21000673346862 149.88231489427471 0 149.88231489427471 159.25476352443164 0 0 0 0 -406.62593150795146 85.055935182290341 0 85.055935182290341 157.87566833062411 0 0 0 0 50.535597995993157 48.144535744264431 0 48.144535744264431 18.064728243415011 0 0 0 0 -156.10125596141006 -4.1433173800705845 0 -4.1433173800705845 18.361876939528884 0 0 0 0 -152.33230311788066 -0.12819551295115161 0 -0.12819551295115161 20.898652038540604 0 0 0 0 -253.40804292457324 -67.141436306879768 0 -67.141436306879768 29.954818957430575 0 0 0 0 -318.7025353620229 -130.63972471583838 0 -130.63972471583838 0.98940736803888285 0 0 0 0 -117.63443437621754 -127.20427336416878 0 -127.20427336416878 -181.87778214175341 0 0 0 0 -505.28371723026794 -461.31953088496084 0 -461.31953088496084 493.25917898273838 0 0 0 0 -746.04113661797601 -75.86392707782943 0 -75.86392707782943 263.28218509691942 0 0 0 0 -324.10031269973842 -227.98016509810986 0 -227.98016509810986 246.07551416174203 0 0 0 0 -275.12617843828048 -205.78997621960661 0 -205.78997621960661 -10.469540755577327 0 0 0 0 -244.62810404939046 -210.6452491682669 0 -210.6452491682669 -14.942133236296286 0 0 0 0 -323.68376458582679 -228.49482034310859 0 -228.49482034310859 -22.572184004209703 0 0 0 0 -263.85347531744628 -157.07063254459308 0 -157.07063254459308 -122.77485767678627 0 0 0 0 -223.09788282872614 -242.29679799289079 0 -242.29679799289079 -130.99113574890271 0 0 0 0 -232.96453050541095 -270.13196737686758 0 -270.13196737686758 -195.74514661967623 0 0 0 0 -224.38788239617497 -369.87943785043262 0 -369.87943785043262 -183.94891209302659 0 0 0 0 -408.60304741014261 -272.93234335748275 0 -272.93234335748275 -135.71086781846998 0 0 0 0 -4.5149000604506 211.04511111793636 0 211.04511111793636 -244.04262260512144 0 0 0 0 -498.72129419935663 -347.60721862057687 0 -347.60721862057687 -177.43574057140358 0 0 0 0 -6.3421579338510696 -0.59862414507986372 0 -0.59862414507986372 -0.20749829534648234 0 0 0 0 -569.3026276058863 -147.7655108163417 0 -147.7655108163417 -199.06348937517214 0 0 0 0 -429.64117792542311 -95.511733573910533 0 -95.511733573910533 -395.82062213344489 0 0 0 0 -462.96781290107356 -92.618043255515659 0 -92.618043255515659 -233.93583553073222 0 0 0 0 -329.77240878992598 -235.34138627083121 0 -235.34138627083121 -180.86224360693814 0 0 0 0 -393.44255622072887 -139.33206652529498 0 -139.33206652529498 -122.55779469183702 0 0 0 0 -313.45777180078221 -116.51415501685551 0 -116.51415501685551 -232.96183451341676 0 0 0 0 -361.20286839398705 -2.615293194814285 0 -2.615293194814285 -207.31880071035812 0 0 0 0 -470.24135690548064 -49.756492986805824 0 -49.756492986805824 -226.52426944899844 0 0 0 0 -482.64582871009043 111.59702408932662 0 111.59702408932662 -222.84423704183519 0 0 0 0 -382.50419489736078 51.100038470690833 0 51.100038470690833 -197.20770085408549 0 0 0 0 -656.68575480787399 94.375398851424819 0 94.375398851424819 -221.66547096282011 0 0 0 0 -505.6131053158033 97.451885853697149 0 97.451885853697149 -222.08296423852607 0 0 0 0 -488.53315885465054 -154.91632317648828 0 -154.91632317648828 -277.54063035231997 0 0 0 0 -409.78337026379268 -54.816038034597796 0 -54.816038034597796 -289.87468257354794 0 0 0 0 -676.61408021754062 -128.99248508643987 0 -128.99248508643987 -97.1268595166257 0 0 0 0 -698.90785932659492 145.71831753460629 0 145.71831753460629 -279.26540242376541 0 0 0 0 -684.50389784615982 181.50352533354612 0 181.50352533354612 -556.61180435330334 0 0 0 0 -637.18974694385906 67.220164296784333 0 67.220164296784333 -314.24158637119649 0 0 0 0 -1128.9393369052686 73.427305702347439 0 73.427305702347439 -157.92680222507352 0 0 0 0 -6.3443730034641703 0.99678179285498203 0 0.99678179285498203 -0.26141790901163864 0 0 0 0 -737.31286421255209 -336.56768098683824 0 -336.56768098683824 164.38058979936773 0 0 0 0 -42.148803403950296 317.27139861277101 0 317.27139861277101 -413.24672122979712 0 0 0 0 -260.4234783643048 336.97290671188307 0 336.97290671188307 132.50196940566457 0 0 0 0 -240.52527421216541 -497.57271770062664 0 -497.57271770062664 -203.04719441087036 0 0 0 0 -478.94877019387422 -248.0290119257088 0 -248.0290119257088 -453.06384948990126 0 0 0 0 -3.2495779936478613 -1.3442058936643306 0 -1.3442058936643306 -1.4921741994325703 0 0 0 0 -818.78804171183106 542.15282169013574 0 542.15282169013574 -245.70844511957785 0 0 0 0 -47.783441891515395 228.06118278253257 0 228.06118278253257 -308.8483216535401 0 0 0 0 -38.397668735600519 136.41292473757034 0 136.41292473757034 -231.48796021535281 0 0 0 0 71.098690869832353 140.67011759737261 0 140.67011759737261 -323.70385455342375 0 0 0 0 15.438347161198408 -44.052933544238186 0 -44.052933544238186 -272.12658924162906 0 0 0 0 -976.09903601684346 190.47238352886916 0 190.47238352886916 -276.83898864732146 0 0 0 0 -1001.1060260198319 133.33158448039967 0 133.33158448039967 -402.00964699959331 0 0 0 0 -700.32697891350836 140.9602784278627 0 140.9602784278627 -431.05309832610396 0 0 0 0 -568.56765227050437 -65.622646593042077 0 -65.622646593042077 -335.75460174561795 0 0 0 0 -526.99539715957508 -4.5341179443635156 0 -4.5341179443635156 -533.82033081504233 0 0 0 0 -748.29515451429324 -42.901137436159843 0 -42.901137436159843 -476.02104856476626 0 0 0 0 -873.32466065393237 8.9865710791609672 0 8.9865710791609672 -287.47418410955356 0 0 0 0 -530.59731155571353 110.66839527958564 0 110.66839527958564 -73.525787501540435 0 0 0 0 -382.63079733106861 171.75126954161522 0 171.75126954161522 -247.33107439111154 0 0 0 0 -578.34598077242481 -64.374178741989908 0 -64.374178741989908 -170.4633892141519 0 0 0 0 -139.32012012651285 20.620660181682524 0 20.620660181682524 -169.54231610338184 0 0 0 0 -251.35777158264318 -100.94322753611391 0 -100.94322753611391 57.669945540420031 0 0 0 0 5.2524591710753157 53.651729138332939 0 53.651729138332939 118.71607666472119 0 0 0 0 -223.99618619535249 212.50920953730156 0 212.50920953730156 -130.71286980629384 0 0 0 0 -768.95439063175581 514.05060199078844 0 514.05060199078844 -66.725227872439518 0 0 0 0 -404.43124246461593 351.6369481303509 0 351.6369481303509 -235.18203451887226 0 0 0 0 -467.16392962661803 434.06616194030954 0 434.06616194030954 -58.026949069217153 0 0 0 0 -15.314464424020116 -23.558879714638806 0 -23.558879714638806 -176.67672221326012 0 0 0 0 -486.5676898775132 43.679919337547744 0 43.679919337547744 97.356014785096704 0 0 0 0 -7.2455954090253343 -5.0371895965180826 0 -5.0371895965180826 -3.4735253821986252 0 0 0 0 36.684876213319512 40.657850646469115 0 40.657850646469115 -576.74129316976496 0 0 0 0 -877.961011141565 122.23574578201016 0 122.23574578201016 132.77988559918958 0 0 0 0 -920.79031319363503 363.64589588298054 0 363.64589588298054 60.505075489628325 0 0 0 0 -395.62978087483862 458.37189507691073 0 458.37189507691073 -392.46120505882118 0 0 0 0 -81.259098889542656 440.63420480543482 0 440.63420480543482 -260.81558239101469 0 0 0 0 -792.83721359648916 -230.63613494603499 0 -230.63613494603499 -12.142164658099546 0 0 0 0 -7.4282803794509604 3.3944158153688022 0 3.3944158153688022 -1.7719441135139071 0 0 0 0 -116.31686847550571 22.023986154318365 0 22.023986154318365 18.740848988076777 0 0 0 0 -519.92827127788769 172.69620341232007 0 172.69620341232007 145.57858220013713 0 0 0 0 -526.35838054001761 159.45676809419916 0 159.45676809419916 138.00445266240058 0 0 0 0 -529.97324390247377 176.07290330558499 0 176.07290330558499 226.11620657608125 0 0 0 0 -416.45306359718234 86.754849573178376 0 86.754849573178376 196.51834297920198 0 0 0 0 -354.13335025727065 10.277561625762928 0 10.277561625762928 54.521989955175798 0 0 0 0 -40.741180028169765 193.77000390205671 0 193.77000390205671 129.72358855242874 0 0 0 0 -382.41774479367905 172.31340625270474 0 172.31340625270474 366.53520744526099 0 0 0 0 -98.58442828650368 -69.786276798921904 0 -69.786276798921904 194.84375706175319 0 0 0 0 -491.77572160010823 55.002132707927558 0 55.002132707927558 148.75296808641281 0 0 0 0 -579.46101468263987 179.92215197926626 0 179.92215197926626 212.16883569868287 0 0 0 0 -33.247275365607493 58.440495159275542 0 58.440495159275542 146.5753305497181 0 0 0 0 -45.666572545044801 56.357256204918997 0 56.357256204918997 185.77694998820658 0 0 0 0 99.493161222488197 111.64779464283481 0 111.64779464283481 60.657539902904318 0 0 0 0 -52.122819618967696 84.01222875877508 0 84.01222875877508 302.42678848133841 0 0 0 0 -2.3933701931681348 4.7545890027250977 0 4.7545890027250977 0.86924154442634993 0 0 0 0 -8.454822593354038 -47.991575133194189 0 -47.991575133194189 251.94353601951795 0 0 0 0 4.9728296930582019 28.782177501751136 0 28.782177501751136 -0.37768472046309398 0 0 0 0 -16.851187325645014 -12.713212096981643 0 -12.713212096981643 146.24689627692493 0 0 0 0 -20.303669030914833 9.6606086146181642 0 9.6606086146181642 -0.49074639801259856 0 0 0 0 -3.2529624700572626 6.0486373311251924 0 6.0486373311251924 5.4935152032476644 0 0 0 0 -60.990160511493741 50.43748109592832 0 50.43748109592832 16.400941183653671 0 0 0 0 -61.340935446103686 -21.37461201359406 0 -21.37461201359406 -7.4192972833902786 0 0 0 0 -116.22918074496636 17.815682079112726 0 17.815682079112726 0.68181425715329169 0 0 0 0 -17.853373116167162 10.879989445671796 0 10.879989445671796 -2.4368561599252878 0 0 0 0 -97.882254389362913 -10.436854448352435 0 -10.436854448352435 127.93325232886946 0 0 0 0 -70.990849581270595 52.842733553780818 0 52.842733553780818 201.2584150356497 0 0 0 0 -19.607025867047469 -100.05277469781623 0 -100.05277469781623 162.80340244667968 0 0 0 0 -389.77301031480965 22.370437683092177 0 22.370437683092177 -2.3260207709756742 0 0 0 0 -52.349206847793539 39.553199057577331 0 39.553199057577331 -62.627466080865403 0 0 0 0 -53.589415637488855 -33.175670462630023 0 -33.175670462630023 -87.327274717059026 0 0 0 0 -321.62632656291316 -46.05161670490935 0 -46.05161670490935 -1.9351996255965105 0 0 0 0 -327.23625133124915 -162.14802015657409 0 -162.14802015657409 -47.492092838540998 0 0 0 0 -16.280247915230504 5.9667469423603023 0 5.9667469423603023 -0.94828464404129242 0 0 0 0 -51.275142436374153 154.81999978580359 0 154.81999978580359 276.46901126649209 0 0 0 0 -6.5695785911066196 85.3499030747505 0 85.3499030747505 148.90914447251657 0 0 0 0 -879.27287908359176 -147.95093926912159 0 -147.95093926912159 -115.25713140850235 0 0 0 0 -772.18856844530819 -267.65276343607411 0 -267.65276343607411 16.228642627013059 0 0 0 0 -7.1970577171561629 1.8865764690124784 0 1.8865764690124784 0.21310278745031397 0 0 0 0 -925.54784117660347 -474.64952673844107 0 -474.64952673844107 -176.15311168237827 0 0 0 0 -413.97287761514508 -243.84542728878628 0 -243.84542728878628 -72.075953848369807 0 0 0 0 -833.48234008820691 -264.72778224388048 0 -264.72778224388048 42.677902393997101 0 0 0 0 -847.9006774642869 -226.06493780303109 0 -226.06493780303109 96.053017762078071 0 0 0 0 -1001.8602228938271 -168.5606327537372 0 -168.5606327537372 78.275369936922743 0 0 0 0 -521.91274366630842 -73.00600242461735 0 -73.00600242461735 12.139576730302679 0 0 0 0 -809.8666244093547 -46.463034823471617 0 -46.463034823471617 -84.795462107103958 0 0 0 0 -568.37737742213358 -192.09797225181046 0 -192.09797225181046 -15.665580252626796 0 0 0 0 -882.12251902176604 -230.23515019186129 0 -230.23515019186129 -32.376270814687814 0 0 0 0 -833.17972112443022 -74.04525932549052 0 -74.04525932549052 -522.75106914821117 0 0 0 0 -950.96583632747206 -531.75707345711976 0 -531.75707345711976 -402.25331090342161 0 0 0 0 -710.91825199712912 -283.585810521864 0 -283.585810521864 -171.36487532104672 0 0 0 0 -569.48196336168621 -124.21808412723135 0 -124.21808412723135 -41.091109507910915 0 0 0 0 1.0999597528430343 0.39716196039686835 0 0.39716196039686835 1.5810901291003887 0 0 0 0 -501.44871030037393 -149.71225360353128 0 -149.71225360353128 -60.439359581355234 0 0 0 0 149.45504327914477 -382.44876464393224 0 -382.44876464393224 43.702261992146305 0 0 0 0 -309.94533786962529 -185.58778099438246 0 -185.58778099438246 -220.46420056305897 0 0 0 0 -375.94253059294351 -257.54146528801766 0 -257.54146528801766 106.84121705168127 0 0 0 0 -520.34449163241516 -376.25628151523415 0 -376.25628151523415 -178.34234889469872 0 0 0 0 -487.27608156577844 -249.12181750078526 0 -249.12181750078526 -242.1648013967183 0 0 0 0 -349.73565625985611 -76.902960165191871 0 -76.902960165191871 -386.60742671714388 0 0 0 0 -539.26749839512559 -47.865633002387767 0 -47.865633002387767 -392.03173651125917 0 0 0 0 -608.85894405504678 -108.06580339639595 0 -108.06580339639595 -210.91933055028312 0 0 0 0 -574.8666124974261 -187.54001441517357 0 -187.54001441517357 -270.58894297775805 0 0 0 0 -794.75432456246199 -210.67852115938149 0 -210.67852115938149 -125.74184487094044 0 0 0 0 -794.84280355799638 -183.40148995731442 0 -183.40148995731442 37.592349010788894 0 0 0 0 -870.40923812182882 -146.9692746100468 0 -146.9692746100468 80.358621663059637 0 0 0 0 -992.78266182359607 -332.22577037895735 0 -332.22577037895735 -25.692252727328196 0 0 0 0 -748.80020354901353 -319.98259038387596 0 -319.98259038387596 -193.22958092922318 0 0 0 0 -614.05513316678753 -265.6333733203511 0 -265.6333733203511 -143.58206250882722 0 0 0 0 -747.60112724417013 -308.29563839467755 0 -308.29563839467755 -142.53305247050457 0 0 0 0 -423.20569140356747 80.210505293023743 0 80.210505293023743 34.007932637725389 0 0 0 0 -968.08056398645363 -123.16577345201992 0 -123.16577345201992 187.08244384008503 0 0 0 0 -762.60224691740223 -93.492308458061643 0 -93.492308458061643 66.159734579663564 0 0 0 0 -806.24986397860812 61.980321837543215 0 61.980321837543215 124.49044852543739 0 0 0 0 -469.11221188150557 5.5566686703582491 0 5.5566686703582491 30.750808549206795 0 0 0 0 -227.39335377324642 87.565324595737366 0 87.565324595737366 -10.465503472097225 0 0 0 0 -460.97988930661995 -16.028621668278902 0 -16.028621668278902 63.299044763604343 0 0 0 0 53.213800516610718 -25.463856881661286 0 -25.463856881661286 -31.933109254151532 0 0 0 0 -133.35398186974453 -33.479316030688551 0 -33.479316030688551 0.007700039423070848 0 0 0 0 -29.417432285397808 46.811637860092787 0 46.811637860092787 -0.72479292130083195 0 0 0 0 0.11959898099186361 0.39290566452240583 0 0.39290566452240583 7.6319558317443956 0 0 0 0 87.964017331842115 8.9211609615449561 0 8.9211609615449561 30.168813221752316 0 0 0 0 -41.413770595481765 -32.777818532120818 0 -32.777818532120818 40.563115359248059 0 0 0 0 -420.06299095877694 111.92314933271473 0 111.92314933271473 84.600621742789372 0 0 0 0 -192.35161795192835 5.0400542989382302 0 5.0400542989382302 6.6232211608016769 0 0 0 0 -96.351439671268963 94.165197467281359 0 94.165197467281359 9.2964341552305996 0 0 0 0 -75.286446397432883 -12.234635081016677 0 -12.234635081016677 49.703542298028424 0 0 0 0 -114.45335320137201 -74.688433095263463 0 -74.688433095263463 130.11355913366333 0 0 0 0 -160.97299271865631 -33.283958857507059 0 -33.283958857507059 379.27331852763746 0 0 0 0 -135.85264745578115 117.54961748492394 0 117.54961748492394 15.133653174756546 0 0 0 0 -366.38841894191137 -102.52669298716683 0 -102.52669298716683 941.29492421781288 0 0 0 0 -7.3925613739666005 91.085575297304331 0 91.085575297304331 204.03328665132085 0 0 0 0 380.51212697542178 -272.31917513663711 0 -272.31917513663711 -63.354251150479286 0 0 0 0 -82.939150107598834 -58.223874927368797 0 -58.223874927368797 -45.872900590721656 0 0 0 0 -147.31499755037839 -69.314675968729716 0 -69.314675968729716 -42.545493043067381 0 0 0 0 346.98034294916397 -482.77067186919248 0 -482.77067186919248 111.78082998607442 0 0 0 0 -12.234687925125147 4.0808555821262802 0 4.0808555821262802 13.287892055343759 0 0 0 0 -33.032146139252873 0.94786726220900341 0 0.94786726220900341 4.7723162351404511 0 0 0 0 -206.14413561150104 -61.212635237938684 0 -61.212635237938684 -11.541047374345908 0 0 0 0 -121.5896390570706 -285.91286237527197 0 -285.91286237527197 -418.23443314864971 0 0 0 0 -714.57551908574897 -788.11096108588322 0 -788.11096108588322 -838.50885608333783 0 0 0 0 -12.881024453147987 -1.3284916734146766 0 -1.3284916734146766 -0.48593570056267099 0 0 0 0 -1192.7285793989286 169.31406112983541 0 169.31406112983541 274.43804582021221 0 0 0 0 -443.28290580442263 326.57231307574523 0 326.57231307574523 161.89814540929819 0 0 0 0 -1377.6551937584227 -391.96280191810592 0 -391.96280191810592 39.302048216230332 0 0 0 0 -1342.8854869353781 -5.6146506522068194 0 -5.6146506522068194 -139.66165918956403 0 0 0 0 -1526.6512053261958 -571.4675295110053 0 -571.4675295110053 -100.06669125390545 0 0 0 0 -845.78912021077849 -322.38076321786161 0 -322.38076321786161 -10.235429237748122 0 0 0 0 -836.10862106763875 -535.46833922493363 0 -535.46833922493363 -58.661052872301298 0 0 0 0 -779.71959161743484 -467.47424749410368 0 -467.47424749410368 255.4475897638622 0 0 0 0 -809.12550814679253 -326.1640429146986 0 -326.1640429146986 105.13141582256935 0 0 0 0 -969.05011359988021 -408.03875146331046 0 -408.03875146331046 92.737682376087491 0 0 0 0 -820.29305906922491 -256.41805478314006 0 -256.41805478314006 15.198500652926384 0 0 0 0 -831.65533656692378 -307.02678938384832 0 -307.02678938384832 29.192331396324448 0 0 0 0 -414.39881227093974 -489.64997020942462 0 -489.64997020942462 -77.48152840886803 0 0 0 0 -662.80425763020321 -410.34335695208227 0 -410.34335695208227 -7.7112135187053354 0 0 0 0 -698.22303272526551 -426.91430356639927 0 -426.91430356639927 114.62931966995046 0 0 0 0 -490.33242270552728 -409.90742789479896 0 -409.90742789479896 -151.92766496358672 0 0 0 0 -544.06226469936064 -291.86836842602008 0 -291.86836842602008 -205.10363515212066 0 0 0 0 -773.64482460647559 -314.57227829827684 0 -314.57227829827684 26.877926756946607 0 0 0 0 -136.63801566960319 -455.2504029787857 0 -455.2504029787857 -311.11252366469347 0 0 0 0 -248.11842466619964 -367.60979563018111 0 -367.60979563018111 -346.20368741317941 0 0 0 0 -397.27733027160866 -437.34991848529404 0 -437.34991848529404 -207.10691375953184 0 0 0 0 -296.96069237494703 -457.19504299409994 0 -457.19504299409994 -219.37116060747454 0 0 0 0 -378.03474760147583 -480.94499950620411 0 -480.94499950620411 -14.545865780899391 0 0 0 0 -259.65075573218746 -591.21383064178531 0 -591.21383064178531 -35.54744255398964 0 0 0 0 -331.68617652472904 -357.37423088614395 0 -357.37423088614395 -61.537723503800635 0 0 0 0 54.827429796838828 -235.12296459153873 0 -235.12296459153873 -38.723159585587155 0 0 0 0 -484.15834834350244 -324.44146043377009 0 -324.44146043377009 400.47599477728568 0 0 0 0 -407.77609524953186 -587.5004939999319 0 -587.5004939999319 112.30780275262168 0 0 0 0 46.676082116010718 -802.32764263465572 0 -802.32764263465572 221.24151206042461 0 0 0 0 -492.47236759671887 -394.58276496983399 0 -394.58276496983399 -1.8702174977502182 0 0 0 0 0.79612071895977188 1.3895900553757983 0 1.3895900553757983 3.5740890604428648 0 0 0 0 -155.98761662718516 -36.950759152074625 0 -36.950759152074625 -14.580842273469443 0 0 0 0 720.55580005933393 -715.61224584792433 0 -715.61224584792433 360.55164222468647 0 0 0 0 -471.41076953193897 -164.36231375637408 0 -164.36231375637408 -13.648674259013205 0 0 0 0 -52.588999685334784 -264.28581106122363 0 -264.28581106122363 385.44654879112875 0 0 0 0 147.94577443384424 -274.82009061598308 0 -274.82009061598308 372.97021692826979 0 0 0 0 -75.89378279430548 -363.58754035589897 0 -363.58754035589897 350.13052022281141 0 0 0 0 -357.11283701422872 190.85531597184772 0 190.85531597184772 1006.8859405685239 0 0 0 0 -162.75630895034737 -309.91562233720413 0 -309.91562233720413 457.80465712257393 0 0 0 0 -558.05247537801324 290.19542219145546 0 290.19542219145546 106.74286043289965 0 0 0 0 -550.84116565017825 -305.95615500328125 0 -305.95615500328125 433.82049609496062 0 0 0 0 -271.31497496624979 -459.26121488844962 0 -459.26121488844962 536.02644278571768 0 0 0 0 -191.07578833266234 -160.42023919956432 0 -160.42023919956432 37.964288969228051 0 0 0 0 -265.78604379848503 -278.33021061564955 0 -278.33021061564955 -264.28244631572261 0 0 0 0 -894.41753760141091 -211.92643846271187 0 -211.92643846271187 72.405327216147498 0 0 0 0 -808.35264197774188 1.8384422072510205 0 1.8384422072510205 87.848223151200614 0 0 0 0 -689.58536965485473 -346.87040774505692 0 -346.87040774505692 -260.48738014780315 0 0 0 0 -677.68959047621865 -327.31742459118055 0 -327.31742459118055 -247.11174956815444 0 0 0 0 -1958.5393757040129 -262.31625797936942 0 -262.31625797936942 423.33268163891137 0 0 0 0 -1831.080036535026 -171.60366972573627 0 -171.60366972573627 78.096654787847513 0 0 0 0 -3500.6643754217785 117.09284746621294 0 117.09284746621294 766.19726234208656 0 0 0 0 -1773.7207487598616 659.20538325395319 0 659.20538325395319 739.25871731334655 0 0 0 0 -1746.2686545964793 76.884823589129212 0 76.884823589129212 288.6577565749202 0 0 0 0 -566.13545011298811 -238.16144862344726 0 -238.16144862344726 465.73296093762951 0 0 0 0 -808.04223302176706 1635.5371951854859 0 1635.5371951854859 -442.07681855485151 0 0 0 0 -3492.7060017914928 1117.7267890442276 0 1117.7267890442276 720.87386069401509 0 0 0 0 -18.38889210740664 1.3308073053513225 0 1.3308073053513225 -0.91687732385109366 0 0 0 0 -3493.3083761198377 -880.68962928887993 0 -880.68962928887993 471.71284363429942 0 0 0 0 -1641.7652185483694 -1490.6156865811652 0 -1490.6156865811652 -847.54197885590543 0 0 0 0 -1758.0741643841811 -134.80906198706782 0 -134.80906198706782 583.66265178250239 0 0 0 0 -1569.7182495319794 -512.51281386991059 0 -512.51281386991059 -85.934244822615767 0 0 0 0 -479.45908469780989 118.4419808897029 0 118.4419808897029 -126.44401577018664 0 0 0 0 -343.72409475013865 148.58637032838831 0 148.58637032838831 330.99806117448628 0 0 0 0 -57.202410988720658 -94.728870165670628 0 -94.728870165670628 -308.44680359891777 0 0 0 0 -40.765799656176789 2.7979615890925187 0 2.7979615890925187 0.74357799925170154 0 0 0 0 42.067510127537389 126.78818195773943 0 126.78818195773943 15.804319009161759 0 0 0 0 36.856489075522404 3.0826731150282001 0 3.0826731150282001 -153.59592346353588 0 0 0 0 -66.271600424309781 -199.6037522030299 0 -199.6037522030299 577.06511816662157 0 0 0 0 -45.508646773537606 2.8567505377601439 0 2.8567505377601439 6.0886019837561145 0 0 0 0 6.4804074747953564 105.91684801644126 0 105.91684801644126 127.90302509392515 0 0 0 0 50.027513948574779 37.363618456616337 0 37.363618456616337 23.219761271583423 0 0 0 0 -9.2283236563154105 4.8249528947097531 0 4.8249528947097531 16.394288362050435 0 0 0 0 71.713772012042682 34.554616977270854 0 34.554616977270854 -104.95797186586924 0 0 0 0 -8.3000543418202142 -37.488912509245552 0 -37.488912509245552 3.9217402785103559 0 0 0 0 -16.13571726445025 36.701492457757524 0 36.701492457757524 -96.591394365541646 0 0 0 0 -364.35096196376617 -106.84412602757175 0 -106.84412602757175 -53.868206092754775 0 0 0 0 -173.45536840521527 -101.78583122835357 0 -101.78583122835357 21.842031457137182 0 0 0 0 -18.382995688005394 91.932882699158682 0 91.932882699158682 263.82621458205011 0 0 0 0 121.73679459765845 -17.170285665964457 0 -17.170285665964457 -4.7195477053535342 0 0 0 0 465.12444484258594 -343.89209268285003 0 -343.89209268285003 -127.65429988040387 0 0 0 0 1.1297235142868587 0.55707432142142466 0 0.55707432142142466 5.9437738520015735 0 0 0 0 0.46438981646728017 3.159978390666776 0 3.159978390666776 19.826971490837366 0 0 0 0 -131.05562323566846 100.29408022013101 0 100.29408022013101 638.81246510287622 0 0 0 0 121.47227042899976 -255.77240265662871 0 -255.77240265662871 213.50579332383114 0 0 0 0 -175.2794756186936 -36.625247587999965 0 -36.625247587999965 325.02872142861918 0 0 0 0 -143.116722522911 -193.41478755653472 0 -193.41478755653472 521.58108271540073 0 0 0 0 -113.36920871611437 -112.48661956462496 0 -112.48661956462496 407.35342004902941 0 0 0 0 -7.2446665799503336 4.0093025252507601 0 4.0093025252507601 -1.4596903019893082 0 0 0 0 -3487.0416218238133 443.30292900362559 0 443.30292900362559 142.76805524297762 0 0 0 0 192.83530621286627 472.75910000844601 0 472.75910000844601 180.97358721264681 0 0 0 0 -3501.809049443475 556.96041768648297 0 556.96041768648297 525.99990161460539 0 0 0 0 -3208.2006809916165 30.351856242315044 0 30.351856242315044 650.02634059267439 0 0 0 0 -954.02899818876904 734.79469880781744 0 734.79469880781744 179.78311655455366 0 0 0 0 -1389.264111494962 842.43390023264351 0 842.43390023264351 216.97126002267134 0 0 0 0 -1393.0030718517737 293.71710831366801 0 293.71710831366801 149.00835615919675 0 0 0 0 -531.34660679908484 -128.93646327398039 0 -128.93646327398039 -70.059086577366401 0 0 0 0 -358.94723173849343 -118.1626683044754 0 -118.1626683044754 289.87739066344187 0 0 0 0 -303.25361126469397 111.79068618271373 0 111.79068618271373 79.77023701624671 0 0 0 0 -153.16276183606533 133.01405426916381 0 133.01405426916381 161.55431927316431 0 0 0 0 -20.25495576641697 -12.790785192157841 0 -12.790785192157841 -57.181885502153364 0 0 0 0 -12.545269311245647 -5.8751191540545733 0 -5.8751191540545733 -89.49300971787909 0 0 0 0 -40.360348316942691 1.5571344350194067 0 1.5571344350194067 -53.753736183294677 0 0 0 0 -14.491608731259475 -27.984000536224812 0 -27.984000536224812 -45.149305114144909 0 0 0 0 -14.862341954496515 -18.436083376133411 0 -18.436083376133411 -65.594750146179649 0 0 0 0 -11.989682070096933 7.5307762668684575 0 7.5307762668684575 -91.71578848645504 0 0 0 0 48.847990412425133 -7.3700231840577999 0 -7.3700231840577999 68.09008501911967 0 0 0 0 4.0269726557671675 160.36955207767619 0 160.36955207767619 14.992126726316883 0 0 0 0 -25.831169123372035 4.7045020801692301 0 4.7045020801692301 0.26955344326994157 0 0 0 0 -70.023315739104874 284.59009601365938 0 284.59009601365938 182.10101174923122 0 0 0 0 -14.583510184062845 3.9291794201191053 0 3.9291794201191053 -1.7480155465316816 0 0 0 0 247.54927702309215 -309.34055751426195 0 -309.34055751426195 -34.363016023639716 0 0 0 0 -39.41439889017397 -3.8719075181993965 0 -3.8719075181993965 -1.8453544399363841 0 0 0 0 202.27125651173992 898.04379400210155 0 898.04379400210155 -1864.0309912222929 0 0 0 0 62.643566170574559 -38.309578479854054 0 -38.309578479854054 -84.66881886721967 0 0 0 0 -1176.7011748387304 1154.5115541916707 0 1154.5115541916707 895.33649729449746 0 0 0 0 10.404663222724611 -39.375632409659602 0 -39.375632409659602 -26.469783787998054 0 0 0 0 -19.062134040941601 -20.601578733341285 0 -20.601578733341285 -42.678703945379766 0 0 0 0 -13.99173799925221 -13.92597348867362 0 -13.92597348867362 -8.7770801144136872 0 0 0 0 -15.731023251057195 -9.5292708416750429 0 -9.5292708416750429 -20.820560293924245 0 0 0 0 -14.504107054905035 -11.174131978062633 0 -11.174131978062633 -31.971529414830911 0 0 0 0 -25.598095565655967 -30.010883301818012 0 -30.010883301818012 -23.699674563597 0 0 0 0 -25.180495302585769 -23.31805369102517 0 -23.31805369102517 -1.9031291047404011 0 0 0 0 -39.982551774970489 -22.591507455330884 0 -22.591507455330884 -28.38893627910511 0 0 0 0 -27.456435586522275 -29.035962852574585 0 -29.035962852574585 -11.295274600246557 0 0 0 0 -22.460287589092331 -30.539088766247914 0 -30.539088766247914 -34.777059538415187 0 0 0 0 -32.284272882850928 -26.508032598761474 0 -26.508032598761474 24.829370878022019 0 0 0 0 -32.461273962067935 -24.837910710442657 0 -24.837910710442657 -18.328360979756326 0 0 0 0 -22.443437539383012 -30.278497493065061 0 -30.278497493065061 -13.220704921789093 0 0 0 0 -29.250300331354083 -42.939748662302236 0 -42.939748662302236 -19.19342638519629 0 0 0 0 -23.802189983643984 -33.233985234706267 0 -33.233985234706267 -8.8377324770954147 0 0 0 0 -20.823254589119713 -16.725004324899082 0 -16.725004324899082 -7.7167154519142169 0 0 0 0 -47.10943397355004 -47.649407951114881 0 -47.649407951114881 -40.752703960999497 0 0 0 0 -34.839541090594139 -25.7587364121473 0 -25.7587364121473 -17.093534797278153 0 0 0 0 -37.894977148367616 22.98551275772752 0 22.98551275772752 -22.21840922104866 0 0 0 0 -27.211539941372394 30.66112442109015 0 30.66112442109015 -112.11903771304969 0 0 0 0 5.713898626282969 -2.0929037369941454 0 -2.0929037369941454 -4.8745053230935174 0 0 0 0 -27.427253220108241 36.143165246891584 0 36.143165246891584 -36.636303757717542 0 0 0 0 -36.279914793631178 -18.473871772162965 0 -18.473871772162965 21.011581976723392 0 0 0 0 -31.245841124775964 -7.0797385430813797 0 -7.0797385430813797 4.0647473480370637 0 0 0 0 -32.738553817966022 -4.3260962262738758 0 -4.3260962262738758 8.8883870460886101 0 0 0 0 -21.258801533984396 11.248950294097867 0 11.248950294097867 -5.2227964634325943 0 0 0 0 -46.356727551608856 0.26057978173150786 0 0.26057978173150786 88.248275615761486 0 0 0 0 -37.704369053717528 -74.809895922695432 0 -74.809895922695432 -32.991532684211961 0 0 0 0 -11.38527965337633 -1.3337294958179413 0 -1.3337294958179413 1.2721115609477263 0 0 0 0 -53.183183950397506 -42.494753333905464 0 -42.494753333905464 70.164181470808671 0 0 0 0 -46.250099044380477 -86.487819844177466 0 -86.487819844177466 -19.329171900957135 0 0 0 0 -13.081269406517094 -10.996506649896219 0 -10.996506649896219 -49.785606771546554 0 0 0 0 -1.7385390824515099 2.3121487913781884 0 2.3121487913781884 -1.4306261447871984 0 0 0 0 -174.58583818557963 -241.94198156715197 0 -241.94198156715197 -210.80659460900142 0 0 0 0 -393.12457921822352 41.244347469713375 0 41.244347469713375 73.249696732636494 0 0 0 0 -99.201743669545976 165.80493352251415 0 165.80493352251415 -140.7019640700014 0 0 0 0 -309.30218307941141 90.470914518162317 0 90.470914518162317 82.605085093401158 0 0 0 0 -117.19815955424565 -5.1287466636993031 0 -5.1287466636993031 -85.181651456119539 0 0 0 0 -48.957832251835384 106.32959577117491 0 106.32959577117491 86.475302967147854 0 0 0 0 -421.85518035788846 -48.272651488460269 0 -48.272651488460269 22.880890520568755 0 0 0 0 -38.616328233867534 60.49735159183092 0 60.49735159183092 8.3070920262514392 0 0 0 0 9.6573154498328222 17.386610538522291 0 17.386610538522291 -6.4443499142673772 0 0 0 0 -20.17985241158172 -6.3448624321678651 0 -6.3448624321678651 15.968690176809156 0 0 0 0 -50.01863591545407 76.286105007971855 0 76.286105007971855 12.781393489624179 0 0 0 0 41.865819734044635 117.98305087031383 0 117.98305087031383 -79.311023936942092 0 0 0 0 -59.4087149820989 74.992351555801861 0 74.992351555801861 21.732263501924308 0 0 0 0 102.25511881011516 -9.3261417422398836 0 -9.3261417422398836 -12.283358336921992 0 0 0 0 -18.600964676480359 -12.306977310054677 0 -12.306977310054677 7.9080067663256699 0 0 0 0 692.81470451865607 -655.12366038156779 0 -655.12366038156779 172.06468087439032 0 0 0 0 491.62471830518189 -229.80271918898245 0 -229.80271918898245 -253.60444179966655 0 0 0 0 255.89000030508032 34.714795366403813 0 34.714795366403813 58.197985672075284 0 0 0 0 368.3277584675634 -124.03158272740995 0 -124.03158272740995 -98.050105018324302 0 0 0 0 -17.187919695144473 -16.705821518531707 0 -16.705821518531707 0.92423205317776702 0 0 0 0 113.51875891761665 177.23596145924012 0 177.23596145924012 -296.05562940500431 0 0 0 0 -5.1055081836821046 78.710306479259998 0 78.710306479259998 19.06121902932955 0 0 0 0 -340.96250435268303 -190.84855367003928 0 -190.84855367003928 -205.84730434638584 0 0 0 0 -699.11982335890207 40.938419681656796 0 40.938419681656796 76.924352202110924 0 0 0 0 -853.51465216403449 -362.95130308980606 0 -362.95130308980606 107.84479652057325 0 0 0 0 20.768624483216627 429.7971284074556 0 429.7971284074556 -228.67329818439975 0 0 0 0 -8.5431589602956706 2.764616344726524 0 2.764616344726524 -0.50369092551195915 0 0 0 0 -26.474170995847089 263.97023292289259 0 263.97023292289259 -324.21532039409493 0 0 0 0 -84.245188701771639 22.109850851813285 0 22.109850851813285 -3.9443417354565318 0 0 0 0 -466.18321497874422 166.57594118246675 0 166.57594118246675 260.89171849210334 0 0 0 0 -34.110496831468602 -9.5405236361795431 0 -9.5405236361795431 -3.2496766269178519 0 0 0 0 159.17018496413948 -167.69184040485425 0 -167.69184040485425 85.792109766693557 0 0 0 0 27.505922516924329 -165.96575625613332 0 -165.96575625613332 281.78977423733795 0 0 0 0 -96.973170405181008 50.104494230418538 0 50.104494230418538 13.029629016791148 0 0 0 0 -19.158363970107558 14.807090917345391 0 14.807090917345391 4.126014990722366 0 0 0 0 -127.31325900023512 44.458316419144808 0 44.458316419144808 13.075384883807601 0 0 0 0 -21.541157038285746 171.36674809094256 0 171.36674809094256 -0.15837648374190394 0 0 0 0 -383.31315588328471 342.81544684126391 0 342.81544684126391 -77.544409944924155 0 0 0 0 112.45958000110113 66.784424809233542 0 66.784424809233542 -63.571314477658689 0 0 0 0 -31.188429257977987 137.39526106859375 0 137.39526106859375 11.232726674419609 0 0 0 0 -244.46380310067616 11.461439302265262 0 11.461439302265262 491.4734767424934 0 0 0 0 -74.574626610134629 30.549277714034119 0 30.549277714034119 -10.843829648207823 0 0 0 0 -84.226678590166102 39.532847022962088 0 39.532847022962088 -15.099565058901613 0 0 0 0 -482.16473572097311 289.34734481297392 0 289.34734481297392 305.65386923388087 0 0 0 0 -710.44330289345089 453.51440500352692 0 453.51440500352692 730.39054974667124 0 0 0 0 -233.70112827567937 71.108323804884549 0 71.108323804884549 -40.627992345019265 0 0 0 0 -222.59709189538626 -180.75588640363162 0 -180.75588640363162 249.04770552519585 0 0 0 0 -1017.8802878521792 -250.4838846098416 0 -250.4838846098416 -155.18662596282502 0 0 0 0 3.0806494106632272 1.7123355963056213 0 1.7123355963056213 1.2906977170517173 0 0 0 0 -184.22814757176093 100.88870521880915 0 100.88870521880915 -27.937830340564688 0 0 0 0 140.57148656762911 -408.62436349460745 0 -408.62436349460745 478.8220063406643 0 0 0 0 -235.95128160557942 -165.22005013151738 0 -165.22005013151738 283.27370085036642 0 0 0 0 72.489741680699808 -105.45526187979021 0 -105.45526187979021 -229.18340788522437 0 0 0 0 0.5690798808427644 159.46880116613556 0 159.46880116613556 -211.68512857083169 0 0 0 0 49.254863422766903 -234.28546030231615 0 -234.28546030231615 -114.04973783574951 0 0 0 0 -333.9241130149021 -60.943554462818156 0 -60.943554462818156 269.07856251225257 0 0 0 0 -344.10364835182645 -163.72440174406458 0 -163.72440174406458 57.177188277046298 0 0 0 0 -172.51532578682236 -112.46881579664296 0 -112.46881579664296 -95.059365093497036 0 0 0 0 -228.42176122612 -28.374067592781898 0 -28.374067592781898 89.376858169731349 0 0 0 0 -238.92779008603247 -66.266816521902911 0 -66.266816521902911 122.03488747325946 0 0 0 0 -177.55395049955405 66.676806865344133 0 66.676806865344133 145.87085995694247 0 0 0 0 -233.29343526209414 -12.053946088661633 0 -12.053946088661633 34.963690521392891 0 0 0 0 -201.49834194013965 -36.724648043237721 0 -36.724648043237721 28.088441999675752 0 0 0 0 -85.477058783028042 -31.573750568662547 0 -31.573750568662547 -25.520666136407385 0 0 0 0 -204.7366654334719 -52.785789418917119 0 -52.785789418917119 22.540066059954825 0 0 0 0 -222.95972594453633 -62.444200662184357 0 -62.444200662184357 46.362634881338636 0 0 0 0 -178.87453239928436 -92.146545934543127 0 -92.146545934543127 -62.734260774429799 0 0 0 0 -249.34231681670644 -82.079291521034747 0 -82.079291521034747 20.251610144252936 0 0 0 0 -48.019236300624641 13.211960121505275 0 13.211960121505275 -3.9167793469967545 0 0 0 0 -40.235748627854264 -659.63392318206093 0 -659.63392318206093 58.339007049897646 0 0 0 0 -198.24498039431637 -39.808198996986675 0 -39.808198996986675 462.12214353875947 0 0 0 0 61.13977133660228 -482.27330444762276 0 -482.27330444762276 -570.96988182188113 0 0 0 0 -209.47970191959757 -44.029722690303061 0 -44.029722690303061 -140.79038162414508 0 0 0 0 -227.74436655773025 -162.80315939948582 0 -162.80315939948582 73.328409130313958 0 0 0 0 -159.78511619569326 49.708387383885565 0 49.708387383885565 164.33224856076049 0 0 0 0 -229.1214356536002 -39.996418110369632 0 -39.996418110369632 49.028083347262509 0 0 0 0 119.77513609802554 94.614600535963973 0 94.614600535963973 93.062190383222969 0 0 0 0 17.874417550069666 -60.283892560456934 0 -60.283892560456934 -39.709114895464154 0 0 0 0 2.0721788499198155 -40.209975775961432 0 -40.209975775961432 -18.896576600807741 0 0 0 0 -7.7013500070279406 -82.342044385271947 0 -82.342044385271947 -50.866575940734037 0 0 0 0 -8.7543787451509161 -3.3899293545640603 0 -3.3899293545640603 -0.50442213211247733 0 0 0 0 81.493822563148569 -94.933122314376192 0 -94.933122314376192 50.689004608935647 0 0 0 0 14.735653394212648 -7.1688409752249598 0 -7.1688409752249598 -10.042167796191801 0 0 0 0 -141.24116045582923 -59.233866787329134 0 -59.233866787329134 45.918823036803587 0 0 0 0 -123.56131973325682 -31.379971210119038 0 -31.379971210119038 117.32919160682195 0 0 0 0 -154.27107064133452 -83.712453999944955 0 -83.712453999944955 74.016316093982823 0 0 0 0 -130.51971659540141 -74.58558068667935 0 -74.58558068667935 -10.925274307139262 0 0 0 0 -238.3668563872634 -73.900741413230207 0 -73.900741413230207 77.977346517039223 0 0 0 0 -159.5513037171695 -77.776346720732818 0 -77.776346720732818 -11.275893069601807 0 0 0 0 -87.095183483699657 -129.37492260959584 0 -129.37492260959584 -154.14332207854932 0 0 0 0 -46.995155177850393 -49.337598841831095 0 -49.337598841831095 -37.877942011498249 0 0 0 0 12.986222007319157 -78.093047697543625 0 -78.093047697543625 -41.642087683861973 0 0 0 0 -24.276492172491999 -108.87918167412727 0 -108.87918167412727 -2.5919637475071795 0 0 0 0 -39.165331209671422 -90.151048701292666 0 -90.151048701292666 1.455171806150247 0 0 0 0 -108.63611516740639 76.891038541502439 0 76.891038541502439 482.24736594607191 0 0 0 0 -2.2346595640160274 -18.898838949943915 0 -18.898838949943915 4.7215683387857235 0 0 0 0 -72.758838774243486 -92.188318853925921 0 -92.188318853925921 32.672979090207264 0 0 0 0 -30.671388878628022 -61.308204159836293 0 -61.308204159836293 51.859791064673118 0 0 0 0 -59.585633668352273 -29.771769048373645 0 -29.771769048373645 -5.4026120516030147 0 0 0 0 -64.01421822613338 -85.174352421843651 0 -85.174352421843651 32.070128454111909 0 0 0 0 -83.075696287574829 -98.761029816787413 0 -98.761029816787413 23.150938066575691 0 0 0 0 -74.713882245472632 -67.11254905928763 0 -67.11254905928763 -19.478712917081793 0 0 0 0 -43.828239028036478 -55.801312591325768 0 -55.801312591325768 34.396671219132941 0 0 0 0 -57.757639790722351 19.35713685078241 0 19.35713685078241 156.67044362672277 0 0 0 0 -144.58364416802942 -90.398899180466287 0 -90.398899180466287 97.394269971906397 0 0 0 0 -40.103649631368171 -78.301159465461751 0 -78.301159465461751 -68.257307173667868 0 0 0 0 -55.401454075610673 -46.347485696661352 0 -46.347485696661352 -29.497643136742226 0 0 0 0 -18.982100906992855 -39.902705099557352 0 -39.902705099557352 -18.203207446203123 0 0 0 0 -21.868237046035858 -3.8583963518549282 0 -3.8583963518549282 -2.0661835263704198 0 0 0 0 -101.47485532260907 -349.17471379013932 0 -349.17471379013932 186.07465052913858 0 0 0 0 -24.024452016731146 -18.901359737696634 0 -18.901359737696634 -11.880142664344636 0 0 0 0 -1088.9587777577835 -591.61237718577695 0 -591.61237718577695 -213.63402621353271 0 0 0 0 -29.046015964180697 15.411485089355665 0 15.411485089355665 -274.71532420305903 0 0 0 0 -1221.0654667377476 -81.04426692080574 0 -81.04426692080574 -257.48956179425113 0 0 0 0 -1395.3786512621737 -384.04300557453462 0 -384.04300557453462 175.32875144483637 0 0 0 0 -563.86467774120683 -232.44518503154177 0 -232.44518503154177 -548.98168715174324 0 0 0 0 -1053.305071000992 322.651244681555 0 322.651244681555 44.126952262338818 0 0 0 0 -5.7578933169552329 2.3667099686986361 0 2.3667099686986361 -1.2911227638025924 0 0 0 0 -183.10734185668844 376.10471803732253 0 376.10471803732253 -175.01386914476552 0 0 0 0 -400.4433241207953 89.964769002777189 0 89.964769002777189 -22.166268639186455 0 0 0 0 -421.80014467688034 159.41010663984343 0 159.41010663984343 -8.5984066089567932 0 0 0 0 -640.73413809451449 218.90162008653169 0 218.90162008653169 12.531758762529307 0 0 0 0 -1142.1684613391608 -324.93887948037406 0 -324.93887948037406 -148.62176804196497 0 0 0 0 -530.09088548212458 -47.212372851292912 0 -47.212372851292912 -27.41317724287137 0 0 0 0 -765.18552482700397 15.864784859330712 0 15.864784859330712 41.050153061948549 0 0 0 0 -423.98992336543597 103.03781453973443 0 103.03781453973443 39.733979786559459 0 0 0 0 -503.58909519761073 85.000542866235719 0 85.000542866235719 70.406766929492733 0 0 0 0 -510.34967480898194 81.242000292056218 0 81.242000292056218 74.223776771390476 0 0 0 0 -767.43507401215902 54.510830351983714 0 54.510830351983714 118.81441729756807 0 0 0 0 -457.73980263974227 -61.428449050727068 0 -61.428449050727068 23.240571973954047 0 0 0 0 -358.34610762570082 -62.056876959237343 0 -62.056876959237343 22.393576593491161 0 0 0 0 -517.99501538926597 17.472809708384489 0 17.472809708384489 39.590279317148088 0 0 0 0 -202.43591606180416 -36.885505361893593 0 -36.885505361893593 -27.507137270145904 0 0 0 0 -352.41714463148674 -49.820947280117252 0 -49.820947280117252 0.2226550709692674 0 0 0 0 -213.48252109362511 -96.402731927346395 0 -96.402731927346395 -35.318493320366542 0 0 0 0 -207.8982709546126 -73.86572612484315 0 -73.86572612484315 -40.526348639643402 0 0 0 0 -100.6753527411347 -69.77359820268066 0 -69.77359820268066 -62.354747480836522 0 0 0 0 20.969947609264636 -14.121785092134814 0 -14.121785092134814 -61.46167344553578 0 0 0 0 -92.089326841727598 -41.128928487140911 0 -41.128928487140911 2.3471752275618201 0 0 0 0 -202.31180179362764 -39.054892008575052 0 -39.054892008575052 -25.319228355503583 0 0 0 0 -85.471645925601479 -66.915089461813295 0 -66.915089461813295 -62.962825908990453 0 0 0 0 -96.050466342334403 -76.05633537513495 0 -76.05633537513495 -36.843029936161201 0 0 0 0 -82.917937822232489 -52.301713016818667 0 -52.301713016818667 -30.437443556496873 0 0 0 0 -28.619551749063248 -100.11931188350627 0 -100.11931188350627 -20.174879861367572 0 0 0 0 -61.858906404471782 -90.802290084677225 0 -90.802290084677225 -22.120272957683483 0 0 0 0 -93.749866203113925 -90.451515074411873 0 -90.451515074411873 -8.7328233115849798 0 0 0 0 -113.90986757399514 -66.117642341657302 0 -66.117642341657302 -8.6006558752815181 0 0 0 0 -177.57113418047084 -43.482761796119121 0 -43.482761796119121 -15.706095494423607 0 0 0 0 -101.55839372358059 -54.081032020740849 0 -54.081032020740849 -53.643998373505383 0 0 0 0 -165.16751893950277 97.624790742841469 0 97.624790742841469 -156.2094553489369 0 0 0 0 -284.37468358746992 26.141192355977182 0 26.141192355977182 6.5823184922273867 0 0 0 0 -423.20389802688806 116.84827223418233 0 116.84827223418233 -26.095355874873349 0 0 0 0 -285.75570594782039 -32.837893311968401 0 -32.837893311968401 -6.4207638291063631 0 0 0 0 -194.36049034567623 -5.7603230835320574 0 -5.7603230835320574 -48.941480865765698 0 0 0 0 -32.449886985006742 -97.604359027302962 0 -97.604359027302962 31.513224220019765 0 0 0 0 -49.145753690871061 -103.42178996525399 0 -103.42178996525399 -6.2788486411791382 0 0 0 0 -66.36202156899526 -51.452981263577385 0 -51.452981263577385 -10.15701083334443 0 0 0 0 28.625972343383182 -83.036972280377086 0 -83.036972280377086 0.26999374052320491 0 0 0 0 -92.717931613311521 -150.78522739894834 0 -150.78522739894834 -48.264553861510649 0 0 0 0 -28.430395022123506 1.1517399860525614 0 1.1517399860525614 -5.4114529424608655 0 0 0 0 -81.422489153941569 -124.51469382996402 0 -124.51469382996402 -139.46184322889894 0 0 0 0 -112.30077855781565 -46.835690913696453 0 -46.835690913696453 -579.9210549588197 0 0 0 0 -19.328459535741345 -20.414383617311749 0 -20.414383617311749 -10.132661249649566 0 0 0 0 97.578888695890782 -95.078301569112227 0 -95.078301569112227 -152.20946780445956 0 0 0 0 -35.629855612885905 4.849645338524148 0 4.849645338524148 -0.085449181551531694 0 0 0 0 -86.172182478621835 -50.087070056331868 0 -50.087070056331868 43.441769410084589 0 0 0 0 -73.080937022583385 -8.1760936842365481 0 -8.1760936842365481 42.181913356547739 0 0 0 0 -60.458574249387311 -25.676933752738478 0 -25.676933752738478 -20.218238751901481 0 0 0 0 -15.878362932044489 -15.427156799560109 0 -15.427156799560109 -14.071155125498983 0 0 0 0 -2.8714282014990999 -2.0028929216123785 0 -2.0028929216123785 -1.4109272162285009 0 0 0 0 -78.856665345974761 -124.58094695035766 0 -124.58094695035766 -166.92173170506067 0 0 0 0 -42.649512015203072 -13.333621856405443 0 -13.333621856405443 -16.724236385380209 0 0 0 0 -6.2971572570044643 -0.82212393244243742 0 -0.82212393244243742 -7.7805445016604295 0 0 0 0 -33.393680273198697 -82.757921850965431 0 -82.757921850965431 12.266554273677684 0 0 0 0 -276.8632082525146 -164.08821435562277 0 -164.08821435562277 -51.888771290401564 0 0 0 0 -263.51772702349263 -311.95022974622952 0 -311.95022974622952 -305.55493145748005 0 0 0 0 -320.31840232983086 -286.92119662362438 0 -286.92119662362438 -201.72730627126612 0 0 0 0 -151.9713922221199 -185.39912156239006 0 -185.39912156239006 -270.46816248612413 0 0 0 0 -180.32132266063854 -121.29888277508053 0 -121.29888277508053 -13.453765871428914 0 0 0 0 -44.68423015872213 -25.214799782438888 0 -25.214799782438888 -216.85985306544899 0 0 0 0 -38.007572140006232 98.346876642092866 0 98.346876642092866 -32.439089991108631 0 0 0 0 -108.56445541914582 -54.609702011192439 0 -54.609702011192439 -240.22972935860889 0 0 0 0 -69.329628089930338 68.741770884200378 0 68.741770884200378 135.08163480868825 0 0 0 0 -146.59316419043898 -64.524839109963068 0 -64.524839109963068 -89.143020276576863 0 0 0 0 -456.22796059101529 -386.32437751428643 0 -386.32437751428643 -275.78837576514888 0 0 0 0 -17.246856892929955 5.9710038188592023 0 5.9710038188592023 3.9370677445631728 0 0 0 0 -405.43456628124113 -113.51021784676686 0 -113.51021784676686 37.704601194658153 0 0 0 0 -218.04855032124578 -252.79025013358068 0 -252.79025013358068 -381.24426600630613 0 0 0 0 -325.90637677873747 -258.15704458094115 0 -258.15704458094115 -315.56128390517551 0 0 0 0 -590.30312781248358 -313.2590901407425 0 -313.2590901407425 -233.64002484834828 0 0 0 0 -330.1634465350653 -309.40337678856758 0 -309.40337678856758 -313.83340344069802 0 0 0 0 -531.4847769180451 -253.34947191728315 0 -253.34947191728315 -226.81164979322875 0 0 0 0 -308.3242948670777 -88.254359526548342 0 -88.254359526548342 -106.64957305035841 0 0 0 0 -117.60979558065083 -175.33171001992923 0 -175.33171001992923 -366.29128730321077 0 0 0 0 -141.18416003730817 -301.23651637110697 0 -301.23651637110697 -475.77333989828054 0 0 0 0 -280.45563716159813 -272.05709781292626 0 -272.05709781292626 -332.06610285893521 0 0 0 0 -241.45730269250635 -317.06303813156774 0 -317.06303813156774 -304.47628561374586 0 0 0 0 108.32555215208322 14.049926098225342 0 14.049926098225342 -128.63689521393462 0 0 0 0 -0.55922826072500342 0.57510622082834573 0 0.57510622082834573 -2.7394892963434216 0 0 0 0 -659.03711373946862 -418.05521266625692 0 -418.05521266625692 -203.30436238167022 0 0 0 0 -304.32061762559351 -435.07450133053976 0 -435.07450133053976 -460.92294991349445 0 0 0 0 -327.55852522122905 -182.11456034078088 0 -182.11456034078088 -133.46897080160124 0 0 0 0 -162.20346152420825 -335.20165495900915 0 -335.20165495900915 -203.93575145978411 0 0 0 0 -245.57488753467624 -453.07493996710946 0 -453.07493996710946 -369.66866738442286 0 0 0 0 -92.010430349531816 -74.78290408074372 0 -74.78290408074372 -82.577460450736908 0 0 0 0 12.144558788524591 -175.59617170899583 0 -175.59617170899583 -440.79633928449175 0 0 0 0 -33.919013732505846 -67.73686938146875 0 -67.73686938146875 -83.567993900684087 0 0 0 0 -1.626031983334542 -61.068773709363768 0 -61.068773709363768 -5.2563129748159554 0 0 0 0 -162.25474680822663 -378.08419095180307 0 -378.08419095180307 -392.30533330338494 0 0 0 0 -160.53830907617885 -322.73338500188993 0 -322.73338500188993 -200.59170434339649 0 0 0 0 -51.69947727608087 -134.36114498674351 0 -134.36114498674351 -139.41328996475931 0 0 0 0 -197.07417307508149 -343.40255491149492 0 -343.40255491149492 -136.03294224891579 0 0 0 0 -201.88525895816201 -111.28522411378117 0 -111.28522411378117 312.44141863030836 0 0 0 0 -38.289671595746768 294.99075786600315 0 294.99075786600315 379.43110931924184 0 0 0 0 -16.934219382423208 0.019793839962883197 0 0.019793839962883197 0.72149962547423607 0 0 0 0 -98.388612313534395 59.61344729328323 0 59.61344729328323 239.94197280687513 0 0 0 0 -18.036457939928368 -242.3161575345116 0 -242.3161575345116 29.844832210666482 0 0 0 0 -383.56158445815527 144.18067648796659 0 144.18067648796659 52.18003679697722 0 0 0 0 -62.460466354896198 -112.56324464700992 0 -112.56324464700992 -132.10246591994337 0 0 0 0 141.62912951762337 -47.611818788986511 0 -47.611818788986511 111.56662258569122 0 0 0 0 -19.738489666311054 -0.40782780310421529 0 -0.40782780310421529 1.2713711025077985 0 0 0 0 -218.84362978365607 -60.142094006513616 0 -60.142094006513616 565.13862503479322 0 0 0 0 -367.28788009774871 59.746377048102659 0 59.746377048102659 690.20253814546163 0 0 0 0 -334.59307747130242 -366.1458610723293 0 -366.1458610723293 -74.469552069125712 0 0 0 0 -209.21864266191733 6.219927356140488 0 6.219927356140488 -90.298217314699286 0 0 0 0 57.544133473475085 -221.23180099443789 0 -221.23180099443789 -48.893355838544267 0 0 0 0 -595.07332484838844 -54.913168800578205 0 -54.913168800578205 27.212320486890803 0 0 0 0 -354.87004369907663 -22.303214676780499 0 -22.303214676780499 -41.794001179428506 0 0 0 0 90.944537758372462 424.935897542475 0 424.935897542475 -39.264625655952841 0 0 0 0 -483.44062087686325 -312.58945685382332 0 -312.58945685382332 261.94444728166764 0 0 0 0 -4.833674756580038 1.1826160897170368 0 1.1826160897170368 -0.10390667245583529 0 0 0 0 197.373097988886 169.84959809097609 0 169.84959809097609 -264.90986891032207 0 0 0 0 58.305797851167881 79.538782849499512 0 79.538782849499512 91.895479314306613 0 0 0 0 -460.634960628724 38.74647730267202 0 38.74647730267202 320.44858807164292 0 0 0 0 95.322952365824676 -10.151026103756521 0 -10.151026103756521 -147.73115417508234 0 0 0 0 -10.777196869511187 3.1251136284757202 0 3.1251136284757202 -0.31814988508609598 0 0 0 0 -60.683492218653555 171.26025385203343 0 171.26025385203343 151.47549765230144 0 0 0 0 -242.91964510587422 218.169376947817 0 218.169376947817 371.92740414895343 0 0 0 0 48.069215678973706 40.913096051785487 0 40.913096051785487 61.884869753175735 0 0 0 0 -159.61095826810924 -129.46895390987447 0 -129.46895390987447 -129.71752918045649 0 0 0 0 -362.57596579740857 -41.483970255315853 0 -41.483970255315853 -121.58958017280384 0 0 0 0 -330.12199528508063 56.242908598511349 0 56.242908598511349 -57.253166587781379 0 0 0 0 -113.96472979585815 61.725724926793191 0 61.725724926793191 -148.37544418825928 0 0 0 0 -76.425088912743377 -82.850386344694925 0 -82.850386344694925 7.252832147348613 0 0 0 0 -93.002790251150145 56.982935369291226 0 56.982935369291226 -7.3613303285110305 0 0 0 0 58.443198304965335 -100.85642099163397 0 -100.85642099163397 -50.138707971761505 0 0 0 0 -6.1426165670500268 -23.050122288658144 0 -23.050122288658144 -10.09171700834122 0 0 0 0 -2.9440191040296924 -11.823068547010493 0 -11.823068547010493 -11.557737491112094 0 0 0 0 -91.487727145206009 14.925348916221083 0 14.925348916221083 175.12060513711185 0 0 0 0 0.020991645331150721 -2.1788933802601562 0 -2.1788933802601562 -1.908562859830476 0 0 0 0 -67.879093930896488 -109.22046029917237 0 -109.22046029917237 -167.66338331110455 0 0 0 0 2.5724361165780891 0.97868184248203249 0 0.97868184248203249 -2.3718148249160365 0 0 0 0 61.646824631578056 -63.38030638778946 0 -63.38030638778946 -105.07602503991438 0 0 0 0 -190.24599442444742 -125.04512187833643 0 -125.04512187833643 -86.294805635287048 0 0 0 0 7.7635312144120689 -16.657042460676166 0 -16.657042460676166 22.480266784966489 0 0 0 0 19.475863660144313 -13.32500101736214 0 -13.32500101736214 -13.888527715841981 0 0 0 0 14.638581739483925 -66.642537244642881 0 -66.642537244642881 -36.60830411677307 0 0 0 0 -94.451489031562232 -77.5689406828551 0 -77.5689406828551 -69.486621508978715 0 0 0 0 6.3065380150655983 -46.932445787696452 0 -46.932445787696452 -79.992712690022017 0 0 0 0 -94.912199206841251 -126.15001401258951 0 -126.15001401258951 -94.44942295697183 0 0 0 0 -88.15884739527246 -76.947997030962142 0 -76.947997030962142 -55.544112737754403 0 0 0 0 -266.0015446383477 -82.729529819765958 0 -82.729529819765958 -30.509343079352675 0 0 0 0 -202.21779465931468 -124.91086780205296 0 -124.91086780205296 -60.830648862131056 0 0 0 0 -328.34401588242326 -152.15657455276596 0 -152.15657455276596 -56.185092360803537 0 0 0 0 -342.33989745385043 -92.008338020909832 0 -92.008338020909832 -52.798958684827085 0 0 0 0 -269.91702402798546 -151.4443148250748 0 -151.4443148250748 -56.190620780209429 0 0 0 0 -176.6394741339027 -85.916994961646196 0 -85.916994961646196 -71.304316445456607 0 0 0 0 -383.11715409683711 -86.692911939436271 0 -86.692911939436271 20.274460970143991 0 0 0 0 -187.26384486413735 -146.30915594437283 0 -146.30915594437283 -67.925227513038408 0 0 0 0 -391.89188136496523 -49.466385937539826 0 -49.466385937539826 -77.846225047727785 0 0 0 0 -408.08271718618562 -188.33349239920017 0 -188.33349239920017 -103.55550782247883 0 0 0 0 -630.89530750742415 -156.19918733259146 0 -156.19918733259146 28.297298307059464 0 0 0 0 -1067.7847532482629 143.25755415412641 0 143.25755415412641 258.65809248444248 0 0 0 0 -1054.3229325815919 -218.27840022628516 0 -218.27840022628516 67.734441798029366 0 0 0 0 -637.07349489062472 -19.342424767868579 0 -19.342424767868579 158.8705151188542 0 0 0 0 -696.99566576489178 230.64136950531542 0 230.64136950531542 214.71738001489211 0 0 0 0 -9.1181047089833953 -0.8442377808677648 0 -0.8442377808677648 0.44894021054113686 0 0 0 0 -499.46437320204313 420.43449477039508 0 420.43449477039508 268.4908198517569 0 0 0 0 -603.37246201054222 -596.82049376566783 0 -596.82049376566783 -87.884112855505123 0 0 0 0 -641.54797292259173 209.63291140927686 0 209.63291140927686 -322.77876336794213 0 0 0 0 -565.81499845250073 -280.82937413330046 0 -280.82937413330046 -368.91279183509687 0 0 0 0 -1183.3960212056681 -136.02692795639837 0 -136.02692795639837 90.118272599651391 0 0 0 0 -521.31129970961138 -280.45719064910281 0 -280.45719064910281 43.111960703062323 0 0 0 0 -614.73408449246199 -248.42155130472929 0 -248.42155130472929 108.71592195950893 0 0 0 0 -578.5505013542097 -300.63555345982331 0 -300.63555345982331 -4.4797146465525657 0 0 0 0 -527.64567386462659 -320.96834409056737 0 -320.96834409056737 -9.7527114995373267 0 0 0 0 -389.06152384629604 -115.18769924469325 0 -115.18769924469325 -0.50475095060892272 0 0 0 0 -336.03130582208178 -233.30937073653877 0 -233.30937073653877 -39.776618634088663 0 0 0 0 -223.71413317461702 -14.851012156640991 0 -14.851012156640991 -29.074496684423139 0 0 0 0 -187.20642210421647 -44.332932520321037 0 -44.332932520321037 -34.088868455344709 0 0 0 0 -322.4355367054377 -45.988469599516975 0 -45.988469599516975 -31.488221167204358 0 0 0 0 -202.8014037723915 95.615554117813645 0 95.615554117813645 -90.223095563338575 0 0 0 0 -117.80566312668088 1.3541429632705331 0 1.3541429632705331 -126.47193467793113 0 0 0 0 -597.39373985325847 102.97822293453156 0 102.97822293453156 -52.545390294477329 0 0 0 0 26.696175525237777 58.406199816498429 0 58.406199816498429 -110.95357073681043 0 0 0 0 -8.520153605158292 -1.6755994871964575 0 -1.6755994871964575 -0.52601656143883346 0 0 0 0 -93.109934631691431 -2.4104334042049231 0 -2.4104334042049231 -67.604768160367712 0 0 0 0 -92.840821903522738 30.944869948102678 0 30.944869948102678 -38.832483815014257 0 0 0 0 -90.339682214187633 37.672066829365576 0 37.672066829365576 -66.966789296644947 0 0 0 0 -117.81255509996663 38.055668189158609 0 38.055668189158609 88.948052718182907 0 0 0 0 -10.321497399447253 32.361471949056977 0 32.361471949056977 -45.331903445825446 0 0 0 0 -49.481831139285688 16.003805251873498 0 16.003805251873498 -5.1417841085594844 0 0 0 0 -34.467124605815116 55.889034904875302 0 55.889034904875302 -75.854681148061189 0 0 0 0 -11.74681848914588 12.987958465510246 0 12.987958465510246 2.8957708011287195 0 0 0 0 26.152098550726805 -77.892368571098217 0 -77.892368571098217 -170.82884958016894 0 0 0 0 -86.732126866179897 55.203095773566019 0 55.203095773566019 -25.980839886501357 0 0 0 0 -98.783851459701282 -107.11229261077827 0 -107.11229261077827 -95.099378168254589 0 0 0 0 -181.35920913297741 -178.75090518216734 0 -178.75090518216734 -198.68292033824815 0 0 0 0 -473.12640563358218 -344.92546666470616 0 -344.92546666470616 -114.98965206675985 0 0 0 0 -723.57605138629879 -593.59799154529242 0 -593.59799154529242 -468.86830511724611 0 0 0 0 -12.35292162434672 3.3398405435749687 0 3.3398405435749687 -1.8232638653645328 0 0 0 0 -257.42917492405468 -128.4616344166534 0 -128.4616344166534 -22.960776752590846 0 0 0 0 -147.7606825064222 88.413750094410119 0 88.413750094410119 -8.273448691182864 0 0 0 0 -33.573966033112825 10.202203146541628 0 10.202203146541628 -3.2922472099074049 0 0 0 0 -366.59539400734502 -131.13716214420856 0 -131.13716214420856 -84.781873950464444 0 0 0 0 -617.58013561150801 157.28479335079408 0 157.28479335079408 -45.982074147762432 0 0 0 0 49.849009022545943 80.626085934436674 0 80.626085934436674 -96.990516102704305 0 0 0 0 232.64008618572916 547.02561127211015 0 547.02561127211015 -416.30354012283431 0 0 0 0 49.134589339375452 264.07231839205065 0 264.07231839205065 -700.22843605575542 0 0 0 0 34.098548202291568 -187.85793497209437 0 -187.85793497209437 28.059085687575589 0 0 0 0 -621.04391377592401 -292.9949998442155 0 -292.9949998442155 -25.883320533302594 0 0 0 0 -2.3258180672427997 2.4151388731338734 0 2.4151388731338734 -2.344116547161522 0 0 0 0 -223.29459983758716 -239.21851163710176 0 -239.21851163710176 -126.35119286096824 0 0 0 0 -351.59380361186413 -28.84968340352043 0 -28.84968340352043 -9.4928048693636811 0 0 0 0 -53.96121316919016 131.23072513973034 0 131.23072513973034 -6.6726235286651203 0 0 0 0 -94.493298589302867 73.262841667444377 0 73.262841667444377 202.45788125556692 0 0 0 0 -63.214547529250922 202.01557197320142 0 202.01557197320142 -253.31018683615821 0 0 0 0 -37.757461181976396 119.58397386930653 0 119.58397386930653 12.967404402186276 0 0 0 0 61.143917499339295 87.259914558608898 0 87.259914558608898 384.6304270774076 0 0 0 0 51.579798265844147 241.63992225250263 0 241.63992225250263 -59.451254900137656 0 0 0 0 229.39940860719798 168.94950632081509 0 168.94950632081509 -59.114467086176319 0 0 0 0 -11.778189894079659 8.4388066573769969 0 8.4388066573769969 -3.6407255496362319 0 0 0 0 92.03640092882415 177.9451050602313 0 177.9451050602313 -40.854365857532002 0 0 0 0 76.518595283897412 85.143525579794371 0 85.143525579794371 -69.497367967825255 0 0 0 0 58.29990609746892 119.02972084493261 0 119.02972084493261 -111.57304168945157 0 0 0 0 59.887393395137224 32.417018746658329 0 32.417018746658329 -189.89571942697148 0 0 0 0 4.7910684195958311 69.085758653533389 0 69.085758653533389 -203.36657225573188 0 0 0 0 45.428223366096063 39.143524576595269 0 39.143524576595269 -495.87251456941476 0 0 0 0 -360.18532438258626 309.00146174296555 0 309.00146174296555 -265.55995108302363 0 0 0 0 161.2117813408604 158.59951976310714 0 158.59951976310714 -217.45427954904812 0 0 0 0 74.126769867020357 130.446092026179 0 130.446092026179 -453.60330037462063 0 0 0 0 -351.11748854144753 104.1933138402851 0 104.1933138402851 -176.98428023395138 0 0 0 0 -532.85266823948041 41.672964333233267 0 41.672964333233267 -446.63185512834275 0 0 0 0 -573.28563967558148 197.01393845736015 0 197.01393845736015 -1043.4404435973584 0 0 0 0 -728.85469646936326 -108.60098899998138 0 -108.60098899998138 6.9833683517263125 0 0 0 0 -335.60012616200584 128.06286255048769 0 128.06286255048769 -490.42675424699974 0 0 0 0 -616.04141709250689 -226.9514314181597 0 -226.9514314181597 -115.26953797931492 0 0 0 0 -474.24756559725029 -161.54678113520185 0 -161.54678113520185 -85.244993135104778 0 0 0 0 -1229.7010441679813 20.094407359521142 0 20.094407359521142 -212.65949520027027 0 0 0 0 -1313.4090872163906 391.58913334106319 0 391.58913334106319 -165.85726432623119 0 0 0 0 -995.42588008303028 -605.896625126 0 -605.896625126 -469.77864715346232 0 0 0 0 -705.72137633306193 83.920198264959936 0 83.920198264959936 386.77488003427925 0 0 0 0 -781.9337461749401 -314.64962603956974 0 -314.64962603956974 42.280632427160981 0 0 0 0 -818.89646521766917 -245.91094100294367 0 -245.91094100294367 86.910249237965331 0 0 0 0 -751.10832044582639 -263.2732718419029 0 -263.2732718419029 90.082175107579133 0 0 0 0 -30.935581301335333 -130.94600992074629 0 -130.94600992074629 -328.99410203025968 0 0 0 0 -0.44548200057119658 1.0456962433194263 0 1.0456962433194263 -1.6064487753030079 0 0 0 0 -410.24211344165815 124.35942116407864 0 124.35942116407864 -437.38928669595566 0 0 0 0 -2.1816102353766595 1.238923062069361 0 1.238923062069361 -2.2883738561559372 0 0 0 0 -16.471546337968903 -11.353769954583413 0 -11.353769954583413 -17.621250594527453 0 0 0 0 -635.00745507190913 -218.2820548699483 0 -218.2820548699483 34.846368144338612 0 0 0 0 -7.0102172739467576 -5.7895122816967515 0 -5.7895122816967515 -4.8894564978680997 0 0 0 0 -40.348805017941231 -197.23520062122054 0 -197.23520062122054 -69.751240004408828 0 0 0 0 -24.791744035075681 23.105906499237562 0 23.105906499237562 -31.143979163589847 0 0 0 0 -260.41315160694649 70.548837805380003 0 70.548837805380003 73.374402729463327 0 0 0 0 -188.40002646524954 210.02985723041638 0 210.02985723041638 -99.631166414472318 0 0 0 0 -492.67866606959797 239.77029473153516 0 239.77029473153516 12.288637838484647 0 0 0 0 -234.50050975058912 153.41643275284878 0 153.41643275284878 -47.528391538731739 0 0 0 0 -225.24088150167154 184.17321008482827 0 184.17321008482827 27.233172937780182 0 0 0 0 -186.01796527066108 223.37134032938729 0 223.37134032938729 -25.366354620217862 0 0 0 0 0.078830044690818113 0.20552853694510986 0 0.20552853694510986 -1.2448646059981332 0 0 0 0 -870.48019685246982 -116.43272338687575 0 -116.43272338687575 22.521002319891068 0 0 0 0 -1033.4573904794743 -344.48640749739297 0 -344.48640749739297 4.522441087918196 0 0 0 0 -840.56140788242919 -82.815184745693841 0 -82.815184745693841 -97.389391022127711 0 0 0 0 -916.05069837938936 -31.303943995935242 0 -31.303943995935242 9.9765464299366613 0 0 0 0 -1353.3952235153265 -157.38128474140467 0 -157.38128474140467 19.624488192217541 0 0 0 0 -829.98684374004733 -83.418079734867774 0 -83.418079734867774 -7.1371142345137741 0 0 0 0 -2.4021865740445811 -0.37367453490554681 0 -0.37367453490554681 -1.6178476319219843 0 0 0 0 -902.13087851535238 -59.373722065880429 0 -59.373722065880429 64.532738642109507 0 0 0 0 -76.316782399579097 161.43862359849027 0 161.43862359849027 -95.839627491447118 0 0 0 0 -992.54686860848233 -116.65196035888061 0 -116.65196035888061 26.197922381599938 0 0 0 0 -966.44266233989765 -15.159033420809919 0 -15.159033420809919 94.808030549808791 0 0 0 0 -638.89075351659449 -332.66704851721261 0 -332.66704851721261 -27.954120199550289 0 0 0 0 -929.62991757664531 -116.85198575222319 0 -116.85198575222319 85.080087519296285 0 0 0 0 -899.32420188333344 -58.264075900904572 0 -58.264075900904572 62.450698548253513 0 0 0 0 -822.45357961188347 -128.15210374341973 0 -128.15210374341973 7.2693817416302409 0 0 0 0 -830.24012117548409 -126.28006321220323 0 -126.28006321220323 40.882092853641097 0 0 0 0 -802.23209976639464 -283.56759707657426 0 -283.56759707657426 102.30203709980015 0 0 0 0 -721.62147019425902 -226.37520479618297 0 -226.37520479618297 103.56104896877969 0 0 0 0 -254.12312773703161 -165.57820293470559 0 -165.57820293470559 -60.083245490704485 0 0 0 0 -7.1151229595467242 6.2369566610246494 0 6.2369566610246494 -2.8685065283526487 0 0 0 0 -810.92988168021111 -242.74456693946377 0 -242.74456693946377 194.54152260979936 0 0 0 0 -615.76101175850636 -67.142611042299336 0 -67.142611042299336 172.0336825701288 0 0 0 0 -238.24165740430544 259.88461839890601 0 259.88461839890601 165.61247789506899 0 0 0 0 136.85852616709394 -384.94287668313223 0 -384.94287668313223 164.73083291501825 0 0 0 0 -54.540143559194348 601.71615449553497 0 601.71615449553497 -452.58527437728435 0 0 0 0 -262.30966605755066 290.87593469093383 0 290.87593469093383 237.91542930678179 0 0 0 0 -264.97937357996852 316.17469952660963 0 316.17469952660963 5.6170420102839671 0 0 0 0 -45.246098820920452 251.64847497081882 0 251.64847497081882 -142.6925801098908 0 0 0 0 -268.9510315154439 168.90370628240134 0 168.90370628240134 110.83372919231124 0 0 0 0 -156.17146027076524 193.13339792732654 0 193.13339792732654 114.06098758831877 0 0 0 0 -506.99388481135975 213.39057208177428 0 213.39057208177428 213.79521570769293 0 0 0 0 -265.43277898979068 85.692888637227043 0 85.692888637227043 270.33031780115107 0 0 0 0 52.486894702029531 6.1686427854351678 0 6.1686427854351678 192.83841734001544 0 0 0 0 -563.68639117789098 -387.65204613973663 0 -387.65204613973663 75.555442517281335 0 0 0 0 -4.0492271734985934 3.0953642705832749 0 3.0953642705832749 -1.8088456279256384 0 0 0 0 -1143.999454424682 -326.38797031126978 0 -326.38797031126978 -3.4166754057753792 0 0 0 0 -600.13308602433244 147.6308172957215 0 147.6308172957215 -432.26179720702157 0 0 0 0 -1157.3516964473192 -3.1788896259692194 0 -3.1788896259692194 -10.013378725258008 0 0 0 0 0.63956290349095024 0.58283772377392751 0 0.58283772377392751 5.9932171035121176 0 0 0 0 -1395.626859575641 -745.70059849723975 0 -745.70059849723975 -546.25742186737625 0 0 0 0 -1350.1318937129181 -192.7951209196342 0 -192.7951209196342 17.35990069358877 0 0 0 0 -708.85301128102492 -600.06759956979681 0 -600.06759956979681 179.18308046213906 0 0 0 0 472.49031138749342 -802.79848319245161 0 -802.79848319245161 -192.47923544427294 0 0 0 0 -3.2928758602703923 -3.643135783602002 0 -3.643135783602002 0.98289780977201779 0 0 0 0 -2391.9107172193035 565.78018729162306 0 565.78018729162306 810.07303450787367 0 0 0 0 -719.2355523857259 -59.202192804748847 0 -59.202192804748847 138.67914960429002 0 0 0 0 -581.68448066375277 -27.929339473363939 0 -27.929339473363939 133.95569720612352 0 0 0 0 -668.99665002236725 46.54872376138465 0 46.54872376138465 189.90245154084312 0 0 0 0 -529.75591766572325 7.4289834779042465 0 7.4289834779042465 131.52156904364983 0 0 0 0 -530.21091990987043 37.960496636163214 0 37.960496636163214 69.710392599727214 0 0 0 0 -505.31978408687428 116.41521313493246 0 116.41521313493246 208.37388031379771 0 0 0 0 210.18338462742395 18.655265059498561 0 18.655265059498561 153.23247694781912 0 0 0 0 208.20054316233171 181.01757136319023 0 181.01757136319023 91.299687323779381 0 0 0 0 83.54887910985417 70.19188207483694 0 70.19188207483694 132.91630190924161 0 0 0 0 221.09846721834037 100.88551163758893 0 100.88551163758893 75.58096107313122 0 0 0 0 71.40083960971242 88.891590794416516 0 88.891590794416516 102.28665251470738 0 0 0 0 51.628386171694729 18.748929331579347 0 18.748929331579347 79.058812062857555 0 0 0 0 80.477860258408327 87.660614469343273 0 87.660614469343273 97.804556738113661 0 0 0 0 70.830375957313208 14.695174507349847 0 14.695174507349847 65.874271374711498 0 0 0 0 14.196747741640138 36.552371091539726 0 36.552371091539726 66.633532490617199 0 0 0 0 2.8625039945327444 -20.315597453168266 0 -20.315597453168266 34.144031317508507 0 0 0 0 -82.138142129791959 -62.788952444508141 0 -62.788952444508141 31.097116534685711 0 0 0 0 0.31985028861527098 -29.746729005134313 0 -29.746729005134313 -7.539373010552481 0 0 0 0 -41.430315361519661 -84.914860067119633 0 -84.914860067119633 -85.131805687580936 0 0 0 0 -0.69647251210335526 63.182401875875598 0 63.182401875875598 63.530640795606587 0 0 0 0 -13.338266081638722 39.269164069006536 0 39.269164069006536 150.0801496393874 0 0 0 0 180.05355602455165 167.02117602354048 0 167.02117602354048 44.792848716745823 0 0 0 0 98.639640117361068 -65.087269694948162 0 -65.087269694948162 91.955924102289032 0 0 0 0 -116.79544581990194 410.14036935799703 0 410.14036935799703 372.2715774114244 0 0 0 0 -99.165879325802962 -39.23899744813874 0 -39.23899744813874 101.91566400029886 0 0 0 0 -10.864398152308425 8.1220499760172409 0 8.1220499760172409 -3.7976254991955627 0 0 0 0 37.772040621712222 401.73896783422242 0 401.73896783422242 389.35895704190307 0 0 0 0 86.382223423674077 206.88132203759318 0 206.88132203759318 238.58409027927459 0 0 0 0 -3.8123731077640599 0.20639843926300649 0 0.20639843926300649 2.4767813870718989 0 0 0 0 148.65825339068397 226.15386167457291 0 226.15386167457291 210.61236169875428 0 0 0 0 302.29640225711046 209.59299784166956 0 209.59299784166956 174.07152949060492 0 0 0 0 -75.458200432680314 78.743766109155331 0 78.743766109155331 -12.492653415751874 0 0 0 0 -204.18140322512409 53.858570352532524 0 53.858570352532524 348.6544271233106 0 0 0 0 -115.74603405165544 -51.118827355193389 0 -51.118827355193389 200.42962728741304 0 0 0 0 -198.50707556922134 163.02038461439952 0 163.02038461439952 384.59538295794187 0 0 0 0 153.65041933063003 -55.121736142995132 0 -55.121736142995132 349.89441160660044 0 0 0 0 -206.98734891592903 -20.645721078840154 0 -20.645721078840154 195.77844160918153 0 0 0 0 -162.43386202283364 152.36800030965514 0 152.36800030965514 230.55685338132207 0 0 0 0 -3.478308604083395 2.2492308156992316 0 2.2492308156992316 -1.3869861463067865 0 0 0 0 11.851881929949741 196.83400486784672 0 196.83400486784672 -135.43229418387023 0 0 0 0 101.2594542621282 112.83305906751468 0 112.83305906751468 -97.167431353783741 0 0 0 0 0.86168217713129991 0.57102104404851417 0 0.57102104404851417 -1.1378042986663144 0 0 0 0 -184.91703579776004 116.46326998065808 0 116.46326998065808 467.85586127360932 0 0 0 0 95.888838031227351 238.92244450267788 0 238.92244450267788 171.58409880954514 0 0 0 0 -9.9655880509911725 5.6822219197141184 0 5.6822219197141184 -2.7068236509683388 0 0 0 0 56.650965946014367 114.55131093119661 0 114.55131093119661 -13.167173957817283 0 0 0 0 -131.77965639141621 -109.14780007814193 0 -109.14780007814193 111.80705958580063 0 0 0 0 131.11128552296941 187.9165731615999 0 187.9165731615999 123.0237809374662 0 0 0 0 23.273564669177176 109.67453693114504 0 109.67453693114504 88.555261893199258 0 0 0 0 80.262655746133532 168.62996521050945 0 168.62996521050945 137.49552270888512 0 0 0 0 3.5383994942203572 181.21612979266274 0 181.21612979266274 214.49832766915893 0 0 0 0 -26.1243968366216 83.82285331755088 0 83.82285331755088 99.297913920888504 0 0 0 0 9.5398773608940246 127.50102456727063 0 127.50102456727063 7.4380687787092938 0 0 0 0 -26.714947591071905 67.487693650100596 0 67.487693650100596 47.544565029774276 0 0 0 0 25.038791737286374 117.53353878936377 0 117.53353878936377 77.337313512802211 0 0 0 0 -15.303289878444048 171.68278297547181 0 171.68278297547181 -94.90013840937192 0 0 0 0 -28.933150553410087 140.06899952146841 0 140.06899952146841 -44.677964292918659 0 0 0 0 -156.02115244510424 193.42881451195831 0 193.42881451195831 24.993358069796159 0 0 0 0 -83.168108122548801 153.772625034263 0 153.772625034263 43.976344112076731 0 0 0 0 -94.001994000136619 123.78515587288393 0 123.78515587288393 11.487728860423999 0 0 0 0 -70.453936895297829 55.904843599618005 0 55.904843599618005 -3.1239255508935457 0 0 0 0 -59.638538816090204 104.19773268887661 0 104.19773268887661 4.9499544471109402 0 0 0 0 -108.1510167722663 22.346446648367419 0 22.346446648367419 -6.5312394030042924 0 0 0 0 -105.65798035503758 67.334863902903635 0 67.334863902903635 0.65857693307862064 0 0 0 0 -138.90078661804728 -2.8659847290118705 0 -2.8659847290118705 3.2457767350442737 0 0 0 0 -111.2859882275734 25.361329305869276 0 25.361329305869276 0.57528122870917286 0 0 0 0 -105.9913899854655 -8.9641096388859296 0 -8.9641096388859296 -1.2139017346544279 0 0 0 0 -124.56698243114079 -14.205090576312159 0 -14.205090576312159 6.0042810933546207 0 0 0 0 -73.251248021913852 -11.061068651707501 0 -11.061068651707501 1.2115567692553668 0 0 0 0 -83.767472314100814 7.6633267913759937 0 7.6633267913759937 12.093189780892317 0 0 0 0 3.3921609894750873 55.920746584307835 0 55.920746584307835 4.4674651553768854 0 0 0 0 -67.951835399238917 63.063898997011165 0 63.063898997011165 5.3224374495034681 0 0 0 0 -50.385107176400197 20.33145899586907 0 20.33145899586907 -3.0923354212891354 0 0 0 0 29.809418312888738 50.063700646758207 0 50.063700646758207 30.069757323072508 0 0 0 0 -39.072873754350439 47.740307509669947 0 47.740307509669947 38.111446017017443 0 0 0 0 -16.560416532061936 16.216656836228594 0 16.216656836228594 7.1647685931584419 0 0 0 0 -56.45850824896479 -7.4575858386460823 0 -7.4575858386460823 9.5051308707952558 0 0 0 0 -56.694954156599124 -10.406220965363218 0 -10.406220965363218 20.066833470941674 0 0 0 0 -25.400249329264625 19.88194242549207 0 19.88194242549207 28.466958847469414 0 0 0 0 12.328268332174048 -0.63777104110636174 0 -0.63777104110636174 35.259236947575573 0 0 0 0 26.980261189811245 43.83553737786815 0 43.83553737786815 53.570556542324084 0 0 0 0 96.506857622700409 84.165073306788599 0 84.165073306788599 55.731022486054371 0 0 0 0 14.102240068693959 63.760718535445932 0 63.760718535445932 64.227175455649558 0 0 0 0 -216.64932590862009 -110.93644725292927 0 -110.93644725292927 39.786402520240244 0 0 0 0 -97.698614300281861 -70.803238008001728 0 -70.803238008001728 1.2063636592547482 0 0 0 0 -113.77926458334878 -28.560980764043506 0 -28.560980764043506 15.39790704681036 0 0 0 0 -27.779074156704155 -1.4160986678577956 0 -1.4160986678577956 30.372826089047976 0 0 0 0 -46.030087647974142 -41.92868597933375 0 -41.92868597933375 21.327965136531816 0 0 0 0 -90.515709842304204 -19.139779488059048 0 -19.139779488059048 19.652412271078902 0 0 0 0 -82.610968353843418 -43.919376908546838 0 -43.919376908546838 4.6984787470064475 0 0 0 0 -183.41812183366892 -61.490990205109483 0 -61.490990205109483 21.276894702718891 0 0 0 0 -120.04535375953492 -54.845976888732821 0 -54.845976888732821 -2.223767334529839 0 0 0 0 -165.20242187522308 -67.796260526044534 0 -67.796260526044534 6.1878269465892117 0 0 0 0 -101.57823978716624 -22.61321580458025 0 -22.61321580458025 10.708069927206338 0 0 0 0 -99.013088883424643 -35.369569140817475 0 -35.369569140817475 1.5762872417835752 0 0 0 0 -119.62375513171355 -38.08882856667924 0 -38.08882856667924 15.445044031093857 0 0 0 0 -137.12018602311582 -45.468149142741822 0 -45.468149142741822 5.5247179712062007 0 0 0 0 -116.17483113191702 -25.294084091076911 0 -25.294084091076911 2.7669129115693067 0 0 0 0 -135.66146228278012 -46.801318841773082 0 -46.801318841773082 2.2688200810216586 0 0 0 0 -164.49095301351917 -57.961422350523208 0 -57.961422350523208 0.74214386823700806 0 0 0 0 -151.51055314432597 -32.910596440808149 0 -32.910596440808149 3.1687268500266441 0 0 0 0 -149.02778109977953 -34.80003596653296 0 -34.80003596653296 3.7134426707452803 0 0 0 0 -167.83582305352684 -66.497694262670848 0 -66.497694262670848 -8.7050228988805429 0 0 0 0 -165.117971991378 -59.684900729690526 0 -59.684900729690526 5.5543181527173147 0 0 0 0 -186.68048142405132 -60.859382104915767 0 -60.859382104915767 -3.4020889476123557 0 0 0 0 -257.26023436187461 35.943572994439592 0 35.943572994439592 -96.320528784382304 0 0 0 0 -179.89728267888495 -74.649306278155109 0 -74.649306278155109 -12.720429965388121 0 0 0 0 -177.55109394555893 -51.357278041752807 0 -51.357278041752807 0.85670491861310438 0 0 0 0 -0.17740848561543388 -0.13993970555633339 0 -0.13993970555633339 -2.3202752451990492 0 0 0 0 -359.78805191841093 -17.133553839439401 0 -17.133553839439401 60.513239453856045 0 0 0 0 -488.74162958253964 19.253162020331615 0 19.253162020331615 62.438994918298249 0 0 0 0 -357.82925298960618 5.4812042337730418 0 5.4812042337730418 52.184176408012263 0 0 0 0 -275.9839720319178 -27.124562232979088 0 -27.124562232979088 64.851519675967666 0 0 0 0 -194.09894675470105 -21.282009672905588 0 -21.282009672905588 -30.04262164974989 0 0 0 0 -20.122018984809984 54.975456825791298 0 54.975456825791298 -38.872821808912477 0 0 0 0 10.718952494235555 24.240050938352113 0 24.240050938352113 1.7407848606717149 0 0 0 0 6.0093583164002666 46.379457926633563 0 46.379457926633563 6.9015360311714176 0 0 0 0 -9.5538618516038696 78.810224630231687 0 78.810224630231687 -60.602245446757593 0 0 0 0 63.791353254837759 22.191922778752371 0 22.191922778752371 -25.691502861782283 0 0 0 0 -54.28171357453266 73.859063715704679 0 73.859063715704679 -8.4245872506521664 0 0 0 0 -79.203770199900646 57.123859847396034 0 57.123859847396034 22.146175861535994 0 0 0 0 -74.406453887910175 69.607818102838792 0 69.607818102838792 24.442608468551043 0 0 0 0 -70.083672334094445 57.438469795657511 0 57.438469795657511 48.140511203715505 0 0 0 0 -67.572642295712285 62.504667912913192 0 62.504667912913192 57.247431882535238 0 0 0 0 -59.223007763167516 69.598598253384012 0 69.598598253384012 28.49831989930135 0 0 0 0 -93.969463415985956 70.313567317779729 0 70.313567317779729 9.5528340251241843 0 0 0 0 -89.179047979782354 71.648725338987106 0 71.648725338987106 35.055819170328505 0 0 0 0 9.4812941207363064 28.148664776188131 0 28.148664776188131 13.659917220444534 0 0 0 0 5.009276114979329 4.4897212765381109 0 4.4897212765381109 -3.0310659265796684 0 0 0 0 13.946241026873395 43.46808924978194 0 43.46808924978194 9.3575716967608855 0 0 0 0 -80.132275319199834 16.119344836824439 0 16.119344836824439 31.439062590875437 0 0 0 0 -17.385834904445225 7.7989960445764428 0 7.7989960445764428 8.8789588832545903 0 0 0 0 151.31077519175233 -91.390641656117594 0 -91.390641656117594 -46.71841506707274 0 0 0 0 -16.313260716000087 9.7043006188107093 0 9.7043006188107093 14.325889871858537 0 0 0 0 -16.777976016910543 2.9405361299368451 0 2.9405361299368451 -17.435826862789554 0 0 0 0 -17.401251754810801 8.0925066790250639 0 8.0925066790250639 9.3868610604058631 0 0 0 0 -26.740653992383074 24.806657304419936 0 24.806657304419936 10.385761560488049 0 0 0 0 -80.937166125183467 55.905369400984455 0 55.905369400984455 80.32510204124992 0 0 0 0 -279.2004034433412 -50.971127025176429 0 -50.971127025176429 181.63615711476086 0 0 0 0 -80.225565802199839 14.460844262209331 0 14.460844262209331 2.76543788139842 0 0 0 0 -713.84734903611752 -20.138521891753697 0 -20.138521891753697 126.08789160165992 0 0 0 0 -364.00306263368475 -29.084730274614571 0 -29.084730274614571 71.348383638767245 0 0 0 0 -317.14784135697846 -113.11994522495479 0 -113.11994522495479 44.92890527421082 0 0 0 0 -372.1459438376387 -21.310767554175868 0 -21.310767554175868 120.20130032689735 0 0 0 0 -189.88717645377619 52.603646135007011 0 52.603646135007011 3.4771502164413732 0 0 0 0 -106.65970189766472 173.35633258707315 0 173.35633258707315 -95.864632820052066 0 0 0 0 -384.52001371568622 4.793600407548297 0 4.793600407548297 65.783919895935639 0 0 0 0 -186.47013092769885 143.83028614920079 0 143.83028614920079 -153.89247105239437 0 0 0 0 -7.0159009529506093 2.0437795611784733 0 2.0437795611784733 2.2013265639661124 0 0 0 0 -514.53858080159989 218.08593025469233 0 218.08593025469233 -29.912899877300333 0 0 0 0 -345.39886489307537 -189.85744028566108 0 -189.85744028566108 -49.810360321315102 0 0 0 0 71.738912741806416 -20.632978271349771 0 -20.632978271349771 -50.74817497472759 0 0 0 0 -218.57329416377252 -120.76369912460427 0 -120.76369912460427 -14.850372581546708 0 0 0 0 -679.45251038069182 -173.84247200391292 0 -173.84247200391292 157.82591609561928 0 0 0 0 -78.703212728722065 72.905644546901101 0 72.905644546901101 34.013857952541287 0 0 0 0 -231.64433818829093 -283.65230683074481 0 -283.65230683074481 -488.62303781476709 0 0 0 0 -43.580084651166544 370.75639850675691 0 370.75639850675691 20.37091835651529 0 0 0 0 11.620238532894291 -39.427954060414322 0 -39.427954060414322 16.982716466241754 0 0 0 0 -0.37919715054011505 -0.86163858930099124 0 -0.86163858930099124 1.8220681858852785 0 0 0 0 119.21888406498783 292.24522310594398 0 292.24522310594398 49.846644461578535 0 0 0 0 -653.05280028238303 -246.33838959758486 0 -246.33838959758486 334.70161341953462 0 0 0 0 -807.31679933614942 -124.44513426004096 0 -124.44513426004096 371.5450607897593 0 0 0 0 -208.68108126288644 227.78198203129057 0 227.78198203129057 -266.89687567930378 0 0 0 0 -4.896155919063915 3.0466169349886236 0 3.0466169349886236 -1.7238605231716599 0 0 0 0 -75.377327734327991 166.46553655850403 0 166.46553655850403 16.239762315755513 0 0 0 0 -59.058029051635458 188.70745945424471 0 188.70745945424471 -53.874713721695116 0 0 0 0 -116.48559649356685 138.55024074105191 0 138.55024074105191 4.1933896110826367 0 0 0 0 -334.63562139378337 232.72965215234836 0 232.72965215234836 1.8082581743759079 0 0 0 0 7.2888122664335242 198.02387262134363 0 198.02387262134363 -50.616485882857127 0 0 0 0 -117.52377857979445 -136.3068633965533 0 -136.3068633965533 -86.219565824513325 0 0 0 0 -183.57967111709877 -11.103404001478182 0 -11.103404001478182 50.833075342767899 0 0 0 0 -315.06584763813953 -50.169834055377805 0 -50.169834055377805 104.97324438188157 0 0 0 0 -912.20265031472445 -42.623619284876895 0 -42.623619284876895 109.44882911939652 0 0 0 0 -557.82992332256981 468.94468386583935 0 468.94468386583935 -110.49356448068602 0 0 0 0 -133.30284609982846 -463.61813125738632 0 -463.61813125738632 -269.09033368527616 0 0 0 0 -493.43807060981635 473.86141096878919 0 473.86141096878919 8.2600257868486437 0 0 0 0 317.31578978443395 102.54892618397844 0 102.54892618397844 -153.10107495160037 0 0 0 0 -1024.1985789367081 112.95090077265388 0 112.95090077265388 319.32430055210261 0 0 0 0 -405.39805371027251 41.817744662279438 0 41.817744662279438 326.35186576992646 0 0 0 0 -4.3401492601364868 1.9957229250671453 0 1.9957229250671453 4.1985131294516203 0 0 0 0 -26.909698050554653 7.2827151646743005 0 7.2827151646743005 51.90466873111427 0 0 0 0 -20.642999933902502 -2.4608400994859494 0 -2.4608400994859494 46.517500022073591 0 0 0 0 -10.042613826063757 -5.332486139548525 0 -5.332486139548525 42.397545903203081 0 0 0 0 -7.5705126021093747 32.286134878341272 0 32.286134878341272 73.921835096045243 0 0 0 0 -4.4239720805469176 -14.687447733401481 0 -14.687447733401481 21.079052417205205 0 0 0 0 14.645074023837878 -2.6472140691730601 0 -2.6472140691730601 71.566635484526614 0 0 0 0 -2.29809875562907 -3.0729185458826578 0 -3.0729185458826578 2.8870772835357812 0 0 0 0 -359.18746011317126 30.205998563540106 0 30.205998563540106 33.398257178689164 0 0 0 0 -31.833863766820286 23.341665966681603 0 23.341665966681603 -73.280709784005012 0 0 0 0 -231.42671883355433 -14.416496543355606 0 -14.416496543355606 -1.5647756114067306 0 0 0 0 -0.81005886345504408 -0.18576763706523991 0 -0.18576763706523991 -0.80544623313644692 0 0 0 0 -204.09348949933883 7.5503020973176262 0 7.5503020973176262 -36.330110514867556 0 0 0 0 33.418963821764919 -43.64379195658853 0 -43.64379195658853 -18.674417145928714 0 0 0 0 -12.123934666764445 -9.0926820597196425 0 -9.0926820597196425 16.195934343706366 0 0 0 0 -26.139435976896493 44.692654570566901 0 44.692654570566901 -25.199847991440038 0 0 0 0 163.91899517716138 2.1142837204757825 0 2.1142837204757825 -108.32216577363261 0 0 0 0 41.731086820844212 55.711735273650788 0 55.711735273650788 55.449749693583499 0 0 0 0 19.545031008397928 18.24151697387299 0 18.24151697387299 29.731509673612379 0 0 0 0 32.158161087468216 -30.54271864204097 0 -30.54271864204097 -23.858314030492863 0 0 0 0 -60.362018562154844 13.678573144206439 0 13.678573144206439 -40.729367642120224 0 0 0 0 -62.6926583738923 -111.29651107695474 0 -111.29651107695474 -7.4422295489184762 0 0 0 0 -12.676368349279073 71.252139433030379 0 71.252139433030379 -25.230618419045868 0 0 0 0 -45.739989793677523 54.915185869617289 0 54.915185869617289 55.462551351895627 0 0 0 0 67.666972566945333 168.02273535979157 0 168.02273535979157 -226.52166622456116 0 0 0 0 -98.77549364439983 -73.947789748454397 0 -73.947789748454397 118.80803328995626 0 0 0 0 -75.793852660344726 1.5795127889865843 0 1.5795127889865843 4.4046837654935835 0 0 0 0 -137.0904270738356 100.46689167434806 0 100.46689167434806 137.24021790753113 0 0 0 0 -54.528380333365931 -5.6097337012054709 0 -5.6097337012054709 21.40360414512304 0 0 0 0 -6.5324665613732762 13.05879960014142 0 13.05879960014142 5.5103455417368679 0 0 0 0 -71.40878870522647 36.344396376954123 0 36.344396376954123 -13.191683592927234 0 0 0 0 -80.363942808937281 20.561793667507345 0 20.561793667507345 -24.489275997114419 0 0 0 0 -97.380871584233319 41.814530651355824 0 41.814530651355824 8.1265231334717782 0 0 0 0 -60.751762531590245 0.45669280036032234 0 0.45669280036032234 10.199467393302534 0 0 0 0 -80.928308034262955 -30.356673174060234 0 -30.356673174060234 52.569237113835015 0 0 0 0 -76.559599334603263 21.546570197200452 0 21.546570197200452 47.511390976169992 0 0 0 0 -27.321566574300782 -6.4960664310256107 0 -6.4960664310256107 5.0518232069698428 0 0 0 0 -47.083976321250873 -7.8518234451811519 0 -7.8518234451811519 6.1971937467825775 0 0 0 0 -48.506238458056032 72.674803286386918 0 72.674803286386918 17.905528479831446 0 0 0 0 -89.122059337802057 36.21496606452223 0 36.21496606452223 32.063708089385102 0 0 0 0 -63.337692747071557 20.290267254224709 0 20.290267254224709 -5.3617573667105143 0 0 0 0 -37.587453492689747 50.676911014735964 0 50.676911014735964 13.795405495891622 0 0 0 0 -99.50915850896854 93.750749323365298 0 93.750749323365298 -4.2275730460569605 0 0 0 0 -187.41382235131823 36.044718943992081 0 36.044718943992081 51.188655656984224 0 0 0 0 -121.30094210711104 -13.346695671918042 0 -13.346695671918042 50.891821899798963 0 0 0 0 -121.28838059868576 -11.683223784082486 0 -11.683223784082486 58.160841167307012 0 0 0 0 -33.445851801312529 80.611374100177272 0 80.611374100177272 30.255701615080397 0 0 0 0 -29.742130958169582 52.985155266763059 0 52.985155266763059 40.014666796766505 0 0 0 0 -28.450533624712989 47.394652503876841 0 47.394652503876841 112.77623359897188 0 0 0 0 -23.21418314731141 -0.14490003273506247 0 -0.14490003273506247 1.9292418180134323 0 0 0 0 -168.20489671556697 39.901815705413981 0 39.901815705413981 188.13932905427691 0 0 0 0 -276.04649400883318 -61.504801490528735 0 -61.504801490528735 42.786740997187735 0 0 0 0 -5.4340513796196319 -7.9141044577982029 0 -7.9141044577982029 53.145707083177797 0 0 0 0 -42.854709152863506 40.298533655932715 0 40.298533655932715 46.546390834480917 0 0 0 0 -42.006455469567868 16.677801649340953 0 16.677801649340953 -0.17879081946725961 0 0 0 0 -40.511492550316689 5.8233301107527495 0 5.8233301107527495 23.179453512763757 0 0 0 0 -49.692647829716037 9.445370218759443 0 9.445370218759443 2.1229965044699046 0 0 0 0 -42.708740114005195 79.193020707655705 0 79.193020707655705 9.4258811685831461 0 0 0 0 -70.833695082945866 8.0542696187411291 0 8.0542696187411291 0.40314994593762243 0 0 0 0 -137.08483235960375 91.949194403588081 0 91.949194403588081 195.71057474507052 0 0 0 0 -39.58140534870472 15.626328836385255 0 15.626328836385255 74.605897960254083 0 0 0 0 -246.36158777585297 -51.535501813857763 0 -51.535501813857763 317.1971791785254 0 0 0 0 -308.10537063265656 -43.250565082410503 0 -43.250565082410503 349.47217378433015 0 0 0 0 -76.005816254155761 2.7731109154875075 0 2.7731109154875075 1.2571811727933331 0 0 0 0 -179.44516531521003 -144.24426276535269 0 -144.24426276535269 191.64180655888231 0 0 0 0 -302.74198336018526 -247.80667803463939 0 -247.80667803463939 -205.55123403285052 0 0 0 0 -147.26860405001935 260.92717765474117 0 260.92717765474117 -154.14835515785671 0 0 0 0 1.3558052787489103 2.0624860978692325 0 2.0624860978692325 1.6775810113476926 0 0 0 0 42.28238695104983 -38.356875915294552 0 -38.356875915294552 -4.2260449873447214 0 0 0 0 -285.93837976917712 153.73517916531273 0 153.73517916531273 -110.07398105520133 0 0 0 0 -270.54870765266242 -27.619586407405222 0 -27.619586407405222 10.346091088656976 0 0 0 0 -352.38427795447933 5.4466421926226758 0 5.4466421926226758 99.517319701047199 0 0 0 0 -337.38087976001702 -154.06231415711804 0 -154.06231415711804 29.139305317195976 0 0 0 0 -148.08455034307553 28.623769808230918 0 28.623769808230918 -26.57975552325297 0 0 0 0 -636.99963212479634 -270.92734020663102 0 -270.92734020663102 -120.33767706261824 0 0 0 0 -370.3015626203196 109.68332952459969 0 109.68332952459969 1.6060421907304772 0 0 0 0 -590.06648301389578 425.51845087541369 0 425.51845087541369 -15.494395114204963 0 0 0 0 -708.3165994076553 94.382797909755027 0 94.382797909755027 64.128915425804735 0 0 0 0 -518.55281073377409 47.801808186892231 0 47.801808186892231 -9.8616100784838636 0 0 0 0 -120.44627296342514 -108.34894508675734 0 -108.34894508675734 123.65478532361885 0 0 0 0 -305.40163744803431 170.35822566678507 0 170.35822566678507 -85.611020865664614 0 0 0 0 -302.83592087967554 188.24071467640169 0 188.24071467640169 -91.164164760892163 0 0 0 0 -9.9493795581656741 114.8869821861208 0 114.8869821861208 19.376539587407933 0 0 0 0 250.58956350540393 -258.79741250471852 0 -258.79741250471852 -894.10469512254713 0 0 0 0 -103.12394335241333 91.394752761349537 0 91.394752761349537 2.6797594026531897 0 0 0 0 -66.060150688030262 -110.5220032428997 0 -110.5220032428997 86.663244679049967 0 0 0 0 -2.9889446919682285 4.2398779219625773 0 4.2398779219625773 -3.3168290946706254 0 0 0 0 112.16055919156133 69.918438902163189 0 69.918438902163189 -138.52322500356422 0 0 0 0 -59.490205952715769 123.45988505358218 0 123.45988505358218 144.5367658508203 0 0 0 0 42.160625069518574 -66.84946842066347 0 -66.84946842066347 -239.3721992449307 0 0 0 0 -35.588115368685976 92.734402763437174 0 92.734402763437174 -34.052021505869561 0 0 0 0 55.386323703307426 47.543506972078376 0 47.543506972078376 -54.845338952542079 0 0 0 0 58.187111448689393 -3.9407741757158874 0 -3.9407741757158874 -11.150120064567091 0 0 0 0 32.176269995223265 36.739356101121302 0 36.739356101121302 -43.287757078401228 0 0 0 0 -25.256372742420353 52.167640485160518 0 52.167640485160518 -49.246165984731761 0 0 0 0 43.828945423949335 37.75453297752847 0 37.75453297752847 -60.360910684123155 0 0 0 0 -23.690948399379295 39.481666322944875 0 39.481666322944875 -46.913858530371726 0 0 0 0 -110.84476440679646 41.19196642673387 0 41.19196642673387 -37.451016887336664 0 0 0 0 -21.088031520157529 76.361860259632522 0 76.361860259632522 -58.02545240329323 0 0 0 0 17.78273380916653 22.244906626945522 0 22.244906626945522 -28.634908329380778 0 0 0 0 -160.53019529380617 -92.664031719416926 0 -92.664031719416926 -122.39700226360219 0 0 0 0 -105.75830354362188 4.6936201837233966 0 4.6936201837233966 -91.005609101381197 0 0 0 0 -200.80190563354699 -67.58742820987618 0 -67.58742820987618 -25.548212678297205 0 0 0 0 -280.13743604028423 -49.723509201346133 0 -49.723509201346133 -19.438582684011635 0 0 0 0 -151.26551920379279 77.767362005844916 0 77.767362005844916 -56.352438219751093 0 0 0 0 -122.25385862492112 -35.240363854331008 0 -35.240363854331008 -21.001143186784248 0 0 0 0 -140.25372160885672 39.969130386210963 0 39.969130386210963 -4.6285997503737235 0 0 0 0 -180.17487752057787 -13.598911275115825 0 -13.598911275115825 -11.973034452436877 0 0 0 0 -186.19720810059152 -53.525974592292187 0 -53.525974592292187 -0.9594464930560207 0 0 0 0 -225.45495232592293 -40.868028042234073 0 -40.868028042234073 14.429701509736333 0 0 0 0 -72.159714296420134 -27.627641857603521 0 -27.627641857603521 -10.885210337390163 0 0 0 0 -284.44392771523053 -120.99988144637746 0 -120.99988144637746 35.606094957984169 0 0 0 0 -108.78854802956721 19.434387324164618 0 19.434387324164618 44.812231712357971 0 0 0 0 66.909047963828925 92.675891886228783 0 92.675891886228783 8.3159151900053985 0 0 0 0 34.062889651289879 -127.18776549278755 0 -127.18776549278755 -13.47456066155064 0 0 0 0 -29.027692019990354 -35.470061522682954 0 -35.470061522682954 113.07109316737024 0 0 0 0 -73.421398860133195 82.421846294501847 0 82.421846294501847 228.35467998084096 0 0 0 0 -34.30461966814255 59.780335026512148 0 59.780335026512148 32.538315697660437 0 0 0 0 -22.058684009967692 20.742137328437821 0 20.742137328437821 -7.7007450104229065 0 0 0 0 4.0706315922188878 -48.818399403415242 0 -48.818399403415242 -10.890390071685033 0 0 0 0 17.529154325357609 31.027734812040691 0 31.027734812040691 -36.351853211208436 0 0 0 0 38.807974069964985 25.024357666214314 0 25.024357666214314 -59.177668325968625 0 0 0 0 13.414202523559652 21.057110280681172 0 21.057110280681172 -48.227659257295272 0 0 0 0 -158.7242182011596 167.87739904341106 0 167.87739904341106 -50.426056243762559 0 0 0 0 19.923255258667723 27.345857368002044 0 27.345857368002044 -192.06176975396465 0 0 0 0 -101.20417943916436 83.937482731227647 0 83.937482731227647 160.8698138491219 0 0 0 0 -251.2747799636727 -36.961887071905494 0 -36.961887071905494 77.034691937106345 0 0 0 0 -40.981572916819147 8.7860852548548607 0 8.7860852548548607 -0.76340194350499591 0 0 0 0 -56.892094271289807 170.30124471699719 0 170.30124471699719 354.18787096312667 0 0 0 0 19.907755828318045 55.312607489161508 0 55.312607489161508 29.966491180471621 0 0 0 0 -98.186902461623049 211.52994688259969 0 211.52994688259969 -22.599865084911983 0 0 0 0 -57.592270344090139 65.652189161874048 0 65.652189161874048 57.23571784485506 0 0 0 0 -53.775314936357518 62.18457964489653 0 62.18457964489653 52.450789666534547 0 0 0 0 -63.033049577409265 10.920361772616133 0 10.920361772616133 -1.8526304205118094 0 0 0 0 -20.756767648747427 123.13515698764354 0 123.13515698764354 80.65990438602239 0 0 0 0 -60.097874897021939 70.778010318233555 0 70.778010318233555 197.51227517327794 0 0 0 0 -23.234265209010118 61.703865740021456 0 61.703865740021456 41.263046048488832 0 0 0 0 -56.004535813748589 60.535403656387189 0 60.535403656387189 51.235263907587978 0 0 0 0 -59.272254530122495 71.20006511330763 0 71.20006511330763 51.36428945636726 0 0 0 0 -55.055812496621002 68.814447860027258 0 68.814447860027258 18.526535876518437 0 0 0 0 -25.435050168828639 75.593506238367809 0 75.593506238367809 17.659037741385418 0 0 0 0 63.823335211466656 61.019629043329132 0 61.019629043329132 -4.5617891718420651 0 0 0 0 14.034585440134379 -20.205224991050272 0 -20.205224991050272 -73.801995841236476 0 0 0 0 -94.403914443751091 38.229764466944971 0 38.229764466944971 5.5421904829099731 0 0 0 0 -55.854920994698659 103.43655280463042 0 103.43655280463042 -44.888123338800142 0 0 0 0 -19.501424193960702 69.198901524515804 0 69.198901524515804 -119.01177992845578 0 0 0 0 -12.813290243402207 120.82968057470669 0 120.82968057470669 -172.36960765272852 0 0 0 0 1.7325129467893312 -0.067675594943226614 0 -0.067675594943226614 -1.7005940457782813 0 0 0 0 74.315243174499358 -53.780916918669831 0 -53.780916918669831 4.1748729139044372 0 0 0 0 23.165343269984987 7.1697835113875499 0 7.1697835113875499 -10.625325403440627 0 0 0 0 -0.83801506613185062 0.68897748999275876 0 0.68897748999275876 -1.7713999917403207 0 0 0 0 33.414048845447951 -3.6996039161892895 0 -3.6996039161892895 -9.5693666099875827 0 0 0 0 33.269033700504679 35.751211164550227 0 35.751211164550227 -9.1964926007365193 0 0 0 0 -38.038442177517936 -31.398010269760562 0 -31.398010269760562 -27.580404164164293 0 0 0 0 -24.034945553936609 3.4883226663515066 0 3.4883226663515066 9.3221756220749121 0 0 0 0 11.200278605710082 29.303193187666807 0 29.303193187666807 28.364899392528969 0 0 0 0 -23.724091363556632 7.1291725415748886 0 7.1291725415748886 10.766543334288343 0 0 0 0 8.9645591849248376 85.160554242632372 0 85.160554242632372 29.38768617126911 0 0 0 0 -43.249887847411628 -13.219056831905618 0 -13.219056831905618 -32.623644603128923 0 0 0 0 -60.454210750577204 -44.667754095218129 0 -44.667754095218129 0.21347930399815596 0 0 0 0 -64.361818892180963 5.5494828106902219 0 5.5494828106902219 22.569141241539228 0 0 0 0 -0.56679358161056115 3.0177911135306998 0 3.0177911135306998 -1.608116115834231 0 0 0 0 -113.50445234275185 50.700393375173007 0 50.700393375173007 51.532995119860743 0 0 0 0 -19.881940817524082 90.387107380254065 0 90.387107380254065 -82.619651008680009 0 0 0 0 -60.581782205026684 38.509734078372276 0 38.509734078372276 51.680608792180081 0 0 0 0 -36.285628972218092 19.649739117208526 0 19.649739117208526 63.395122513605088 0 0 0 0 -77.062981215545733 2.3989568665272145 0 2.3989568665272145 74.864384857815139 0 0 0 0 7.6029609391243866 43.797050282850478 0 43.797050282850478 41.609643323530804 0 0 0 0 -101.50498615762444 29.649732868094702 0 29.649732868094702 45.453211629286216 0 0 0 0 -72.881721524940076 1.1145156587439291 0 1.1145156587439291 73.840818720604446 0 0 0 0 -44.136467503158656 -1.677487129618763 0 -1.677487129618763 62.885813236658713 0 0 0 0 -26.890933821414908 7.4275723295544616 0 7.4275723295544616 9.9446455285965314 0 0 0 0 -35.115248421220258 33.301569661574135 0 33.301569661574135 65.741507874399986 0 0 0 0 -87.550100163183743 35.336160865888587 0 35.336160865888587 10.99811673752356 0 0 0 0 -2.5302563529193307 3.2959007465025518 0 3.2959007465025518 3.3060797682743326 0 0 0 0 -21.600122511935442 -0.0049412963583472802 0 -0.0049412963583472802 3.2842884363404843 0 0 0 0 -18.032780680629003 0.46898051313058886 0 0.46898051313058886 18.187409346797722 0 0 0 0 -14.941350112969957 -0.2234484078029233 0 -0.2234484078029233 9.8968098440411296 0 0 0 0 -40.407824821741087 -51.025998712487308 0 -51.025998712487308 4.8558666663793701 0 0 0 0 -37.823939598176821 -32.509559236792512 0 -32.509559236792512 -2.475673359999746 0 0 0 0 -61.931304612073291 -35.137465501970382 0 -35.137465501970382 -1.3532124371034229 0 0 0 0 -89.115982408717173 -42.139071402136096 0 -42.139071402136096 13.972001690587149 0 0 0 0 -66.527140485037307 -48.217677848613448 0 -48.217677848613448 2.5956697753013032 0 0 0 0 -56.207760603712813 -35.259889232759861 0 -35.259889232759861 5.3695712791059123 0 0 0 0 9.9388793506805087 -38.48030428497691 0 -38.48030428497691 -5.4992828381591607 0 0 0 0 -30.616245463756059 -59.413515367336004 0 -59.413515367336004 18.338468787391776 0 0 0 0 -34.786518640979921 -37.366937931030861 0 -37.366937931030861 13.90165958605985 0 0 0 0 -68.061649212888369 -51.107480487679481 0 -51.107480487679481 52.787012362348605 0 0 0 0 -112.35485790526491 -19.761746741047773 0 -19.761746741047773 49.81335903325953 0 0 0 0 -132.96962559635722 -65.923568151300913 0 -65.923568151300913 9.692477664987905 0 0 0 0 -58.093262222711019 -86.189594941933166 0 -86.189594941933166 66.995219055160987 0 0 0 0 -110.00529507190367 -31.663196699000594 0 -31.663196699000594 56.104009712834454 0 0 0 0 -220.86989750973953 -6.9045662789307016 0 -6.9045662789307016 62.634514358427623 0 0 0 0 -176.97329330804314 54.953199135466377 0 54.953199135466377 11.134789047608479 0 0 0 0 -127.6407148746257 -25.159275783955309 0 -25.159275783955309 64.59149324352606 0 0 0 0 -146.46360481297143 1.0578966770008549 0 1.0578966770008549 49.932209186235241 0 0 0 0 -137.27483857226252 -6.1169256422975309 0 -6.1169256422975309 51.322703005091853 0 0 0 0 -110.06185122060197 -2.0852173476407643 0 -2.0852173476407643 3.1188075982533316 0 0 0 0 -59.036886859583319 -33.670659077967002 0 -33.670659077967002 18.683233301338021 0 0 0 0 -16.213346115318927 -2.61085560333035 0 -2.61085560333035 5.7808731598097722 0 0 0 0 -27.495244060446566 24.888962324258728 0 24.888962324258728 23.413172593532181 0 0 0 0 -1.7946445750816196 4.0064644034883958 0 4.0064644034883958 6.4628714239422305 0 0 0 0 -9.5313219202271284 15.838024140924915 0 15.838024140924915 14.953729743508347 0 0 0 0 -72.898509544531407 12.233258281887643 0 12.233258281887643 28.50013344622721 0 0 0 0 -62.932877907438524 35.077985622996849 0 35.077985622996849 -1.2831719326906637 0 0 0 0 -1.6702585357846544 -0.019130299618868918 0 -0.019130299618868918 1.6384062082149389 0 0 0 0 -77.786923071129422 24.253575085071589 0 24.253575085071589 4.1304250600956038 0 0 0 0 -89.159124819204351 52.869350770783242 0 52.869350770783242 254.17950983442961 0 0 0 0 -83.460868473770461 -380.88627209534366 0 -380.88627209534366 530.22421713436256 0 0 0 0 -495.42911781342991 265.32861598801878 0 265.32861598801878 16.072688968024067 0 0 0 0 -389.64463230582624 -413.93334755365322 0 -413.93334755365322 -131.06141215390699 0 0 0 0 85.658248097779506 -28.197886349169494 0 -28.197886349169494 172.42196132618938 0 0 0 0 101.92976676532999 -612.13536616127249 0 -612.13536616127249 187.13678958185051 0 0 0 0 -0.59311466280144742 -0.83845288031434073 0 -0.83845288031434073 -0.37493798367977549 0 0 0 0 -162.50451887752843 -193.55194401973688 0 -193.55194401973688 -162.98015931859663 0 0 0 0 -200.33708418354581 -244.94726387569472 0 -244.94726387569472 -144.94017962016596 0 0 0 0 -245.70445312754873 -46.679621993666927 0 -46.679621993666927 6.411213991513705 0 0 0 0 -106.81815381746128 -184.16568693046781 0 -184.16568693046781 -161.91434211410615 0 0 0 0 -379.07489893602178 159.36530049477437 0 159.36530049477437 -68.955364581662707 0 0 0 0 -73.214124080425108 47.929222374231607 0 47.929222374231607 -29.327542892566271 0 0 0 0 -462.63306904119236 -162.58353280372188 0 -162.58353280372188 -29.029564140371349 0 0 0 0 -521.18671894663203 246.37651354242143 0 246.37651354242143 68.397639229600827 0 0 0 0 -265.97044637215004 257.18770952864998 0 257.18770952864998 -98.340966366756675 0 0 0 0 -179.74777938839543 -106.34302696735858 0 -106.34302696735858 -152.91688758826376 0 0 0 0 -523.27739882564492 -15.845759835151512 0 -15.845759835151512 -44.805789064636883 0 0 0 0 -190.6773146218402 86.909755312665311 0 86.909755312665311 -14.707028080025566 0 0 0 0 -91.359633965541434 103.87696145745122 0 103.87696145745122 -135.34074842588484 0 0 0 0 -313.93833108600666 188.65392548864429 0 188.65392548864429 -83.710527454561543 0 0 0 0 -199.33759871634948 43.495520337154915 0 43.495520337154915 -168.37270684215764 0 0 0 0 -119.01185452161008 215.94175404726889 0 215.94175404726889 -80.396985383934862 0 0 0 0 -94.884372349131809 232.1244343439472 0 232.1244343439472 -40.187933633933426 0 0 0 0 -144.96741095676407 300.29489060800847 0 300.29489060800847 -61.709920961614898 0 0 0 0 -187.12780424232551 326.48949217052268 0 326.48949217052268 34.993093267756194 0 0 0 0 -193.13649673726104 286.07334607635994 0 286.07334607635994 21.82979305408162 0 0 0 0 -180.05174566048299 -7.9167247667883203 0 -7.9167247667883203 214.02321354655237 0 0 0 0 28.374761560869956 90.320820106270276 0 90.320820106270276 194.54389143221192 0 0 0 0 -14.646251406531519 438.55337019011881 0 438.55337019011881 207.20684776249732 0 0 0 0 0.69311878140705829 -0.21126574491888661 0 -0.21126574491888661 0.23223686259046872 0 0 0 0 -210.15748198453002 -44.196728816426912 0 -44.196728816426912 -18.05580568462301 0 0 0 0 -26.220573922309995 -25.441442567372633 0 -25.441442567372633 -16.144047144848628 0 0 0 0 -23.65461258601772 -13.95318180406548 0 -13.95318180406548 20.454081800345193 0 0 0 0 -60.48574586295581 -28.661529632906877 0 -28.661529632906877 346.70170137530863 0 0 0 0 -45.412775751719892 127.81758105341555 0 127.81758105341555 263.43941078138096 0 0 0 0 -2.1463419340553997 -1.5042898642545666 0 -1.5042898642545666 5.2626965577314095 0 0 0 0 -21.375723255956473 -1.5538091877405122 0 -1.5538091877405122 9.4114122757829364 0 0 0 0 -14.646192752498678 3.5942068180240732 0 3.5942068180240732 9.8976621739298594 0 0 0 0 -13.318674096615531 0.87431593912507566 0 0.87431593912507566 7.4612976664790152 0 0 0 0 -20.250168123606272 1.8543775045804978 0 1.8543775045804978 16.237448694669638 0 0 0 0 -19.88061997177283 1.23470651478317 0 1.23470651478317 7.7690650675233428 0 0 0 0 -7.3747080010152786 30.957520100586635 0 30.957520100586635 55.700915533815532 0 0 0 0 -4.4236273243790976 5.154054084288525 0 5.154054084288525 -5.92254167681177 0 0 0 0 -283.85565571571533 62.714975985233991 0 62.714975985233991 -7.7085590865094673 0 0 0 0 106.43828309150376 134.25868266406565 0 134.25868266406565 -64.024980929513731 0 0 0 0 -1.0674793357035455 1.3927317418987677 0 1.3927317418987677 -2.4788314795439881 0 0 0 0 -56.890053660008562 -22.414590527966993 0 -22.414590527966993 40.647708880416644 0 0 0 0 -806.42424410798048 -69.489800266475299 0 -69.489800266475299 66.216741264036955 0 0 0 0 -470.2450167636689 295.2584044882077 0 295.2584044882077 56.488907981396096 0 0 0 0 -295.32419496822695 109.73500453441113 0 109.73500453441113 43.99807816126031 0 0 0 0 -330.47495945826722 62.012419683088808 0 62.012419683088808 53.243058963047133 0 0 0 0 -326.66355857076269 56.104938459546929 0 56.104938459546929 42.462481273638758 0 0 0 0 -329.21839874828765 83.762287524278918 0 83.762287524278918 27.079241254376711 0 0 0 0 -374.31216100711026 186.16130963650107 0 186.16130963650107 -61.209200689596173 0 0 0 0 -332.71026806922237 129.90934905463791 0 129.90934905463791 -37.050118302882879 0 0 0 0 1.8331441713953609 7.6503778628027703 0 7.6503778628027703 -4.6187726810128424 0 0 0 0 -10.420436094191246 -15.4851022018604 0 -15.4851022018604 -21.845137272507827 0 0 0 0 -1.1770357313889264 0.21043762873845395 0 0.21043762873845395 -1.4952218007208828 0 0 0 0 -35.991393679172688 25.882256726966688 0 25.882256726966688 149.56845370808011 0 0 0 0 -70.698040517538175 -50.274220862150059 0 -50.274220862150059 -6.0697335471469387 0 0 0 0 -35.717684835375621 -16.381064051796898 0 -16.381064051796898 22.891602039110694 0 0 0 0 -11.71677624872062 -4.0338511317696781 0 -4.0338511317696781 0.66133971396716962 0 0 0 0 -138.40899915710543 -166.37079393566245 0 -166.37079393566245 70.203118764578448 0 0 0 0 -4.0526019725846893 -2.0074273763202459 0 -2.0074273763202459 -1.0104831173090738 0 0 0 0 -363.01607963594506 331.02035362247318 0 331.02035362247318 -197.24452401552594 0 0 0 0 -247.52195871140248 200.4474218434446 0 200.4474218434446 -97.352763220399083 0 0 0 0 -19.607967150799595 -1.0286451699597023 0 -1.0286451699597023 10.852986122719471 0 0 0 0 -17.827815459662816 -1.4170642332000511 0 -1.4170642332000511 8.9985488780036462 0 0 0 0 -18.098674166403725 -0.85075996236361107 0 -0.85075996236361107 8.2639150600672551 0 0 0 0 -5.7220095758676699 -0.60399290916088688 0 -0.60399290916088688 5.0268723464173819 0 0 0 0 97.064675565312427 -61.631160037279869 0 -61.631160037279869 32.250978372431064 0 0 0 0 -4.6567915991650999 -0.80345268932574143 0 -0.80345268932574143 4.6263948542485416 0 0 0 0 -31.768936243209282 -62.003382317532242 0 -62.003382317532242 102.79450734571151 0 0 0 0 -17.722338122478504 -2.7064394585100815 0 -2.7064394585100815 0.77073639868579602 0 0 0 0 10.985634424361706 -23.909597035849515 0 -23.909597035849515 17.104523279699777 0 0 0 0 -149.46815830524611 -21.352669314159584 0 -21.352669314159584 90.33996957841498 0 0 0 0 -26.988286455847629 -158.97773135259774 0 -158.97773135259774 176.88924306133549 0 0 0 0 -358.13511581566854 187.01149361900298 0 187.01149361900298 194.53774203813185 0 0 0 0 62.678905876504359 111.97514329106569 0 111.97514329106569 132.88962816765519 0 0 0 0 -119.72632342624274 120.88970775029225 0 120.88970775029225 159.15750611875887 0 0 0 0 -70.831037972047852 94.186983201332168 0 94.186983201332168 90.911903511615492 0 0 0 0 213.3583623870054 -97.183543598537767 0 -97.183543598537767 -61.569435282425275 0 0 0 0 -60.014840895665145 10.708641590393256 0 10.708641590393256 -0.98663401785997218 0 0 0 0 -7.8399417716597277 3.0617080673656254 0 3.0617080673656254 -1.8550157566758294 0 0 0 0 -84.00173433773513 10.302670554125495 0 10.302670554125495 -0.83036623032942947 0 0 0 0 -96.528812772639867 -86.397023254889291 0 -86.397023254889291 148.83780883850113 0 0 0 0 -108.71739858700312 30.212649766275717 0 30.212649766275717 92.787411879557112 0 0 0 0 0.56867750416810736 23.393106911050744 0 23.393106911050744 -2.3627682694864127 0 0 0 0 -415.1886928859858 -192.78218063793895 0 -192.78218063793895 157.02016946007382 0 0 0 0 -116.37448540413607 -69.498345956795873 0 -69.498345956795873 207.35372918825965 0 0 0 0 -4.3419263567884627 -87.464390917423884 0 -87.464390917423884 96.968006822468851 0 0 0 0 -145.6688718444575 -122.52523901832564 0 -122.52523901832564 125.74407175450131 0 0 0 0 -6.8357356775943003 6.4551734658478814 0 6.4551734658478814 161.56312566362232 0 0 0 0 -166.10620565635872 -40.684180070823231 0 -40.684180070823231 148.26747623015126 0 0 0 0 -102.72492427447651 145.13284809617539 0 145.13284809617539 14.021763113243878 0 0 0 0 -189.50458574493541 -96.381881995968683 0 -96.381881995968683 93.579810225740403 0 0 0 0 -195.31922094431138 -53.218728622003255 0 -53.218728622003255 83.712176541939698 0 0 0 0 -224.94447797637986 -11.582358661912167 0 -11.582358661912167 147.75194383237499 0 0 0 0 -153.39960872041047 -21.104072911385629 0 -21.104072911385629 27.250598418522713 0 0 0 0 -204.34656350850855 -26.747320260546985 0 -26.747320260546985 99.856410129818869 0 0 0 0 -162.14472103520529 23.767530191134028 0 23.767530191134028 72.719005712727721 0 0 0 0 -196.34859116810509 -82.320755045590658 0 -82.320755045590658 17.977160877046117 0 0 0 0 -183.49530554349985 -52.466718776578091 0 -52.466718776578091 44.809272947823047 0 0 0 0 -179.95994318218436 -58.731258456276919 0 -58.731258456276919 6.8341288744618396 0 0 0 0 -177.38947471043502 -53.77689851005016 0 -53.77689851005016 0.90798963292854751 0 0 0 0 -182.62105015943234 -38.135684713413866 0 -38.135684713413866 3.5326232280453951 0 0 0 0 -179.0457507930073 -39.01223213811258 0 -39.01223213811258 2.5196071508671594 0 0 0 0 -188.88380961275834 -41.051404544215075 0 -41.051404544215075 2.4602375331651274 0 0 0 0 -216.25185632725334 -28.418489854837389 0 -28.418489854837389 -3.2983750392641014 0 0 0 0 -222.24571915287379 -35.706637862325806 0 -35.706637862325806 -11.481593947126385 0 0 0 0 -193.1746846233309 -58.673562846921413 0 -58.673562846921413 1.3710182515751512 0 0 0 0 -211.35801368169632 -45.069541041544198 0 -45.069541041544198 -17.508250945966211 0 0 0 0 -208.49268444464542 -47.044897981511895 0 -47.044897981511895 -38.142307997299213 0 0 0 0 -264.90429284274433 -21.094699531434344 0 -21.094699531434344 -14.172257368983992 0 0 0 0 -274.55197162176773 -34.380797973233712 0 -34.380797973233712 -29.270177554615657 0 0 0 0 -178.21590512117837 -33.302018343700183 0 -33.302018343700183 21.576550644061172 0 0 0 0 -173.84705077255785 -38.075157567405768 0 -38.075157567405768 -16.770339413567854 0 0 0 0 -124.81740124004136 10.211256558596688 0 10.211256558596688 -9.2886108479247014 0 0 0 0 -68.427215866162442 -155.57322413815837 0 -155.57322413815837 611.64593885988563 0 0 0 0 -181.15796710615541 57.468368113539896 0 57.468368113539896 -19.446535241543188 0 0 0 0 -356.87858754857734 118.03189667380877 0 118.03189667380877 437.79147994108246 0 0 0 0 -147.95176177783287 -21.934577308123153 0 -21.934577308123153 -49.85076843308525 0 0 0 0 -493.6415103016061 226.09160862448198 0 226.09160862448198 328.71207429694982 0 0 0 0 -183.28530115219473 -39.110223965828482 0 -39.110223965828482 -58.16810775016711 0 0 0 0 -262.87514692427067 -21.120641710074779 0 -21.120641710074779 -49.712025384200388 0 0 0 0 -99.905385131671693 6.9976203840138709 0 6.9976203840138709 8.1244037035833703 0 0 0 0 -493.59355628268895 214.36851314138585 0 214.36851314138585 322.29272411979559 0 0 0 0 -266.70135770423803 -47.495070340086386 0 -47.495070340086386 -34.477643568155145 0 0 0 0 -272.69002788746729 -8.200339906130921 0 -8.200339906130921 -46.029221602180769 0 0 0 0 -326.24691049457761 -47.018566210041172 0 -47.018566210041172 -73.703174250971642 0 0 0 0 -655.49247733272932 85.343610079218024 0 85.343610079218024 335.23167057197634 0 0 0 0 -321.4623645033862 50.164685195735501 0 50.164685195735501 335.79871918199922 0 0 0 0 -131.85404687227492 30.157349591972888 0 30.157349591972888 56.741750268361116 0 0 0 0 -99.3478393281884 27.599512171917723 0 27.599512171917723 1.3714992290255954 0 0 0 0 -481.10090227675391 62.273172153352789 0 62.273172153352789 -80.440271032457531 0 0 0 0 -738.04051638079181 266.86092584024937 0 266.86092584024937 -137.96292968260968 0 0 0 0 -9.842656487200518 4.6119306816006791 0 4.6119306816006791 -1.4712167170479109 0 0 0 0 -376.69578820691095 142.9523455996532 0 142.9523455996532 -136.22039354243128 0 0 0 0 -160.42864603366434 48.523595890733077 0 48.523595890733077 -41.816358683972794 0 0 0 0 -42.981664715765874 99.696601105720219 0 99.696601105720219 -182.2810018043383 0 0 0 0 -227.89899409521604 37.638013805290029 0 37.638013805290029 -72.05767327583817 0 0 0 0 -292.16624139846135 27.349383404458422 0 27.349383404458422 -22.019397305219172 0 0 0 0 -230.1432804823271 9.6726045497034647 0 9.6726045497034647 -16.982077585556908 0 0 0 0 -229.01246198523222 28.259793505692699 0 28.259793505692699 -34.755342739124899 0 0 0 0 -185.61662330976833 40.339808712810736 0 40.339808712810736 -19.638129751805309 0 0 0 0 -225.69495616393397 43.002271918297993 0 43.002271918297993 -19.719078232834363 0 0 0 0 -198.96761808894371 -4.9658268163202592 0 -4.9658268163202592 -3.5612477715840214 0 0 0 0 -246.62240436911452 8.5034944465182889 0 8.5034944465182889 -7.1428611323899531 0 0 0 0 -165.8940157617908 23.147482549519736 0 23.147482549519736 -10.100389405875831 0 0 0 0 -212.88454355876274 -6.9887914131913931 0 -6.9887914131913931 1.8167703078797786 0 0 0 0 -144.65078846091819 34.026582373299789 0 34.026582373299789 -4.6149031894201471 0 0 0 0 -164.61492546224326 -8.819674580145147 0 -8.819674580145147 2.3645875750694358 0 0 0 0 -161.51331526919239 -10.54096526577132 0 -10.54096526577132 2.0076210000734136 0 0 0 0 -127.86913508419457 64.725237614258276 0 64.725237614258276 -39.751692862370874 0 0 0 0 -117.04136883966203 78.337827885545721 0 78.337827885545721 12.872425267623385 0 0 0 0 -133.57222773141439 51.312879606346542 0 51.312879606346542 -27.188577019572222 0 0 0 0 -103.53073620750729 44.231249669016051 0 44.231249669016051 -22.496950064356497 0 0 0 0 -153.16390745538774 68.205812632880679 0 68.205812632880679 51.116142918495825 0 0 0 0 -128.21841810473234 83.695031489101893 0 83.695031489101893 60.173504004644201 0 0 0 0 -166.03307866042451 120.55287693176297 0 120.55287693176297 30.716007904915386 0 0 0 0 -99.637735134601741 25.651825698869104 0 25.651825698869104 -0.34466377495521627 0 0 0 0 -173.35189147353503 49.355946057755773 0 49.355946057755773 44.505319983886693 0 0 0 0 -121.6328595095074 50.953518623014133 0 50.953518623014133 -50.051435393101201 0 0 0 0 -159.13098017841162 12.148623374091187 0 12.148623374091187 49.454143958588247 0 0 0 0 -153.02227111598017 46.504695590437336 0 46.504695590437336 14.881979528766351 0 0 0 0 -169.07260075153681 102.18985424830601 0 102.18985424830601 -23.720630249655187 0 0 0 0 -222.80854955108589 60.37541019820128 0 60.37541019820128 23.98619241466622 0 0 0 0 -198.41771562841041 16.123384229929343 0 16.123384229929343 21.893667742122489 0 0 0 0 -174.54332894211439 46.617426904268996 0 46.617426904268996 0.15191125545879913 0 0 0 0 -149.94849762609374 53.65369071302257 0 53.65369071302257 -19.9249393829582 0 0 0 0 -50.576359049553503 7.8414770655040229 0 7.8414770655040229 -16.854504012213056 0 0 0 0 2.1869809576768926 1.6671538131437273 0 1.6671538131437273 13.078524500045196 0 0 0 0 -326.9976411479247 17.937763737844065 0 17.937763737844065 93.605169673397313 0 0 0 0 -165.72658326150668 34.814217864844068 0 34.814217864844068 -4.1262176177592664 0 0 0 0 -239.42013904229862 225.16029537186614 0 225.16029537186614 -489.56728046163289 0 0 0 0 -595.52233297617931 173.10981610103221 0 173.10981610103221 114.61821400733544 0 0 0 0 -17.80906031067795 8.7333503812591928 0 8.7333503812591928 24.560321252398694 0 0 0 0 -137.68680916153971 4.2921071032287728 0 4.2921071032287728 42.520303058166064 0 0 0 0 -131.49723858966536 24.651224664769416 0 24.651224664769416 9.1008409595506237 0 0 0 0 -89.975312767294781 6.4504360443385167 0 6.4504360443385167 25.529057529756756 0 0 0 0 -672.32761118095004 -65.328669321431789 0 -65.328669321431789 105.67667603954851 0 0 0 0 -99.927805136265675 5.4158155471723735 0 5.4158155471723735 4.0570066644220102 0 0 0 0 -872.25837660959314 13.858016457709937 0 13.858016457709937 131.11949373608786 0 0 0 0 -32.239524175034937 5.1091080464593368 0 5.1091080464593368 0.98343645565240934 0 0 0 0 -25.936477161599903 2.0422442162094221 0 2.0422442162094221 20.259807498138066 0 0 0 0 -406.465710692416 -82.211459265007448 0 -82.211459265007448 -231.43128079790677 0 0 0 0 -510.15548348671655 -218.84516776493945 0 -218.84516776493945 -331.62935486303286 0 0 0 0 -948.11135832454602 -283.76462191018231 0 -283.76462191018231 -55.081558104168835 0 0 0 0 -1181.8770328999126 259.62713468602493 0 259.62713468602493 -299.39785277575629 0 0 0 0 -33.400730136609596 2.5631870394861949 0 2.5631870394861949 -3.7790338641093335 0 0 0 0 -1118.9207634432278 98.553925666976511 0 98.553925666976511 21.983724533277382 0 0 0 0 -637.45709997093581 53.74047171785196 0 53.74047171785196 -1.0036482048180346 0 0 0 0 -99.739987749002495 18.515716855649238 0 18.515716855649238 0.32792640738048906 0 0 0 0 -785.23862775626185 11.140533850172687 0 11.140533850172687 70.026359465309724 0 0 0 0 -168.76255346608013 55.274174183772629 0 55.274174183772629 -15.648741991609398 0 0 0 0 -27.279241151524758 -0.79457241165177805 0 -0.79457241165177805 -11.267285652177456 0 0 0 0 -99.672592286188817 23.213182163601751 0 23.213182163601751 -1.2027862386778225 0 0 0 0 -146.59381285509153 -149.65078211371201 0 -149.65078211371201 318.86943743158281 0 0 0 0 -206.95748143049786 13.87602336751354 0 13.87602336751354 179.40770159344538 0 0 0 0 -168.22165279578985 54.186105211208542 0 54.186105211208542 112.24240796484105 0 0 0 0 -203.8015750368013 30.705711775402733 0 30.705711775402733 146.53271784683511 0 0 0 0 -169.48409316272318 118.22848224204932 0 118.22848224204932 132.92430117236881 0 0 0 0 -161.33062269476613 52.55661209915786 0 52.55661209915786 -23.772550245726052 0 0 0 0 -148.37335753580737 86.042187086827653 0 86.042187086827653 -25.329243909962074 0 0 0 0 -3.7125421800615079 -8.5093258716786639 0 -8.5093258716786639 -3.8167700620360101 0 0 0 0 -147.51705296364617 -130.74285037513653 0 -130.74285037513653 -95.69388615461321 0 0 0 0 -260.2277094037745 -5.4570013715455161 0 -5.4570013715455161 5.9506717653530359 0 0 0 0 -565.67326800289175 -36.804668430797847 0 -36.804668430797847 35.275177212253766 0 0 0 0 -665.05519459418792 -10.736268424686386 0 -10.736268424686386 85.405586254155878 0 0 0 0 -680.13815292895106 25.410348655804228 0 25.410348655804228 71.628996137633294 0 0 0 0 -949.61336180110266 17.989777816538435 0 17.989777816538435 137.52478737984632 0 0 0 0 -817.98654722416904 -263.67105141772163 0 -263.67105141772163 28.279468409386482 0 0 0 0 -786.96327813134758 -76.736499710350472 0 -76.736499710350472 123.5442430264311 0 0 0 0 -810.23009322912731 -48.795617776716426 0 -48.795617776716426 132.40012548392252 0 0 0 0 -693.18169414464683 -50.139183121654924 0 -50.139183121654924 -100.36020061267618 0 0 0 0 -886.79588888356011 -45.230734381001866 0 -45.230734381001866 124.57207581250077 0 0 0 0 -760.94957532255648 -144.28715974666147 0 -144.28715974666147 -218.51155003207441 0 0 0 0 -743.45037984109786 69.25212403212106 0 69.25212403212106 -190.39645433610394 0 0 0 0 -4.5660647163147843 -1.8175057108575956 0 -1.8175057108575956 -0.59993650626831929 0 0 0 0 -969.9994363605565 -148.80789383469062 0 -148.80789383469062 17.584976968854335 0 0 0 0 -818.82523175704455 262.80540278482636 0 262.80540278482636 -44.125863611495333 0 0 0 0 -89.32099694894714 -25.31065575956336 0 -25.31065575956336 -76.091747622226308 0 0 0 0 -81.06015274068568 4.8452548887381681 0 4.8452548887381681 -13.704881990846388 0 0 0 0 -166.83998815398263 -254.233286764696 0 -254.233286764696 -190.55477603992358 0 0 0 0 -54.260812845230248 77.24924855694519 0 77.24924855694519 -26.312961003718556 0 0 0 0 -16.50598731883656 29.837804138396223 0 29.837804138396223 32.841514025607012 0 0 0 0 -7.9631663367805245 -4.5297483217242061 0 -4.5297483217242061 1.2511770967772193 0 0 0 0 -14.498846849855838 -0.93008830129202291 0 -0.93008830129202291 -2.8761977209433489 0 0 0 0 -29.042408855428221 -6.8437072166725557 0 -6.8437072166725557 12.432863856295626 0 0 0 0 -37.656998999428936 -9.2384799205976691 0 -9.2384799205976691 10.480701477102675 0 0 0 0 -13.414244333238457 -7.2473646830949292 0 -7.2473646830949292 8.87413685613501 0 0 0 0 -30.449813690441324 -9.0271932608204999 0 -9.0271932608204999 5.5402625389108326 0 0 0 0 -107.64717085083066 -18.794890006470723 0 -18.794890006470723 78.828161583387555 0 0 0 0 -57.73555253444647 46.708165299482516 0 46.708165299482516 -22.237379907794434 0 0 0 0 -73.637511908544184 26.307793705592985 0 26.307793705592985 79.187061815979177 0 0 0 0 -30.647561357921845 15.479685960470544 0 15.479685960470544 -10.801200835350542 0 0 0 0 -57.231574068347982 -1.5323801012082185 0 -1.5323801012082185 -19.98927173656557 0 0 0 0 -89.89165137432974 -36.509922944417838 0 -36.509922944417838 28.86067275545247 0 0 0 0 -45.8652964820958 95.54280577460338 0 95.54280577460338 168.79690547515793 0 0 0 0 5.0081888786080526 -114.53250908575826 0 -114.53250908575826 19.432496466006612 0 0 0 0 -64.426248463129014 17.429275187006624 0 17.429275187006624 -84.950952208450929 0 0 0 0 -17.230831407729362 12.765383081277143 0 12.765383081277143 -9.3419288414161876 0 0 0 0 -574.61408955265097 -206.53036520834877 0 -206.53036520834877 47.811032741361942 0 0 0 0 -523.49727248126146 9.9541278019564743 0 9.9541278019564743 25.29841768388394 0 0 0 0 -6.4377813142277773 4.6350262560734699 0 4.6350262560734699 -4.3387403403862841 0 0 0 0 -1656.9309437262036 -720.10576252280532 0 -720.10576252280532 -195.55417005799947 0 0 0 0 -73.747902797553252 508.8139148974135 0 508.8139148974135 -130.95329262890871 0 0 0 0 -1734.1596353258305 350.27134460785265 0 350.27134460785265 535.8334999272347 0 0 0 0 -805.32893133517246 98.413503771731257 0 98.413503771731257 67.852608370490316 0 0 0 0 -1003.4229845011287 24.896065595221444 0 24.896065595221444 115.80876050823599 0 0 0 0 -170.25782017348592 59.015732587179627 0 59.015732587179627 -16.864710507340533 0 0 0 0 -29.458825405825337 103.50678061998406 0 103.50678061998406 -86.615203753460264 0 0 0 0 -0.28938393019560849 0.65471754677833971 0 0.65471754677833971 3.9150649624085041 0 0 0 0 -53.530002462710399 -2.4324128473419933 0 -2.4324128473419933 -18.445309083701886 0 0 0 0 -139.53270337137292 -15.504749530075969 0 -15.504749530075969 15.603133430569869 0 0 0 0 -158.6841330308489 78.434632429765088 0 78.434632429765088 1.3977924763939882 0 0 0 0 -181.20018406844974 9.7683254038702216 0 9.7683254038702216 -81.549112579873054 0 0 0 0 -247.09321440547501 153.26657883586722 0 153.26657883586722 -115.16043400817978 0 0 0 0 -278.7769443910347 37.08202887821335 0 37.08202887821335 -0.60640568825408536 0 0 0 0 -41.244595039675005 51.151702015723686 0 51.151702015723686 -128.24201883929436 0 0 0 0 -243.08386858254926 132.07911930732371 0 132.07911930732371 -35.533579328100132 0 0 0 0 -4.2861677655827464 -1.0489675065546749 0 -1.0489675065546749 -0.67961864050694665 0 0 0 0 -238.54170537950267 -32.047214983616414 0 -32.047214983616414 -14.112332428224363 0 0 0 0 -192.11131878303422 -12.350273297129661 0 -12.350273297129661 18.242185805154577 0 0 0 0 46.072225628500746 -20.345011479324057 0 -20.345011479324057 -15.144205443307783 0 0 0 0 -21.904617015524721 -3.2945391291304702 0 -3.2945391291304702 2.307228854615321 0 0 0 0 -320.78800855609461 145.99253957508859 0 145.99253957508859 -22.711309386975699 0 0 0 0 -103.31277377898368 92.390403852922191 0 92.390403852922191 -23.632628155602887 0 0 0 0 -311.72350029527661 249.44650281953659 0 249.44650281953659 -122.41916295112151 0 0 0 0 2.1790092793335134 92.885681526277949 0 92.885681526277949 89.917342732162069 0 0 0 0 -154.23527082296278 -88.288152262711264 0 -88.288152262711264 27.465273998117254 0 0 0 0 -2.7995952507804418 0.51034381537781481 0 0.51034381537781481 1.1584790209773255 0 0 0 0 -31.810831776704187 -25.410869934349741 0 -25.410869934349741 9.3189360928011133 0 0 0 0 -82.104433968419471 -16.892797631805593 0 -16.892797631805593 52.372431439136562 0 0 0 0 88.500305251987811 -23.702460221717502 0 -23.702460221717502 -7.1407097705432534 0 0 0 0 0.06267150113166764 -5.9346975365031422 0 -5.9346975365031422 0.7497246028185236 0 0 0 0 -63.398169436899479 -40.466531419250771 0 -40.466531419250771 28.656985831123791 0 0 0 0 -394.74605712754419 41.07859376141414 0 41.07859376141414 64.302411696233321 0 0 0 0 -231.76328675305194 -85.498348052978827 0 -85.498348052978827 87.383382895602779 0 0 0 0 -229.9127746250997 -90.822919718515095 0 -90.822919718515095 -36.992130089550983 0 0 0 0 -223.2084829379728 155.83595749991423 0 155.83595749991423 -132.80369493569196 0 0 0 0 -127.12698840817211 106.6922650589986 0 106.6922650589986 -171.67430215812738 0 0 0 0 -195.22051660431862 49.682916309858456 0 49.682916309858456 -136.04251274099761 0 0 0 0 -374.80446202799612 121.65399047537358 0 121.65399047537358 -3.6271988837418121 0 0 0 0 10.977151208036958 155.77610074570771 0 155.77610074570771 -142.69000858812024 0 0 0 0 20.264371566045156 10.922237701855693 0 10.922237701855693 -185.92486310980166 0 0 0 0 -176.54729458430575 113.84941439459266 0 113.84941439459266 74.501086301911528 0 0 0 0 -90.071518478525832 101.86844035910144 0 101.86844035910144 -229.13912006639475 0 0 0 0 -131.49159280613458 93.97270759283424 0 93.97270759283424 -169.27778026741908 0 0 0 0 -100.12096027640655 73.69595884890964 0 73.69595884890964 -69.641697227320719 0 0 0 0 -0.46886831698303588 -0.51704538649785903 0 -0.51704538649785903 -0.71564003563839762 0 0 0 0 -151.74768685394884 151.81837871385483 0 151.81837871385483 -147.66806308572541 0 0 0 0 10.800435689825463 -0.36662991915136445 0 -0.36662991915136445 -3.9706219072068052 0 0 0 0 3.2139403471171306 2.506154807920721 0 2.506154807920721 0.29895388199973372 0 0 0 0 29.698110869718221 15.439367585801051 0 15.439367585801051 -22.638637166576473 0 0 0 0 1.8599964307387662 -6.8213817250388402 0 -6.8213817250388402 -11.01185186960107 0 0 0 0 -71.392632783610679 -33.119909019088709 0 -33.119909019088709 -51.110219172168172 0 0 0 0 -96.713921711159855 -29.073727011250298 0 -29.073727011250298 -18.900155028572954 0 0 0 0 -58.817660068601981 -17.602949144648051 0 -17.602949144648051 -34.698883925219207 0 0 0 0 -113.72128042846452 -71.826025183241882 0 -71.826025183241882 -120.17362542117417 0 0 0 0 -3.9489533076999521 -1.0914473494164074 0 -1.0914473494164074 -0.49832612119460196 0 0 0 0 -143.99439950430678 250.72839215207568 0 250.72839215207568 -35.192729131364786 0 0 0 0 46.638654760776262 37.057145192212602 0 37.057145192212602 -213.11785085396241 0 0 0 0 166.70422883672654 -198.17617553132868 0 -198.17617553132868 -411.12691069896778 0 0 0 0 -348.96096062214747 138.54841999800874 0 138.54841999800874 189.36988094156459 0 0 0 0 -17.666615514048317 -90.662271206298271 0 -90.662271206298271 13.857899117405282 0 0 0 0 -26.977907399280507 -33.937183871167157 0 -33.937183871167157 -1.5460420264277102 0 0 0 0 -77.643632366816746 -88.161318862614962 0 -88.161318862614962 27.549232797864533 0 0 0 0 -22.840493831165077 -20.984883151151848 0 -20.984883151151848 -18.70339508196048 0 0 0 0 -16.924113238766715 -5.0422055916666331 0 -5.0422055916666331 0.10608536653808198 0 0 0 0 -28.185346583729981 -37.833902570313839 0 -37.833902570313839 -9.2260446977797663 0 0 0 0 57.874758083435154 -132.28403752231225 0 -132.28403752231225 -14.501979040971491 0 0 0 0 -135.21760189284396 -71.968752217249062 0 -71.968752217249062 194.87579613699836 0 0 0 0 16.609777639983804 -44.31521324246296 0 -44.31521324246296 28.0944868304191 0 0 0 0 264.30281165573251 -96.486038259083216 0 -96.486038259083216 -44.625545510664779 0 0 0 0 -16.974317046442394 -9.7217777908842393 0 -9.7217777908842393 1.9671151809092251 0 0 0 0 -269.15295954165049 -54.586837479902329 0 -54.586837479902329 60.920585356517677 0 0 0 0 -60.506371366182066 -149.83279809644478 0 -149.83279809644478 -9.3024816195911626 0 0 0 0 -160.36546538538823 -11.187393837043601 0 -11.187393837043601 45.90586863662611 0 0 0 0 -383.47010355172461 -258.41080853944118 0 -258.41080853944118 -82.14562035176823 0 0 0 0 -35.655356160321389 -43.407177983774091 0 -43.407177983774091 -28.094550956336889 0 0 0 0 -97.558861702775175 -119.8159909774522 0 -119.8159909774522 75.490341788147816 0 0 0 0 34.102496709881962 -182.99259821215105 0 -182.99259821215105 52.940136058487042 0 0 0 0 36.433872701418295 -49.989240408557635 0 -49.989240408557635 -71.53738791275191 0 0 0 0 -14.840141019797702 -33.035236780789738 0 -33.035236780789738 -17.929603764663081 0 0 0 0 -65.767683453270365 -18.310027518233255 0 -18.310027518233255 -17.319774205655449 0 0 0 0 -5.9286755664236184 -9.2384069176229673 0 -9.2384069176229673 -16.53717913781831 0 0 0 0 9.3607210055733958 -43.314304744823289 0 -43.314304744823289 -36.963430920021437 0 0 0 0 30.955838479816521 -22.286972655199094 0 -22.286972655199094 -59.221122137846237 0 0 0 0 -31.508959726310422 -71.941179597873628 0 -71.941179597873628 -74.669246254696702 0 0 0 0 3.5075211035518805 -28.287017871584624 0 -28.287017871584624 -73.780618419883666 0 0 0 0 1.9033994404985606 -14.09314133965762 0 -14.09314133965762 -68.043750745787747 0 0 0 0 2.6054953850409674 1.7701045065806369 0 1.7701045065806369 9.5343012146531692 0 0 0 0 -87.157805421662488 -15.273254834896761 0 -15.273254834896761 -3.7250404538751809 0 0 0 0 -169.20877688090332 -80.26331005877671 0 -80.26331005877671 21.945368605192925 0 0 0 0 -26.039668831816964 -35.985272134816071 0 -35.985272134816071 -14.364911737913648 0 0 0 0 -51.6880609722175 -27.89879551875481 0 -27.89879551875481 -14.839485885016074 0 0 0 0 -1145.9862743840786 60.663799899320566 0 60.663799899320566 -148.50816228252279 0 0 0 0 -809.42942144791232 126.7473394419585 0 126.7473394419585 -284.9190520832808 0 0 0 0 -1426.82595671323 -43.096756196230331 0 -43.096756196230331 -75.248426651573482 0 0 0 0 -1.7185362595556732 -2.5919409259483608 0 -2.5919409259483608 -3.1582054316379917 0 0 0 0 -893.64496547802264 -366.85996196430585 0 -366.85996196430585 -909.97300926018784 0 0 0 0 -340.80033775013362 303.23551951643753 0 303.23551951643753 -306.54756889836062 0 0 0 0 -328.21696037007007 105.82296467594419 0 105.82296467594419 -92.259501246414402 0 0 0 0 -1060.2975188015098 547.64395620077437 0 547.64395620077437 -96.401342976673419 0 0 0 0 -518.7954139194153 284.52544242833847 0 284.52544242833847 -180.0342830209479 0 0 0 0 -517.88388475143802 268.55261163439354 0 268.55261163439354 -57.574114580832429 0 0 0 0 -928.28797414822111 255.71375267264489 0 255.71375267264489 -110.60908177240253 0 0 0 0 -273.51767102945087 192.17967607539663 0 192.17967607539663 -193.03679797876703 0 0 0 0 -216.93691411511827 127.752591692343 0 127.752591692343 -114.60473831072932 0 0 0 0 -130.52168080013507 -39.092905061177817 0 -39.092905061177817 41.391475253426961 0 0 0 0 -79.703882328891268 -20.368346006344439 0 -20.368346006344439 -80.752345434503695 0 0 0 0 -294.20767384282726 89.956724909821688 0 89.956724909821688 -25.791795624011684 0 0 0 0 -417.91542353980549 141.09134261476174 0 141.09134261476174 88.897597424469495 0 0 0 0 -216.968588443935 87.69306417412372 0 87.69306417412372 -55.500602443781872 0 0 0 0 -751.75494874200012 219.17235888625328 0 219.17235888625328 70.716229045293403 0 0 0 0 -449.7113983348404 273.7232301187193 0 273.7232301187193 -76.188325728343443 0 0 0 0 -352.76082573303938 200.86744214108876 0 200.86744214108876 39.391623677035568 0 0 0 0 -516.16731580295527 303.44139213113885 0 303.44139213113885 -15.022474342356873 0 0 0 0 -454.86308703349641 187.93939793665049 0 187.93939793665049 89.636743621219466 0 0 0 0 -506.45606271130464 143.93662544396614 0 143.93662544396614 69.723163619624756 0 0 0 0 -487.33446981230668 9.5850729973504372 0 9.5850729973504372 183.42607634326305 0 0 0 0 -673.38034599473667 -15.923594073260119 0 -15.923594073260119 56.72594957470028 0 0 0 0 -802.92650544157186 191.93987830007427 0 191.93987830007427 -19.132046456377793 0 0 0 0 -583.29272734421465 227.18487362360429 0 227.18487362360429 -18.083045007532746 0 0 0 0 -668.46035722551824 128.79269815575071 0 128.79269815575071 -185.13471463265887 0 0 0 0 -416.84363626015238 159.02671447278954 0 159.02671447278954 434.11999779805228 0 0 0 0 -429.16431963355171 94.159617228493516 0 94.159617228493516 193.60810731730271 0 0 0 0 -478.43904336362175 140.41052853215024 0 140.41052853215024 205.7693517487096 0 0 0 0 -387.99079863783845 66.065492299793732 0 66.065492299793732 212.10257460719549 0 0 0 0 -17.170535855326307 214.12272770387199 0 214.12272770387199 26.107381961598549 0 0 0 0 -379.39330553707259 21.744161711986635 0 21.744161711986635 113.37304072724146 0 0 0 0 -444.79546267663318 322.91102173323839 0 322.91102173323839 -1.4763460292961099 0 0 0 0 -1467.6699295072995 -508.14476026249486 0 -508.14476026249486 56.250462718009658 0 0 0 0 -3.3070740487287438 2.734579539694181 0 2.734579539694181 -5.0337151574567827 0 0 0 0 -882.85359325914942 -116.84683868618777 0 -116.84683868618777 -99.618254707314918 0 0 0 0 -594.04458201801754 -308.42098346097828 0 -308.42098346097828 -134.69210446524448 0 0 0 0 -489.96216834442384 -132.76746794605151 0 -132.76746794605151 -40.393092667385645 0 0 0 0 -269.56552863588149 -225.97092730453551 0 -225.97092730453551 -247.7849664221693 0 0 0 0 -894.84823090751888 -534.36157415349317 0 -534.36157415349317 -239.1364561582559 0 0 0 0 -1088.974242415803 -697.01222319143017 0 -697.01222319143017 -155.72082048331529 0 0 0 0 -1303.8259869385129 53.662620860720381 0 53.662620860720381 -175.13400836943765 0 0 0 0 -2.7481459576021336 9.4399254045114347 0 9.4399254045114347 -16.77306477311631 0 0 0 0 48.362824297095358 -195.68746471715895 0 -195.68746471715895 147.49391534902679 0 0 0 0 -350.99714570162905 6.3993355412058008 0 6.3993355412058008 115.49933412747964 0 0 0 0 -937.56632407986581 -163.23484113609493 0 -163.23484113609493 -49.840145325611957 0 0 0 0 -432.42914066151934 -259.80837191759838 0 -259.80837191759838 384.86880671895051 0 0 0 0 -693.838536354604 28.706699387512344 0 28.706699387512344 256.04971329459295 0 0 0 0 -1033.4748055495947 57.499835378061107 0 57.499835378061107 243.32287915336201 0 0 0 0 -413.81682758275565 -763.65683310301847 0 -763.65683310301847 854.38241839247348 0 0 0 0 -2595.9447496519715 -63.210807899500651 0 -63.210807899500651 1514.3401214505866 0 0 0 0 -1254.2255035812632 891.80119600156104 0 891.80119600156104 -178.63874484783082 0 0 0 0 -682.75404607303062 279.1725194125811 0 279.1725194125811 307.09582190967194 0 0 0 0 -246.20297299012236 180.47461895285778 0 180.47461895285778 -106.93125867423487 0 0 0 0 -514.8548416540998 101.03789945329663 0 101.03789945329663 194.93400796609058 0 0 0 0 4.4498523491516266 -2.2455654247704118 0 -2.2455654247704118 -3.4711720806144299 0 0 0 0 125.76835816550374 302.64423739593985 0 302.64423739593985 313.74863409893806 0 0 0 0 -797.88384533848694 -197.53451975708049 0 -197.53451975708049 68.331913831389102 0 0 0 0 -29.353487162083184 -54.14431115331297 0 -54.14431115331297 -51.956402418100879 0 0 0 0 27.47313029234283 -26.306599251329317 0 -26.306599251329317 -115.00613455500388 0 0 0 0 1.6703780952269005 -38.207260349963306 0 -38.207260349963306 -36.131675487971862 0 0 0 0 -46.052878188433169 -48.554831932240177 0 -48.554831932240177 -32.252006347381666 0 0 0 0 -85.161313401309599 -77.728036219310638 0 -77.728036219310638 -44.507305226059088 0 0 0 0 -37.705392586816743 -67.902437614636256 0 -67.902437614636256 -47.434862501115504 0 0 0 0 -38.581651379039613 -66.750455403204569 0 -66.750455403204569 -46.949793896206984 0 0 0 0 -51.349669191535213 -71.39155536838382 0 -71.39155536838382 -45.459476793153499 0 0 0 0 -63.429714196503483 -93.610168813896649 0 -93.610168813896649 -62.585063575111008 0 0 0 0 -11.973064188465287 -39.090580224748351 0 -39.090580224748351 -38.075330970266123 0 0 0 0 -20.946767810322854 -31.968042299884473 0 -31.968042299884473 -5.2739724490229491 0 0 0 0 -20.853116932525154 -52.098559148536935 0 -52.098559148536935 -35.153277551692554 0 0 0 0 -31.509375908794027 -75.584756460365043 0 -75.584756460365043 -53.830621735091881 0 0 0 0 -232.64093747580409 -92.508138560991028 0 -92.508138560991028 33.541584113441786 0 0 0 0 -32.90025086382866 -42.298884331516888 0 -42.298884331516888 -44.023349931182565 0 0 0 0 7.614716718235286 -83.757630944524863 0 -83.757630944524863 -18.870286769784911 0 0 0 0 11.483107381886342 6.2163559602678795 0 6.2163559602678795 -7.1740826604192955 0 0 0 0 445.34267695233575 -40.005806604285169 0 -40.005806604285169 -247.12993935857958 0 0 0 0 -114.95731178784627 118.70422335115927 0 118.70422335115927 201.64771580346132 0 0 0 0 1.6460437173583777 -4.4425140258835754 0 -4.4425140258835754 -0.56102433953731889 0 0 0 0 -816.54303324613284 400.81944747423131 0 400.81944747423131 -218.57454135169951 0 0 0 0 -285.92924409023544 -251.7616872520266 0 -251.7616872520266 -30.286182059135172 0 0 0 0 0.29032306012959452 81.14259617022708 0 81.14259617022708 -303.45872573860561 0 0 0 0 -365.03924338474781 -286.23906853442105 0 -286.23906853442105 -15.491361077183683 0 0 0 0 0.39241418000183348 -2.3630295934732857 0 -2.3630295934732857 -0.86636791253084766 0 0 0 0 60.199681817794044 -195.61562009382487 0 -195.61562009382487 -77.179103297630718 0 0 0 0 598.0735316248938 42.346021486049722 0 42.346021486049722 -280.12618033831859 0 0 0 0 17.281869056639607 94.998096309816674 0 94.998096309816674 -43.604470198202762 0 0 0 0 -4.4628610279323766 72.814443804075381 0 72.814443804075381 -75.018965795321492 0 0 0 0 -6.4859190478009623 -59.68191479527286 0 -59.68191479527286 -207.79046696529986 0 0 0 0 -553.47588770862058 18.889072703634156 0 18.889072703634156 -41.30544521552838 0 0 0 0 -41.352952803481458 -122.96864473211372 0 -122.96864473211372 -158.48216705913728 0 0 0 0 -178.98784814399551 59.364614821695795 0 59.364614821695795 68.247696229611392 0 0 0 0 -302.3279653245736 -164.31340257404281 0 -164.31340257404281 -224.41261327246684 0 0 0 0 21.015120923748327 8.0686529405265901 0 8.0686529405265901 41.147153981963129 0 0 0 0 -68.521579858980203 -50.546396371242793 0 -50.546396371242793 -20.698359627405807 0 0 0 0 -14.392074752220864 -9.13842032350205 0 -9.13842032350205 -7.6016772729255759 0 0 0 0 156.24630980853181 58.981411803989431 0 58.981411803989431 -95.891506285679498 0 0 0 0 8.8194242602316066 -36.338394661091613 0 -36.338394661091613 -33.802398841415801 0 0 0 0 -74.671960607899564 -20.875851004635479 0 -20.875851004635479 17.862741723073668 0 0 0 0 -57.722892741898249 -44.507961952982441 0 -44.507961952982441 -33.37264825635441 0 0 0 0 1.2168985336432456 0.43029460019354815 0 0.43029460019354815 -2.5424002712704024 0 0 0 0 -205.66292798013819 -216.31433517193636 0 -216.31433517193636 -104.28713361785114 0 0 0 0 -127.67558078642105 -111.91878835071498 0 -111.91878835071498 24.586241751205762 0 0 0 0 -19.249085571787873 -93.331922861435487 0 -93.331922861435487 -97.24849944837635 0 0 0 0 -119.80826143701415 9.2239301830211389 0 9.2239301830211389 283.17676966499948 0 0 0 0 -35.829785476015829 7.0589622142461437 0 7.0589622142461437 -0.33549878919576415 0 0 0 0 -27.124729238166765 55.557919272651816 0 55.557919272651816 -9.0639913815173259 0 0 0 0 75.579083718910624 -29.624422100064066 0 -29.624422100064066 1.504712732473763 0 0 0 0 -115.8693327760102 -1.5512239762421132 0 -1.5512239762421132 7.8160855834676113 0 0 0 0 -20.368765288461873 -84.541973274389647 0 -84.541973274389647 -52.305862588975742 0 0 0 0 -165.40201242699004 -104.34409541979176 0 -104.34409541979176 -28.86046558036378 0 0 0 0 -178.44159345979278 -34.010530941068282 0 -34.010530941068282 60.003827237223732 0 0 0 0 -71.323580070296885 -137.82279965517591 0 -137.82279965517591 -44.12222211470953 0 0 0 0 -96.959173926152289 -107.01817396804972 0 -107.01817396804972 -47.591360341649761 0 0 0 0 -79.902471052557303 -87.706686513904287 0 -87.706686513904287 -25.825890628817888 0 0 0 0 -139.28616793447873 -100.96979511499421 0 -100.96979511499421 -42.056538031050536 0 0 0 0 -113.54446641459253 -86.470386122312334 0 -86.470386122312334 -51.851062583550629 0 0 0 0 -235.21277998708138 -27.532464193392343 0 -27.532464193392343 7.8991568734522843 0 0 0 0 -225.29405555346057 -155.64137528881264 0 -155.64137528881264 -72.07641221065046 0 0 0 0 -135.34084675232225 -94.651057872991771 0 -94.651057872991771 -43.264450564068198 0 0 0 0 -61.477399982955831 -91.531041257583709 0 -91.531041257583709 -82.295160823032091 0 0 0 0 -80.088502904563939 -87.795122041255809 0 -87.795122041255809 -47.207643552555226 0 0 0 0 -52.542902257835522 -66.121967354155672 0 -66.121967354155672 -52.784955836100679 0 0 0 0 -121.13357277884006 -117.16833523196908 0 -117.16833523196908 -60.503906445163238 0 0 0 0 -334.55640386954656 -135.8832707893001 0 -135.8832707893001 1.6083258460822094 0 0 0 0 -316.83972331926634 -98.414804818674455 0 -98.414804818674455 22.335873591903564 0 0 0 0 -270.66181281285026 -70.025240638002742 0 -70.025240638002742 31.62191229672419 0 0 0 0 -490.11454405199765 -92.015788848012562 0 -92.015788848012562 124.27835534805513 0 0 0 0 -373.95700927497819 -2.7920277382609129 0 -2.7920277382609129 173.76493564810926 0 0 0 0 -448.99672747156183 -108.61244767848996 0 -108.61244767848996 123.88109858472649 0 0 0 0 -604.3161917342386 -430.66327972866839 0 -430.66327972866839 -39.341389526955027 0 0 0 0 -819.69069975302773 -11.564437386534792 0 -11.564437386534792 190.6323220401232 0 0 0 0 -254.48268642798212 228.34905763689176 0 228.34905763689176 232.00012488371658 0 0 0 0 60.321347225406498 -549.28565876939933 0 -549.28565876939933 -692.10173130944736 0 0 0 0 -12.488203142486682 1.6096541612298703 0 1.6096541612298703 -0.3590478823224279 0 0 0 0 -947.0432964525462 434.57216127963875 0 434.57216127963875 594.51241037355908 0 0 0 0 274.84401912153771 -219.30974252049509 0 -219.30974252049509 -434.92520087658659 0 0 0 0 408.36903414476546 255.76454640378415 0 255.76454640378415 -64.140084641017893 0 0 0 0 -238.27567177612218 -239.98525166290074 0 -239.98525166290074 440.05034980902292 0 0 0 0 -66.636665417085197 28.706267625070403 0 28.706267625070403 -10.640340863015943 0 0 0 0 -820.46783709827287 -4.3427693482367431 0 -4.3427693482367431 488.19302727628019 0 0 0 0 -183.13877805024822 -226.12971777996563 0 -226.12971777996563 -282.79203032286478 0 0 0 0 -312.47618759232864 315.77416169647813 0 315.77416169647813 480.32066949413979 0 0 0 0 -668.32719677830755 -114.56057892536683 0 -114.56057892536683 562.2431342149589 0 0 0 0 113.12923579844028 397.36317011628489 0 397.36317011628489 373.92867756815212 0 0 0 0 5.0041132184487651 83.452284200841859 0 83.452284200841859 218.08128773522083 0 0 0 0 85.87869616279022 104.20403165588777 0 104.20403165588777 63.296424457253124 0 0 0 0 -119.88364620568609 -84.655766114499329 0 -84.655766114499329 15.776038108630019 0 0 0 0 -61.326952308951149 -150.97080071740902 0 -150.97080071740902 63.008395325788115 0 0 0 0 -18.14527382055428 -1.5123950976568885 0 -1.5123950976568885 4.6588906889315904 0 0 0 0 -21.631977917684708 -4.5216129932177864 0 -4.5216129932177864 9.8015533392853627 0 0 0 0 -21.07086467866975 -7.7648423718774779 0 -7.7648423718774779 2.0043885960631087 0 0 0 0 7.2909532385820057 -226.14495527355439 0 -226.14495527355439 64.819227469116868 0 0 0 0 -4.3776098493397626 -1.2759477255609539 0 -1.2759477255609539 2.2737038795397746 0 0 0 0 -164.40089196205372 -203.75170172453204 0 -203.75170172453204 81.233970127688735 0 0 0 0 -16.183639041206334 106.61966319481735 0 106.61966319481735 -73.034948998101754 0 0 0 0 295.75095369821065 48.987549360251023 0 48.987549360251023 -74.831221087858466 0 0 0 0 75.249275799793395 181.3636407068434 0 181.3636407068434 97.791591685649109 0 0 0 0 -116.29407135063957 48.085341911413778 0 48.085341911413778 114.14761910782927 0 0 0 0 71.526123200143047 177.09506128329622 0 177.09506128329622 122.21546592621735 0 0 0 0 -51.618222458427766 21.293342578751748 0 21.293342578751748 -7.5584278735316186 0 0 0 0 -36.024417869906756 -9.3406736538303221 0 -9.3406736538303221 3.0811539727480977 0 0 0 0 -9.6168993087044896 -5.4725897564253572 0 -5.4725897564253572 9.2198379309257366 0 0 0 0 154.37176029532566 152.54212677088572 0 152.54212677088572 111.68082261671407 0 0 0 0 -7.0813611458116164 0.054945504994115879 0 0.054945504994115879 3.8134932187129085 0 0 0 0 316.69137980840605 127.70117627550371 0 127.70117627550371 38.513175951163248 0 0 0 0 -30.612580236280337 5.3357981015951736 0 5.3357981015951736 2.5553029959028208 0 0 0 0 43.419891101679241 185.29408292127846 0 185.29408292127846 108.09984035435127 0 0 0 0 -71.239786686783191 174.6973129251802 0 174.6973129251802 111.70859396187848 0 0 0 0 34.621275462431186 143.14547024696475 0 143.14547024696475 91.150842423022823 0 0 0 0 39.219350411025516 119.46578566102711 0 119.46578566102711 5.8865959551430933 0 0 0 0 -151.47018701323032 68.33585872807771 0 68.33585872807771 76.279009231456257 0 0 0 0 3.2120698710305078 237.85470545431104 0 237.85470545431104 205.80271591280496 0 0 0 0 244.96310863934923 233.60133466823265 0 233.60133466823265 68.961099423051394 0 0 0 0 -377.91170683361634 -179.87002893987494 0 -179.87002893987494 78.934410461102743 0 0 0 0 -376.34430732296096 -73.547223970318896 0 -73.547223970318896 68.598680763813604 0 0 0 0 -102.61446420629363 -37.865845201010416 0 -37.865845201010416 63.519638094454876 0 0 0 0 -85.342041994634201 22.880869576003647 0 22.880869576003647 34.498359528686251 0 0 0 0 -174.38200064295233 32.191131771121945 0 32.191131771121945 95.482018356459321 0 0 0 0 -337.35078045617047 -20.110308448154569 0 -20.110308448154569 35.328169014078171 0 0 0 0 -171.72722450385118 63.493667175918858 0 63.493667175918858 42.112836495876422 0 0 0 0 -375.26529747074528 -73.307082030690424 0 -73.307082030690424 63.845980810213405 0 0 0 0 -570.20821165230882 -87.828956191981888 0 -87.828956191981888 63.21289379294744 0 0 0 0 -386.84063057912317 55.630092014609431 0 55.630092014609431 -78.909372970323375 0 0 0 0 -350.36795388389874 -18.880551182347972 0 -18.880551182347972 -125.00118292209504 0 0 0 0 -391.16590241453059 133.15801195655627 0 133.15801195655627 -124.67736240186559 0 0 0 0 -129.04512278077891 81.163338878293018 0 81.163338878293018 -116.45068263480971 0 0 0 0 -34.893788511959428 -20.838464083736199 0 -20.838464083736199 -395.03729006642629 0 0 0 0 -913.80764808797358 222.088324203203 0 222.088324203203 -224.35763634570412 0 0 0 0 19.39218376759527 -7.3254733943385872 0 -7.3254733943385872 -170.63216594860316 0 0 0 0 129.04880360217794 -46.48107439005571 0 -46.48107439005571 132.64999630869912 0 0 0 0 49.558221463092195 131.70573115401737 0 131.70573115401737 -160.29878582826018 0 0 0 0 -31.451059978240664 64.027756643271459 0 64.027756643271459 -439.3260958912806 0 0 0 0 -34.361985778027702 78.171606720410892 0 78.171606720410892 -277.94286884523899 0 0 0 0 -50.516187972083571 -45.253219534102755 0 -45.253219534102755 -340.4452888702624 0 0 0 0 -14.308898483002849 132.05623525253532 0 132.05623525253532 -354.04803695542432 0 0 0 0 15.285666415889864 86.686803027845599 0 86.686803027845599 -287.99978467090341 0 0 0 0 165.42586451096577 162.79556806735604 0 162.79556806735604 -272.92513539288302 0 0 0 0 4.5474349606411124 -45.244904900671258 0 -45.244904900671258 -580.30246742010058 0 0 0 0 20.225979878257931 31.923908047504824 0 31.923908047504824 -292.18452497576254 0 0 0 0 -9.0075906904035605 -5.1205887424013312 0 -5.1205887424013312 3.7582523601806521 0 0 0 0 -26.625403645859478 -17.244425691028027 0 -17.244425691028027 -407.12817323667878 0 0 0 0 -38.825097622453896 3.5549427416232078 0 3.5549427416232078 -0.28816815532026219 0 0 0 0 -64.557592047443904 67.799863585532876 0 67.799863585532876 -381.47391203183224 0 0 0 0 -85.256546178359713 -243.64723088637379 0 -243.64723088637379 -476.14505499986399 0 0 0 0 -210.53958130637488 -213.28424449032121 0 -213.28424449032121 -95.496471970170205 0 0 0 0 -142.55732946393073 -323.01589014657952 0 -323.01589014657952 -238.23776513268058 0 0 0 0 -206.68060073921356 -240.24364009818518 0 -240.24364009818518 -136.52103161694777 0 0 0 0 -152.09176277599909 -139.39218628826893 0 -139.39218628826893 -243.4265058904939 0 0 0 0 -510.16623997565694 -610.83922492313877 0 -610.83922492313877 -982.82994764037994 0 0 0 0 -197.73033800937628 229.98733586667186 0 229.98733586667186 -746.20200332241075 0 0 0 0 -13.070789014791671 0.36976152083958524 0 0.36976152083958524 -1.4529412578986018 0 0 0 0 -51.272070159586747 -76.480614191325003 0 -76.480614191325003 -480.52995568491451 0 0 0 0 -204.20572821105088 149.97197903750362 0 149.97197903750362 -306.80313812735062 0 0 0 0 -992.7575663258026 458.41634664146477 0 458.41634664146477 -420.13458878382608 0 0 0 0 -115.40068196369612 45.826268885330364 0 45.826268885330364 -976.54853249513451 0 0 0 0 -28.903624294483961 186.94735772646209 0 186.94735772646209 -457.32813483405062 0 0 0 0 -151.40115573067669 48.546327962163105 0 48.546327962163105 -255.25659300056441 0 0 0 0 -150.04783874618806 382.57497039453045 0 382.57497039453045 -292.69441501118308 0 0 0 0 -295.47340195066499 171.01453495184546 0 171.01453495184546 -34.740473948200929 0 0 0 0 -26.736051192679952 155.12274006386622 0 155.12274006386622 -254.43729985244443 0 0 0 0 -126.37571882024349 277.41973989633527 0 277.41973989633527 -238.27378848425633 0 0 0 0 -53.567648308275238 131.98790990345628 0 131.98790990345628 -189.32670723060266 0 0 0 0 -153.02230164033608 152.34153312770695 0 152.34153312770695 -169.40051572678703 0 0 0 0 0.25052149338414864 1.8661852042819316 0 1.8661852042819316 1.3431441382167071 0 0 0 0 -8.2821801731861342 15.820443594970129 0 15.820443594970129 -16.217232457894625 0 0 0 0 -60.30128685654563 134.49579463765258 0 134.49579463765258 -182.5106298641374 0 0 0 0 -11.80656090488992 -17.368292879300157 0 -17.368292879300157 -43.474448944849428 0 0 0 0 -27.06547406617392 4.4398570154793333 0 4.4398570154793333 -64.082314350910337 0 0 0 0 -21.892653007835406 -105.57935108656486 0 -105.57935108656486 -304.4697080460594 0 0 0 0 -15.948421822083901 -65.788605668293087 0 -65.788605668293087 -142.68845707878609 0 0 0 0 -22.223445209985584 -34.86761421220541 0 -34.86761421220541 -37.159826189649564 0 0 0 0 -124.826621569091 -105.26138145604637 0 -105.26138145604637 -76.284306346998392 0 0 0 0 -121.8045582710306 -111.68683210192957 0 -111.68683210192957 -105.31754921718078 0 0 0 0 -294.13798527724612 -179.29262241739468 0 -179.29262241739468 -122.67116548655099 0 0 0 0 -292.29995990354655 -135.16072675497753 0 -135.16072675497753 -174.65910101712336 0 0 0 0 -460.65873027434645 -230.13335674841886 0 -230.13335674841886 -65.420973281677746 0 0 0 0 -733.48897176888863 -434.65735067101406 0 -434.65735067101406 -377.04751649733635 0 0 0 0 -0.45739829804851695 0.79492723203279958 0 0.79492723203279958 0.45015556884103569 0 0 0 0 54.254851405194131 486.2131939358062 0 486.2131939358062 -1393.484252043062 0 0 0 0 -3965.3359475214093 1452.1268533534662 0 1452.1268533534662 -587.34829665163011 0 0 0 0 -19.468471765350671 -9.8465484496169982 0 -9.8465484496169982 -7.3676870806228862 0 0 0 0 -408.84528734775085 -419.83422726453887 0 -419.83422726453887 -2884.6569586554979 0 0 0 0 -4441.6936830919694 751.95737858701739 0 751.95737858701739 -1022.0370211032856 0 0 0 0 -3559.7817264690384 770.43002453561644 0 770.43002453561644 -1021.8823793154552 0 0 0 0 -2540.8388394411013 2177.6706627266772 0 2177.6706627266772 -1332.6318064425013 0 0 0 0 -0.79020899986981874 -4.9018823749870082 0 -4.9018823749870082 -4.3462246283205017 0 0 0 0 -2972.7782501459533 743.99606691731151 0 743.99606691731151 436.14402635532417 0 0 0 0 -3500.1617396485708 1305.3054590151487 0 1305.3054590151487 -50.836175947482545 0 0 0 0 -994.40815333442151 291.43917309574874 0 291.43917309574874 57.673220835108822 0 0 0 0 -1057.094783777753 1347.0312601168939 0 1347.0312601168939 -1012.172492559211 0 0 0 0 -33.758591241830047 -10.044276295384815 0 -10.044276295384815 -0.57994263592773754 0 0 0 0 88.874606103123369 -6.4388820172814576 0 -6.4388820172814576 21.603261928605207 0 0 0 0 102.37579262128565 14.9942037486353 0 14.9942037486353 -196.58005312349133 0 0 0 0 -203.40930279449276 -100.77237134958727 0 -100.77237134958727 91.875433809897913 0 0 0 0 -24.0027824376848 -7.3472943098404357 0 -7.3472943098404357 -37.0245955896292 0 0 0 0 -218.57990604830593 -95.972110973066833 0 -95.972110973066833 55.544036715505626 0 0 0 0 -36.814976150629953 -15.56164784057091 0 -15.56164784057091 -4.0342110842026111 0 0 0 0 -3.5448866946454274 -8.024076420556213 0 -8.024076420556213 -1.6812933420516516 0 0 0 0 -204.53011199714865 -78.018258750380483 0 -78.018258750380483 19.909022551973067 0 0 0 0 -43.724009748067772 -14.572161163451847 0 -14.572161163451847 1.1151993441103478 0 0 0 0 2.1410150239305494 6.0323496548799085 0 6.0323496548799085 22.87219578307031 0 0 0 0 -49.918974156055356 -29.680524557502395 0 -29.680524557502395 8.0718290792428888 0 0 0 0 -19.976341372407447 4.9065385223535207 0 4.9065385223535207 19.447547044889333 0 0 0 0 -268.02452494480121 -637.57437549196356 0 -637.57437549196356 -599.46485464217767 0 0 0 0 -74.105153875321776 -483.07146108408597 0 -483.07146108408597 -640.55103216809766 0 0 0 0 -552.8117378001773 -37.053483931480287 0 -37.053483931480287 67.959258196624432 0 0 0 0 -1126.3798944798036 -463.89201035422502 0 -463.89201035422502 -225.14613000250665 0 0 0 0 -2.1543619859106133 -1.8805531729644791 0 -1.8805531729644791 3.277265266109719 0 0 0 0 24.153078851317332 80.593306299363576 0 80.593306299363576 -377.34845247632006 0 0 0 0 -25.377891484452512 -19.172815214568303 0 -19.172815214568303 -7.6324182733339523 0 0 0 0 116.27788489181694 19.908489527205347 0 19.908489527205347 -270.82688575477277 0 0 0 0 112.75734942344502 -90.636558719905736 0 -90.636558719905736 -938.33480778510148 0 0 0 0 400.67605081046258 -396.4929404976458 0 -396.4929404976458 -1041.6091780586812 0 0 0 0 385.99513880121958 -313.36662924596067 0 -313.36662924596067 -1110.2143917881094 0 0 0 0 363.69140382637124 -369.83326909393531 0 -369.83326909393531 -990.81658408484577 0 0 0 0 263.08894314485406 -387.59257192956284 0 -387.59257192956284 -992.24216350848656 0 0 0 0 338.16590646922259 -432.57510419442031 0 -432.57510419442031 -842.40588216472543 0 0 0 0 -1168.3864957950173 -864.63238315469152 0 -864.63238315469152 -426.19211334096144 0 0 0 0 0.0621982068948288 -0.68552513965555084 0 -0.68552513965555084 -2.074614103961423 0 0 0 0 340.75682269945332 -155.75137465210423 0 -155.75137465210423 -337.74514360262219 0 0 0 0 358.68531437308957 -768.6367693381917 0 -768.6367693381917 -1233.5704643666604 0 0 0 0 -728.52974273920154 -964.72108781225916 0 -964.72108781225916 -762.1311286948021 0 0 0 0 -465.3971107139912 -1150.883646834749 0 -1150.883646834749 -1199.6936636196215 0 0 0 0 -10.860954815152528 -10.774124113223515 0 -10.774124113223515 -8.113961680988421 0 0 0 0 -1035.5886349655789 -302.20535137724505 0 -302.20535137724505 655.30951704580548 0 0 0 0 186.3505564928073 -877.3833889594498 0 -877.3833889594498 -636.34867202400437 0 0 0 0 854.02530865790959 -672.07943494202686 0 -672.07943494202686 -1127.5500010533467 0 0 0 0 58.975938182264144 -308.72518615277443 0 -308.72518615277443 697.04233452243773 0 0 0 0 87.205420941627381 -1422.7402195040777 0 -1422.7402195040777 858.19374920799123 0 0 0 0 858.30648562146416 124.06161182382823 0 124.06161182382823 -677.8545528262182 0 0 0 0 -1365.6262294630205 -251.38815590993121 0 -251.38815590993121 173.60779860673244 0 0 0 0 35.12683231007577 -836.33441056008712 0 -836.33441056008712 -1014.3062851148004 0 0 0 0 281.37237630048367 -102.73490009124635 0 -102.73490009124635 -1072.535037632043 0 0 0 0 -409.92936982269794 -786.98385341452217 0 -786.98385341452217 -1701.8136646928119 0 0 0 0 -4154.4801221675789 -1380.2788652414913 0 -1380.2788652414913 -493.31362233011077 0 0 0 0 -3501.4073420011682 -101.15855804146705 0 -101.15855804146705 -4116.3136519469763 0 0 0 0 -2199.4299071994974 -1879.7485971280671 0 -1879.7485971280671 -2524.3027682932779 0 0 0 0 -622.75079561938401 -506.23285805582464 0 -506.23285805582464 -1382.4328146282644 0 0 0 0 -2199.1907764275402 -1165.0877508336066 0 -1165.0877508336066 -436.55132431752617 0 0 0 0 -3500.3676191950681 -447.95696724596615 0 -447.95696724596615 1122.0354989253378 0 0 0 0 -2381.2281494582139 -308.98545630579622 0 -308.98545630579622 -3.1916248302131205 0 0 0 0 -2396.8220360275136 320.13442201392604 0 320.13442201392604 1078.28450416952 0 0 0 0 403.7084286245954 -273.40547313895252 0 -273.40547313895252 52.420190105834081 0 0 0 0 611.64656934324489 92.286049790507661 0 92.286049790507661 -607.33255523103071 0 0 0 0 -627.84569573581098 -841.11307900894076 0 -841.11307900894076 -840.56191336551979 0 0 0 0 -8.948786163914292 -1510.9805735101154 0 -1510.9805735101154 -1404.4169734101408 0 0 0 0 -15.34081998255941 -11.250336807280119 0 -11.250336807280119 -7.3811677838426721 0 0 0 0 -4285.1008955250836 -624.90913695027427 0 -624.90913695027427 773.45601011721124 0 0 0 0 -3500.4343140619221 -693.17444895229994 0 -693.17444895229994 -2519.4244038530796 0 0 0 0 -2240.8983175454214 -2290.871688253641 0 -2290.871688253641 -1139.0130115910308 0 0 0 0 -4040.2104804228165 -1576.1115481798699 0 -1576.1115481798699 -68.312492912800337 0 0 0 0 -2216.3056295478991 -1128.4974266255019 0 -1128.4974266255019 -28.009347158526992 0 0 0 0 -401.77210544388629 -1062.4650376369266 0 -1062.4650376369266 -779.29892912321816 0 0 0 0 -935.54873554363917 -723.0277810737748 0 -723.0277810737748 -433.18033570030968 0 0 0 0 -2106.7634269721975 -1418.5445071196041 0 -1418.5445071196041 -636.48226027621092 0 0 0 0 -1520.8023128639757 -900.97883809414736 0 -900.97883809414736 -424.01794560012149 0 0 0 0 -2459.1882777119831 -499.91908827736563 0 -499.91908827736563 365.84888096573133 0 0 0 0 -3498.6021975202393 -1113.62568391071 0 -1113.62568391071 324.16549871475172 0 0 0 0 -330.07745241005023 -282.12018361046637 0 -282.12018361046637 -460.48497228348697 0 0 0 0 -426.51973588492768 -317.40342906037705 0 -317.40342906037705 -447.14196706074893 0 0 0 0 -411.2303180826716 -430.70461200527939 0 -430.70461200527939 -579.91939547261984 0 0 0 0 -1080.9938126197585 -455.84016823133146 0 -455.84016823133146 -290.68215861184399 0 0 0 0 -939.94927980962848 -673.3424028751391 0 -673.3424028751391 -640.05472635684589 0 0 0 0 -19.585342103186122 -372.87232314877292 0 -372.87232314877292 -769.50300673778872 0 0 0 0 -263.35826822410127 -158.89687610947516 0 -158.89687610947516 -511.10056292693037 0 0 0 0 -323.36417519105453 98.431473067581805 0 98.431473067581805 125.11123463008289 0 0 0 0 -340.94894991184492 -178.29142741480234 0 -178.29142741480234 -312.35231887488681 0 0 0 0 39.635261754088788 -198.29642531202944 0 -198.29642531202944 -311.3426716851564 0 0 0 0 -27.692276204028534 -21.789247085934939 0 -21.789247085934939 -12.848724439562329 0 0 0 0 -248.98268438422065 26.688836574090374 0 26.688836574090374 651.95716527199011 0 0 0 0 258.70787405457986 -802.71909443357367 0 -802.71909443357367 722.28019040823438 0 0 0 0 -798.03847561124985 -334.06604784323054 0 -334.06604784323054 241.65591897730872 0 0 0 0 -77.494680485226581 179.73972427407068 0 179.73972427407068 553.2775454044222 0 0 0 0 -845.27270926796336 -256.040775745372 0 -256.040775745372 452.82349107387563 0 0 0 0 -1032.8327398240308 -547.81073002570997 0 -547.81073002570997 0.16217057094621623 0 0 0 0 159.83765530511937 -123.41688716406088 0 -123.41688716406088 39.67616431207307 0 0 0 0 2.1803057634386578 -5.4308020539703659 0 -5.4308020539703659 0.43819291907402302 0 0 0 0 -1365.2573718942995 -449.90052359546394 0 -449.90052359546394 -107.11267308109791 0 0 0 0 0.16520925218555682 -1.804877113765432 0 -1.804877113765432 0.60400353372977911 0 0 0 0 723.68291210916686 -87.023569394913238 0 -87.023569394913238 -191.19840835252307 0 0 0 0 -767.47924787489683 -128.88580362349035 0 -128.88580362349035 -57.002253124533013 0 0 0 0 -632.24518614994486 -241.66995943211282 0 -241.66995943211282 -249.364637522061 0 0 0 0 -396.41156745332319 -78.214819677521518 0 -78.214819677521518 -274.14424571761771 0 0 0 0 -623.92876926668896 -383.60292993903408 0 -383.60292993903408 -313.89394136673582 0 0 0 0 -276.06386563296292 -379.93078381269112 0 -379.93078381269112 -378.58472753413446 0 0 0 0 -269.06350390863463 -360.78266327991003 0 -360.78266327991003 -326.27523741861467 0 0 0 0 -364.5985412532591 -370.74466740627452 0 -370.74466740627452 -326.15574225321086 0 0 0 0 -352.41510780437045 -388.87397305672147 0 -388.87397305672147 -325.98373770610613 0 0 0 0 -638.25525911459954 -262.14128656540561 0 -262.14128656540561 -211.72397797866847 0 0 0 0 -381.60709962703004 -249.17871923566588 0 -249.17871923566588 -264.11152758498793 0 0 0 0 -878.67486878737509 -322.44615577452987 0 -322.44615577452987 -166.34037358295063 0 0 0 0 -393.44854334519323 -273.31663902738211 0 -273.31663902738211 -302.07867514978307 0 0 0 0 -483.69283791424095 -280.45429056261878 0 -280.45429056261878 60.941770142969744 0 0 0 0 -420.51591166363517 209.88565998363012 0 209.88565998363012 -274.19632996042037 0 0 0 0 -277.35014043177216 -38.522854430406142 0 -38.522854430406142 -228.09688111323885 0 0 0 0 -85.3247286174701 -487.96284459280901 0 -487.96284459280901 -156.92905753644504 0 0 0 0 -5.5259571862752637 -211.82786873313307 0 -211.82786873313307 8.5003942381531488 0 0 0 0 -33.165370459382757 -136.11463099043368 0 -136.11463099043368 61.918267583966099 0 0 0 0 -230.04275910865977 264.31415141362874 0 264.31415141362874 430.13577845188138 0 0 0 0 -83.934036121636382 -173.70737830773874 0 -173.70737830773874 115.78607162145022 0 0 0 0 -71.683598766083378 -88.369983673566821 0 -88.369983673566821 -144.96519516062972 0 0 0 0 -137.68650532742686 -66.923219723954233 0 -66.923219723954233 54.837540209281826 0 0 0 0 -30.861312557302881 -32.230991628213815 0 -32.230991628213815 -67.827519543970084 0 0 0 0 -26.566452441091144 -87.809274465267563 0 -87.809274465267563 -77.036189957413171 0 0 0 0 12.453855420882974 1.7831494182706518 0 1.7831494182706518 4.7575712085837427 0 0 0 0 6.7172018865966052 -3.6737846406039174 0 -3.6737846406039174 2.333813109119347 0 0 0 0 -10.237391106765244 -58.748882863095787 0 -58.748882863095787 233.68954032115812 0 0 0 0 -2.4123093379555485 -50.421408142484154 0 -50.421408142484154 7.7858482117935637 0 0 0 0 -1240.9268740744333 -688.23530866338842 0 -688.23530866338842 316.53025984207022 0 0 0 0 -11.829539659163856 -17.538086092840786 0 -17.538086092840786 -5.6843066672518034 0 0 0 0 898.07353544558009 -844.34049826567616 0 -844.34049826567616 -2097.850995220625 0 0 0 0 -0.95666954479747135 -8.4009940504532707 0 -8.4009940504532707 0.91512639818082597 0 0 0 0 -326.16213789173457 133.57864500089454 0 133.57864500089454 102.44273854361927 0 0 0 0 0.60975350333403844 -4.8828357273988345 0 -4.8828357273988345 0.49765629613842055 0 0 0 0 -2414.1505660454677 -1975.4171131481198 0 -1975.4171131481198 -502.96991885979935 0 0 0 0 286.56016592053066 -14.378121996848677 0 -14.378121996848677 80.28936083444205 0 0 0 0 -50.997823532541588 -6.2832990817189511 0 -6.2832990817189511 -9.4236893141046494 0 0 0 0 -10.110421492267051 -12.878006229572748 0 -12.878006229572748 7.6105988556219017 0 0 0 0 -25.540237527696121 -8.5073108864861666 0 -8.5073108864861666 9.2726208425218068 0 0 0 0 -30.352045962666391 -15.304392796989895 0 -15.304392796989895 11.026566552847306 0 0 0 0 -7.6223506249489628 -22.783865476047225 0 -22.783865476047225 13.502407807533633 0 0 0 0 -393.61973692953211 -127.47260134201497 0 -127.47260134201497 103.69262389343658 0 0 0 0 6.8532350703621034 -12.123741408899228 0 -12.123741408899228 4.7606143620874208 0 0 0 0 -5.6958863372201449 -37.230530466340269 0 -37.230530466340269 28.757361618203049 0 0 0 0 -21.091138631931244 -88.848690345744401 0 -88.848690345744401 32.24401763050804 0 0 0 0 -31.327024825449826 -9.428432700485132 0 -9.428432700485132 2.7132986465874183 0 0 0 0 -37.249171642275876 -8.4593486705656016 0 -8.4593486705656016 3.166190108720623 0 0 0 0 -44.776524697747163 -23.029983258333914 0 -23.029983258333914 36.067511832237187 0 0 0 0 -51.661647118691008 -12.659528865649918 0 -12.659528865649918 26.222628961183545 0 0 0 0 -25.197144891531934 -15.698850988833783 0 -15.698850988833783 15.949003687217555 0 0 0 0 18.153565119446739 -38.208364222804676 0 -38.208364222804676 -4.5840916276038115 0 0 0 0 -7.6163782440425605 -2.2889528950291158 0 -2.2889528950291158 1.4790642375271608 0 0 0 0 -54.355407972502462 -9.2478315362250214 0 -9.2478315362250214 27.480478336306078 0 0 0 0 -11.681278064544886 -8.3853045358537734 0 -8.3853045358537734 11.028431602933622 0 0 0 0 -58.848701578877808 -14.949534774612403 0 -14.949534774612403 46.015538586823823 0 0 0 0 -55.534062131729115 -11.585680790956758 0 -11.585680790956758 26.476246168908176 0 0 0 0 -59.605161613207201 -101.09872879005707 0 -101.09872879005707 81.987998615790275 0 0 0 0 -76.37755423751878 8.7909790123942457 0 8.7909790123942457 19.980334820016651 0 0 0 0 -9.427103353814358 -1.0151529820857133 0 -1.0151529820857133 0.84703764248064495 0 0 0 0 -21.322246331241331 -7.242523022693149 0 -7.242523022693149 7.2436574364510307 0 0 0 0 -49.99963369764555 7.3584886124750142 0 7.3584886124750142 -0.071383183537506056 0 0 0 0 -44.197903051976027 10.45569592091374 0 10.45569592091374 16.626580529753028 0 0 0 0 -13.907671101730774 -3.3279846254501795 0 -3.3279846254501795 5.308371148533281 0 0 0 0 -12.380049813540092 -9.0471460470888445 0 -9.0471460470888445 -0.10826079145530443 0 0 0 0 -27.24825952411453 -16.908539664219106 0 -16.908539664219106 11.322956962055343 0 0 0 0 445.14231969608227 36.423312750308469 0 36.423312750308469 -276.5655179959158 0 0 0 0 -23.006727259551241 -10.08354915949235 0 -10.08354915949235 7.9388083839645098 0 0 0 0 -6.1081772860907222 3.0702379433129181 0 3.0702379433129181 12.625332948158729 0 0 0 0 -23.242378242269709 -7.4140765678828249 0 -7.4140765678828249 0.54139207388790755 0 0 0 0 -63.299743928208045 11.165990263318236 0 11.165990263318236 116.48592570457845 0 0 0 0 -23.221671120680185 -5.0494226962557889 0 -5.0494226962557889 22.633942808347001 0 0 0 0 -0.61875896374749217 1.3299298860028221 0 1.3299298860028221 2.8252489675644594 0 0 0 0 19.679872964897186 81.667470595115788 0 81.667470595115788 53.892404916791861 0 0 0 0 -31.28088806211781 11.427477719356943 0 11.427477719356943 0.68757528315745731 0 0 0 0 -31.57523575778545 36.996488892089033 0 36.996488892089033 15.282069844641001 0 0 0 0 -61.588038102642827 19.067419595951606 0 19.067419595951606 167.99972460060133 0 0 0 0 12.266996845523863 34.98454526302271 0 34.98454526302271 -3.6905701504447279 0 0 0 0 34.811394410481626 37.531853737323019 0 37.531853737323019 -4.4061882879398127 0 0 0 0 -78.801398964169493 97.110938055630754 0 97.110938055630754 44.443265736397734 0 0 0 0 -31.216044647686203 -82.378241528918124 0 -82.378241528918124 -14.409252354739692 0 0 0 0 -71.915965119687826 -96.378464354611452 0 -96.378464354611452 143.15183951074926 0 0 0 0 1.4952702864093226 -20.736652100443116 0 -20.736652100443116 69.882361771439093 0 0 0 0 -28.713264880491799 1.7366821466802129 0 1.7366821466802129 4.3176565598372694 0 0 0 0 -30.19053718538089 8.0662442133880177 0 8.0662442133880177 47.704999717128857 0 0 0 0 -22.139419279712637 -8.5375950696088783 0 -8.5375950696088783 1.9440380438329918 0 0 0 0 -9.224197100016454 -27.12997894495652 0 -27.12997894495652 9.7223872971426317 0 0 0 0 -11.574321058202937 -0.055683427542060127 0 -0.055683427542060127 -0.42611825787984692 0 0 0 0 -26.299666857140437 -351.15047526087494 0 -351.15047526087494 -510.91367860375931 0 0 0 0 -179.2754997030047 262.94777361469579 0 262.94777361469579 -94.134125706660257 0 0 0 0 -13.38742404648292 120.70860862549965 0 120.70860862549965 5.3843482872246469 0 0 0 0 -124.53717491228781 3.4770472963650585 0 3.4770472963650585 238.92928103334259 0 0 0 0 -32.254103899575981 -1.4613588575342227 0 -1.4613588575342227 2.4115313293167233 0 0 0 0 -37.571297968019508 -35.645088781587454 0 -35.645088781587454 99.175645729555271 0 0 0 0 -177.98009793053711 78.655568953096676 0 78.655568953096676 39.83190377759793 0 0 0 0 -165.15237020097265 -237.44688875215184 0 -237.44688875215184 8.2535349308107016 0 0 0 0 -317.73583974516851 -184.2104622861446 0 -184.2104622861446 172.57402462987002 0 0 0 0 -2.6646219396725614 2.5144543331494318 0 2.5144543331494318 1.328681620568791 0 0 0 0 -72.741831585974069 -241.23043297575097 0 -241.23043297575097 -98.431732587468716 0 0 0 0 -136.48835282587243 -283.74002761794281 0 -283.74002761794281 -93.741363163521413 0 0 0 0 -88.163586883394032 -243.14129661025305 0 -243.14129661025305 -309.49047393355534 0 0 0 0 -81.684481884434263 -257.0108057788467 0 -257.0108057788467 -387.96316986582963 0 0 0 0 -124.48089024256842 -347.29487452117382 0 -347.29487452117382 -210.24633746683799 0 0 0 0 -124.02580199304566 -361.60805693815189 0 -361.60805693815189 -359.2398273814739 0 0 0 0 -238.94241088912713 -381.23808592663431 0 -381.23808592663431 -165.24772188816178 0 0 0 0 -418.28466990470861 -464.73665790108987 0 -464.73665790108987 -163.03286952075973 0 0 0 0 -224.91166056018301 -187.73306640225337 0 -187.73306640225337 207.55081709199067 0 0 0 0 -36.743206202960664 944.07737278881154 0 944.07737278881154 -281.28303412502862 0 0 0 0 -19.323763268762505 20.003875181824061 0 20.003875181824061 0.88416633691609536 0 0 0 0 -54.322345404602856 42.412086680881885 0 42.412086680881885 50.857969985755062 0 0 0 0 -21.099139717762696 4.0093173649253231 0 4.0093173649253231 4.1645828815324508 0 0 0 0 165.63282791762686 93.791919779974478 0 93.791919779974478 -18.1112864223212 0 0 0 0 227.18224490766988 -19.568187813970894 0 -19.568187813970894 0.13255760835613728 0 0 0 0 -24.573076226289857 -11.158293761680138 0 -11.158293761680138 -7.7177782463212985 0 0 0 0 -553.69734763757378 -786.73327105443445 0 -786.73327105443445 190.69913072222008 0 0 0 0 -363.81721873611514 268.75901211554975 0 268.75901211554975 67.313594319301046 0 0 0 0 -27.234287272615347 34.996560917887038 0 34.996560917887038 1.6789748884230589 0 0 0 0 -103.98534640048547 -11.050297828665066 0 -11.050297828665066 11.936970505617637 0 0 0 0 -123.85748661418074 -17.52823667878647 0 -17.52823667878647 7.500001199997314 0 0 0 0 -88.940904985658563 -0.14285693424562851 0 -0.14285693424562851 6.2831786287169962 0 0 0 0 -37.547405666718987 -13.735013592721998 0 -13.735013592721998 -23.682448026675956 0 0 0 0 -30.646936403166364 -37.350745505664918 0 -37.350745505664918 11.25370593652633 0 0 0 0 -10.902288950356205 -10.336424494632031 0 -10.336424494632031 -2.1255640282415005 0 0 0 0 -540.39166309816119 93.946012186312373 0 93.946012186312373 91.851412728472724 0 0 0 0 -357.91265695602488 -72.137881562947314 0 -72.137881562947314 -3.4803290171057597 0 0 0 0 -305.86505262429637 171.19367695934102 0 171.19367695934102 114.16646750947996 0 0 0 0 -371.18172487017637 70.140071491111087 0 70.140071491111087 55.526084515096954 0 0 0 0 -247.94113193418525 211.62702051680139 0 211.62702051680139 9.7086750377993809 0 0 0 0 -128.65995213950464 96.799786219047235 0 96.799786219047235 58.15757656710116 0 0 0 0 -285.5837573703493 207.55367917938366 0 207.55367917938366 93.691123464045177 0 0 0 0 -86.25039027164803 -31.190003315391039 0 -31.190003315391039 0.5583818027171219 0 0 0 0 -191.4168078261373 54.356047982165705 0 54.356047982165705 87.293906870493004 0 0 0 0 -217.48872166318506 -31.685482719396759 0 -31.685482719396759 -38.121467135743387 0 0 0 0 -249.24881021221154 -49.685884008689982 0 -49.685884008689982 0.16012657831606703 0 0 0 0 -221.09472419621125 -184.5829314461364 0 -184.5829314461364 -183.93464434453563 0 0 0 0 1.6759328131005375 -1.2498213724679312 0 -1.2498213724679312 0.91043363026292656 0 0 0 0 -325.89469414074301 -57.327281647243581 0 -57.327281647243581 -34.270574017337537 0 0 0 0 -546.3924043489078 551.52819273760429 0 551.52819273760429 -80.384702278986055 0 0 0 0 -507.54696508703728 -53.61089959841388 0 -53.61089959841388 137.62424608350443 0 0 0 0 -8.5276204561762174 -5.4713390513057973 0 -5.4713390513057973 1.5453780194480728 0 0 0 0 24.191960674091206 -20.313088476467783 0 -20.313088476467783 26.211447852987476 0 0 0 0 41.657718441801535 -91.286391563206763 0 -91.286391563206763 120.85463362378323 0 0 0 0 -65.489929508708883 47.446624913915343 0 47.446624913915343 226.3782075324184 0 0 0 0 135.86155465691991 -565.05818040412487 0 -565.05818040412487 123.64917375416053 0 0 0 0 -1309.9046384338085 427.26331844433975 0 427.26331844433975 -115.39024374181145 0 0 0 0 -2.7873053209676932 -1.5023567285790165 0 -1.5023567285790165 0.4254196698192132 0 0 0 0 -598.06133117086029 -599.60779186494028 0 -599.60779186494028 172.58277881599247 0 0 0 0 -607.7329115081302 79.220406620195035 0 79.220406620195035 167.73689861462012 0 0 0 0 47.947096318846661 33.774710543002172 0 33.774710543002172 150.83468556543858 0 0 0 0 -196.08008043300288 248.91239009454466 0 248.91239009454466 31.985327571001335 0 0 0 0 111.60979076804688 239.71083140565031 0 239.71083140565031 25.910047453698553 0 0 0 0 -633.41504324517405 -239.43239801511152 0 -239.43239801511152 -335.62687708522367 0 0 0 0 -84.558032685219587 151.59546599948521 0 151.59546599948521 34.418025161613514 0 0 0 0 -139.3226471636699 58.149042764898923 0 58.149042764898923 160.29691513552916 0 0 0 0 -29.025278643786805 51.902511934370295 0 51.902511934370295 180.07410299121693 0 0 0 0 29.961900833486652 144.82724637316653 0 144.82724637316653 -25.486743848952983 0 0 0 0 -97.125080198042269 49.512462228268532 0 49.512462228268532 2.0907972719252825 0 0 0 0 -144.42024590374785 30.960226322313247 0 30.960226322313247 43.16523320397323 0 0 0 0 -141.39186237431431 70.030143743654435 0 70.030143743654435 48.95923444631444 0 0 0 0 -68.903751979005619 90.822808154201041 0 90.822808154201041 61.913559611700748 0 0 0 0 -51.869646490100422 -29.936940962654262 0 -29.936940962654262 107.2987621995519 0 0 0 0 -9.8287607576057781 6.8609843825311145 0 6.8609843825311145 5.4657640022551277 0 0 0 0 -87.9417910565341 31.292313902715762 0 31.292313902715762 -24.029381471847955 0 0 0 0 -88.749677132014767 7.5859840877644729 0 7.5859840877644729 72.936068325468113 0 0 0 0 -200.40175722348977 75.872341424625347 0 75.872341424625347 13.433803521515983 0 0 0 0 -103.1828390918522 21.337743122439676 0 21.337743122439676 -95.512283740468774 0 0 0 0 -105.36858608128205 -0.82037800316106768 0 -0.82037800316106768 36.73216730898821 0 0 0 0 15.524207809931085 8.2590936539648254 0 8.2590936539648254 -6.9972161695310566 0 0 0 0 -116.92441997186666 93.225727187244374 0 93.225727187244374 -31.021389596306108 0 0 0 0 -216.05585175156534 -20.715220194014734 0 -20.715220194014734 -0.70028866405573353 0 0 0 0 0.48368053769445396 36.076659445569476 0 36.076659445569476 5.0299094425131443 0 0 0 0 -24.21981295607111 216.04365187866188 0 216.04365187866188 98.697005982948667 0 0 0 0 -34.57078421590942 23.043882167783494 0 23.043882167783494 -3.0488900486273867 0 0 0 0 -20.980188631781857 20.007861565526127 0 20.007861565526127 -4.261329336522067 0 0 0 0 -142.18178669213876 63.654545061650254 0 63.654545061650254 4.0575728389203505 0 0 0 0 -69.04413801100236 36.578318021616496 0 36.578318021616496 13.624107273063146 0 0 0 0 -20.853117752790169 15.520738859027679 0 15.520738859027679 -5.405617136581327 0 0 0 0 -15.75751612968088 46.372239138107034 0 46.372239138107034 -79.178112702591079 0 0 0 0 -1.8097725531308484 1.6502406080812402 0 1.6502406080812402 -1.9274643152565318 0 0 0 0 -4.1804259265736619 19.391223473626496 0 19.391223473626496 9.0395712429309256 0 0 0 0 -37.18623179376209 17.751535079687983 0 17.751535079687983 -4.2281849002484719 0 0 0 0 -17.869535074614255 15.839347542484742 0 15.839347542484742 -7.9302445186080615 0 0 0 0 -46.602755294824419 12.280839086433957 0 12.280839086433957 6.1319903974463159 0 0 0 0 -6.289726212395685 2.5572325651049646 0 2.5572325651049646 2.6677990318603317 0 0 0 0 -8.9055065530446882 0.015970637388818432 0 0.015970637388818432 -28.958657649999623 0 0 0 0 17.782140170016646 68.949847910446067 0 68.949847910446067 20.139068278845116 0 0 0 0 -8.3523676398463067 -11.940439328771049 0 -11.940439328771049 -3.1727029635844701 0 0 0 0 -67.036327803086351 2.3775935612951571 0 2.3775935612951571 45.049156179723468 0 0 0 0 -35.380650400653394 60.55329709994453 0 60.55329709994453 146.88118364789261 0 0 0 0 -199.39415766941602 295.56023143284028 0 295.56023143284028 -284.30462450104301 0 0 0 0 -22.416122103410117 -7.3212401478797897 0 -7.3212401478797897 7.3744866474506052 0 0 0 0 -1051.9126864792679 311.45572959152543 0 311.45572959152543 101.15590589189787 0 0 0 0 -352.02531490217643 197.6806816847311 0 197.6806816847311 -45.796806337714315 0 0 0 0 -62.756605606171433 0.80871976048615579 0 0.80871976048615579 2.1226718444361268 0 0 0 0 -99.417501210835326 -45.356147179291384 0 -45.356147179291384 -54.929010236412616 0 0 0 0 -40.879643529979717 9.5653885705672792 0 9.5653885705672792 -1.6042945269110369 0 0 0 0 -42.153204758826178 15.712871396418791 0 15.712871396418791 3.1806947324939756 0 0 0 0 -54.060359314687673 11.818228127609194 0 11.818228127609194 0.12182218567711089 0 0 0 0 -1289.6758029658758 -46.109634249837654 0 -46.109634249837654 140.89541639177651 0 0 0 0 -441.61475104283636 -0.58894237543381678 0 -0.58894237543381678 29.592277104544337 0 0 0 0 -700.21341364709588 50.322523938640643 0 50.322523938640643 138.20449079326136 0 0 0 0 -435.71102324906315 90.646600822705068 0 90.646600822705068 174.79054491187435 0 0 0 0 -119.13370361118905 -36.876325520649289 0 -36.876325520649289 27.576578134384363 0 0 0 0 -550.18810454994127 137.32888474988715 0 137.32888474988715 22.715844835320922 0 0 0 0 -678.77621495154563 -60.856892271274091 0 -60.856892271274091 67.76376393784733 0 0 0 0 -1.3142551052814149 -1.1615164245743514 0 -1.1615164245743514 -1.4142228489289739 0 0 0 0 -729.97675921573364 81.636099956661027 0 81.636099956661027 -6.2850616791386074 0 0 0 0 -329.83485981871854 94.047836311899118 0 94.047836311899118 -16.322007610869605 0 0 0 0 -464.34206012083996 -110.59391619303108 0 -110.59391619303108 -52.077771903930739 0 0 0 0 -236.75246065198553 6.7751062747640844 0 6.7751062747640844 -166.60280420782851 0 0 0 0 -64.832153154149637 29.149670415408082 0 29.149670415408082 -92.747562820012718 0 0 0 0 -218.29746193531764 106.40880280388524 0 106.40880280388524 26.938365119704031 0 0 0 0 166.73796572809169 167.5901956911631 0 167.5901956911631 -45.259624422001252 0 0 0 0 -32.317812632959964 38.179540221996945 0 38.179540221996945 -4.3293413005452575 0 0 0 0 -38.504340204619439 113.04621218937973 0 113.04621218937973 51.867348862292488 0 0 0 0 61.947051881894367 2.4293008691039404 0 2.4293008691039404 -58.290160415733453 0 0 0 0 -132.82074088145509 92.577598546006612 0 92.577598546006612 1.0413370298674636 0 0 0 0 1.3285110767228616 50.340951628154599 0 50.340951628154599 -72.158629045248787 0 0 0 0 -170.93491372460176 11.649288915469413 0 11.649288915469413 -98.505249553436897 0 0 0 0 165.22448658249141 89.463960039360927 0 89.463960039360927 -63.642688260077193 0 0 0 0 3.9166900849904778 15.94303671319012 0 15.94303671319012 1.8465506837216981 0 0 0 0 26.135160480551349 -30.063527524313258 0 -30.063527524313258 26.169589499183701 0 0 0 0 150.25301454440341 86.488885218562231 0 86.488885218562231 -12.139807981357414 0 0 0 0 -176.85959856812406 14.838227709667308 0 14.838227709667308 -21.235011860999407 0 0 0 0 26.819481961969359 8.1504662117509952 0 8.1504662117509952 -98.210325350661606 0 0 0 0 -458.1070812168764 130.0823043802439 0 130.0823043802439 -67.865145710983597 0 0 0 0 -179.88691250679028 48.293244065174783 0 48.293244065174783 -67.633415349152813 0 0 0 0 -438.72769664624866 93.396454647907717 0 93.396454647907717 -30.444995545097527 0 0 0 0 -559.05752636243778 23.832149949960808 0 23.832149949960808 -46.308876192096591 0 0 0 0 -732.74124177404337 83.389867300634478 0 83.389867300634478 43.04930324140696 0 0 0 0 -519.13293030856767 -45.570586079924851 0 -45.570586079924851 -0.73924763059380894 0 0 0 0 -1.8991613919292689 -1.8039121144658701 0 -1.8039121144658701 -4.8936268053586112 0 0 0 0 -430.04901302921826 108.34439099686483 0 108.34439099686483 -22.11904624446538 0 0 0 0 -465.26893153723722 -352.04819732080568 0 -352.04819732080568 -398.9755032804743 0 0 0 0 -467.28619525994327 142.40983629325638 0 142.40983629325638 98.310832649709027 0 0 0 0 -2.5022590048053104 1.6049430012681656 0 1.6049430012681656 -0.20876117413932638 0 0 0 0 -719.90371790895733 4.6417237989803652 0 4.6417237989803652 -234.68180407516957 0 0 0 0 -871.03378334435729 -259.24384534729757 0 -259.24384534729757 -571.04586765089516 0 0 0 0 -666.17420371333355 -97.955094970096525 0 -97.955094970096525 -678.935683022126 0 0 0 0 -657.63695262090118 21.434384168134258 0 21.434384168134258 28.051876587559491 0 0 0 0 -836.86627820865533 127.97424745279173 0 127.97424745279173 -70.706370336472901 0 0 0 0 -692.33647970585298 -2.892441036838818 0 -2.892441036838818 -17.721342904207972 0 0 0 0 -646.28114312939942 145.04905524120085 0 145.04905524120085 -16.927395839970359 0 0 0 0 -310.96117886995535 210.75288571828696 0 210.75288571828696 -11.107995079683405 0 0 0 0 -7.180930276736035 52.312781741391291 0 52.312781741391291 -122.0772906785603 0 0 0 0 -363.0627511580642 67.216828736423849 0 67.216828736423849 -143.15955892414468 0 0 0 0 4.7345458401905489 -76.112072612074144 0 -76.112072612074144 -28.869114808288714 0 0 0 0 6.2590520347221172 -26.510601046812781 0 -26.510601046812781 -17.013914407451921 0 0 0 0 90.563242669602914 -27.608274415355936 0 -27.608274415355936 -20.069018702661879 0 0 0 0 -23.834643775251607 -74.071668069547968 0 -74.071668069547968 -115.40510708162901 0 0 0 0 -4.8682891235259049 0.057516332655460189 0 0.057516332655460189 -0.60319755103156003 0 0 0 0 1.3525280956337156 -45.273095613931105 0 -45.273095613931105 53.572857862640831 0 0 0 0 -59.434038965609943 -55.352959785594749 0 -55.352959785594749 -99.738266846649822 0 0 0 0 -20.041791818109232 -51.934612978820496 0 -51.934612978820496 -74.685284958201009 0 0 0 0 -43.270049337210594 -112.04586836056399 0 -112.04586836056399 16.599306895967857 0 0 0 0 -86.267625301026783 -122.39770818815714 0 -122.39770818815714 14.119638050983667 0 0 0 0 -37.189869832426666 -106.22364787106744 0 -106.22364787106744 -136.18192953675771 0 0 0 0 -226.37031808481697 -201.56293456443836 0 -201.56293456443836 18.865241503716788 0 0 0 0 -238.8815998234677 -28.878706321327627 0 -28.878706321327627 103.20080439674257 0 0 0 0 -652.35517189633538 -140.46152453354944 0 -140.46152453354944 17.951994875516903 0 0 0 0 -133.49307340224732 -185.84801154516845 0 -185.84801154516845 -317.59795902493806 0 0 0 0 -879.73526970661624 -85.552146182655861 0 -85.552146182655861 -63.809030553842604 0 0 0 0 -499.37722099200619 -22.62783265599046 0 -22.62783265599046 -53.418831123237851 0 0 0 0 -495.23691911065907 87.404600935679809 0 87.404600935679809 114.2018430359185 0 0 0 0 -403.8418224183406 -150.04277027500211 0 -150.04277027500211 16.766612853697438 0 0 0 0 -373.97316648824199 73.603872634228537 0 73.603872634228537 219.21180089945847 0 0 0 0 -328.47644203901837 -116.40602365531129 0 -116.40602365531129 181.5668724296138 0 0 0 0 -235.22229250230885 -78.185046468730434 0 -78.185046468730434 353.22198138908243 0 0 0 0 -225.8133625720111 -35.345567553862566 0 -35.345567553862566 245.13600679709816 0 0 0 0 -214.59723546377427 -114.14934286707103 0 -114.14934286707103 323.44296241281518 0 0 0 0 -229.94230454153876 0.17757487898416002 0 0.17757487898416002 252.41412346660854 0 0 0 0 -269.40934044043388 -9.3746237655223013 0 -9.3746237655223013 314.47579994044281 0 0 0 0 -59.474579474184793 18.078372699606007 0 18.078372699606007 102.90281807151405 0 0 0 0 -106.39065566804675 41.985213619227579 0 41.985213619227579 242.66874481333434 0 0 0 0 -113.18952568382974 -65.732677498098838 0 -65.732677498098838 169.91032074543182 0 0 0 0 -121.38003751982569 25.748978086600346 0 25.748978086600346 47.37159743905795 0 0 0 0 -112.12429665775016 -7.4743812292581424 0 -7.4743812292581424 98.253011112425156 0 0 0 0 -208.46910813410068 42.686896109541152 0 42.686896109541152 45.440282704010031 0 0 0 0 -92.700163530870199 -12.840422692028007 0 -12.840422692028007 32.115711400139929 0 0 0 0 -116.84095899402746 -34.633060261397873 0 -34.633060261397873 75.539336073576578 0 0 0 0 -80.369244157725845 1.4747322117155264 0 1.4747322117155264 35.619718867665945 0 0 0 0 -75.531380334301502 53.640824539024834 0 53.640824539024834 -34.741523548007535 0 0 0 0 -268.29413614692976 22.364260753016879 0 22.364260753016879 23.451151571978698 0 0 0 0 -86.410025315613893 33.532780064488179 0 33.532780064488179 98.661687848858037 0 0 0 0 -22.756327442556106 1.7280481484955157 0 1.7280481484955157 8.4656488168130437 0 0 0 0 -136.84422985862329 19.625066593818019 0 19.625066593818019 37.315217978425608 0 0 0 0 -248.73672206544143 28.95241263728667 0 28.95241263728667 47.387264340659272 0 0 0 0 -104.07974819470837 -2.0517520311686894 0 -2.0517520311686894 24.574672772081612 0 0 0 0 -33.981244918781933 8.4557885374126869 0 8.4557885374126869 26.499013262378572 0 0 0 0 -145.71180012258446 77.949943110175809 0 77.949943110175809 18.776510596860135 0 0 0 0 -156.60328570207275 -17.912460976180682 0 -17.912460976180682 77.137178515986307 0 0 0 0 -26.26435112028922 7.3138571987419674 0 7.3138571987419674 1.8713593904654857 0 0 0 0 -112.65641305199553 -6.9893848700674255 0 -6.9893848700674255 49.275581315310475 0 0 0 0 -164.62749230209283 -15.787682130374435 0 -15.787682130374435 97.102170824806308 0 0 0 0 -172.30799660705452 -57.769733261788133 0 -57.769733261788133 309.84246363832972 0 0 0 0 -37.423375752458924 -188.57198676079452 0 -188.57198676079452 265.67875036640362 0 0 0 0 15.40208234572674 -65.907576361237261 0 -65.907576361237261 93.547981143175093 0 0 0 0 -66.271003735721024 -199.36707704949686 0 -199.36707704949686 186.83041495824364 0 0 0 0 -85.410549349102439 -89.319338222334864 0 -89.319338222334864 142.49015121330422 0 0 0 0 -90.11724844823766 -68.207622909547808 0 -68.207622909547808 56.864906678945772 0 0 0 0 -84.760449582034198 -52.721399298078722 0 -52.721399298078722 101.13023906737362 0 0 0 0 -117.67240130339479 -8.5849490486434519 0 -8.5849490486434519 47.641731981528132 0 0 0 0 -139.26584889305377 45.36400439557292 0 45.36400439557292 -11.443615015801697 0 0 0 0 -194.97105772911891 37.194018819857774 0 37.194018819857774 1.1986530525073249 0 0 0 0 -116.25269264424676 -4.9927496211623605 0 -4.9927496211623605 42.601825891006101 0 0 0 0 -154.1551691233617 8.8010808878339049 0 8.8010808878339049 49.145113580590078 0 0 0 0 -168.97124864593206 49.290911205872817 0 49.290911205872817 31.397726774190232 0 0 0 0 -158.12464951963921 59.690996723040826 0 59.690996723040826 -2.3642480913290456 0 0 0 0 -192.76601471785398 51.219983135636085 0 51.219983135636085 14.007656638776552 0 0 0 0 0.68701007537362813 -2.3474891614853277 0 -2.3474891614853277 2.971481282939493 0 0 0 0 -119.04686530210165 85.427669847622383 0 85.427669847622383 12.094541704783524 0 0 0 0 -0.79341099128916426 -1.0346515394993929 0 -1.0346515394993929 1.011043206083599 0 0 0 0 -138.59156773432915 84.435584470865251 0 84.435584470865251 -108.67457223234214 0 0 0 0 -223.61501904187026 116.24429683053427 0 116.24429683053427 12.663968323924564 0 0 0 0 -28.323703645663045 -62.460808235563491 0 -62.460808235563491 -206.59427445675101 0 0 0 0 -2.8173864545859431 -1.4694997028531134 0 -1.4694997028531134 0.51822259238741353 0 0 0 0 -48.436136712349253 65.796274808182716 0 65.796274808182716 -252.75111245551852 0 0 0 0 -117.09342661027767 141.34840113841437 0 141.34840113841437 -184.57552338280118 0 0 0 0 -165.53175360983005 64.427728038073838 0 64.427728038073838 -5.7656679488745795 0 0 0 0 -212.56847528674552 -23.882445407554769 0 -23.882445407554769 -171.29420615068108 0 0 0 0 -121.88055469328719 -13.902426176641711 0 -13.902426176641711 -39.461553553937847 0 0 0 0 -343.22703305629875 93.367720262864168 0 93.367720262864168 -28.329619061723861 0 0 0 0 -174.36173143021369 66.342977060139219 0 66.342977060139219 -38.225670818729668 0 0 0 0 -136.50717488989721 43.475005083532778 0 43.475005083532778 -21.598078554145104 0 0 0 0 -212.55065445900982 28.945166483346384 0 28.945166483346384 12.074495869808743 0 0 0 0 -163.38761507379968 6.3687278387587867 0 6.3687278387587867 14.85180176034271 0 0 0 0 -35.166361003162876 9.1493657432880866 0 9.1493657432880866 1.7585975007942238 0 0 0 0 -144.07491355442471 12.50211044570915 0 12.50211044570915 10.429816023786771 0 0 0 0 -173.33213586150669 15.058727697447921 0 15.058727697447921 10.603670494969265 0 0 0 0 -122.94413543900767 -23.40907306319594 0 -23.40907306319594 22.938407390856234 0 0 0 0 -108.17047565917346 -58.035345603299447 0 -58.035345603299447 56.087676526383802 0 0 0 0 -279.23701906733368 116.40639391601439 0 116.40639391601439 252.90492912232185 0 0 0 0 -30.585962171227617 -24.10175589440081 0 -24.10175589440081 24.350926321921683 0 0 0 0 10.675843826991695 137.98715318335599 0 137.98715318335599 553.80506204995572 0 0 0 0 -71.585541050701067 -33.565822814919557 0 -33.565822814919557 252.8029856735684 0 0 0 0 -193.86908432718883 108.04810433277612 0 108.04810433277612 -162.07580061801855 0 0 0 0 -260.78949351075607 221.24013227262367 0 221.24013227262367 189.01448861727704 0 0 0 0 -102.65998071636932 121.9344957377516 0 121.9344957377516 155.13592780477575 0 0 0 0 -375.54992566071405 369.53321253618333 0 369.53321253618333 -118.87411757306472 0 0 0 0 -245.69759522915956 67.792983466752048 0 67.792983466752048 285.79462071777584 0 0 0 0 -5.2042156177481163 1.1183171134834149 0 1.1183171134834149 20.674661523875681 0 0 0 0 -211.34340163611796 109.28390926760585 0 109.28390926760585 105.40562643065505 0 0 0 0 -16.06684318004136 -0.090910609253796792 0 -0.090910609253796792 16.064556105350107 0 0 0 0 -6.8400252045403898 -4.2948881538165411 0 -4.2948881538165411 17.785030155129817 0 0 0 0 -44.443401955400965 16.822222416459486 0 16.822222416459486 40.171868473593499 0 0 0 0 -72.568505216609992 -21.334695873030341 0 -21.334695873030341 53.774204208675656 0 0 0 0 -72.976339379376441 69.292341233204525 0 69.292341233204525 20.475264606517158 0 0 0 0 -192.77882142292037 -60.446377946952452 0 -60.446377946952452 60.007886602616964 0 0 0 0 -4.0979644298688473 9.0072340120607226 0 9.0072340120607226 7.0563693776371625 0 0 0 0 -350.13547686550919 -24.166032307626665 0 -24.166032307626665 -21.676678997615454 0 0 0 0 -55.435025475251678 -26.608818155062636 0 -26.608818155062636 43.84003472066297 0 0 0 0 -52.607793353647139 -39.559320313556327 0 -39.559320313556327 33.675186537084755 0 0 0 0 -23.137081165282325 -42.768256990415466 0 -42.768256990415466 15.881268202902675 0 0 0 0 -33.945749827251348 -17.609057835096337 0 -17.609057835096337 29.557882633734152 0 0 0 0 -29.453773397792702 -23.406739147731741 0 -23.406739147731741 -13.7769712889517 0 0 0 0 -4.3438991963591533 2.579056440798472 0 2.579056440798472 3.941987068316041 0 0 0 0 25.467002671673981 10.806219506334855 0 10.806219506334855 4.4340593256227976 0 0 0 0 78.570470466004735 40.256829552776196 0 40.256829552776196 -5.1209017938826946 0 0 0 0 1.4008619310552604 25.001049402783678 0 25.001049402783678 -3.5663000651863968 0 0 0 0 -32.750487486693373 38.531088648009131 0 38.531088648009131 175.81295764538436 0 0 0 0 -17.659448502689244 12.425023348444682 0 12.425023348444682 19.215013407721827 0 0 0 0 -171.84249699542124 -37.686343938181835 0 -37.686343938181835 245.18870714809702 0 0 0 0 68.279438409644513 -113.672311853667 0 -113.672311853667 45.258867625771018 0 0 0 0 -69.662545833126387 -132.59138172962503 0 -132.59138172962503 132.19609574666629 0 0 0 0 -2.2113953056407305 0.81433997025456351 0 0.81433997025456351 -2.0221033995520106 0 0 0 0 -369.41047987338482 -183.44637728947612 0 -183.44637728947612 -64.474291596261992 0 0 0 0 -372.97950308441091 -211.71658542106934 0 -211.71658542106934 74.391608340735729 0 0 0 0 -323.52947817233223 -98.213440776027255 0 -98.213440776027255 8.0719187077565948 0 0 0 0 -343.54319513460382 -216.67182076695804 0 -216.67182076695804 -170.65411431825805 0 0 0 0 -8.6633424753852957 -1.443567696827488 0 -1.443567696827488 0.99372564616748038 0 0 0 0 -98.431018315402071 242.8751024352955 0 242.8751024352955 -439.77614414559048 0 0 0 0 -30.511705019198303 10.708382845452434 0 10.708382845452434 31.338568032301737 0 0 0 0 -21.498745548518968 -3.8586581816594805 0 -3.8586581816594805 14.548157367220922 0 0 0 0 99.668605809899418 -0.92019160281779477 0 -0.92019160281779477 -234.67103891321449 0 0 0 0 104.77902945021378 -278.03633851149743 0 -278.03633851149743 194.96305759180404 0 0 0 0 181.74722007202354 -103.87963560117487 0 -103.87963560117487 -656.12526579344467 0 0 0 0 -453.27395373108675 -185.70429425693237 0 -185.70429425693237 -48.161736006920592 0 0 0 0 -392.41122533677162 179.10493356122322 0 179.10493356122322 -52.421426308231617 0 0 0 0 -35.273361015754688 5.0539985458066354 0 5.0539985458066354 -46.660493288422458 0 0 0 0 -23.313598648882248 73.320579360415138 0 73.320579360415138 -42.72847325906514 0 0 0 0 11.635488674679436 50.848122782493419 0 50.848122782493419 -14.111118618660385 0 0 0 0 14.095258598976216 22.673816904225077 0 22.673816904225077 -80.113531015511398 0 0 0 0 108.53007772554247 -63.2061387182614 0 -63.2061387182614 -50.506754769669101 0 0 0 0 19.081457596314067 2.7978681359238635 0 2.7978681359238635 -10.509937820402683 0 0 0 0 -35.854237305138014 -16.925300185217175 0 -16.925300185217175 -7.9794287060245743 0 0 0 0 -39.55875732565255 -16.205682236354733 0 -16.205682236354733 -4.0502144155534552 0 0 0 0 -27.201378023688449 -224.84039939306999 0 -224.84039939306999 75.08547851688148 0 0 0 0 -5.464847070333235 -25.825112649976745 0 -25.825112649976745 -8.4934795591757393 0 0 0 0 -36.688618056570704 -36.781820918768517 0 -36.781820918768517 -7.6728468346258865 0 0 0 0 -45.269002867097726 -6.8375687891071628 0 -6.8375687891071628 -2.1169443017132803 0 0 0 0 136.81654022438761 -44.974149733432661 0 -44.974149733432661 -108.87964895722956 0 0 0 0 -9.4181894258190972 -6.2568495712571064 0 -6.2568495712571064 -16.638855269948408 0 0 0 0 55.41652779382639 36.121895950173865 0 36.121895950173865 -107.5755796272482 0 0 0 0 -46.648970403065036 -17.20200805170898 0 -17.20200805170898 1.1122001089515479 0 0 0 0 -64.738033644240204 12.663261779895038 0 12.663261779895038 -16.167388635743009 0 0 0 0 -7.1093071966865296 0.54931572816263952 0 0.54931572816263952 -9.3861955033283238 0 0 0 0 46.529559062002591 -100.47195523836058 0 -100.47195523836058 40.672101661216402 0 0 0 0 -162.67594886288134 34.880479565667883 0 34.880479565667883 15.163501771750816 0 0 0 0 -48.832171219395605 2.4259354085518225 0 2.4259354085518225 -20.261407218901695 0 0 0 0 -86.669085218873079 30.739628647138943 0 30.739628647138943 -3.7189652986853616 0 0 0 0 -61.994068531974335 16.922276524306653 0 16.922276524306653 -28.650656404828624 0 0 0 0 -119.30520400001842 40.003195645295818 0 40.003195645295818 -27.217333725120625 0 0 0 0 -22.877172770571633 17.470429887213584 0 17.470429887213584 32.837894779685769 0 0 0 0 -26.626081535701815 73.217150766672489 0 73.217150766672489 -48.224533817025531 0 0 0 0 11.29060050489079 80.373010279251616 0 80.373010279251616 -53.874556868096818 0 0 0 0 -47.008229582590502 37.380981585042861 0 37.380981585042861 -10.826860564477784 0 0 0 0 28.406287504897591 31.086739673677783 0 31.086739673677783 -84.224597359830341 0 0 0 0 0.64824995986749911 -0.56978595635541751 0 -0.56978595635541751 -2.9950499142246301 0 0 0 0 -8.5364320305837609 -5.1556587666960212 0 -5.1556587666960212 -23.888965507681963 0 0 0 0 -41.437256749497465 -15.730417697408484 0 -15.730417697408484 -78.943433755985097 0 0 0 0 -183.24547036256263 -28.052910997232175 0 -28.052910997232175 273.79046476649819 0 0 0 0 -163.1614640667467 -7.5248869252077384 0 -7.5248869252077384 -14.215759347407584 0 0 0 0 -50.194276226797228 -4.4012947435330716 0 -4.4012947435330716 -34.638833893362971 0 0 0 0 -63.571834082016721 14.689666974985812 0 14.689666974985812 -70.483073524737165 0 0 0 0 109.55587146647304 -166.02175632978424 0 -166.02175632978424 -605.63666111856583 0 0 0 0 -18.151588103835593 6.3001275796572784 0 6.3001275796572784 1.3651126596182053 0 0 0 0 -69.869414701684946 -7.5399369119081712 0 -7.5399369119081712 -28.514615525882618 0 0 0 0 -71.12811822083313 26.762292775924834 0 26.762292775924834 -22.939396403659202 0 0 0 0 -51.079185856569836 20.791235759196901 0 20.791235759196901 -11.081250609925611 0 0 0 0 -112.42960610741284 -34.149086369641736 0 -34.149086369641736 -69.635049351091595 0 0 0 0 -78.503243899314839 3.4509232975042323 0 3.4509232975042323 -35.131867670221254 0 0 0 0 -101.89185553406423 -20.693016786752196 0 -20.693016786752196 -35.566415395673488 0 0 0 0 -119.81666353506444 14.033529399574945 0 14.033529399574945 -13.019519943494743 0 0 0 0 -100.16036951120986 -4.978885376470771 0 -4.978885376470771 7.5220669341570101 0 0 0 0 -73.748072910439078 -27.757632394061432 0 -27.757632394061432 3.162700832956034 0 0 0 0 -56.747899066385095 -16.781760695834784 0 -16.781760695834784 3.9831681823595684 0 0 0 0 -84.151145720876229 1.8346453657486563 0 1.8346453657486563 -11.760097452537366 0 0 0 0 -73.154882688679209 7.976027540566065 0 7.976027540566065 -8.6225423714549834 0 0 0 0 -188.63247594213578 -395.02541847179725 0 -395.02541847179725 534.49797681510336 0 0 0 0 -66.654652255299354 -9.278187926956889 0 -9.278187926956889 2.5412310707039705 0 0 0 0 -733.42069800184731 -57.1238542879546 0 -57.1238542879546 601.6822018999992 0 0 0 0 -72.195505238543376 13.048254161203992 0 13.048254161203992 -3.264960394669572 0 0 0 0 -53.468119559271145 -11.952644421759032 0 -11.952644421759032 -0.37652422776682215 0 0 0 0 -144.65927058808302 8.6765272198650791 0 8.6765272198650791 4.7544978509213252 0 0 0 0 -84.043529651564313 22.252897284269238 0 22.252897284269238 -16.325831044196093 0 0 0 0 -15.938727093271837 0.28050795228546122 0 0.28050795228546122 -4.0385407472101704 0 0 0 0 -63.59470402354691 17.04874315874315 0 17.04874315874315 -14.187456827641654 0 0 0 0 -85.347036408213171 32.448287702257858 0 32.448287702257858 -14.207499932409974 0 0 0 0 -63.778556430863318 18.982009085488698 0 18.982009085488698 -22.254850388824707 0 0 0 0 -63.255793052623631 26.891164158993888 0 26.891164158993888 -8.5429062440589405 0 0 0 0 -65.076158734271303 22.525821365697993 0 22.525821365697993 -18.979136833910161 0 0 0 0 -158.94323769300536 48.824934129230314 0 48.824934129230314 -18.713018645403963 0 0 0 0 -3.3369672851046772 -3.5270984931933285 0 -3.5270984931933285 -1.2380923132234685 0 0 0 0 -39.396510681675863 6.485479501016016 0 6.485479501016016 -6.549379453261281 0 0 0 0 -79.897561819343537 23.877685865325475 0 23.877685865325475 7.5485918172767015 0 0 0 0 -52.474397931546264 25.434228314280517 0 25.434228314280517 -18.750910593461413 0 0 0 0 -52.408293806536676 36.068410922118119 0 36.068410922118119 -45.724307516758017 0 0 0 0 111.71278123348384 90.985606938167848 0 90.985606938167848 -106.43588587915656 0 0 0 0 -72.089680813907762 65.932318009979099 0 65.932318009979099 -48.302756477460576 0 0 0 0 -4.6681096761409009 -0.17617776295629284 0 -0.17617776295629284 -1.3735848102475696 0 0 0 0 -30.038386558539059 45.856484976141132 0 45.856484976141132 -120.08378453181012 0 0 0 0 -3.8262232939731575 -0.056957309099274767 0 -0.056957309099274767 -0.027888795922805798 0 0 0 0 -49.749681252564187 19.629212278527802 0 19.629212278527802 -54.527505278900207 0 0 0 0 -68.269848099007504 -151.04812842726324 0 -151.04812842726324 -74.691557641195686 0 0 0 0 -97.397736751714547 52.594948103443585 0 52.594948103443585 -12.755511451015309 0 0 0 0 -9.936582337400381 13.443314472213828 0 13.443314472213828 -8.0052257987095086 0 0 0 0 -103.36076743708691 27.410635034203096 0 27.410635034203096 -12.315827292387894 0 0 0 0 -52.41779786736879 8.6599809495033355 0 8.6599809495033355 -3.8026333667242795 0 0 0 0 -132.02359147780226 -8.6254301107392166 0 -8.6254301107392166 -8.844167398548052 0 0 0 0 -120.17160173722368 16.060284983842394 0 16.060284983842394 8.7655989204095022 0 0 0 0 -28.923417178743676 -15.622982230086645 0 -15.622982230086645 -5.6473255708306223 0 0 0 0 -55.042670396258472 -106.08975670750397 0 -106.08975670750397 16.055093442235375 0 0 0 0 -57.874079348010127 -7.3769874032668667 0 -7.3769874032668667 24.189040533226489 0 0 0 0 -120.6934222168029 29.25729904291687 0 29.25729904291687 22.6523644690933 0 0 0 0 -4.7875319946615491 16.516581033862167 0 16.516581033862167 14.83112654424076 0 0 0 0 -35.574518559282296 -8.6525430753481487 0 -8.6525430753481487 -2.1985375459880743 0 0 0 0 -151.93461462890264 0.99923463283175806 0 0.99923463283175806 65.256414435544684 0 0 0 0 25.316481970148743 25.8412365187869 0 25.8412365187869 -4.829312741965623 0 0 0 0 4.9465205796503255 -2.5992823596931061 0 -2.5992823596931061 -4.4366961005882608 0 0 0 0 -103.99800350522855 -27.110534311516403 0 -27.110534311516403 -11.918373930216148 0 0 0 0 -0.41014885801347845 2.2757133065855584 0 2.2757133065855584 -12.000894331213331 0 0 0 0 -33.674246339833189 1.6986624206833767 0 1.6986624206833767 -14.807504817160407 0 0 0 0 -22.980734439010227 -16.764194334959683 0 -16.764194334959683 -9.8141995527030588 0 0 0 0 29.524801973544527 20.81880696053031 0 20.81880696053031 -14.486959855021269 0 0 0 0 -0.75630987985641696 5.4264498713400826 0 5.4264498713400826 -16.406996036182136 0 0 0 0 20.08685084420722 13.905998719442323 0 13.905998719442323 -13.990447813149331 0 0 0 0 -12.446105410233471 -2.7762740558276171 0 -2.7762740558276171 -0.7695895231213612 0 0 0 0 -11.299260652722431 14.165920768685694 0 14.165920768685694 -11.05459039204305 0 0 0 0 -59.930864239948278 6.7227912259306777 0 6.7227912259306777 -17.686442974104466 0 0 0 0 -112.6498204076488 0.3766651330863624 0 0.3766651330863624 -7.7935060448480726 0 0 0 0 -32.183754551071473 -12.481510955922673 0 -12.481510955922673 -8.4819652181780629 0 0 0 0 -48.317000282497247 6.7851792830682953 0 6.7851792830682953 -20.96754300062878 0 0 0 0 -103.56871599509032 -9.5986550272957629 0 -9.5986550272957629 -10.085312193900791 0 0 0 0 -51.521751000735094 -2.2180097522475535 0 -2.2180097522475535 -5.7461030476827091 0 0 0 0 -48.001188798043586 28.788299678036765 0 28.788299678036765 29.976939364275665 0 0 0 0 -27.68218842558872 3.5323924418352846 0 3.5323924418352846 -3.1077470907750921 0 0 0 0 -31.40351120128669 -3.6631061958990969 0 -3.6631061958990969 -4.7095066411842863 0 0 0 0 -36.356886059070348 2.7688938311603692 0 2.7688938311603692 -0.99751667716941483 0 0 0 0 -19.7987222998965 -0.12413081883836696 0 -0.12413081883836696 -2.9801720484890728 0 0 0 0 -31.753370174596952 5.0529584297288821 0 5.0529584297288821 -2.6369685291978442 0 0 0 0 -14.1836292776593 -4.3181606880868912 0 -4.3181606880868912 -7.3535891992408127 0 0 0 0 -12.256736812589377 3.5028310501133149 0 3.5028310501133149 -15.186326948906082 0 0 0 0 -41.049975022266153 3.0613304620375743 0 3.0613304620375743 -12.68339352694602 0 0 0 0 -68.51058228472175 23.143602813413963 0 23.143602813413963 -14.27532903989777 0 0 0 0 -47.516135580648552 0.74431861621087592 0 0.74431861621087592 -12.568006175630671 0 0 0 0 -68.773219661408802 1.2751394184067522 0 1.2751394184067522 21.271833772552782 0 0 0 0 -34.181011633540038 1.5432239660840423 0 1.5432239660840423 -19.546205387017835 0 0 0 0 -32.041042694563814 7.8189525766057955 0 7.8189525766057955 -15.08719146863892 0 0 0 0 -50.798611178013203 14.869035786266025 0 14.869035786266025 -9.6069332817461603 0 0 0 0 -125.09380363241507 47.058396216018537 0 47.058396216018537 74.835800525253944 0 0 0 0 17.731600338094722 35.721554614611847 0 35.721554614611847 -21.62140826378436 0 0 0 0 -10.893174493359735 1.322056002621629 0 1.322056002621629 0.26550684168311944 0 0 0 0 -23.974912422345369 17.707499223260811 0 17.707499223260811 27.709638530142229 0 0 0 0 -23.974912422345369 17.707499223258537 0 17.707499223258537 27.709638530156553 0 0 0 0 -23.974912422330817 17.707499223265586 0 17.707499223265586 27.709638530144503 0 0 0 0 -44.821720427690011 3.1190588275338982 0 3.1190588275338982 -9.235679653533623 0 0 0 0 -50.868435518143087 47.745079422233175 0 47.745079422233175 -4.0017016736553614 0 0 0 0 -68.989185020083823 15.069765480235731 0 15.069765480235731 5.9766238037005905 0 0 0 0 -75.851115942627075 24.627404168641988 0 24.627404168641988 23.958414903390576 0 0 0 0 -80.591519895606325 29.325279368697011 0 29.325279368697011 34.750325670670009 0 0 0 0 -123.68106944591273 -30.980623433396488 0 -30.980623433396488 16.400894660282347 0 0 0 0 -111.91765826067785 -30.14060595282794 0 -30.14060595282794 -19.173630181959766 0 0 0 0 -73.64279647161311 34.692785124662805 0 34.692785124662805 30.405217665650078 0 0 0 0 -43.962161866216775 -5.5288411075541148 0 -5.5288411075541148 -6.105922168036841 0 0 0 0 -71.841296507122024 19.434942652221935 0 19.434942652221935 42.470831905361592 0 0 0 0 -54.500044574187328 6.163920148153629 0 6.163920148153629 5.716997276437823 0 0 0 0 -59.032219490181888 27.966171335103809 0 27.966171335103809 30.199911897218982 0 0 0 0 -44.669319613196421 26.254568523966554 0 26.254568523966554 28.732436777479393 0 0 0 0 -62.272793325955718 -3.6978308394220107 0 -3.6978308394220107 72.370005951825078 0 0 0 0 -12.31261663129473 8.2164463142035196 0 8.2164463142035196 6.3412383817414302 0 0 0 0 -53.384650391354626 -9.6185060504979703 0 -9.6185060504979703 -42.927966197423302 0 0 0 0 -48.558041667238285 9.201351924445305 0 9.201351924445305 -28.687743022473796 0 0 0 0 -65.740317817118921 -18.658717803589823 0 -18.658717803589823 -23.65490486817464 0 0 0 0 -35.77053139761847 17.74721440788133 0 17.74721440788133 -11.098872081891912 0 0 0 0 -52.792554342660878 3.6215881958670906 0 3.6215881958670906 -15.819919494556331 0 0 0 0 -48.887968928189366 16.557239367391219 0 16.557239367391219 -11.109851447707626 0 0 0 0 -3481.5118720440223 868.06247518675912 0 868.06247518675912 598.26304190565611 0 0 0 0 -13.715770647988222 -3.7860601143969319 0 -3.7860601143969319 2.3732635087723573 0 0 0 0 -61.562721893249545 4.533478367939324 0 4.533478367939324 -6.4402139079263634 0 0 0 0 -14.683863949612089 -3.5453822512963171 0 -3.5453822512963171 -3.1468363921021347 0 0 0 0 -21.416011078166775 33.317778104203995 0 33.317778104203995 -24.280355696667804 0 0 0 0 -5.7447681368430494 -5.4063088486586821 0 -5.4063088486586821 -77.798670718022066 0 0 0 0 -103.91708525917784 -60.629830290857399 0 -60.629830290857399 -67.717498438491532 0 0 0 0 -44.487254966665205 -32.601857793574254 0 -32.601857793574254 -55.456142640991288 0 0 0 0 -54.645655806703957 5.5462106630061818 0 5.5462106630061818 7.2853955437551834 0 0 0 0 -113.05977319090744 -12.714591173428744 0 -12.714591173428744 15.243339491008214 0 0 0 0 -2.6461910540971729 -16.400970630526643 0 -16.400970630526643 -7.6993968552930099 0 0 0 0 -2646.5431411739737 -893.55826948790457 0 -893.55826948790457 -176.04338483150704 0 0 0 0 -3496.009546533307 -1699.9783665386756 0 -1699.9783665386756 -584.25467394783311 0 0 0 0 -3244.603021787836 -917.67364539218988 0 -917.67364539218988 -157.91416540945337 0 0 0 0 -120.21485025360562 -41.340968127679787 0 -41.340968127679787 -5.1583889360338162 0 0 0 0 1.7086881785658221 -9.2915603651529182 0 -9.2915603651529182 -4.0632687608974525 0 0 0 0 -2997.6669335218248 -720.85911148595949 0 -720.85911148595949 -154.58522295829769 0 0 0 0 -149.21661287306415 -41.920026863380201 0 -41.920026863380201 6.350147551449254 0 0 0 0 -3500.4495772177725 -806.76074000154983 0 -806.76074000154983 16.704561799251451 0 0 0 0 -3268.9316949645763 -684.18545356332629 0 -684.18545356332629 -18.076176957978625 0 0 0 0 -2992.1255026872714 -533.94376241318082 0 -533.94376241318082 0.32894815290895885 0 0 0 0 -2760.5822512507693 107.47200830738946 0 107.47200830738946 517.72479010292295 0 0 0 0 -3499.3837890795985 -384.43640783910382 0 -384.43640783910382 274.04396423731004 0 0 0 0 -2523.1122778927129 -548.49077672588032 0 -548.49077672588032 52.708592359889167 0 0 0 0 -2930.6243687714887 -466.49198535201754 0 -466.49198535201754 65.178395420129718 0 0 0 0 -1.2790424051952272 -2.8571856796574622 0 -2.8571856796574622 -0.97646283501315101 0 0 0 0 -155.28867733577135 -30.213992196887204 0 -30.213992196887204 -19.061353690176816 0 0 0 0 -127.51055398290191 -18.454817928433968 0 -18.454817928433968 -71.666759423123949 0 0 0 0 -237.12470585459232 43.085912799831959 0 43.085912799831959 -18.748020917310054 0 0 0 0 -175.78278395982488 -5.5437626644670956 0 -5.5437626644670956 3.3329713615834677 0 0 0 0 -75.949788747067942 64.078483971131661 0 64.078483971131661 -18.290439085276432 0 0 0 0 -24.833771400787327 86.769428921741877 0 86.769428921741877 -145.89070056986483 0 0 0 0 -37.756536229822814 -8.4265716240618076 0 -8.4265716240618076 -64.670445267757628 0 0 0 0 -160.84328281322087 -65.023632791966634 0 -65.023632791966634 -116.31460421740331 0 0 0 0 -643.35826217839349 -175.92398144195317 0 -175.92398144195317 -121.00378702199578 0 0 0 0 -1091.6229415030066 -146.33030553661973 0 -146.33030553661973 46.433842167947205 0 0 0 0 -692.79586301567542 132.65254710457947 0 132.65254710457947 -112.59294942527771 0 0 0 0 -63.098164571641973 78.321441247938679 0 78.321441247938679 -238.59893810349513 0 0 0 0 -19.66112104939458 42.28864432879061 0 42.28864432879061 -229.26821027837082 0 0 0 0 -445.35223166435389 -163.87198682088029 0 -163.87198682088029 163.72974292685416 0 0 0 0 -635.10537873834073 573.70932653258888 0 573.70932653258888 -318.50550482014478 0 0 0 0 -2089.4032513763123 139.56368127989842 0 139.56368127989842 238.79534032810369 0 0 0 0 -2272.7555040030493 701.34715360738141 0 701.34715360738141 416.50653238539581 0 0 0 0 -3498.9269288660607 206.13518630975247 0 206.13518630975247 662.12892748169338 0 0 0 0 -1304.4053954368173 242.10002588824602 0 242.10002588824602 29.983895438750551 0 0 0 0 -1146.9382365850324 241.96349680773019 0 241.96349680773019 140.5760821999495 0 0 0 0 -41.250390312576201 -6.4919079470367365 0 -6.4919079470367365 81.24994559752065 0 0 0 0 -22.234881919414278 10.658959458367505 0 10.658959458367505 -3.1446190743510813 0 0 0 0 -856.78872456074168 -94.459892865660791 0 -94.459892865660791 249.03615169516272 0 0 0 0 -1211.2645400671317 -126.07095064674448 0 -126.07095064674448 302.99381178485555 0 0 0 0 -3496.3400625423747 -1300.5061245768702 0 -1300.5061245768702 -47.337233335406438 0 0 0 0 18.707865950185806 263.76913881837936 0 263.76913881837936 -510.43325233795952 0 0 0 0 -10.387164247883305 3.1375103662327888 0 3.1375103662327888 -2.5145984771166838 0 0 0 0 -228.85905007175461 -73.724534290621719 0 -73.724534290621719 57.836267281530823 0 0 0 0 -226.04089805325202 -29.852335111674734 0 -29.852335111674734 38.029050113710127 0 0 0 0 -35.378447679438978 -109.7047117449423 0 -109.7047117449423 59.210554144443449 0 0 0 0 95.921849494436174 -17.323650716757129 0 -17.323650716757129 -38.820534509683512 0 0 0 0 -73.382143238326535 2.7840177012474214 0 2.7840177012474214 0.19969307428402772 0 0 0 0 -27.75418128753428 -14.435858969949962 0 -14.435858969949962 6.378738401381689 0 0 0 0 -73.377919198363088 2.3849584828209345 0 2.3849584828209345 0.57782305798423295 0 0 0 0 0.024037387346137251 -0.011039719291588312 0 -0.011039719291588312 -0.055301062833637893 0 0 0 0 -33.067505676372093 -27.714850693478297 0 -27.714850693478297 -2.7957029094739028 0 0 0 0 -164.94916759723128 36.237394560399423 0 36.237394560399423 100.51873113184621 0 0 0 0 -222.37206491969118 -34.942750383875591 0 -34.942750383875591 44.825922911586076 0 0 0 0 -193.3116048728989 -44.002947939317437 0 -44.002947939317437 28.409357741086524 0 0 0 0 -141.43076948198723 -40.195267297808414 0 -40.195267297808414 -20.404728809501876 0 0 0 0 -181.11959716074671 -5.4857983023879768 0 -5.4857983023879768 0.44489499735004756 0 0 0 0 -220.8895684390518 -0.89577593580872872 0 -0.89577593580872872 0.01839945012602584 0 0 0 0 -207.90554065542528 -23.052706889159936 0 -23.052706889159936 -0.24642000516450935 0 0 0 0 -203.59652408826514 -31.703376297741556 0 -31.703376297741556 -1.5028238646777936 0 0 0 0 -257.32000516817789 -2.5291817358070148 0 -2.5291817358070148 10.064708136323134 0 0 0 0 42.411860442283796 -18.453295573468495 0 -18.453295573468495 -0.20270684893648649 0 0 0 0 3.2214390844731327 -1.1532848070884114 0 -1.1532848070884114 -0.2004350354488027 0 0 0 0 -71.219431075704051 4.5332595974398942 0 4.5332595974398942 1.0240793138299296 0 0 0 0 -8.312000600048286 -1.9011066402738095 0 -1.9011066402738095 4.4215703683958472 0 0 0 0 65.717689669261745 -1.1098785122388222 0 -1.1098785122388222 9.9173494958827177 0 0 0 0 -7.9405701639372097 -17.714685048497088 0 -17.714685048497088 4.4060906543791134 0 0 0 0 -28.062300251864798 4.1502427177649537 0 4.1502427177649537 4.1285098799990223 0 0 0 0 -60.372780555269856 5.1488126356553323 0 5.1488126356553323 9.1707244235709027 0 0 0 0 -1.6314959048409321 -1.7122563105933324 0 -1.7122563105933324 -1.1574661343006722 0 0 0 0 14.668571142443398 -15.613761061038844 0 -15.613761061038844 4.9059370837777578 0 0 0 0 7.4597821038008192 -13.186159288293332 0 -13.186159288293332 -0.023220346647006451 0 0 0 0 -287.88488071023039 20.469316738568658 0 20.469316738568658 -6.8593453509083702 0 0 0 0 -265.32322959050362 79.469251581872641 0 79.469251581872641 149.19348901114085 0 0 0 0 -284.20103452246985 -91.407908772901465 0 -91.407908772901465 -12.531465182817556 0 0 0 0 -3.6196401346010703 -1.8358285560994858 0 -1.8358285560994858 2.0312062628948202 0 0 0 0 -427.99742741939554 18.747993724914181 0 18.747993724914181 71.746204289882598 0 0 0 0 -13.677037487766938 -81.125744974463601 0 -81.125744974463601 -103.49431165789701 0 0 0 0 -391.42030194990366 -221.87049187737489 0 -221.87049187737489 -79.588889113030973 0 0 0 0 -5.5039645555920913 -0.62617286064055122 0 -0.62617286064055122 1.5137872697641002 0 0 0 0 -282.51225449334925 -3.7230890216738146 0 -3.7230890216738146 32.360983817807664 0 0 0 0 -775.92629217240028 -59.436663248955483 0 -59.436663248955483 54.887816470688222 0 0 0 0 18.654921926799943 -8.3076606917408888 0 -8.3076606917408888 15.894328780563001 0 0 0 0 -46.5533025462355 -198.03688825173992 0 -198.03688825173992 306.12270486597532 0 0 0 0 -1.9289546808573244 -11.489656371453961 0 -11.489656371453961 6.3446620461293595 0 0 0 0 -291.56542780966265 265.24594156891521 0 265.24594156891521 493.83657048515329 0 0 0 0 -34.000985081376569 4.6193288059392295 0 4.6193288059392295 2.1107563354524999 0 0 0 0 150.71283252997091 -247.39446708437632 0 -247.39446708437632 -126.76696085480305 0 0 0 0 -44.438900657230988 110.20049972889899 0 110.20049972889899 -437.16171169298173 0 0 0 0 89.135489672844415 -305.15678883832499 0 -305.15678883832499 46.318015763719359 0 0 0 0 67.835585465887561 -188.21934283376055 0 -188.21934283376055 250.65399525656997 0 0 0 0 424.23174674308393 -477.046670662015 0 -477.046670662015 86.46861474420831 0 0 0 0 258.03259417139634 -8.5303956985068865 0 -8.5303956985068865 -446.78646273239582 0 0 0 0 -45.364586102135945 7.3764066121074165 0 7.3764066121074165 -138.55309256011833 0 0 0 0 -116.74576498940587 254.6370198289593 0 254.6370198289593 -109.44477237212288 0 0 0 0 -6.3629116204319871 1.0829780980987209 0 1.0829780980987209 3.3225245276266051 0 0 0 0 -112.28014404137502 413.01528211963972 0 413.01528211963972 -405.47011511591847 0 0 0 0 -737.34472732413269 38.742386860812019 0 38.742386860812019 -219.6808510734092 0 0 0 0 -339.31293941071635 118.17543126768658 0 118.17543126768658 -322.73782036476547 0 0 0 0 -204.7429654164298 -317.31914187028661 0 -317.31914187028661 -79.65234955700501 0 0 0 0 -1638.5475343007965 1090.6985966846523 0 1090.6985966846523 -250.30201912791981 0 0 0 0 -3494.3919932384888 251.82776782441778 0 251.82776782441778 521.40559807290515 0 0 0 0 -1495.2719332423003 -1346.2003918185437 0 -1346.2003918185437 -460.33846136494822 0 0 0 0 -488.74504237430301 688.62960012906069 0 688.62960012906069 -633.64174342695571 0 0 0 0 -15.204963898334029 1.792132940498302 0 1.792132940498302 -1.4537558771671621 0 0 0 0 -1482.5807475069159 -342.85100358606149 0 -342.85100358606149 569.41202169711073 0 0 0 0 -3492.803028044651 -600.41522992923865 0 -600.41522992923865 569.47416577561864 0 0 0 0 -92.796938413179305 213.42643693539242 0 213.42643693539242 48.400501772230655 0 0 0 0 -1502.665388133275 -238.08780833093005 0 -238.08780833093005 98.754597477251025 0 0 0 0 -3501.6043898442149 237.78591604228922 0 237.78591604228922 571.46204232987895 0 0 0 0 -3492.5046667698989 1193.7231790841088 0 1193.7231790841088 -25.014444748452039 0 0 0 0 -1482.4238133409817 450.43929030630289 0 450.43929030630289 242.65501369639031 0 0 0 0 -36.398982102989976 50.891323683889212 0 50.891323683889212 -494.70351964666429 0 0 0 0 -1315.8648566585198 710.48382539223371 0 710.48382539223371 -413.17046589293062 0 0 0 0 -15.059002935681747 2.9295870067940251 0 2.9295870067940251 -1.7154923871026773 0 0 0 0 -741.27029877774476 -526.71966385513849 0 -526.71966385513849 -335.82883590040944 0 0 0 0 -1219.045946004444 1480.0797772583408 0 1480.0797772583408 -1583.2694563778473 0 0 0 0 -48.671820395769004 3.513099597381768 0 3.513099597381768 1.2364794283256992 0 0 0 0 -66.423446103930473 7.7153621484048927 0 7.7153621484048927 23.172813510284215 0 0 0 0 -85.046532645996194 0.83856824735789814 0 0.83856824735789814 22.412613274718069 0 0 0 0 -54.337530449538463 17.569622270440661 0 17.569622270440661 14.513114718120335 0 0 0 0 -36.701248383677722 3.5830510920016687 0 3.5830510920016687 -0.31638804695358791 0 0 0 0 -247.06720512131142 38.674103517066186 0 38.674103517066186 1.3785839396098658 0 0 0 0 -49.958596042975842 6.6711761358923525 0 6.6711761358923525 40.742007907286279 0 0 0 0 -18.862884426402161 270.38443560545784 0 270.38443560545784 -296.7767479688759 0 0 0 0 27.766047658369644 -3.6028221727584082 0 -3.6028221727584082 -307.20755833334977 0 0 0 0 3.521819872323249 -15.771295005979994 0 -15.771295005979994 -34.408641247446667 0 0 0 0 -91.273535237298347 76.837173067632989 0 76.837173067632989 -121.39344722272745 0 0 0 0 -121.6303725138132 137.96907278629749 0 137.96907278629749 -129.60796452592012 0 0 0 0 -36.053264455829776 240.59910817019792 0 240.59910817019792 -26.147997343828891 0 0 0 0 -316.09848901318037 282.21360057535577 0 282.21360057535577 -13.763960288656044 0 0 0 0 -354.71511358017597 49.316488148862675 0 49.316488148862675 -175.94880779047446 0 0 0 0 -258.36833325126281 538.48670399304251 0 538.48670399304251 -132.28684688292549 0 0 0 0 553.88166729060322 183.7726461678217 0 183.7726461678217 -180.69420047606371 0 0 0 0 -6.126437483059167 0.65430974900036176 0 0.65430974900036176 3.1666288898159265 0 0 0 0 -420.71580365400678 321.62081466756717 0 321.62081466756717 -252.07298855400768 0 0 0 0 -616.17057874141756 323.40099176742626 0 323.40099176742626 51.389821517989958 0 0 0 0 -26.65003686210548 30.373360560809829 0 30.373360560809829 -164.12287442217018 0 0 0 0 -384.59716281532383 -193.91442533767943 0 -193.91442533767943 -274.65140545212489 0 0 0 0 -7.714141887563791 -15.509061641742022 0 -15.509061641742022 -12.520116360100685 0 0 0 0 -78.559803373587783 11.475571974057516 0 11.475571974057516 -21.852908100695032 0 0 0 0 -84.147743375127902 22.249090874996682 0 22.249090874996682 -20.614319277396817 0 0 0 0 -87.402144579056767 1.5190070631133494 0 1.5190070631133494 -21.375933663337207 0 0 0 0 -365.31279980995168 -39.35076098004447 0 -39.35076098004447 85.211284878724697 0 0 0 0 -59.124501211859751 2.5408395530157577 0 2.5408395530157577 -11.394560709170037 0 0 0 0 -160.43927023307333 81.83304793245054 0 81.83304793245054 -50.65320332252486 0 0 0 0 -6.4660285830654516 -14.149135125860298 0 -14.149135125860298 -6.1740354963252706 0 0 0 0 -84.310244993903325 -26.774647454545061 0 -26.774647454545061 17.98143210008709 0 0 0 0 -94.596027779261931 17.535005959858665 0 17.535005959858665 6.6459647342494463 0 0 0 0 -62.091454429202713 -9.9935575518993573 0 -9.9935575518993573 6.0836829854260941 0 0 0 0 -91.489512204678817 -5.254391027914985 0 -5.254391027914985 14.468128813701696 0 0 0 0 -4.034938778119205 -1.0138102247881733 0 -1.0138102247881733 -0.099340281421967269 0 0 0 0 -113.92147909788764 1.306758645026548 0 1.306758645026548 -6.176080616364743 0 0 0 0 0.53689307099209316 0.32471992077117307 0 0.32471992077117307 -0.41818117968353796 0 0 0 0 -61.494680612675438 25.08943807739081 0 25.08943807739081 -5.3264102579805694 0 0 0 0 -111.02668023469232 17.947711191216399 0 17.947711191216399 16.726853986654532 0 0 0 0 -76.894184294083971 25.866825428375705 0 25.866825428375705 -14.151380175058364 0 0 0 0 -99.102631415837095 46.791774916307077 0 46.791774916307077 33.780218679274185 0 0 0 0 -156.37337652160204 8.6399520535155716 0 8.6399520535155716 46.184261595118187 0 0 0 0 -61.672584329451638 -11.171592045192313 0 -11.171592045192313 21.697279843145225 0 0 0 0 -85.552010479092132 -2.8982958746943268 0 -2.8982958746943268 -39.621713351437847 0 0 0 0 -4.7717703310905151 -0.75302147243517936 0 -0.75302147243517936 -0.19237656757806398 0 0 0 0 -46.020914260530844 -18.242555584747606 0 -18.242555584747606 -7.3021572562934125 0 0 0 0 -128.06766639863781 -50.279588938760753 0 -50.279588938760753 -73.130112455366543 0 0 0 0 -122.89307955703589 47.599206943217041 0 47.599206943217041 -32.756826431323134 0 0 0 0 -0.27891227083884473 0.51768181386175449 0 0.51768181386175449 -3.1730984655067851 0 0 0 0 5.2244365491722107 0.033525722183540552 0 0.033525722183540552 -0.47162154202825057 0 0 0 0 61.474687456269749 -6.755340635931816 0 -6.755340635931816 1.9103073297828814 0 0 0 0 -65.645724909933051 -1.3071128467970539 0 -1.3071128467970539 3.4184705763373131 0 0 0 0 -84.220968640942374 -25.333324594589016 0 -25.333324594589016 -9.1629227925750456 0 0 0 0 -160.83643501883489 -79.832673439429527 0 -79.832673439429527 -36.455449193341238 0 0 0 0 -19.094268814471508 -10.692080286987292 0 -10.692080286987292 -0.85755926491695522 0 0 0 0 0.8792808155194507 -295.86628063562421 0 -295.86628063562421 -18.640038850515793 0 0 0 0 4.8093468652240574 -5.5131014911059886 0 -5.5131014911059886 -3.5213107723605175 0 0 0 0 -52.026792557619046 -34.773532539378266 0 -34.773532539378266 61.143535424327183 0 0 0 0 -58.470024965819903 163.3991388488248 0 163.3991388488248 10.604712289072268 0 0 0 0 -32.625562024162662 -11.967975295869216 0 -11.967975295869216 -3.2415185381912961 0 0 0 0 -45.741602833499201 -53.9321832577225 0 -53.9321832577225 35.960582172856448 0 0 0 0 -14.685277765143837 -50.543863380721177 0 -50.543863380721177 17.548985235521286 0 0 0 0 -29.903143607240054 -0.19399280380685013 0 -0.19399280380685013 11.606728616372266 0 0 0 0 -47.578599052794743 -33.229484034708548 0 -33.229484034708548 8.43871197865883 0 0 0 0 -54.368588869569066 -20.753773959507726 0 -20.753773959507726 34.711081228738294 0 0 0 0 -61.610937888224726 -10.446280733383446 0 -10.446280733383446 24.323301372760397 0 0 0 0 -56.298161999555305 -5.3609316909181643 0 -5.3609316909181643 11.536279197588556 0 0 0 0 -88.585899578320095 15.357362196937629 0 15.357362196937629 16.306501088454752 0 0 0 0 -63.576387051638449 6.7391100393817851 0 6.7391100393817851 -10.230690374633923 0 0 0 0 -47.627556083651143 7.6846355417117138 0 7.6846355417117138 16.948591225603195 0 0 0 0 -64.016251097607892 4.8054838765494878 0 4.8054838765494878 22.354111661243678 0 0 0 0 -36.126477802972659 -12.109014562148445 0 -12.109014562148445 35.342003930198189 0 0 0 0 -26.26955248444574 -6.2052550084713403 0 -6.2052550084713403 38.184171980837164 0 0 0 0 -31.232691912737209 -6.8279312502736502 0 -6.8279312502736502 40.897677261921217 0 0 0 0 6.6947631535367691 -34.698219513933736 0 -34.698219513933736 41.670123624184271 0 0 0 0 -10.031100861233426 -29.835983324804829 0 -29.835983324804829 55.658304697589301 0 0 0 0 -28.20744506236224 4.0957031590869519 0 4.0957031590869519 46.231438064299255 0 0 0 0 -36.224199655916891 29.409109474497654 0 29.409109474497654 16.983792154335106 0 0 0 0 -32.136136433648062 -3.6644528460074071 0 -3.6644528460074071 35.317081469158893 0 0 0 0 -42.442211227302323 15.503668438867862 0 15.503668438867862 21.570038246225067 0 0 0 0 -50.541598320072808 32.022979548716307 0 32.022979548716307 -3.3478665223469761 0 0 0 0 -38.034333513285674 16.29458940391396 0 16.29458940391396 -5.3851203550220816 0 0 0 0 -101.61753395141568 -2.2032659750277617 0 -2.2032659750277617 2.560256396242039 0 0 0 0 -80.910839936463162 -6.2482071933648058 0 -6.2482071933648058 -18.295073718330968 0 0 0 0 -44.753979109926149 4.45448034019023 0 4.45448034019023 -0.99704833702026008 0 0 0 0 -57.524814236232487 20.575132455218409 0 20.575132455218409 -20.722355406841871 0 0 0 0 -62.189586957727442 29.559467995191426 0 29.559467995191426 -33.065704711254625 0 0 0 0 -67.7170345298764 18.359370827728071 0 18.359370827728071 -30.598311437113352 0 0 0 0 -46.582375438127201 33.248340843467759 0 33.248340843467759 -26.556192750088712 0 0 0 0 -42.526979176953319 42.223094588253161 0 42.223094588253161 -17.992035457260954 0 0 0 0 -38.944206939922879 29.619916509609993 0 29.619916509609993 -47.610075147984844 0 0 0 0 -44.657562939166382 14.579030978449737 0 14.579030978449737 -45.53823052824265 0 0 0 0 -42.914341833042272 14.105813998782793 0 14.105813998782793 22.406296162075591 0 0 0 0 -30.841320052670198 25.80602477695993 0 25.80602477695993 1.3849399356390677 0 0 0 0 -14.073026127211051 -2.0140230218898978 0 -2.0140230218898978 -16.376934067825175 0 0 0 0 -33.207698287840572 7.0981431962627042 0 7.0981431962627042 -2.286084317342298 0 0 0 0 -48.049891638569534 2.8577114711040394 0 2.8577114711040394 -35.325170617082904 0 0 0 0 -51.517699653551972 11.028235976310384 0 11.028235976310384 -27.59681098387432 0 0 0 0 -223.16394131749257 291.01305706911114 0 291.01305706911114 -123.42836913749943 0 0 0 0 -9.702950871450355 -15.531908827772298 0 -15.531908827772298 -15.447049499296313 0 0 0 0 -429.11614565047785 373.6017255651816 0 373.6017255651816 -124.59454657078226 0 0 0 0 -382.69662643909396 198.6592037676694 0 198.6592037676694 40.177486461525064 0 0 0 0 -727.83780098028365 281.71922715695905 0 281.71922715695905 20.212677599619838 0 0 0 0 -415.5107026732876 164.84732720136776 0 164.84732720136776 6.5670414307348892 0 0 0 0 -382.43021278207743 202.66811311096529 0 202.66811311096529 -21.890649135191325 0 0 0 0 -322.74393194909499 189.9160858222192 0 189.9160858222192 -31.437038459646374 0 0 0 0 -352.98085932427784 147.47569102743898 0 147.47569102743898 -8.2293672308680925 0 0 0 0 -162.83477016394681 103.63005354294231 0 103.63005354294231 -80.308130086075153 0 0 0 0 -317.55542624598093 213.65840653383719 0 213.65840653383719 -118.0797470757002 0 0 0 0 -327.18937900121819 182.02084017952347 0 182.02084017952347 -164.01321446714383 0 0 0 0 -530.41271949070506 92.464825971267601 0 92.464825971267601 -154.82740484718528 0 0 0 0 -597.28587042872095 327.14394523976262 0 327.14394523976262 -268.05184183867914 0 0 0 0 -617.20413423673017 154.15188914375335 0 154.15188914375335 65.917341550918536 0 0 0 0 -3.7959119986720964 -3.7704234941165566 0 -3.7704234941165566 -1.0760584607055876 0 0 0 0 -532.1673923778435 268.80941695875828 0 268.80941695875828 -93.864227550887335 0 0 0 0 -7.4555392980347506 -2.5251161373609818 0 -2.5251161373609818 -3.4986297787726333 0 0 0 0 -516.14967965563119 228.0342540115297 0 228.0342540115297 -147.33901727089142 0 0 0 0 -555.74013093365647 190.97511329643601 0 190.97511329643601 -104.7504265616335 0 0 0 0 -357.60278409524835 134.1873349180097 0 134.1873349180097 -73.026343840916525 0 0 0 0 -342.15302632958628 163.57900076709029 0 163.57900076709029 -146.46206484240474 0 0 0 0 -270.32124537432173 87.102897150655252 0 87.102897150655252 -138.5630670046753 0 0 0 0 -302.99433858017437 232.19284639112379 0 232.19284639112379 -131.50629213421098 0 0 0 0 -471.68712348186818 281.08788774305674 0 281.08788774305674 -125.21183288417706 0 0 0 0 -264.04216272901976 -626.57127972285843 0 -626.57127972285843 -389.6590158916224 0 0 0 0 -298.48364786004095 100.88789945347025 0 100.88789945347025 -20.367783641410369 0 0 0 0 -246.12567884438613 96.938154889007251 0 96.938154889007251 -62.106966280574738 0 0 0 0 -112.04191985060606 80.330426482555936 0 80.330426482555936 -23.993355801931457 0 0 0 0 -186.81659524313 -29.768061935044614 0 -29.768061935044614 60.54514484252104 0 0 0 0 -404.74978383878624 152.79304287688331 0 152.79304287688331 323.30744175673067 0 0 0 0 -92.538175974118587 27.36615368553457 0 27.36615368553457 -6.7302405013591819 0 0 0 0 -115.51699221312447 267.77665216437663 0 267.77665216437663 185.92610135046141 0 0 0 0 -474.99363949167309 398.56174575906925 0 398.56174575906925 509.92069220253143 0 0 0 0 -86.582480510468173 24.794352568978155 0 24.794352568978155 -5.6193343039636687 0 0 0 0 24.243597143693478 221.4466520576882 0 221.4466520576882 103.08546141170083 0 0 0 0 -77.181201942381449 -3.2859569049937818 0 -3.2859569049937818 2.8933087250101153 0 0 0 0 289.95475784008158 270.76517747458183 0 270.76517747458183 -988.30410310340358 0 0 0 0 -150.23920997624373 -243.68963485175823 0 -243.68963485175823 24.115742727236238 0 0 0 0 -73.263867440437025 -75.396446069801186 0 -75.396446069801186 242.86117114583533 0 0 0 0 -68.579231174678625 16.937162172360438 0 16.937162172360438 -2.4192107302464483 0 0 0 0 3.2102503032947425 -97.516751214701344 0 -97.516751214701344 102.22305063235154 0 0 0 0 187.41187242907472 -185.93195529275636 0 -185.93195529275636 114.09901614635714 0 0 0 0 -12.157618141616695 -10.602126027817121 0 -10.602126027817121 -22.342681252312104 0 0 0 0 -3.4493520901305601 -34.428770162780893 0 -34.428770162780893 39.775952756810057 0 0 0 0 -1.5915739880583715 10.873294331211127 0 10.873294331211127 27.228433764599913 0 0 0 0 43.728357178464648 -6.1320037692507867 0 -6.1320037692507867 10.472341510763727 0 0 0 0 -8.2112707511696499 -6.1953802650664329 0 -6.1953802650664329 -13.849790441538971 0 0 0 0 -16.983404711209005 -3.6038832683452711 0 -3.6038832683452711 23.551142619274287 0 0 0 0 -21.215676002611872 12.037576558024739 0 12.037576558024739 23.044161033276396 0 0 0 0 -1188.0940103612375 -303.06391885455741 0 -303.06391885455741 -1098.0903369866865 0 0 0 0 -47.713371864404053 11.716062685048072 0 11.716062685048072 22.808263043722491 0 0 0 0 -18.649490465264535 15.1293777640999 0 15.1293777640999 16.310617423394433 0 0 0 0 -14.618445536820218 15.377749782689079 0 15.377749782689079 16.256863106465062 0 0 0 0 -43.490015729861625 -11.63556543833306 0 -11.63556543833306 19.216237700211877 0 0 0 0 -2.1651081812888151 -10.719452703251932 0 -10.719452703251932 18.766415138025422 0 0 0 0 1.1660103535250528 -32.327709260177585 0 -32.327709260177585 13.565992684238608 0 0 0 0 -76.140289828326786 -38.815827405760047 0 -38.815827405760047 59.6274924874715 0 0 0 0 -53.881214672655915 23.86342481318934 0 23.86342481318934 4.6681939556037833 0 0 0 0 -44.872281782636037 -34.519728575901212 0 -34.519728575901212 14.375634541679119 0 0 0 0 -47.662226016681529 8.2980984133983569 0 8.2980984133983569 -2.6662472194919418 0 0 0 0 -14.097393522591574 -11.959944537113401 0 -11.959944537113401 -15.33809639866983 0 0 0 0 -1642.509550376446 -197.2621252014842 0 -197.2621252014842 389.90368282444228 0 0 0 0 -1175.9244637493684 205.00958739349699 0 205.00958739349699 536.41358312907141 0 0 0 0 -2.1163933870182063 -1.9189352594070996 0 -1.9189352594070996 -5.8601959014402922 0 0 0 0 -134.00794515995949 -1.0563105468086178 0 -1.0563105468086178 -19.452897059243696 0 0 0 0 -323.10146474475187 282.30581804872736 0 282.30581804872736 -166.10353515292445 0 0 0 0 -2.0779704398435115 5.2666931864990403 0 5.2666931864990403 -6.2693045879959222 0 0 0 0 -47.873114192290814 18.453871799510353 0 18.453871799510353 0.71683706133626401 0 0 0 0 -56.56544450626825 27.416713688244272 0 27.416713688244272 -5.3780417568659686 0 0 0 0 -51.34677362160437 20.680544978913076 0 20.680544978913076 -6.1508436646749942 0 0 0 0 -54.189754554899991 28.446606851486195 0 28.446606851486195 1.931720769972344 0 0 0 0 -50.708711764760665 17.421293056041179 0 17.421293056041179 11.016226560835548 0 0 0 0 -47.240726792850182 35.071111603320787 0 35.071111603320787 23.899419407500091 0 0 0 0 -33.585334192099253 4.4049231621600597 0 4.4049231621600597 -110.48999990748234 0 0 0 0 -47.271003609009142 14.725111116889103 0 14.725111116889103 -3.3789695604052854 0 0 0 0 -42.324882774097205 12.438933057782378 0 12.438933057782378 -6.7616005055037931 0 0 0 0 -54.735459399904357 48.503745899442038 0 48.503745899442038 -56.623071145348376 0 0 0 0 -96.263669799023774 2.3594122353622424 0 2.3594122353622424 -8.4656615391922969 0 0 0 0 -35.083692381624132 14.343997736457538 0 14.343997736457538 -25.648940594454871 0 0 0 0 -59.593915427132913 24.848462861277987 0 24.848462861277987 -6.9593492166847675 0 0 0 0 -7.2739621898435871 -87.095241601775228 0 -87.095241601775228 -145.30488506305892 0 0 0 0 86.247816324001178 25.894691562957178 0 25.894691562957178 -85.685106082745961 0 0 0 0 29.45741214681766 25.631279675033511 0 25.631279675033511 70.382168632401772 0 0 0 0 20.302644960247562 -38.529037175370149 0 -38.529037175370149 -36.226878373005093 0 0 0 0 -18.655409692406465 12.697024522924266 0 12.697024522924266 45.21094736498344 0 0 0 0 -29.583714777480054 -33.395482614593902 0 -33.395482614593902 86.362704449598823 0 0 0 0 -37.8276977041387 5.2026245591255247 0 5.2026245591255247 176.97205070559221 0 0 0 0 -25.077825064479839 38.673021721064742 0 38.673021721064742 2.5950248327044392 0 0 0 0 -22.120403680906747 -16.775687526561342 0 -16.775687526561342 -6.4060641244541046 0 0 0 0 10.669080611027312 -50.642625623884669 0 -50.642625623884669 88.563375982708294 0 0 0 0 -25.266975913575152 -10.477976243895228 0 -10.477976243895228 79.644540138423508 0 0 0 0 -29.450511183265917 3.7177679667324242 0 3.7177679667324242 38.460790634057958 0 0 0 0 -12.937670919374796 11.81368867068295 0 11.81368867068295 42.428916806318284 0 0 0 0 6.791479151128442 -3.8898297385219394 0 -3.8898297385219394 78.226180652608036 0 0 0 0 -9.3061924826536426 -1.2912325987030258 0 -1.2912325987030258 0.4198105909689076 0 0 0 0 -66.118916808103677 -10.816029495335897 0 -10.816029495335897 44.060982930255705 0 0 0 0 -8.339869922347134 -51.897930396323716 0 -51.897930396323716 81.658441638930071 0 0 0 0 -20.716412048525257 -7.3762267953129843 0 -7.3762267953129843 -1.4369861772331127 0 0 0 0 -18.599147470587923 -22.581656616846658 0 -22.581656616846658 90.263330275717635 0 0 0 0 -21.333682894124649 -17.514138181551516 0 -17.514138181551516 72.198678633054897 0 0 0 0 53.424395866459236 -26.429473802191296 0 -26.429473802191296 66.573491172676768 0 0 0 0 61.742957148191635 -64.835496139900442 0 -64.835496139900442 70.190471483220108 0 0 0 0 -108.99679597306385 132.52422851324786 0 132.52422851324786 -66.482575617824182 0 0 0 0 -138.60748182830866 -9.9388645442541019 0 -9.9388645442541019 96.00164100947336 0 0 0 0 -2.8867188534422894 -93.962877893797668 0 -93.962877893797668 162.09850356524521 0 0 0 0 -16.708341920885232 -2.5040645507569543 0 -2.5040645507569543 0.35211657097223936 0 0 0 0 -4.0192667530322126 -1.84847738303543 0 -1.84847738303543 -0.3874497361583602 0 0 0 0 70.145824094121053 27.408739812760587 0 27.408739812760587 -41.519476794979482 0 0 0 0 -86.023549781522888 153.86476501554409 0 153.86476501554409 -82.515698987815995 0 0 0 0 -137.31249506423046 145.01406499718541 0 145.01406499718541 -27.017937451119906 0 0 0 0 11.101863675223285 8.0854317412693035 0 8.0854317412693035 -3.8854791005442166 0 0 0 0 -181.15145454557205 -51.820509372271772 0 -51.820509372271772 216.04300604143918 0 0 0 0 -248.57395041674317 122.29436550643391 0 122.29436550643391 -21.625212601017665 0 0 0 0 -168.62466371244227 -27.292908304294997 0 -27.292908304294997 -10.430182859924571 0 0 0 0 -173.31052066278062 156.5067022770495 0 156.5067022770495 133.66887903880706 0 0 0 0 -208.24015694434638 100.07100346612333 0 100.07100346612333 0.16314201255590888 0 0 0 0 -229.79682193611006 93.290857718290226 0 93.290857718290226 -0.89985764351604303 0 0 0 0 -249.248034449236 112.33659637913388 0 112.33659637913388 12.13213068728146 0 0 0 0 -112.41750957198383 169.75754378370948 0 169.75754378370948 -42.794124503791636 0 0 0 0 -113.92120669251744 188.08911370495184 0 188.08911370495184 -116.93644041646166 0 0 0 0 -122.1211019087641 105.75616652662438 0 105.75616652662438 -120.64197490911192 0 0 0 0 -152.33350714636254 179.57621337489832 0 179.57621337489832 -300.68182515792705 0 0 0 0 -444.78232708803262 185.75221616292765 0 185.75221616292765 -38.665735527564266 0 0 0 0 -6.3025156841485739 -0.64295081258255848 0 -0.64295081258255848 -0.084546961738483972 0 0 0 0 -403.35832877492794 454.22751841359218 0 454.22751841359218 -456.42414452243395 0 0 0 0 149.58846330808592 -97.827161100971125 0 -97.827161100971125 -42.413187418701 0 0 0 0 -436.3255776722217 -201.05131030551047 0 -201.05131030551047 219.72234616873629 0 0 0 0 63.687029414912104 138.44654135885912 0 138.44654135885912 -133.71203564479242 0 0 0 0 -1.3153255158752586 -0.62314819778835329 0 -0.62314819778835329 -0.21094987752513372 0 0 0 0 51.8670735015844 -158.18966490468532 0 -158.18966490468532 120.62569403891803 0 0 0 0 -201.97224019401619 -58.50540605016306 0 -58.50540605016306 132.68980129149031 0 0 0 0 -12.418248385066846 15.097894048879866 0 15.097894048879866 -1.9887251745178673 0 0 0 0 -336.42277936288156 23.229717070964398 0 23.229717070964398 83.013831656915499 0 0 0 0 -41.609373242761649 38.229517885357382 0 38.229517885357382 -68.126516631335107 0 0 0 0 -94.008042960224657 28.060164177869709 0 28.060164177869709 -5.5242484262304048 0 0 0 0 -268.01733709312975 129.87003161199254 0 129.87003161199254 17.439486978657897 0 0 0 0 -326.89779934237595 -103.77534307590668 0 -103.77534307590668 -144.06922285871406 0 0 0 0 -294.84439258050406 -24.022975519662509 0 -24.022975519662509 -46.671869466448697 0 0 0 0 -405.51834354564198 -107.75418204466223 0 -107.75418204466223 46.043801108799471 0 0 0 0 -439.93447010753152 -169.14607173708282 0 -169.14607173708282 -20.068424838078556 0 0 0 0 -301.14579901885008 -182.73152251664487 0 -182.73152251664487 -21.509723929689358 0 0 0 0 -350.61732104058319 -321.54488229246999 0 -321.54488229246999 -339.0622838430827 0 0 0 0 -297.54107334074797 161.1814689287603 0 161.1814689287603 -130.23312808689616 0 0 0 0 -242.68846402488998 -88.676458571022977 0 -88.676458571022977 -454.42468303079659 0 0 0 0 -124.63056411224534 16.262191754716696 0 16.262191754716696 -104.49354302609117 0 0 0 0 -190.10764418415783 44.882973707001838 0 44.882973707001838 -116.32697931668599 0 0 0 0 -1043.1233826731914 580.90631505759484 0 580.90631505759484 -312.86203493219546 0 0 0 0 -92.645705837763444 29.988833178978645 0 29.988833178978645 -7.1657451670136396 0 0 0 0 -429.53000096759934 -212.98502616699307 0 -212.98502616699307 100.97956582660277 0 0 0 0 -777.15321500819846 235.98266525080203 0 235.98266525080203 -25.026249315040786 0 0 0 0 -306.23494367297099 11.225408510273155 0 11.225408510273155 -9.7483773368216475 0 0 0 0 -63.933552521579259 6.9274716665784126 0 6.9274716665784126 -13.502455029749399 0 0 0 0 -91.49037256990573 24.760965673821715 0 24.760965673821715 -6.1924314689428659 0 0 0 0 -78.702165050399344 71.831020229202295 0 71.831020229202295 17.865507137015811 0 0 0 0 -12.921327432915859 30.295065371027249 0 30.295065371027249 -87.291325872965444 0 0 0 0 -175.00344265342574 -63.800099340322959 0 -63.800099340322959 -58.610056737951595 0 0 0 0 -81.500620290651568 23.260716004690494 0 23.260716004690494 -16.081687314585906 0 0 0 0 -173.32918496935963 -14.61434154494907 0 -14.61434154494907 28.876040208491759 0 0 0 0 -293.50683115391075 25.597644568002806 0 25.597644568002806 3.7743054239572302 0 0 0 0 -167.42658113200741 1.6207232120901267 0 1.6207232120901267 0.54840737694757991 0 0 0 0 -124.92776529572075 27.990733840292137 0 27.990733840292137 26.57593175767397 0 0 0 0 -145.00978502546786 33.769486300711378 0 33.769486300711378 33.335879479610412 0 0 0 0 -77.695673027795223 26.799620325150471 0 26.799620325150471 22.941289416236334 0 0 0 0 -107.19729352621128 11.926554641275281 0 11.926554641275281 23.862767474287487 0 0 0 0 -23.658341448003924 -5.2449602004969762 0 -5.2449602004969762 5.648224002927952 0 0 0 0 -142.08984751191747 64.541682803929007 0 64.541682803929007 -5.9588388915531141 0 0 0 0 -107.30384717126071 -3.181698067542662 0 -3.181698067542662 -11.607728052883658 0 0 0 0 -198.7253075638655 26.918234639063485 0 26.918234639063485 8.808967244998712 0 0 0 0 -53.700747861008338 -6.4588929813915428 0 -6.4588929813915428 -3.24359923242897 0 0 0 0 -396.09067847805272 -293.8364238844506 0 -293.8364238844506 -276.32503804259613 0 0 0 0 -15.47695124783786 16.822219235510602 0 16.822219235510602 -11.519940076524108 0 0 0 0 -25.936861893764018 15.950557232830931 0 15.950557232830931 -11.725972168960144 0 0 0 0 -61.242617609621647 31.905775412932556 0 31.905775412932556 -19.75500563930585 0 0 0 0 -349.98177086061332 -159.25132091023988 0 -159.25132091023988 -342.21866000801856 0 0 0 0 -96.377380584091867 29.124984640586028 0 29.124984640586028 5.3368717471575238 0 0 0 0 -254.62208477006061 -162.01435957059675 0 -162.01435957059675 -363.18613580072633 0 0 0 0 -60.538847731266287 -89.135596952149172 0 -89.135596952149172 -346.61338293216249 0 0 0 0 -154.55348171737569 -177.12047262503802 0 -177.12047262503802 -232.34423308801343 0 0 0 0 -17.703014276924563 13.218362012881457 0 13.218362012881457 -8.4806841237384205 0 0 0 0 -72.817318530695047 -142.54624657030399 0 -142.54624657030399 -226.2894555887724 0 0 0 0 145.77425871093874 378.65249114647122 0 378.65249114647122 182.29153946549195 0 0 0 0 -35.613287098763976 -68.092019734398491 0 -68.092019734398491 17.279311200283701 0 0 0 0 -14.710256617734558 -6.1740440401927117 0 -6.1740440401927117 -151.83241569890379 0 0 0 0 -56.572035787510686 -82.866527033009334 0 -82.866527033009334 -142.63363028676395 0 0 0 0 -5.8402699136640877 -128.54092032370136 0 -128.54092032370136 -270.17740319038057 0 0 0 0 4.9984554429538548 -65.497891122060537 0 -65.497891122060537 -216.93969090683095 0 0 0 0 -29.341096578806173 -6.4756559712914168 0 -6.4756559712914168 -48.487496801099041 0 0 0 0 -100.56788507205783 -232.59017653965839 0 -232.59017653965839 -345.24669697860736 0 0 0 0 -250.51813441223931 -211.96822405773128 0 -211.96822405773128 -295.94271746036156 0 0 0 0 -75.62343645808869 -167.05581656534014 0 -167.05581656534014 -317.64860867899915 0 0 0 0 -235.44053407543106 -232.15965490601229 0 -232.15965490601229 -295.78558080021321 0 0 0 0 -25.94446287752362 -187.23797004951484 0 -187.23797004951484 -324.57521509360959 0 0 0 0 2.6698666370939463 -61.013636222640343 0 -61.013636222640343 -220.71156596482979 0 0 0 0 -45.934134115115739 -96.746283267177205 0 -96.746283267177205 -224.31787428819371 0 0 0 0 39.376878627652331 -61.236055974247279 0 -61.236055974247279 -269.02677817843505 0 0 0 0 120.59458522917703 12.112926756875822 0 12.112926756875822 -221.55628406301184 0 0 0 0 38.759359461837448 -126.66485880951768 0 -126.66485880951768 -267.05007649929757 0 0 0 0 48.479406812752131 27.342588465395238 0 27.342588465395238 -172.11752096434066 0 0 0 0 -29.226326868320939 -184.10979237977872 0 -184.10979237977872 -361.41953931010357 0 0 0 0 -27.61343574168859 -92.312482901957992 0 -92.312482901957992 -262.4955015127689 0 0 0 0 24.142163862474263 -87.190677895236149 0 -87.190677895236149 -158.83929576346054 0 0 0 0 42.082712318515405 -67.897820536849395 0 -67.897820536849395 -327.58568887544698 0 0 0 0 234.94393638562178 -25.557976574393251 0 -25.557976574393251 -283.93905267683567 0 0 0 0 217.65537927148762 161.11429431302633 0 161.11429431302633 -136.89017278471147 0 0 0 0 53.839998601819389 166.43213593303153 0 166.43213593303153 -1.7483411816192529 0 0 0 0 19.682516771019436 88.061620057535947 0 88.061620057535947 -35.839499456258636 0 0 0 0 74.679094150225865 175.92068362504506 0 175.92068362504506 46.910032459483773 0 0 0 0 53.874613226740621 91.844838469307433 0 91.844838469307433 -91.480954191858473 0 0 0 0 54.001472129079048 29.497272438737127 0 29.497272438737127 -174.13685505714238 0 0 0 0 37.382609300353579 -0.17823691222531579 0 -0.17823691222531579 -147.10141026219935 0 0 0 0 -801.46572857239516 -370.92315845088524 0 -370.92315845088524 -217.13303410748267 0 0 0 0 -361.05200025474187 -313.42969406997508 0 -313.42969406997508 -353.37710847239941 0 0 0 0 -592.8276140292146 -368.90459555167581 0 -368.90459555167581 -307.04186119781662 0 0 0 0 -620.03156042721821 -261.88005940729636 0 -261.88005940729636 -252.83757980645169 0 0 0 0 -515.54716455505695 -271.1573217414516 0 -271.1573217414516 -280.38673893829764 0 0 0 0 -299.61098927061539 -335.7845540053786 0 -335.7845540053786 -329.00336390543816 0 0 0 0 -352.91207535658032 -285.52236648570033 0 -285.52236648570033 -313.99083097273615 0 0 0 0 -347.47575641522417 -336.03314461958325 0 -336.03314461958325 -346.81938616063417 0 0 0 0 -219.87011708662612 -260.51758451090427 0 -260.51758451090427 -357.58543434468083 0 0 0 0 -167.38411282689776 -198.1832622305501 0 -198.1832622305501 -259.76405620913647 0 0 0 0 -143.65940624923678 -210.46986994634699 0 -210.46986994634699 -437.73776486040879 0 0 0 0 -299.6417987527675 -245.93051836380619 0 -245.93051836380619 -276.93277811360895 0 0 0 0 -79.821806736959843 -268.85833148199345 0 -268.85833148199345 -361.76129559816036 0 0 0 0 -262.75735803731368 -274.49398423516868 0 -274.49398423516868 -503.9464774347507 0 0 0 0 -562.04389291064581 -520.99479771458027 0 -520.99479771458027 -421.35911260529974 0 0 0 0 -878.71795620927514 -711.07416435884716 0 -711.07416435884716 -438.71851803265236 0 0 0 0 -439.7751462173037 -564.34954528471053 0 -564.34954528471053 -799.03926813687576 0 0 0 0 -14.347241698952985 -1.720847457433905 0 -1.720847457433905 -2.8414010026740755 0 0 0 0 -188.83120629587211 409.33676659525145 0 409.33676659525145 278.5540283490692 0 0 0 0 -20.33684550356287 13.960176308344245 0 13.960176308344245 -8.3146375229318696 0 0 0 0 -215.67792770543019 29.902967742853434 0 29.902967742853434 -720.0262281588673 0 0 0 0 -714.07495621570706 13.179633396586269 0 13.179633396586269 -66.543646659012666 0 0 0 0 -109.43075580583536 -147.92887818773579 0 -147.92887818773579 221.92230219713565 0 0 0 0 -304.61235637373466 109.550269668282 0 109.550269668282 -59.009578517256159 0 0 0 0 91.04074865533039 -47.130247108118056 0 -47.130247108118056 -107.08712056577997 0 0 0 0 51.029319726614631 107.47383921909932 0 107.47383921909932 25.015885805745711 0 0 0 0 -137.42598733640625 9.1941450847875785 0 9.1941450847875785 80.272872873021697 0 0 0 0 451.38880955777131 306.74730380622714 0 306.74730380622714 -109.73789570307235 0 0 0 0 426.10929905876401 -85.285735301357818 0 -85.285735301357818 -196.78305896740039 0 0 0 0 4.6657548428250379 -8.1974499945480659 0 -8.1974499945480659 9.6375571935537607 0 0 0 0 -583.83920154122461 -301.81212271681943 0 -301.81212271681943 -47.804798862496682 0 0 0 0 -188.81543847073772 -66.829284817703638 0 -66.829284817703638 120.41027131175906 0 0 0 0 -490.08039563527564 -294.6959331990829 0 -294.6959331990829 -91.091865705297323 0 0 0 0 -299.22617474421349 -45.870654273118589 0 -45.870654273118589 -37.183859282755293 0 0 0 0 16.475987088328111 -9.2231052762936088 0 -9.2231052762936088 -65.719890541655332 0 0 0 0 -260.03711850171385 -16.744935721892034 0 -16.744935721892034 76.983381095733577 0 0 0 0 -16.954358999587896 10.464951060054986 0 10.464951060054986 -5.633080001631761 0 0 0 0 -332.31142824160634 -268.63713681044101 0 -268.63713681044101 71.677528211255776 0 0 0 0 -822.8543339411699 -169.52765591296702 0 -169.52765591296702 47.748647160573 0 0 0 0 -302.82107018961688 -200.49501875842452 0 -200.49501875842452 -217.77575048104063 0 0 0 0 -1340.6020825355372 -708.20895765195473 0 -708.20895765195473 -153.54613421394652 0 0 0 0 -11.405185649025952 495.03646511950501 0 495.03646511950501 -330.92390104829065 0 0 0 0 -6.4413184390978131 3.8059340586657129 0 3.8059340586657129 -2.9514368011026715 0 0 0 0 -927.92892134868453 -378.10004114652952 0 -378.10004114652952 -248.47944026539699 0 0 0 0 -74.71057232687599 138.63726009843072 0 138.63726009843072 336.85263137123547 0 0 0 0 236.78826457810646 18.965942888865357 0 18.965942888865357 -33.227368854701126 0 0 0 0 -491.03553891470074 -56.43792701173993 0 -56.43792701173993 6.3041722037733052 0 0 0 0 -81.830864097282756 -50.45985269850803 0 -50.45985269850803 -54.511672919313241 0 0 0 0 -384.39177243111772 175.1664891856999 0 175.1664891856999 -72.5047105670983 0 0 0 0 -168.97544660919812 353.3270098373705 0 353.3270098373705 72.413901454079678 0 0 0 0 -829.17850372070097 340.15862064847533 0 340.15862064847533 81.679295754514214 0 0 0 0 -273.50555619093939 976.46318837225681 0 976.46318837225681 -172.22173758086683 0 0 0 0 -164.98043490410782 818.87750345651148 0 818.87750345651148 -377.43306535300508 0 0 0 0 -242.73079702444375 678.02125949666879 0 678.02125949666879 -109.49569401224835 0 0 0 0 -468.57900684399647 646.6341578008396 0 646.6341578008396 186.07988969806752 0 0 0 0 -347.26331669860519 894.95659843745671 0 894.95659843745671 82.827663965292231 0 0 0 0 -20.616765652404865 -91.336426648872475 0 -91.336426648872475 -55.643035254897768 0 0 0 0 -1275.3433063889679 442.89903704136896 0 442.89903704136896 163.66549388651424 0 0 0 0 -4.7406154322395651 -5.1456917912014433 0 -5.1456917912014433 -5.4620628267844555 0 0 0 0 1.5713569129584357 8.2701861366392677 0 8.2701861366392677 4.845434948176262 0 0 0 0 -120.22892820835114 -172.74469706893615 0 -172.74469706893615 -122.17372337884262 0 0 0 0 -68.689197022351436 -38.09065228392592 0 -38.09065228392592 -11.495608386041113 0 0 0 0 -54.692757178418105 -40.130807082819047 0 -40.130807082819047 -42.319848677650953 0 0 0 0 -1066.3617255362478 -278.42779512786456 0 -278.42779512786456 -100.58835626399014 0 0 0 0 -368.4136631321453 17.053475648608583 0 17.053475648608583 -276.50308007947206 0 0 0 0 -676.57876578097785 7.6533456582055805 0 7.6533456582055805 -10.830261358933967 0 0 0 0 0.83899812291389253 -2.227409481568003 0 -2.227409481568003 2.3352753875496273 0 0 0 0 -420.9162540457437 -106.3851115795369 0 -106.3851115795369 60.542269999396467 0 0 0 0 -338.67891536647221 -18.209949693010913 0 -18.209949693010913 -10.01073977695188 0 0 0 0 -210.98870510238339 -141.87913237495763 0 -141.87913237495763 80.897545787330273 0 0 0 0 -536.74706807019538 -296.05178204285721 0 -296.05178204285721 39.059960918765228 0 0 0 0 -214.67623275543156 -155.92571035653282 0 -155.92571035653282 61.141998460245759 0 0 0 0 2.6404450208789285 -5.765131674421724 0 -5.765131674421724 7.4014227927417267 0 0 0 0 -4.1203863995106644 2.6044524324949805 0 2.6044524324949805 -0.79658977693097555 0 0 0 0 -525.41919319098815 -109.69617913167212 0 -109.69617913167212 -2.9493762580864313 0 0 0 0 -1255.1536590515607 -345.86291105056193 0 -345.86291105056193 74.76145049893023 0 0 0 0 85.546314924631247 39.72763265459006 0 39.72763265459006 124.00069888392954 0 0 0 0 -243.76785060365182 56.902336273810874 0 56.902336273810874 90.512461433524095 0 0 0 0 -9.6819825914575972 5.9051532722413071 0 5.9051532722413071 -0.75833036520426234 0 0 0 0 -10.769843100468279 212.66133488466448 0 212.66133488466448 270.68450863097024 0 0 0 0 -277.54715077349101 -93.781915199840341 0 -93.781915199840341 -78.149061739370154 0 0 0 0 -466.53845872156671 21.808910765355677 0 21.808910765355677 -13.520186092837321 0 0 0 0 -720.33246432201122 272.66711983696587 0 272.66711983696587 141.69541800707339 0 0 0 0 -750.63455796976632 -22.842043214709975 0 -22.842043214709975 59.257724989620783 0 0 0 0 -505.35070464464297 -381.81279571880066 0 -381.81279571880066 -429.0990605245579 0 0 0 0 -1003.3190387136565 436.87984465461068 0 436.87984465461068 64.471992158211606 0 0 0 0 -87.111851701993146 -36.204505340004744 0 -36.204505340004744 -60.071775790598622 0 0 0 0 -227.62727245868882 -133.14955234882655 0 -133.14955234882655 -60.179448127325486 0 0 0 0 -187.49134179670364 -244.86930782645413 0 -244.86930782645413 -147.12569323851039 0 0 0 0 -785.51599934019032 -315.94729378458214 0 -315.94729378458214 35.888754898587194 0 0 0 0 -66.54325358053029 -179.95012377949388 0 -179.95012377949388 -60.218827606238847 0 0 0 0 -305.67391039829818 -53.7290750301554 0 -53.7290750301554 59.454048748136302 0 0 0 0 -164.49720374708704 -128.54252463143712 0 -128.54252463143712 67.259723724320793 0 0 0 0 -420.470944305373 -48.095542810103794 0 -48.095542810103794 182.34900143314735 0 0 0 0 -50.815192961774301 -44.697251129916822 0 -44.697251129916822 89.626746825672853 0 0 0 0 -138.7239939928113 -9.8415100294587319 0 -9.8415100294587319 154.24487236287359 0 0 0 0 -60.44893770456838 -133.62617573464104 0 -133.62617573464104 141.57368237563423 0 0 0 0 -1032.0565981291875 283.49923161845322 0 283.49923161845322 302.07672640237251 0 0 0 0 -421.28204086588664 265.7949994638505 0 265.7949994638505 89.92719343358749 0 0 0 0 -383.03229217567423 -71.770861607129518 0 -71.770861607129518 -140.94747129379402 0 0 0 0 -0.66986283294477289 0.56720705944073302 0 0.56720705944073302 2.6677966067901941 0 0 0 0 -736.38004939696111 247.44505224090119 0 247.44505224090119 130.25861782286393 0 0 0 0 84.957865348086898 -177.53533864907146 0 -177.53533864907146 116.1887486954447 0 0 0 0 -289.27567970149539 127.55843058610628 0 127.55843058610628 121.47783133564872 0 0 0 0 -57.319252106768545 -38.042550183861294 0 -38.042550183861294 217.13943469121114 0 0 0 0 -84.21735608857125 -73.36664987193717 0 -73.36664987193717 190.98530996263116 0 0 0 0 78.739823440765122 46.577833197862532 0 46.577833197862532 -54.926026663977154 0 0 0 0 -4.8049821785366191 -3.6875499462426546 0 -3.6875499462426546 -0.7443245660821951 0 0 0 0 -61.459947605493653 -21.101701148397638 0 -21.101701148397638 -36.573830491405715 0 0 0 0 -194.44916427259159 71.320965406872574 0 71.320965406872574 51.120844645495708 0 0 0 0 -125.90964689169778 -99.037645207861715 0 -99.037645207861715 75.202068907159401 0 0 0 0 0.32956873395119146 2.1516404790795036 0 2.1516404790795036 5.8348464986325004 0 0 0 0 -447.05441819058615 296.86066229022379 0 296.86066229022379 6.078415457856039 0 0 0 0 -541.34986148166354 327.82409147194994 0 327.82409147194994 26.870251962762723 0 0 0 0 -419.10883851899416 443.66149454226615 0 443.66149454226615 98.932175559762982 0 0 0 0 94.663667418863042 706.63124107433907 0 706.63124107433907 325.00654930747532 0 0 0 0 -614.45335433610308 375.10427297580009 0 375.10427297580009 220.05760389706029 0 0 0 0 -563.59726559188857 89.843840031156788 0 89.843840031156788 151.78955719587248 0 0 0 0 -659.20590351353167 211.19428501877815 0 211.19428501877815 21.501094307388712 0 0 0 0 -226.28136050267494 143.6220580470989 0 143.6220580470989 19.865463974483191 0 0 0 0 -543.16841516483692 197.68498487991008 0 197.68498487991008 -32.495655881389666 0 0 0 0 -556.27526571918861 121.88061758138815 0 121.88061758138815 -10.526711180081747 0 0 0 0 -670.49734276306117 -36.371995237518661 0 -36.371995237518661 -0.34356074437231165 0 0 0 0 -938.10546402198815 24.673751128557853 0 24.673751128557853 -34.185248709771258 0 0 0 0 -811.67052089563367 322.14836430061837 0 322.14836430061837 -27.323631752794881 0 0 0 0 -568.74610021332046 292.19897646689003 0 292.19897646689003 -145.46544204130566 0 0 0 0 -460.46326634346042 332.08820620195434 0 332.08820620195434 -79.880102163870561 0 0 0 0 -570.33125276927603 254.10563050159624 0 254.10563050159624 -18.906351907469372 0 0 0 0 -180.52954084983503 79.687852807495915 0 79.687852807495915 -355.445624633894 0 0 0 0 -57.864854011611897 23.315129316873652 0 23.315129316873652 12.153388051048296 0 0 0 0 -3.4671784281284772 4.3463659923262981 0 4.3463659923262981 8.4531773719814627 0 0 0 0 -1638.900259746144 -249.66273031439403 0 -249.66273031439403 -109.63300027748744 0 0 0 0 -8.1824209214771599 2.6244994485740918 0 2.6244994485740918 1.0654751191307856 0 0 0 0 -405.47754581612753 617.11993749173848 0 617.11993749173848 -569.50744254619508 0 0 0 0 -1286.9518715067825 508.13447556496874 0 508.13447556496874 -139.02942927552334 0 0 0 0 -1812.4691393707253 -52.429620458453968 0 -52.429620458453968 195.01939002862252 0 0 0 0 -775.3162087182518 -249.02411205842725 0 -249.02411205842725 109.65128283279569 0 0 0 0 -781.49233670078684 -546.76642480028863 0 -546.76642480028863 -393.71381907971306 0 0 0 0 -6.0650214095579713 0.65641903336103269 0 0.65641903336103269 0.062219904636253542 0 0 0 0 -6.1193502311853081 1.4328782778133871 0 1.4328782778133871 2.0400775798275954 0 0 0 0 -791.85995545916376 -55.423532000386849 0 -55.423532000386849 96.01804748486532 0 0 0 0 -15.230285759387698 5.2579008329981525 0 5.2579008329981525 -41.089579316044812 0 0 0 0 -76.042483617711696 74.910193267835751 0 74.910193267835751 -99.400385368185539 0 0 0 0 -23.895305884829668 0.57423704397367104 0 0.57423704397367104 1.7554850998086249 0 0 0 0 -11.762871281622211 -4.4419480792368518 0 -4.4419480792368518 -54.30299304269964 0 0 0 0 -3.7600429235317279 -29.515997672735992 0 -29.515997672735992 -62.802867730560521 0 0 0 0 -141.04632015292736 62.785484293787349 0 62.785484293787349 -32.270808790953431 0 0 0 0 -5.2756619521533139 -55.436472875746432 0 -55.436472875746432 -21.574310114529169 0 0 0 0 -25.034332012030063 -17.45105726581177 0 -17.45105726581177 -42.39726376007259 0 0 0 0 -36.634409217927896 -15.153687485601907 0 -15.153687485601907 -3.2071648182680406 0 0 0 0 -20.597582649900517 0.42513885142669849 0 0.42513885142669849 -0.13914931545885301 0 0 0 0 -37.96952692072955 4.4523720859013025 0 4.4523720859013025 10.086570562303393 0 0 0 0 -32.838134818361141 1.7682674425201981 0 1.7682674425201981 -1.3447801644119011 0 0 0 0 -19.936228245525854 -6.0259844432893814 0 -6.0259844432893814 -21.609014934212837 0 0 0 0 -17.197607377165696 12.52586626512031 0 12.52586626512031 -15.542826850072231 0 0 0 0 10.808389418649313 -5.4662652880319005 0 -5.4662652880319005 -40.336613280902554 0 0 0 0 -3.5643944368918881 0.46203502822672249 0 0.46203502822672249 0.71076281051653845 0 0 0 0 -30.812777509869193 -3.9382087023366523 0 -3.9382087023366523 -3.9768989520675859 0 0 0 0 -13.636843548523672 -10.72916007692217 0 -10.72916007692217 -1.1287293000240735 0 0 0 0 -32.139409002520551 2.0183683356939248 0 2.0183683356939248 -2.440736107949192 0 0 0 0 -32.339477931920555 0.72854713185802211 0 0.72854713185802211 -2.2686878223934173 0 0 0 0 -11.702344482289561 -5.1244254168858134 0 -5.1244254168858134 -1.7836319379097327 0 0 0 0 -62.503040691758542 -41.321565740253199 0 -41.321565740253199 38.972528077137667 0 0 0 0 -32.360955653566634 0.18826821765821933 0 0.18826821765821933 -4.9906879483692137 0 0 0 0 37.620782981699449 -124.11129703547408 0 -124.11129703547408 11.798316618288482 0 0 0 0 17.065654287784128 75.137251043868673 0 75.137251043868673 -36.470288637532803 0 0 0 0 -6.3147657801229116 -5.4491109246576457 0 -5.4491109246576457 -1.9355819388331188 0 0 0 0 -73.687582689031842 25.422740227635813 0 25.422740227635813 4.1434433277963763 0 0 0 0 -27.693793938633462 -21.486113443850172 0 -21.486113443850172 -7.3143774668951664 0 0 0 0 -44.350444264215184 4.9294701620742671 0 4.9294701620742671 1.958865603045183 0 0 0 0 -35.196580669435207 8.9081920269068178 0 8.9081920269068178 -18.601070135571035 0 0 0 0 -14.243192387416968 -14.415476108321883 0 -14.415476108321883 -3.2471946635964093 0 0 0 0 182.15228995893267 -71.367408175142202 0 -71.367408175142202 -66.592480812582608 0 0 0 0 72.716581227970892 -103.43842501311605 0 -103.43842501311605 -48.194917538469632 0 0 0 0 -20.114486155449413 -11.326846692329127 0 -11.326846692329127 -1.0108248085380183 0 0 0 0 -39.514819420233835 20.809936068222669 0 20.809936068222669 41.466795337614258 0 0 0 0 3.0067567067536061 -0.80657789818468473 0 -0.80657789818468473 -1.7183423191975598 0 0 0 0 29.906981757754693 -8.4386509746685761 0 -8.4386509746685761 0.84447762937543303 0 0 0 0 56.806832221511286 40.433804972941488 0 40.433804972941488 78.217893256484444 0 0 0 0 -123.69838372251252 -30.074539473238922 0 -30.074539473238922 29.075769147613215 0 0 0 0 -299.56112721996033 -35.240671532472831 0 -35.240671532472831 -80.526880657210882 0 0 0 0 -130.65178601810476 -94.655286567681969 0 -94.655286567681969 -41.87839317098144 0 0 0 0 -91.875855601014337 -95.65787515319073 0 -95.65787515319073 79.079497054038029 0 0 0 0 -112.60068705296726 59.812382830168033 0 59.812382830168033 -62.629759493536682 0 0 0 0 -126.50275280680034 170.8863564409061 0 170.8863564409061 -221.16892906684859 0 0 0 0 -137.64596724117291 76.369378627557609 0 76.369378627557609 -8.9440105477070588 0 0 0 0 -179.85396979790676 68.230648003326266 0 68.230648003326266 0.098732648335169676 0 0 0 0 -267.7576741982557 92.513535762055824 0 92.513535762055824 -6.3412000570062421 0 0 0 0 5.0375534738559509 -12.296994115160619 0 -12.296994115160619 -12.655064430252111 0 0 0 0 -91.978550235857256 80.656529874979825 0 80.656529874979825 -106.24808507983187 0 0 0 0 -0.73444423893727162 -1.374925461214783 0 -1.374925461214783 -0.47926338574054206 0 0 0 0 -346.354994171008 131.93560262766817 0 131.93560262766817 -20.585974752453858 0 0 0 0 -465.96654110636882 5.548895098722161 0 5.548895098722161 122.04895487833838 0 0 0 0 -404.34266543261765 165.05198211543802 0 165.05198211543802 -11.032967395699188 0 0 0 0 -761.75629338646468 109.55197174318002 0 109.55197174318002 106.33371953843773 0 0 0 0 -474.31388745218283 338.31984583266683 0 338.31984583266683 -275.35986606807984 0 0 0 0 -376.58868820785938 165.11499229412556 0 165.11499229412556 -102.45652392374197 0 0 0 0 -683.41392146694125 -131.02138877697962 0 -131.02138877697962 -345.37072963769316 0 0 0 0 -865.29519023062312 377.07837994538926 0 377.07837994538926 -54.868885767944931 0 0 0 0 -419.95386415052053 516.82971703997021 0 516.82971703997021 -520.7001897489713 0 0 0 0 -345.72930526376877 118.16589362764324 0 118.16589362764324 28.820804517990609 0 0 0 0 -600.55563166776847 169.15106346551937 0 169.15106346551937 45.436896247381128 0 0 0 0 -475.96203730758862 234.84093992640067 0 234.84093992640067 -51.889240697254856 0 0 0 0 -275.67913550400772 168.43098986133128 0 168.43098986133128 -52.329039394599022 0 0 0 0 -469.95111512638687 194.60452579946298 0 194.60452579946298 17.934276166011614 0 0 0 0 -332.57657290569477 131.80012878190217 0 131.80012878190217 37.233445270373522 0 0 0 0 -293.63896643069165 66.181332907589194 0 66.181332907589194 24.574994981700286 0 0 0 0 -14.918494618853799 -9.7695354195603556 0 -9.7695354195603556 -5.7777688048084741 0 0 0 0 14.503502399122226 20.833502397660141 0 20.833502397660141 -63.378654474926122 0 0 0 0 -338.33296159337624 -14.713724398658314 0 -14.713724398658314 -108.49738342426257 0 0 0 0 -264.16603212016344 70.216092857678632 0 70.216092857678632 -21.430989500880969 0 0 0 0 -73.057761306059547 -62.348168435027674 0 -62.348168435027674 70.926369388458625 0 0 0 0 -17.249683835147977 -14.653276098083893 0 -14.653276098083893 -8.760249951448408 0 0 0 0 -39.607375618565129 -155.00584672288369 0 -155.00584672288369 61.971952405750585 0 0 0 0 -6.0921705736691365 -152.1007550516382 0 -152.1007550516382 -28.904923018675049 0 0 0 0 -90.621541481727036 -48.200175925590997 0 -48.200175925590997 11.876319936420032 0 0 0 0 -102.93444660944806 99.06189530895108 0 99.06189530895108 -21.235537112458303 0 0 0 0 -5.2941656725346604 -0.2790036404828129 0 -0.2790036404828129 7.2230029210579882 0 0 0 0 -10.414743379062202 -88.897050740705083 0 -88.897050740705083 -6.5296847460185745 0 0 0 0 -162.32991154915362 -17.674914322084987 0 -17.674914322084987 50.985262380007953 0 0 0 0 14.185729194898158 53.536989142127823 0 53.536989142127823 -62.56346371982545 0 0 0 0 -47.365505871945061 6.5093583002817468 0 6.5093583002817468 152.82802329874175 0 0 0 0 -43.010519600007683 -43.060060706635568 0 -43.060060706635568 135.68635508356329 0 0 0 0 -19.788717982824892 196.05862543048966 0 196.05862543048966 -71.350031292257768 0 0 0 0 -143.88806986737654 -113.59117110639096 0 -113.59117110639096 71.78125229062789 0 0 0 0 121.50189741436043 -19.940387451945753 0 -19.940387451945753 162.40646096437331 0 0 0 0 -67.606874125893228 113.88445844094531 0 113.88445844094531 6.1379585269540939 0 0 0 0 -178.39904532076616 -284.55920317230937 0 -284.55920317230937 103.76414389095771 0 0 0 0 -0.99941388441857271 -0.86624766879103277 0 -0.86624766879103277 2.1857433978065313 0 0 0 0 -117.17114443492028 118.89046554310244 0 118.89046554310244 142.94418644022039 0 0 0 0 21.225290102069266 -184.95354609334572 0 -184.95354609334572 190.87989326858042 0 0 0 0 212.79513607265835 -354.86323678376903 0 -354.86323678376903 144.89061392112671 0 0 0 0 281.56657619001635 -167.34848069708596 0 -167.34848069708596 47.07059434128405 0 0 0 0 -1.4384438327825819 -1.3024964552641478 0 -1.3024964552641478 -0.25516380142859418 0 0 0 0 11.718934567354154 -226.99826495859816 0 -226.99826495859816 226.99875396043262 0 0 0 0 41.282497918611625 -234.51237295172359 0 -234.51237295172359 180.91181865023646 0 0 0 0 63.523545685282443 -166.60456519246418 0 -166.60456519246418 38.194865720842245 0 0 0 0 -10.381525132455863 -223.54540634242903 0 -223.54540634242903 125.62245811652701 0 0 0 0 -55.220877206971636 -137.82329044141488 0 -137.82329044141488 87.668572095807122 0 0 0 0 47.034175836161012 -121.52792792736363 0 -121.52792792736363 6.9632717647327809 0 0 0 0 48.107548819039948 -209.39951029575968 0 -209.39951029575968 116.66526321245692 0 0 0 0 32.211439185630297 -115.52504106247329 0 -115.52504106247329 115.37092379897695 0 0 0 0 33.170784283691319 -48.391365230354154 0 -48.391365230354154 16.492837311663607 0 0 0 0 -10.043203524808632 -59.638422839222585 0 -59.638422839222585 48.391580930853252 0 0 0 0 -22.670181723980932 -91.363959756711211 0 -91.363959756711211 -30.101525361844324 0 0 0 0 411.10597982114996 -200.60140039169733 0 -200.60140039169733 29.3850087010278 0 0 0 0 279.95588382985443 14.866080691035677 0 14.866080691035677 80.495730573977198 0 0 0 0 20.347739529075625 -68.651842236742027 0 -68.651842236742027 99.872083249671959 0 0 0 0 73.224538887167 -150.74741006302611 0 -150.74741006302611 111.76424611632137 0 0 0 0 -0.28405834852125622 -0.38649650012570191 0 -0.38649650012570191 0.14179649856039234 0 0 0 0 -269.23310081307136 107.51633735518772 0 107.51633735518772 55.600998671379784 0 0 0 0 -79.573971464280476 -133.17500583091567 0 -133.17500583091567 -18.772069527021813 0 0 0 0 154.95368408865761 -146.00290343998768 0 -146.00290343998768 -46.781931830746089 0 0 0 0 -5.8025488856027323 -3.4782261437851218 0 -3.4782261437851218 -2.1404720382679621 0 0 0 0 -566.26080604545132 389.81048046276771 0 389.81048046276771 -219.4183204558542 0 0 0 0 -61.768855651991998 -125.87988353288446 0 -125.87988353288446 90.164439693390705 0 0 0 0 -102.84371080044366 103.10809274046824 0 103.10809274046824 7.5995337845201902 0 0 0 0 -469.70016387135183 -34.408743884038245 0 -34.408743884038245 -78.546686597356256 0 0 0 0 -131.25512886220531 50.252563921773799 0 50.252563921773799 -135.48341072798507 0 0 0 0 -664.7829848965921 178.96269754995342 0 178.96269754995342 -16.377166144706962 0 0 0 0 21.281176029937342 80.72891759935294 0 80.72891759935294 -277.84132266215875 0 0 0 0 -72.830736115727632 155.8844196993856 0 155.8844196993856 -78.297943537020728 0 0 0 0 4.4970679864418344 129.77574835599671 0 129.77574835599671 -91.566892554792958 0 0 0 0 -81.30209219045355 75.320971663773093 0 75.320971663773093 -61.73462793756724 0 0 0 0 -107.2098656837552 113.42669684166583 0 113.42669684166583 -116.42535283407778 0 0 0 0 -123.54890615529439 42.92860742561524 0 42.92860742561524 -124.46963290161818 0 0 0 0 212.50579164832016 -4.8354907095932163 0 -4.8354907095932163 -93.608041727059117 0 0 0 0 97.106834587524645 71.013044306351844 0 71.013044306351844 -137.45120015835448 0 0 0 0 1.2305957928405178 -0.50125172960363784 0 -0.50125172960363784 -1.5473345018364428 0 0 0 0 -128.71892058452431 74.341173363369677 0 74.341173363369677 -32.743717267398438 0 0 0 0 -155.51262924779076 150.28240752180028 0 150.28240752180028 -118.06775541806087 0 0 0 0 -362.6222403053107 96.081841118509061 0 96.081841118509061 -74.168347375584972 0 0 0 0 -343.97119504424336 150.94060395956402 0 150.94060395956402 -44.939424130304445 0 0 0 0 -448.53508103546119 218.88554229044735 0 218.88554229044735 -10.795723572095653 0 0 0 0 -488.74984397019216 250.77070785794407 0 250.77070785794407 -14.874534492045541 0 0 0 0 -133.79813155937882 258.07319088722733 0 258.07319088722733 -286.72087770636011 0 0 0 0 -237.78329294601281 10.710022982081579 0 10.710022982081579 -0.19896767191427653 0 0 0 0 -145.40951150328328 50.004124262028824 0 50.004124262028824 -74.211489862758071 0 0 0 0 -104.77269028971205 93.253801144480406 0 93.253801144480406 -28.187198983109511 0 0 0 0 -106.85037160998763 -3.0088195921947047 0 -3.0088195921947047 302.95426278132146 0 0 0 0 -19.037120381774116 1.5640529541980897 0 1.5640529541980897 0.61279416967225364 0 0 0 0 -280.39237225473335 -226.28136131084554 0 -226.28136131084554 205.17742366950287 0 0 0 0 -5.8515234517144563 77.442781585017897 0 77.442781585017897 48.784532485016051 0 0 0 0 -7.6635323114701919 1.094900099581988 0 1.094900099581988 0.059856647903584054 0 0 0 0 -95.097122483544808 -32.999533176179526 0 -32.999533176179526 -1.237737345865372 0 0 0 0 -13.435845554362459 248.07811286778221 0 248.07811286778221 -243.37613189392391 0 0 0 0 -208.92885487078092 132.86103679543072 0 132.86103679543072 51.351234875456257 0 0 0 0 -73.516556967340875 58.622369799203327 0 58.622369799203327 153.25272981582765 0 0 0 0 5.7864713744493201 48.935835783631845 0 48.935835783631845 50.74481125645331 0 0 0 0 -39.013862449734006 -35.36944532272787 0 -35.36944532272787 -41.278138967416375 0 0 0 0 -6.0181460816631045 -0.64584874077871746 0 -0.64584874077871746 0.38261621039925536 0 0 0 0 -25.292438933623032 2.0607939478065571 0 2.0607939478065571 1.0979109772631954 0 0 0 0 -34.540472557491739 -8.2371353983527626 0 -8.2371353983527626 16.337746150894418 0 0 0 0 175.37964580694097 332.04840941031 0 332.04840941031 -249.27531167399405 0 0 0 0 -99.871925160608953 -6.6426600042978201 0 -6.6426600042978201 439.98897149638162 0 0 0 0 -1483.9719007047534 207.97638094668383 0 207.97638094668383 0.034690395935410526 0 0 0 0 -21.617021322724668 2.18029317997566 0 2.18029317997566 1.1744573777645153 0 0 0 0 -1456.2594691232298 1449.1109325519205 0 1449.1109325519205 -886.93215412296172 0 0 0 0 -9.6939885566071098 1.0480643919021215 0 1.0480643919021215 -0.054294989512585143 0 0 0 0 -755.12064350655419 -712.43505558538845 0 -712.43505558538845 135.72454766174425 0 0 0 0 -259.58807528862235 336.77386929682928 0 336.77386929682928 -89.094892539671889 0 0 0 0 -352.86505046831735 -74.901434960734818 0 -74.901434960734818 -270.11467104116656 0 0 0 0 -8.6998890144125482 1.4096107625799164 0 1.4096107625799164 -0.15720955582726626 0 0 0 0 33.329831450413621 118.03131989090143 0 118.03131989090143 -7.1323306392623067 0 0 0 0 -242.69382456886524 94.976238807339882 0 94.976238807339882 -38.361797648192997 0 0 0 0 -1.2589920378189845 0.99762279483726957 0 0.99762279483726957 -1.4276436474131935 0 0 0 0 113.18691158594447 18.925845714650194 0 18.925845714650194 -67.124825752834624 0 0 0 0 -1940.9522557300807 457.97992371385067 0 457.97992371385067 82.861118104445339 0 0 0 0 -1849.1268315541965 571.6816650451525 0 571.6816650451525 -5.1671679790802614 0 0 0 0 -3495.2463802983621 654.30354973790872 0 654.30354973790872 312.34645601553899 0 0 0 0 -2982.1722328488831 367.1646402542724 0 367.1646402542724 103.18775910771282 0 0 0 0 -3028.9370640103734 579.00787154154091 0 579.00787154154091 195.83138064991351 0 0 0 0 -3002.7833859762613 556.38754868442766 0 556.38754868442766 27.63205730744572 0 0 0 0 -2809.2948893880166 879.67690532923643 0 879.67690532923643 -233.23402220433647 0 0 0 0 -3497.031685914666 1475.1013199208253 0 1475.1013199208253 257.52366448126753 0 0 0 0 -2571.1769327777729 2187.5866696893922 0 2187.5866696893922 -676.00546433163015 0 0 0 0 -341.2620273893408 -9.5577679186071691 0 -9.5577679186071691 -654.59687630566555 0 0 0 0 -1631.681796749006 714.74650435461626 0 714.74650435461626 65.19643505293854 0 0 0 0 -1481.2408306445941 881.5022877764593 0 881.5022877764593 111.11210793672223 0 0 0 0 -2323.0053565534763 1292.5727787487938 0 1292.5727787487938 -50.388806110827034 0 0 0 0 -358.33310303934559 310.49197284309474 0 310.49197284309474 -169.78951319909854 0 0 0 0 -2293.9737741175668 273.14955859997139 0 273.14955859997139 214.47855570848486 0 0 0 0 1.8468154084146988 -0.98900234730734837 0 -0.98900234730734837 -2.2239359291677947 0 0 0 0 94.491154409217415 -81.010110965971876 0 -81.010110965971876 108.32883631696103 0 0 0 0 -180.93744904627238 1.74063191933935 0 1.74063191933935 -329.43655623919688 0 0 0 0 70.15096047064435 -27.952704557390177 0 -27.952704557390177 -0.20613379538735899 0 0 0 0 109.8003332419139 -33.130355253666991 0 -33.130355253666991 -30.810140930000216 0 0 0 0 -404.07758872699924 203.92751910230402 0 203.92751910230402 -60.835220726009254 0 0 0 0 -208.36977398806448 189.67983219774595 0 189.67983219774595 -359.64102459016704 0 0 0 0 -110.80191168749298 4.5102197740782799 0 4.5102197740782799 63.474314752258522 0 0 0 0 -87.003771782969125 0.82687104613955853 0 0.82687104613955853 -7.2436991210583983 0 0 0 0 -14.769948120685243 0.77135392550280812 0 0.77135392550280812 -5.6497041936928021 0 0 0 0 -9.9702766280699677 0.44852295675556775 0 0.44852295675556775 5.8565011501110806 0 0 0 0 11.352639371544683 44.529967071534024 0 44.529967071534024 -37.386171525555255 0 0 0 0 13.918707233126042 41.718941972444213 0 41.718941972444213 -34.307757084036894 0 0 0 0 -49.083815303740266 97.64372389703226 0 97.64372389703226 49.373177289940941 0 0 0 0 -89.432319087772669 23.226543327210727 0 23.226543327210727 -5.3002224442534036 0 0 0 0 -12.663904442212818 -1.9405293836455542 0 -1.9405293836455542 -3.1734358213447562 0 0 0 0 -73.329701766675498 2.8891368991753552 0 2.8891368991753552 0.39177820464647084 0 0 0 0 -50.943251971357711 3.0109026263394938 0 3.0109026263394938 0.61006538111176334 0 0 0 0 82.493405232353325 29.928507073882418 0 29.928507073882418 -190.6230510765408 0 0 0 0 -31.698168758277347 14.643332500954308 0 14.643332500954308 -6.3482342877046953 0 0 0 0 -498.59223598416429 16.296173758006091 0 16.296173758006091 88.598137780334582 0 0 0 0 -3483.8202250955405 -643.25232246689029 0 -643.25232246689029 494.63413931040736 0 0 0 0 -714.36795616085874 700.28593450437836 0 700.28593450437836 -303.07113450748295 0 0 0 0 -113.16339331697964 1296.5515662151188 0 1296.5515662151188 -2468.8778041616342 0 0 0 0 -12.805360388596966 7.2976619224115424 0 7.2976619224115424 -5.2888239561567207 0 0 0 0 -511.3062471133162 321.62649865923504 0 321.62649865923504 128.59505081036764 0 0 0 0 -655.79893157521292 126.46355721352279 0 126.46355721352279 -118.96730638106146 0 0 0 0 -118.0785298239316 -135.28303451496447 0 -135.28303451496447 142.39873636620678 0 0 0 0 -105.50517896852398 -142.10777403198244 0 -142.10777403198244 -36.781054995352974 0 0 0 0 -373.53783119223226 1.2250965132160445 0 1.2250965132160445 497.37427832225876 0 0 0 0 -11.401952068463288 -249.73373055580043 0 -249.73373055580043 -484.1403325330491 0 0 0 0 -102.77990656396287 -76.676854210490319 0 -76.676854210490319 -25.134699870004965 0 0 0 0 -96.426428589969873 -33.669217837046745 0 -33.669217837046745 -98.661845731049425 0 0 0 0 -37.540588966716314 -35.945143435749287 0 -35.945143435749287 -136.05201399360794 0 0 0 0 -67.952546229178552 -91.244366342529929 0 -91.244366342529929 -76.316988845228252 0 0 0 0 -76.551660591147083 -34.023263956817573 0 -34.023263956817573 -36.687992918260534 0 0 0 0 -77.194858944113776 -45.682106715885411 0 -45.682106715885411 15.686258917010036 0 0 0 0 -79.851260734561947 -65.970749413910653 0 -65.970749413910653 47.094272157934938 0 0 0 0 -22.611355089042206 -6.5386323266740121 0 -6.5386323266740121 9.0189949035259342 0 0 0 0 -73.07650405678578 -6.3845325947504534 0 -6.3845325947504534 90.11838502768569 0 0 0 0 -53.631764817568552 -12.005072176567268 0 -12.005072176567268 4.1638770926703845 0 0 0 0 -74.929603212381608 -24.897554930945645 0 -24.897554930945645 2.5973611269077992 0 0 0 0 -100.36726577141962 -63.865083887514857 0 -63.865083887514857 107.30389730213687 0 0 0 0 -79.469580916345876 -88.537219727533056 0 -88.537219727533056 -31.323254403735518 0 0 0 0 -84.3867113383385 -100.76988264928127 0 -100.76988264928127 48.542049172292991 0 0 0 0 -50.865904158228659 -43.367506433388371 0 -43.367506433388371 -40.239880051893124 0 0 0 0 -29.095491994725307 27.155625431004864 0 27.155625431004864 135.60072355995453 0 0 0 0 -139.59681181804262 -50.447367132637851 0 -50.447367132637851 228.95913622526177 0 0 0 0 -30.677831931854598 25.710163106992695 0 25.710163106992695 39.966963291678439 0 0 0 0 -128.74582550999213 99.141416718714979 0 99.141416718714979 56.00047325749761 0 0 0 0 -4.9062566110794137 -9.2360458526287914 0 -9.2360458526287914 5.0515177204121899 0 0 0 0 -95.806020549898676 -65.860221187316313 0 -65.860221187316313 29.93843221878069 0 0 0 0 -93.387052802630933 -13.853773152503891 0 -13.853773152503891 45.926290962424673 0 0 0 0 -85.829541457893384 4.7320049037633538 0 4.7320049037633538 10.274201796254792 0 0 0 0 -45.869871193370528 1.0938759341203621 0 1.0938759341203621 15.212106855900245 0 0 0 0 -78.248608432231293 -14.415621335205508 0 -14.415621335205508 2.8658176061167087 0 0 0 0 -81.472092034993693 -19.369717172904984 0 -19.369717172904984 12.970988893168965 0 0 0 0 -93.485234932159074 -17.180482039866092 0 -17.180482039866092 38.991358989877881 0 0 0 0 -103.83383369330477 12.045617125701938 0 12.045617125701938 26.75224961503136 0 0 0 0 -93.335481456597336 16.150332987144793 0 16.150332987144793 19.193044514959183 0 0 0 0 -62.62439333506336 -12.620217554918781 0 -12.620217554918781 3.4978716341565814 0 0 0 0 -36.793218068763963 -8.8229130810189105 0 -8.8229130810189105 -155.52051612785601 0 0 0 0 -21.954380146544793 -8.0480467268444329 0 -8.0480467268444329 9.6441259918902205 0 0 0 0 -65.77719169309421 145.25381926376178 0 145.25381926376178 -3.2176602711148519 0 0 0 0 -70.786778902127935 -61.203090649720842 0 -61.203090649720842 58.081553044738854 0 0 0 0 -63.985102500560998 -3.1172467229120713 0 -3.1172467229120713 13.204202099175573 0 0 0 0 140.34066364113096 127.16814176554787 0 127.16814176554787 -45.836341729872657 0 0 0 0 -81.233234194485703 11.46228822427247 0 11.46228822427247 29.479267700916353 0 0 0 0 -48.483235108243946 -12.129946025942047 0 -12.129946025942047 5.7677119120810545 0 0 0 0 -73.47950337299531 4.2335862885037585 0 4.2335862885037585 9.2069187904589551 0 0 0 0 -58.843372602642546 -1.6401947769419714 0 -1.6401947769419714 2.4540524520220295 0 0 0 0 -57.097468845754747 21.458383615801225 0 21.458383615801225 -1.3795214808281586 0 0 0 0 -67.649429511118797 36.783832310285561 0 36.783832310285561 34.725920814056735 0 0 0 0 9.7627771351253614 -45.450451873774 0 -45.450451873774 331.69601387505645 0 0 0 0 -62.462009688519174 34.793661475422141 0 34.793661475422141 -21.268607699438689 0 0 0 0 -80.491011981765041 14.702706940911185 0 14.702706940911185 7.1802479099724223 0 0 0 0 -417.35989898449043 -139.55143045819767 0 -139.55143045819767 -76.664089196870464 0 0 0 0 -71.687278108714963 25.611397234376909 0 25.611397234376909 1.7297456818441219 0 0 0 0 -60.14480993043253 17.66218392441624 0 17.66218392441624 -25.031862146307503 0 0 0 0 -69.558139745960943 14.886064778978835 0 14.886064778978835 6.7014690318600287 0 0 0 0 -47.727978091243131 12.856747927257857 0 12.856747927257857 6.3949858199833329 0 0 0 0 -53.16427519629724 13.633063489069855 0 13.633063489069855 28.133562941272885 0 0 0 0 -54.672451996273594 18.421495456650973 0 18.421495456650973 0.93712654780455296 0 0 0 0 -61.383172415407898 24.850308188949498 0 24.850308188949498 39.173965725755352 0 0 0 0 278.53313780637109 452.05875727067996 0 452.05875727067996 -17.100767331560178 0 0 0 0 -5.9361419396185795 6.9023380111097907 0 6.9023380111097907 -7.4785459571234565 0 0 0 0 28.013683522018255 30.312697152829287 0 30.312697152829287 21.378574823506824 0 0 0 0 25.571049248217605 49.477508938422034 0 49.477508938422034 -22.875561362878216 0 0 0 0 -18.076594776407035 17.792325046911685 0 17.792325046911685 14.117714326764219 0 0 0 0 18.224558352638269 38.630368003069634 0 38.630368003069634 16.947060316276747 0 0 0 0 -3.2611424908616868 3.1124556505885153 0 3.1124556505885153 -2.1072913538287352 0 0 0 0 40.7856430473621 -12.159712592762389 0 -12.159712592762389 -211.86826222947093 0 0 0 0 35.035062266935711 32.476791118963774 0 32.476791118963774 -33.855192053113569 0 0 0 0 115.91396642999462 275.35994268261879 0 275.35994268261879 -257.46915867627285 0 0 0 0 69.559537108842051 319.85147587481515 0 319.85147587481515 140.8703924726251 0 0 0 0 4.9129520843853243 129.09775176059338 0 129.09775176059338 -158.20459223512626 0 0 0 0 -26.215586078589695 49.25001031259734 0 49.25001031259734 114.92782190547359 0 0 0 0 116.4017494689906 8.1819858449562162 0 8.1819858449562162 96.607294320048823 0 0 0 0 11.160997393692242 23.35343673213923 0 23.35343673213923 1.7849822955031751 0 0 0 0 -109.44616635605965 31.415692318912733 0 31.415692318912733 24.306683530186945 0 0 0 0 11.907356485266064 79.298131600394186 0 79.298131600394186 99.748161066196189 0 0 0 0 134.3558795335739 155.45778693914139 0 155.45778693914139 -30.918761379941316 0 0 0 0 -44.550467441964905 29.742040917514501 0 29.742040917514501 13.854302861572178 0 0 0 0 -126.23772095557069 282.62874703868692 0 282.62874703868692 308.6160441872853 0 0 0 0 -72.811923275312438 31.365237263184781 0 31.365237263184781 33.520594303970938 0 0 0 0 -73.85185514234928 26.563901067240167 0 26.563901067240167 4.2803906014553412 0 0 0 0 -49.846448008713196 16.192703003477618 0 16.192703003477618 1.7292303417557378 0 0 0 0 5.1586730747949332 -61.209607699582193 0 -61.209607699582193 256.14803318092709 0 0 0 0 -104.4199435930077 219.10627543751889 0 219.10627543751889 161.53888514840764 0 0 0 0 -42.048093979985424 273.15518630306838 0 273.15518630306838 360.96810228020786 0 0 0 0 -68.328605566328946 10.158950098799231 0 10.158950098799231 0.69477165759296566 0 0 0 0 -56.308127968106533 8.9038418887432691 0 8.9038418887432691 -1.3290084943529568 0 0 0 0 -72.785026496772161 27.697011116605154 0 27.697011116605154 4.7150299316834277 0 0 0 0 -43.763045033554363 15.901276379364873 0 15.901276379364873 2.7292114317806382 0 0 0 0 -103.66537063551368 191.63407023349282 0 191.63407023349282 87.951861318404099 0 0 0 0 73.459691469686732 316.32526069830135 0 316.32526069830135 -231.5013855083198 0 0 0 0 3.1583524077577749 326.73329504621961 0 326.73329504621961 271.97723180629851 0 0 0 0 -689.36900986562978 -74.554242313303575 0 -74.554242313303575 197.61848153197775 0 0 0 0 -116.20062755511753 -235.96698269811873 0 -235.96698269811873 -398.51579060423137 0 0 0 0 167.53683751023345 121.79421843725396 0 121.79421843725396 -283.20471809637661 0 0 0 0 -98.409761405969675 -74.378715381927933 0 -74.378715381927933 -71.730031366901585 0 0 0 0 49.621471448190277 -46.316030617408614 0 -46.316030617408614 -491.08506798151529 0 0 0 0 90.236008928666706 -35.356081249553995 0 -35.356081249553995 -70.967075960170348 0 0 0 0 -249.40531612450286 -111.57148321036316 0 -111.57148321036316 53.528997662259371 0 0 0 0 -459.58903446535987 -244.34237545874393 0 -244.34237545874393 -35.579595013186875 0 0 0 0 -249.29898122620943 -114.34327698338925 0 -114.34327698338925 36.119508075181727 0 0 0 0 -81.042129100078455 19.469029320785694 0 19.469029320785694 2.8439849355031583 0 0 0 0 -34.356728156330064 -0.13655188819029718 0 -0.13655188819029718 -24.801603969842745 0 0 0 0 -41.807913572915851 2.7885197532003474 0 2.7885197532003474 13.871096582284032 0 0 0 0 201.82387969941192 88.943498803670877 0 88.943498803670877 -88.859087858571911 0 0 0 0 135.2037671273647 86.626852515736914 0 86.626852515736914 16.597776187575164 0 0 0 0 -15.096047272513559 35.824117247741469 0 35.824117247741469 -3.3107680574134646 0 0 0 0 186.84218166663777 -21.3026447514967 0 -21.3026447514967 -21.103946939923844 0 0 0 0 90.278866937243947 -30.038856849546121 0 -30.038856849546121 4.4955136233838857 0 0 0 0 36.134199458479998 -9.3150098997782322 0 -9.3150098997782322 -7.5639559449070362 0 0 0 0 46.281180020101601 -21.143007617528951 0 -21.143007617528951 16.866796253352355 0 0 0 0 5.0332638817288853 3.4715538175187888 0 3.4715538175187888 -2.1156826698851221 0 0 0 0 80.659155728018959 -23.244816811421401 0 -23.244816811421401 8.1597212664905783 0 0 0 0 55.915638894337462 -20.774039221405928 0 -20.774039221405928 12.515162842871632 0 0 0 0 76.307802015449852 -33.259306400719652 0 -33.259306400719652 14.590645808511567 0 0 0 0 -22.842524800840096 1.8438192580818509 0 1.8438192580818509 14.980340309183148 0 0 0 0 -46.078427072736304 32.634721389578488 0 32.634721389578488 -10.294639693297995 0 0 0 0 -43.399784632754745 1.4220704322615347 0 1.4220704322615347 21.327315835740137 0 0 0 0 -20.062493178094883 23.117417016914175 0 23.117417016914175 -6.7048633969256404 0 0 0 0 73.390592841722537 2.738145822996529 0 2.738145822996529 7.1510570463253771 0 0 0 0 -0.82883254163607489 72.620876681534639 0 72.620876681534639 22.030410780127738 0 0 0 0 -17.000066343704503 9.0876619104507341 0 9.0876619104507341 9.7019649223317614 0 0 0 0 -2.5559216956607997 38.897988599772532 0 38.897988599772532 -9.9587013426585713 0 0 0 0 -13.176380896744377 10.470329043497543 0 10.470329043497543 5.3542162874207406 0 0 0 0 -11.253131308228831 20.826672348805566 0 20.826672348805566 4.5432635839415809 0 0 0 0 -15.008683741931719 4.3301512532088537 0 4.3301512532088537 8.6138276414346375 0 0 0 0 -18.082493316353066 8.9279417542841202 0 8.9279417542841202 10.865458529359557 0 0 0 0 -25.616707825652071 5.3565133131572864 0 5.3565133131572864 5.1766548518774886 0 0 0 0 -40.730826576793334 -4.4415198358219641 0 -4.4415198358219641 8.9092929968646786 0 0 0 0 -17.774908440587751 6.468169027755323 0 6.468169027755323 11.671436970793138 0 0 0 0 -17.389058232438401 7.4888314356444425 0 7.4888314356444425 7.2235598366441991 0 0 0 0 -28.85475736745866 7.8699894775821804 0 7.8699894775821804 8.5275551048216585 0 0 0 0 -18.001168770540971 11.585282414250344 0 11.585282414250344 6.1771374618288064 0 0 0 0 -18.062612557288958 9.8667110367296686 0 9.8667110367296686 7.6645018304222958 0 0 0 0 -4.1835587112734629 14.719171026339325 0 14.719171026339325 2.2341570417352794 0 0 0 0 -12.63883857417386 13.301586771128818 0 13.301586771128818 3.1993199834858816 0 0 0 0 -13.883178626441804 7.2855168143989886 0 7.2855168143989886 4.2123652541017691 0 0 0 0 -15.856277827610029 10.201815817497845 0 10.201815817497845 7.0208061882581205 0 0 0 0 -16.937825690081809 8.9775933848873137 0 8.9775933848873137 8.2301958561420179 0 0 0 0 -1.5406326530053178 3.4317383486875954 0 3.4317383486875954 3.2696198700227637 0 0 0 0 -10.691166170458018 5.8419812587295041 0 5.8419812587295041 0.97316244375315364 0 0 0 0 6.6384515777535853 16.352847005588501 0 16.352847005588501 6.4711536888294177 0 0 0 0 -8.9374089633638505 8.7842987004638076 0 8.7842987004638076 2.7523783591580013 0 0 0 0 -14.560574356888537 8.1539764665803887 0 8.1539764665803887 -9.032142073072464 0 0 0 0 -9.882007512031123 5.3863722539717855 0 5.3863722539717855 0.62012328316086496 0 0 0 0 -1.0858304881504495 1.6494375790430951 0 1.6494375790430951 -1.4629813994090251 0 0 0 0 3.4817113517274265 0.70652029533960103 0 0.70652029533960103 1.4476461498264825 0 0 0 0 -2.9059835185180418 -5.7682183710385289 0 -5.7682183710385289 4.0483860812310013 0 0 0 0 -0.30930805876189993 0.30436318205914148 0 0.30436318205914148 0.67249254166681549 0 0 0 0 -13.966370644469862 1.186317413703307 0 1.186317413703307 14.023953702653444 0 0 0 0 -12.682962768040852 1.7873860383529241 0 1.7873860383529241 4.3669220581286723 0 0 0 0 -7.7527712471086261 -8.1715250061907341 0 -8.1715250061907341 7.3921655775555326 0 0 0 0 -11.441998366641201 3.0572447699127565 0 3.0572447699127565 0.31081282695822665 0 0 0 0 -16.736834627969074 3.6738011925497176 0 3.6738011925497176 3.3111990489446725 0 0 0 0 -17.478594338754192 5.1945619055302359 0 5.1945619055302359 8.5044006249318045 0 0 0 0 -20.672461337857897 1.248040198183876 0 1.248040198183876 5.0862189596440412 0 0 0 0 -17.244957761562546 5.6674958136923124 0 5.6674958136923124 9.333969173456353 0 0 0 0 -302.15095928384835 -82.190050363800935 0 -82.190050363800935 25.353692290315792 0 0 0 0 -162.86042723327409 -189.06759487248678 0 -189.06759487248678 64.985868454676393 0 0 0 0 -428.56444495661344 -178.49010828325015 0 -178.49010828325015 62.043740155876094 0 0 0 0 20.928853319453992 -37.834577490614869 0 -37.834577490614869 40.945688031760199 0 0 0 0 0.94017809260373042 -0.052042783415856775 0 -0.052042783415856775 -1.5127083080582606 0 0 0 0 -7.5624585369805573 -9.8084814825388094 0 -9.8084814825388094 39.668602898605748 0 0 0 0 -555.17626777353871 -60.766084778981963 0 -60.766084778981963 13.409531382983914 0 0 0 0 -754.82134282839252 -416.31859086126508 0 -416.31859086126508 -174.19961844048066 0 0 0 0 -6.7204382243105272 2.1209177245429238 0 2.1209177245429238 0.16553012674858492 0 0 0 0 -868.00881833094172 13.932333945473147 0 13.932333945473147 211.28685709786987 0 0 0 0 -0.24901521221909206 3.8895881268126686 0 3.8895881268126686 4.285558479275096 0 0 0 0 -335.03457372955745 25.180975866833251 0 25.180975866833251 44.687800591793803 0 0 0 0 -1.8389617460970271 0.55933238405417285 0 0.55933238405417285 1.6303785726579463 0 0 0 0 -162.17294279942871 86.736279454160467 0 86.736279454160467 -37.651184216613728 0 0 0 0 -739.17830227925151 163.95250740953122 0 163.95250740953122 119.2007366804246 0 0 0 0 -20.218724223203026 62.050148691405866 0 62.050148691405866 -427.98647061532438 0 0 0 0 247.33742785775394 -248.16329880169906 0 -248.16329880169906 -91.062287222317082 0 0 0 0 351.03463526125233 159.4575891909968 0 159.4575891909968 -168.03270606073693 0 0 0 0 -242.63196080005582 -203.76362687219989 0 -203.76362687219989 -87.246656863101634 0 0 0 0 -124.24983884840913 29.222647079284002 0 29.222647079284002 183.3659954029531 0 0 0 0 -66.350318060528991 28.560840433083417 0 28.560840433083417 -10.396153841084711 0 0 0 0 30.998071325280762 344.16266194263073 0 344.16266194263073 494.08194251397958 0 0 0 0 -280.06135441909646 -204.96409578470707 0 -204.96409578470707 43.464741999683156 0 0 0 0 -292.06332290181308 255.29734375333226 0 255.29734375333226 82.300317015738528 0 0 0 0 215.55045544065706 371.07942825024202 0 371.07942825024202 107.82910458349693 0 0 0 0 -452.95474336964253 484.86636126863846 0 484.86636126863846 345.25759554842352 0 0 0 0 -46.317791118950552 18.868296252370499 0 18.868296252370499 -6.801147894576685 0 0 0 0 -67.954679467274218 79.157158611101806 0 79.157158611101806 65.372949833738517 0 0 0 0 103.62178781039256 -99.615598495303118 0 -99.615598495303118 233.37613864878821 0 0 0 0 -476.08116386653796 137.9099066705576 0 137.9099066705576 -21.863775649449053 0 0 0 0 -125.36135076065693 -11.702461976683253 0 -11.702461976683253 15.269714368094014 0 0 0 0 -67.860448271487257 232.61202663061488 0 232.61202663061488 -79.308201765434319 0 0 0 0 -76.35500195511122 130.12146746542794 0 130.12146746542794 -154.40941064581773 0 0 0 0 -153.68470739963959 214.85891020705162 0 214.85891020705162 -242.26313227328615 0 0 0 0 -10.246814875141837 0.42440296019331436 0 0.42440296019331436 -0.35985859154817246 0 0 0 0 101.63991652847108 231.56078418743255 0 231.56078418743255 151.66493829724959 0 0 0 0 -9.024072958151379 0.10790448077381143 0 0.10790448077381143 -4.9756523248674096 0 0 0 0 -30.324222426155103 1.4630528604790518 0 1.4630528604790518 -1.4832726520340196 0 0 0 0 -87.553195237071122 -16.863585912241131 0 -16.863585912241131 -6.7048716397951011 0 0 0 0 -60.788384015279007 -0.10121153054296883 0 -0.10121153054296883 -3.1714598129242084 0 0 0 0 1.8551265195129076 0.61992218099724994 0 0.61992218099724994 -3.3135630178397362 0 0 0 0 -404.40078510014428 24.29953214217096 0 24.29953214217096 -7.7497702614537616 0 0 0 0 165.06662856386174 280.10044151705642 0 280.10044151705642 -77.544021863750231 0 0 0 0 -49.459915965038817 278.53974175868848 0 278.53974175868848 138.04231221903865 0 0 0 0 403.72807289518823 124.83687179913181 0 124.83687179913181 -56.741129905567448 0 0 0 0 -396.97871034720811 -591.88522148767106 0 -591.88522148767106 -553.28545473802137 0 0 0 0 -182.19461554369627 -162.74719714602998 0 -162.74719714602998 -386.00699387398868 0 0 0 0 -15.696598091110786 6.2743770702015667 0 6.2743770702015667 -3.0315025333230632 0 0 0 0 403.52842938885442 113.56286101955266 0 113.56286101955266 420.2685647368171 0 0 0 0 -260.45668921742617 -139.54359037683162 0 -139.54359037683162 43.489602635968822 0 0 0 0 -213.66701726582687 -152.71138492224782 0 -152.71138492224782 -51.196178130151566 0 0 0 0 -276.18096780067981 -241.40795051487973 0 -241.40795051487973 -39.778642742269767 0 0 0 0 -294.20462749393118 -247.53307419761018 0 -247.53307419761018 -0.65558791098283109 0 0 0 0 -164.77295615823823 -360.40149584875508 0 -360.40149584875508 -122.75638942632941 0 0 0 0 -55.903994673539259 8.2811824348084357 0 8.2811824348084357 -3.6580084940954531 0 0 0 0 -61.901751139094358 141.21682851887175 0 141.21682851887175 -78.699787041186028 0 0 0 0 -283.81340321126117 165.44308473462615 0 165.44308473462615 264.59093106561386 0 0 0 0 -1067.2073050868421 -151.57656508210698 0 -151.57656508210698 68.856685059324207 0 0 0 0 -357.08066595817218 593.91876780468067 0 593.91876780468067 -530.31116230846555 0 0 0 0 445.86617390026368 185.78050295423691 0 185.78050295423691 -65.100501945231827 0 0 0 0 -44.311517542928414 -19.222143629308789 0 -19.222143629308789 -9.4789695101662801 0 0 0 0 -29.899818400850236 -9.8231860140971818 0 -9.8231860140971818 -15.378837859289927 0 0 0 0 -38.984124042035546 17.947766716408296 0 17.947766716408296 165.54848163997326 0 0 0 0 -27.156573406683293 -25.657094171237802 0 -25.657094171237802 -15.601934790358655 0 0 0 0 -101.612681483497 -8.3033778188669203 0 -8.3033778188669203 69.272172974642899 0 0 0 0 -35.936910503319723 -25.559211232670513 0 -25.559211232670513 -15.139915897636573 0 0 0 0 -47.234364960786479 -24.917396387058034 0 -24.917396387058034 -19.049799248939962 0 0 0 0 -46.628555001487257 -26.861801527801617 0 -26.861801527801617 -22.533640851142991 0 0 0 0 -6.7979475452148179 -23.301730536424962 0 -23.301730536424962 -16.922034112973932 0 0 0 0 -47.277104319331556 -26.588170374886886 0 -26.588170374886886 -21.560375003558875 0 0 0 0 -20.733790382488223 1.1835585631711183 0 1.1835585631711183 -5.4143206063254183 0 0 0 0 84.896636439134454 45.116072889563839 0 45.116072889563839 -56.922830198574957 0 0 0 0 -6.1488217169389827 3.9054349302841729 0 3.9054349302841729 40.5544206393065 0 0 0 0 -13.160436136440296 -9.9324148214694397 0 -9.9324148214694397 -12.671932311746627 0 0 0 0 -5.2127862849341469 4.0704186031639864 0 4.0704186031639864 -1.2062248454360187 0 0 0 0 -30.642585530883764 8.6294836592137187 0 8.6294836592137187 -6.2392816265871787 0 0 0 0 -39.778649085443561 2.2335482450415469 0 2.2335482450415469 -15.294670169927606 0 0 0 0 -46.526133193001442 -24.314483767860111 0 -24.314483767860111 -22.892708993662382 0 0 0 0 -71.521111180663866 74.011455008158009 0 74.011455008158009 7.1532844616231159 0 0 0 0 -31.837533253361471 77.869900222211072 0 77.869900222211072 3.7144875307412804 0 0 0 0 -165.3094653099688 69.845950012771937 0 69.845950012771937 -14.505601220645985 0 0 0 0 -76.865921390419317 45.820153974629875 0 45.820153974629875 -19.914098332712456 0 0 0 0 -122.77875724226033 71.891802145764814 0 71.891802145764814 20.082619005286688 0 0 0 0 -93.168871722788026 46.648807247610421 0 46.648807247610421 24.129161635150012 0 0 0 0 -72.036220552574378 48.796204520340325 0 48.796204520340325 0.51206192078825552 0 0 0 0 -65.335920929218275 32.397486906828959 0 32.397486906828959 -12.184892995612678 0 0 0 0 -94.613082690226292 34.014511901431206 0 34.014511901431206 -18.266369799057429 0 0 0 0 -88.057513896914315 53.538711604744094 0 53.538711604744094 29.779564567217676 0 0 0 0 -85.716938874595144 31.416958248308674 0 31.416958248308674 87.784581179628731 0 0 0 0 11.33758374341312 16.635042509563132 0 16.635042509563132 -11.047854026802371 0 0 0 0 -84.972332770244975 15.253592578303596 0 15.253592578303596 -23.429195432352572 0 0 0 0 -49.845270822906542 6.1485119276180491 0 6.1485119276180491 -3.5199339534287386 0 0 0 0 -98.690138469813974 0.36583218876148749 0 0.36583218876148749 -21.682754108401241 0 0 0 0 -87.033455713775766 -10.648442549852916 0 -10.648442549852916 -22.719381371931377 0 0 0 0 -95.55267685551371 2.8867867450571794 0 2.8867867450571794 -19.878174579764163 0 0 0 0 -114.92122044214921 2.1882399840123981 0 2.1882399840123981 -16.652830847112455 0 0 0 0 -117.24097888237156 -18.87333629778368 0 -18.87333629778368 -24.889482470791791 0 0 0 0 -109.78116887534998 -4.1238581640436678 0 -4.1238581640436678 -14.507190175405412 0 0 0 0 -142.69019424494763 -5.5083287915713299 0 -5.5083287915713299 -13.048962835790917 0 0 0 0 -128.50769920024322 12.761146482326694 0 12.761146482326694 -13.579128461977234 0 0 0 0 -141.37428000493674 -6.9228346118215995 0 -6.9228346118215995 -11.608382065769547 0 0 0 0 -141.28546247893263 -27.886570592538519 0 -27.886570592538519 -0.37417412449940457 0 0 0 0 -113.52098102529999 34.130469606384395 0 34.130469606384395 -17.872026426857701 0 0 0 0 -106.88622960100474 18.088027663359753 0 18.088027663359753 -17.16580591215461 0 0 0 0 -106.81867433905427 16.088196096268803 0 16.088196096268803 -19.814894376491793 0 0 0 0 -136.00000730608008 23.425581170067744 0 23.425581170067744 -17.964885941574721 0 0 0 0 -113.66954973267275 33.80278912547783 0 33.80278912547783 -28.774977958972158 0 0 0 0 -111.07008000984933 29.92642607352991 0 29.92642607352991 -23.069259731419152 0 0 0 0 -34.850468318471698 12.569821333276735 0 12.569821333276735 3.0048935013931484 0 0 0 0 -143.10386612806178 26.863711795481777 0 26.863711795481777 -27.06286613988425 0 0 0 0 -108.62516973322795 -11.603948893655343 0 -11.603948893655343 18.734153812549629 0 0 0 0 -257.07544919846987 50.374655689830888 0 50.374655689830888 -10.225795236856811 0 0 0 0 -126.82698576772236 -23.115555011873766 0 -23.115555011873766 -20.86415852459686 0 0 0 0 -148.8634004628766 -9.5894720728202856 0 -9.5894720728202856 -12.867643871570181 0 0 0 0 -149.25022104859818 -14.21991320709094 0 -14.21991320709094 -38.455004683977677 0 0 0 0 -175.28157624549931 19.994810012923153 0 19.994810012923153 -14.419992537888902 0 0 0 0 -149.92214491852792 12.849878453585006 0 12.849878453585006 -55.762383071823933 0 0 0 0 -173.11936761216202 -15.690798705072666 0 -15.690798705072666 -8.6191360542925395 0 0 0 0 -115.3306601707045 27.097715583273498 0 27.097715583273498 -13.768058167948766 0 0 0 0 -39.36537302119244 12.13898274055515 0 12.13898274055515 2.1457566705410613 0 0 0 0 -201.23947781461175 29.705414147043484 0 29.705414147043484 37.984638855283265 0 0 0 0 -198.6440203487582 -71.774867015259588 0 -71.774867015259588 -19.818242467757955 0 0 0 0 -21.141704854799173 -26.992726841307217 0 -26.992726841307217 -8.5793559354597164 0 0 0 0 -43.667071222131199 -25.809956998492908 0 -25.809956998492908 0.15589699722886508 0 0 0 0 -64.99690978180297 -16.484677574516809 0 -16.484677574516809 4.7698358241600545 0 0 0 0 -10.03333448382109 -11.283882240149381 0 -11.283882240149381 -8.7714084649893316 0 0 0 0 -42.123290284573159 -5.0746283204111933 0 -5.0746283204111933 -10.053835972699744 0 0 0 0 66.904353644909861 -307.6695937872596 0 -307.6695937872596 380.11091697988945 0 0 0 0 -33.300646460098136 -21.618964269296391 0 -21.618964269296391 -0.20328729070736706 0 0 0 0 -228.08930925878303 -3.1345691454332609 0 -3.1345691454332609 253.06665938019887 0 0 0 0 -975.63773809388113 -287.55912558068275 0 -287.55912558068275 457.66028678800421 0 0 0 0 -351.58973448695906 534.38757279515153 0 534.38757279515153 -2.7166150882765123 0 0 0 0 644.66704079101328 -122.23968044523554 0 -122.23968044523554 -1037.8374569746325 0 0 0 0 784.31196126757277 -603.39255757514843 0 -603.39255757514843 -468.56628444458852 0 0 0 0 -50.313612577058848 -24.018523016996369 0 -24.018523016996369 -9.0173117059066499 0 0 0 0 -14.133239425790304 -13.981783725756799 0 -13.981783725756799 -11.009725188953844 0 0 0 0 -17.813824131378055 -25.855367301770016 0 -25.855367301770016 -13.797516571546241 0 0 0 0 -116.67801073376177 -23.132849261281081 0 -23.132849261281081 -15.887676696651397 0 0 0 0 -496.09468385388027 95.450003725947681 0 95.450003725947681 -295.74621648521861 0 0 0 0 -165.54541878734113 -5.4858453563031588 0 -5.4858453563031588 65.887810955890913 0 0 0 0 -649.34724878298584 -44.081435991832222 0 -44.081435991832222 -217.88836241287572 0 0 0 0 -406.42212420025317 -76.973933654816392 0 -76.973933654816392 -346.75272640786176 0 0 0 0 -535.67299387493404 128.82340455787198 0 128.82340455787198 -315.41545164169656 0 0 0 0 -109.14032300258987 98.750139099458465 0 98.750139099458465 -403.01717763103807 0 0 0 0 -1029.7754234559252 219.28817948392316 0 219.28817948392316 -203.39134486923831 0 0 0 0 -980.54189695723471 162.62708489367469 0 162.62708489367469 -155.05076249266131 0 0 0 0 -700.79292118945159 200.15847751944966 0 200.15847751944966 -219.15148773804685 0 0 0 0 -99.833725719203358 -169.95260270598192 0 -169.95260270598192 129.05934930992589 0 0 0 0 -34.887577108685946 -2.274464382799124 0 -2.274464382799124 -100.5177737195794 0 0 0 0 -572.49637820180942 -753.57322617043064 0 -753.57322617043064 -412.86219130519567 0 0 0 0 -1296.8135825113641 563.90767361102735 0 563.90767361102735 -1172.457829087125 0 0 0 0 -33.709699745613221 -9.9039045057492494 0 -9.9039045057492494 20.87056831332707 0 0 0 0 -36.91748200449625 11.962296322630937 0 11.962296322630937 -6.2261086496508611 0 0 0 0 -594.16967578960248 -194.93224379229559 0 -194.93224379229559 -129.15157116128103 0 0 0 0 -323.61239022438895 305.47797628462286 0 305.47797628462286 -352.22365175691584 0 0 0 0 -767.84937182706199 -194.40042735055431 0 -194.40042735055431 -96.88902852260253 0 0 0 0 -895.19071495090611 -177.64767720989767 0 -177.64767720989767 -158.54472103390435 0 0 0 0 -51.308487635162777 26.914269341813963 0 26.914269341813963 32.187297090675969 0 0 0 0 -789.37187446773169 -119.666738621283 0 -119.666738621283 -284.49438161223952 0 0 0 0 -913.7166010349174 -36.028945098781151 0 -36.028945098781151 -149.07422344008592 0 0 0 0 -773.04335259998334 1.6484667996628559 0 1.6484667996628559 -150.60786839442881 0 0 0 0 -927.2122308195685 -33.341548039479676 0 -33.341548039479676 -148.06502647496382 0 0 0 0 -1178.1446584329242 -102.7884483070593 0 -102.7884483070593 -159.78617302734938 0 0 0 0 -928.85817142706946 -226.58562858692312 0 -226.58562858692312 -351.42722249429062 0 0 0 0 -755.31579923622121 -216.51084168763089 0 -216.51084168763089 -357.91863904313141 0 0 0 0 -650.42599651853379 -358.51049455670909 0 -358.51049455670909 -39.666164582441525 0 0 0 0 -167.83387642992861 0.67340613911293445 0 0.67340613911293445 52.507988365473835 0 0 0 0 -498.23646251051832 -209.62239588147713 0 -209.62239588147713 -115.03934923146517 0 0 0 0 -925.76551073851442 -271.50972350155826 0 -271.50972350155826 -40.288953183156991 0 0 0 0 -607.87454784924194 -308.06706256671055 0 -308.06706256671055 -276.35866913436621 0 0 0 0 -1517.3708620371126 -26.388337140796921 0 -26.388337140796921 81.908635436408076 0 0 0 0 -4.7257393693840868 -3.9565298039781567 0 -3.9565298039781567 -5.8565656150411769 0 0 0 0 -49.879185241770756 -38.677019831827238 0 -38.677019831827238 -88.627378578750722 0 0 0 0 -133.49650381363972 47.472632786698796 0 47.472632786698796 29.689242138618283 0 0 0 0 -75.287671372279874 9.9628334864646604 0 9.9628334864646604 53.747377423169382 0 0 0 0 -546.75389384832852 44.211311828615635 0 44.211311828615635 -76.864580325080169 0 0 0 0 -870.17937808458601 129.69733722106753 0 129.69733722106753 -125.57296202623547 0 0 0 0 -525.20576761218399 49.047682241667644 0 49.047682241667644 -111.58052036140452 0 0 0 0 -23.932283788989622 -1.1735250984372954 0 -1.1735250984372954 -18.019729743631501 0 0 0 0 -383.46071915316861 -69.55348877369488 0 -69.55348877369488 109.81251959980318 0 0 0 0 -163.90778775861645 -4.0419591472147971 0 -4.0419591472147971 57.798355372896296 0 0 0 0 -369.98372463745 70.859313606755677 0 70.859313606755677 -86.080795428093552 0 0 0 0 -35.917424784553781 45.34341650435266 0 45.34341650435266 -48.100181267569866 0 0 0 0 -217.59027895185864 66.58959905725942 0 66.58959905725942 -14.348188190908786 0 0 0 0 -58.192755114716419 -110.23372433394229 0 -110.23372433394229 16.047093196531932 0 0 0 0 -511.25278412968328 65.240147497185717 0 65.240147497185717 11.21257509894258 0 0 0 0 -669.82924178164103 41.194341162969977 0 41.194341162969977 57.122980365135845 0 0 0 0 -375.89452397487184 -58.52219529206377 0 -58.52219529206377 -153.92505275634267 0 0 0 0 -604.98721928925079 71.94085082665697 0 71.94085082665697 -148.72747748314396 0 0 0 0 -921.22671709678252 -255.50646296112245 0 -255.50646296112245 -274.38965575575094 0 0 0 0 -855.90314257904538 54.192048420029096 0 54.192048420029096 -380.99912559568747 0 0 0 0 -1055.7124081205111 -98.287735363299362 0 -98.287735363299362 -397.97940142611242 0 0 0 0 -1105.6430058760452 -246.06836087961619 0 -246.06836087961619 -810.0105975888946 0 0 0 0 -881.8350140010225 -31.711645331288764 0 -31.711645331288764 -180.29786628666989 0 0 0 0 -1173.2152810907282 -64.516309775842274 0 -64.516309775842274 -169.93975819964908 0 0 0 0 -741.43960452165629 -93.42166892133082 0 -93.42166892133082 -203.95862405822845 0 0 0 0 -660.8332401064763 35.478931810733229 0 35.478931810733229 -88.458571625988043 0 0 0 0 -912.87713509335299 45.676098246023685 0 45.676098246023685 -57.848350029775247 0 0 0 0 -847.02072734694229 -54.572363378431874 0 -54.572363378431874 6.5285829085496516 0 0 0 0 -798.43879117144388 -60.176314046988409 0 -60.176314046988409 -40.394555883259613 0 0 0 0 -1091.384116709145 -89.555422668758183 0 -89.555422668758183 -42.176433298095731 0 0 0 0 3.7158761037511283 -9.0214432427258373 0 -9.0214432427258373 9.115581010075978 0 0 0 0 -982.77728749765083 -301.13127113373594 0 -301.13127113373594 -97.114720218207367 0 0 0 0 -759.36736635764828 -306.37127136110848 0 -306.37127136110848 -149.84883511626504 0 0 0 0 -876.70580653655634 -240.46377283537549 0 -240.46377283537549 -77.611593798992544 0 0 0 0 -890.67242259078193 -241.23294317699947 0 -241.23294317699947 -75.610027474380331 0 0 0 0 -754.36024856037693 -184.2582036334079 0 -184.2582036334079 -54.496128379691982 0 0 0 0 -755.834192732058 -315.7521692158316 0 -315.7521692158316 -134.73363297625656 0 0 0 0 -18.217430094140582 163.27176381584286 0 163.27176381584286 390.37779241945827 0 0 0 0 -18.487636714184191 209.77384778777559 0 209.77384778777559 336.12133561377414 0 0 0 0 245.6873140722746 -63.197402525547659 0 -63.197402525547659 464.73836120905253 0 0 0 0 -742.91695945555693 -386.87086239331802 0 -386.87086239331802 -240.01899620951735 0 0 0 0 -1178.1595615583356 -280.90531103529065 0 -280.90531103529065 -79.171274760014057 0 0 0 0 -1675.3161529307836 -326.85351207478197 0 -326.85351207478197 -42.901690578750276 0 0 0 0 -1185.1022627802449 -3.5665065142366075 0 -3.5665065142366075 -360.78344042604294 0 0 0 0 -822.46766527631553 -579.80221887624975 0 -579.80221887624975 -309.47456858099758 0 0 0 0 -1184.5856122405385 -684.16376381263217 0 -684.16376381263217 -231.80180658280005 0 0 0 0 -1938.4403635504423 -750.533124557267 0 -750.533124557267 -237.10991473071317 0 0 0 0 44.666927549696993 141.76424336064883 0 141.76424336064883 246.72710178332636 0 0 0 0 -3.0544324441849255 0.97636929140790585 0 0.97636929140790585 2.1055148412516971 0 0 0 0 -5.7019869812625359 0.61976476913417855 0 0.61976476913417855 1.4170235072369408 0 0 0 0 -133.10331814899109 853.24397704142029 0 853.24397704142029 -436.99963609370025 0 0 0 0 388.90130873004091 250.78282755352302 0 250.78282755352302 -558.71494243991765 0 0 0 0 -1876.0298135355115 248.76453765998303 0 248.76453765998303 -449.83009243851484 0 0 0 0 -2056.0360598770203 -50.190087709361251 0 -50.190087709361251 -145.04710914589668 0 0 0 0 -305.36751659784932 445.61081499192551 0 445.61081499192551 -416.97884597670782 0 0 0 0 -539.38204126409255 358.01299072685833 0 358.01299072685833 -295.03149883587321 0 0 0 0 -1204.7650533181732 1031.1337883365413 0 1031.1337883365413 -260.84766566575308 0 0 0 0 -245.99106437677983 93.003333696793561 0 93.003333696793561 -263.95981111483707 0 0 0 0 -167.40304570956505 49.895600209719305 0 49.895600209719305 -261.42196640458496 0 0 0 0 0.13464497961103916 126.13455463670107 0 126.13455463670107 -299.13990235960227 0 0 0 0 27.05617232050281 -148.08826314426915 0 -148.08826314426915 -89.735329241109866 0 0 0 0 -3.5212275200465228 38.385557774284734 0 38.385557774284734 111.72778445142467 0 0 0 0 -20.049517209699843 7.1690097052996862 0 7.1690097052996862 155.21183758959523 0 0 0 0 -23.822872321936302 123.0927823953607 0 123.0927823953607 370.88285239366814 0 0 0 0 921.91375817370135 316.17339294592966 0 316.17339294592966 316.37125336639292 0 0 0 0 232.28660629756632 -196.68332308579193 0 -196.68332308579193 98.317941016466648 0 0 0 0 110.85231415973976 33.760871984039113 0 33.760871984039113 331.11792126984801 0 0 0 0 -305.01677109248703 -181.30097505658296 0 -181.30097505658296 -109.21364208142313 0 0 0 0 -545.47158011789725 -240.58631557782792 0 -240.58631557782792 -132.47822516277847 0 0 0 0 -641.54521024723363 -146.66831899236468 0 -146.66831899236468 -44.136919971930183 0 0 0 0 -658.53155672425055 -177.41357241250262 0 -177.41357241250262 -88.908143550995192 0 0 0 0 -444.55277568398378 140.92339352167085 0 140.92339352167085 43.173952130321595 0 0 0 0 -718.15487564110663 19.419983294506892 0 19.419983294506892 33.155851643107781 0 0 0 0 -667.51274555681448 39.207372089018463 0 39.207372089018463 -1.4559291934392604 0 0 0 0 -659.32502249126264 165.51726142060761 0 165.51726142060761 127.11839484499887 0 0 0 0 -607.39629154554859 -90.377000433255944 0 -90.377000433255944 34.116154470925721 0 0 0 0 -767.19132908313622 76.292915301464973 0 76.292915301464973 128.24813750484736 0 0 0 0 -687.03207621577894 64.485628017362274 0 64.485628017362274 128.71540011312391 0 0 0 0 -467.74789055920701 -41.904512408069422 0 -41.904512408069422 99.368655200183639 0 0 0 0 -306.90385428516311 16.212789089067883 0 16.212789089067883 19.372681027137332 0 0 0 0 -302.04784605717032 -15.034934333304648 0 -15.034934333304648 122.65599256487621 0 0 0 0 -382.82103495855699 46.079946259498684 0 46.079946259498684 -144.26630898641861 0 0 0 0 -398.22623955714334 -15.274769177595999 0 -15.274769177595999 108.15974362900943 0 0 0 0 -139.16111453715712 -58.753898572975231 0 -58.753898572975231 -10.626380803465509 0 0 0 0 -289.08821077374159 78.201016905037932 0 78.201016905037932 26.778347439868412 0 0 0 0 -370.6291951493622 -8.0434948643473945 0 -8.0434948643473945 -22.219637350935955 0 0 0 0 -268.99941252623103 -57.485432504103755 0 -57.485432504103755 31.287442065000505 0 0 0 0 -379.53722246820689 -5.7890614075704434 0 -5.7890614075704434 65.925759733018367 0 0 0 0 -431.98252501757815 74.597488824322681 0 74.597488824322681 -5.8344260006309696 0 0 0 0 -598.11268490392104 -34.063286485218896 0 -34.063286485218896 76.64908526626823 0 0 0 0 -550.29733846877934 15.366584702103864 0 15.366584702103864 95.506709187407523 0 0 0 0 -1029.6798847422178 53.643154924986675 0 53.643154924986675 146.75201646259757 0 0 0 0 -691.52564966338105 207.2268726936959 0 207.2268726936959 -10.656541963419386 0 0 0 0 183.53651805809932 436.25860687018826 0 436.25860687018826 164.4022952388774 0 0 0 0 -1101.1468524946822 -459.81833973425296 0 -459.81833973425296 -108.14796877950494 0 0 0 0 -3.7227172412767118 2.1599439476444502 0 2.1599439476444502 -0.94189125084185399 0 0 0 0 -443.4396545975178 -117.10863178658974 0 -117.10863178658974 56.294873088940221 0 0 0 0 -9.2382710099599024 5.5160866222069558 0 5.5160866222069558 -0.84088744787620939 0 0 0 0 -424.72592757819803 -43.249567127667206 0 -43.249567127667206 123.69015307700374 0 0 0 0 -13.715527532913256 234.89804976152595 0 234.89804976152595 219.77796458808899 0 0 0 0 -270.30148646026646 -143.06329015782012 0 -143.06329015782012 168.71968288624657 0 0 0 0 -66.263707098471059 -28.637539880714485 0 -28.637539880714485 9.8669483601863703 0 0 0 0 -71.516769836591266 -32.777972743032365 0 -32.777972743032365 12.700904975072262 0 0 0 0 -63.602492007688852 -15.047897647680657 0 -15.047897647680657 22.636632300047836 0 0 0 0 -29.9317069092358 -42.397196958539553 0 -42.397196958539553 14.853827049359325 0 0 0 0 -22.949655602582183 0.22469179903698944 0 0.22469179903698944 8.5194130293973256 0 0 0 0 -53.795919083262561 -12.242494833199544 0 -12.242494833199544 -4.6422435785279959 0 0 0 0 -51.797444707488012 -31.316715747643869 0 -31.316715747643869 -0.89571870765530548 0 0 0 0 -41.539113187180192 -19.999400228319018 0 -19.999400228319018 -1.3251581768709002 0 0 0 0 -20.945961888299507 -4.2254628068027813 0 -4.2254628068027813 5.4507134341490033 0 0 0 0 -75.614319416607032 -20.660036205294091 0 -20.660036205294091 7.5619009105303121 0 0 0 0 -54.572029091821122 -6.5854688273279294 0 -6.5854688273279294 2.035339027025771 0 0 0 0 -14.77060304345946 -1.3717175797347494 0 -1.3717175797347494 5.6360015507330488 0 0 0 0 -33.346036795806867 -16.688127651817002 0 -16.688127651817002 0.52445363345044138 0 0 0 0 -35.849801276955986 -22.300747732713717 0 -22.300747732713717 -0.52140233909869949 0 0 0 0 -41.079726541691628 -23.638366920077829 0 -23.638366920077829 -6.1290749332867307 0 0 0 0 -84.635292938592272 6.334806238770625 0 6.334806238770625 1.8712631865164226 0 0 0 0 -208.67922101541626 -27.93291020070069 0 -27.93291020070069 0.42165757938676052 0 0 0 0 -208.03300520626362 -56.369842698721186 0 -56.369842698721186 -29.686880377645139 0 0 0 0 -0.02193103401802432 3.7399451749779979 0 3.7399451749779979 -2.2080228182083612 0 0 0 0 -25.976621603595071 0.63897335712144354 0 0.63897335712144354 15.707819659896137 0 0 0 0 -95.576271124079199 -37.704098106232365 0 -37.704098106232365 16.907338039817191 0 0 0 0 2.7569636573061871 37.513494858708668 0 37.513494858708668 -49.377412787227513 0 0 0 0 -344.77382692902756 90.190769752676033 0 90.190769752676033 -14.473008271006165 0 0 0 0 185.0705930473996 -232.57311557953881 0 -232.57311557953881 -6.4911386633802977 0 0 0 0 12.578862877024221 28.494440629148812 0 28.494440629148812 -10.053288582865207 0 0 0 0 -438.0415989314497 33.370428884979901 0 33.370428884979901 -14.479811004170188 0 0 0 0 2.7149808348721791 -2.8250927612302803 0 -2.8250927612302803 3.292092201518134 0 0 0 0 -253.92445702677651 -11.981692799430448 0 -11.981692799430448 31.730701648890772 0 0 0 0 -16.204519436817492 -25.747822830961724 0 -25.747822830961724 10.144887187408838 0 0 0 0 2.0546613799126909 -1.6677581108533559 0 -1.6677581108533559 8.913040852172692 0 0 0 0 -245.42593885281531 -44.234397269368856 0 -44.234397269368856 -48.71923051092017 0 0 0 0 -290.68149222859938 -214.51224268910551 0 -214.51224268910551 183.71960491534264 0 0 0 0 -179.88589889337891 -7.1275500930310045 0 -7.1275500930310045 -44.580288404183563 0 0 0 0 -199.47666382643365 -163.12377362741097 0 -163.12377362741097 219.60517057251036 0 0 0 0 -214.40062339353608 63.768043649848096 0 63.768043649848096 110.11907761185466 0 0 0 0 -188.79468611035554 16.61648441325633 0 16.61648441325633 -43.667667200919666 0 0 0 0 -15.45243853671127 -91.970542863185301 0 -91.970542863185301 -33.647954358542393 0 0 0 0 -0.50398491720636329 -0.26635323847060022 0 -0.26635323847060022 3.0297612446043836 0 0 0 0 -359.25392242039379 -40.110888116913884 0 -40.110888116913884 54.515149360092437 0 0 0 0 -285.97307686617569 -21.304112370377425 0 -21.304112370377425 -67.352625232852461 0 0 0 0 8.6662113205819793 -24.700745508751424 0 -24.700745508751424 -13.350388820745723 0 0 0 0 -35.016715663077775 -11.212819998390842 0 -11.212819998390842 -1.2022613722679125 0 0 0 0 -62.330921086941089 -20.598831075563339 0 -20.598831075563339 -19.693471527172733 0 0 0 0 -36.596746059345946 -6.8138635618421617 0 -6.8138635618421617 9.3781087787484338 0 0 0 0 -24.597579153944906 -0.95214646021713634 0 -0.95214646021713634 4.0539768159366067 0 0 0 0 -66.319105689044591 -22.65443317418277 0 -22.65443317418277 -7.8375537602696568 0 0 0 0 -66.875860621104948 -20.281051996281349 0 -20.281051996281349 18.517926880863342 0 0 0 0 -66.86867038559285 -19.738979667792591 0 -19.738979667792591 -4.4230958517446197 0 0 0 0 -64.297884430139675 -26.697439005226897 0 -26.697439005226897 16.339232118831433 0 0 0 0 -67.13500333801494 -25.160600759566478 0 -25.160600759566478 -8.1318994138425751 0 0 0 0 -55.728275475019473 -18.946838703232515 0 -18.946838703232515 -6.7965506355876641 0 0 0 0 -32.323573979094959 4.5812406330377229 0 4.5812406330377229 4.6298085268458795 0 0 0 0 -42.864534134336282 -5.0342461913651277 0 -5.0342461913651277 -7.3505941778189481 0 0 0 0 -20.689024319821328 14.210409701788194 0 14.210409701788194 -2.5534749365015159 0 0 0 0 -24.502755407567292 5.991086415331317 0 5.991086415331317 7.1721550044156679 0 0 0 0 -34.147961242890688 3.7729749929421104 0 3.7729749929421104 7.875761558574693 0 0 0 0 -59.864210813582758 -108.78669752656793 0 -108.78669752656793 -0.548612869125499 0 0 0 0 -91.097836231851034 -61.96745214318851 0 -61.96745214318851 26.799592615632776 0 0 0 0 -1.7924970365660897 0.48118976953857384 0 0.48118976953857384 -0.020856609349555626 0 0 0 0 14.901784588742885 136.37242448065655 0 136.37242448065655 -23.365976816537188 0 0 0 0 -285.13502344134031 20.353716144246118 0 20.353716144246118 14.545582714271859 0 0 0 0 -123.86880440212553 122.99503882115619 0 122.99503882115619 49.738352607238397 0 0 0 0 -0.23784212661082904 0.29873436674978393 0 0.29873436674978393 -0.11584345397490795 0 0 0 0 -153.61779395791746 111.72741174286311 0 111.72741174286311 -20.987702635060934 0 0 0 0 -76.986934108033893 2.1083780245910333 0 2.1083780245910333 60.186968845011791 0 0 0 0 111.93787769919436 165.78647719259084 0 165.78647719259084 43.311497334611204 0 0 0 0 -34.637553864755319 -16.448740589442423 0 -16.448740589442423 -13.853796753510323 0 0 0 0 -19.152537468247431 4.4757401073372023 0 4.4757401073372023 11.855216974913377 0 0 0 0 -39.403937122930074 -9.7526038778019029 0 -9.7526038778019029 -4.5208104317280231 0 0 0 0 -32.774852392292814 -18.791715765914432 0 -18.791715765914432 -9.3601533764431224 0 0 0 0 -32.898166345141362 -18.295493377183448 0 -18.295493377183448 -12.387701917012237 0 0 0 0 -13.787037439409552 -13.789460996294565 0 -13.789460996294565 -8.4808176355237954 0 0 0 0 -395.79856969608227 -134.20686235013204 0 -134.20686235013204 142.56486655157369 0 0 0 0 -115.01725193686434 -207.39912165341593 0 -207.39912165341593 -149.61591499951101 0 0 0 0 -17.111955595077916 0.27008601123814913 0 0.27008601123814913 5.8030262625715583 0 0 0 0 -248.92717424145667 -78.509548337593344 0 -78.509548337593344 58.689164821282247 0 0 0 0 -261.31386569459573 -134.12388411715256 0 -134.12388411715256 183.03871177884776 0 0 0 0 -137.11997237360629 26.88577400046006 0 26.88577400046006 90.829322153482281 0 0 0 0 -254.87599809054518 -91.015986895532478 0 -91.015986895532478 -26.883148368218826 0 0 0 0 -53.582900044231792 -101.03760492967058 0 -101.03760492967058 -107.01776413129846 0 0 0 0 -399.63992476757267 -76.035819813229409 0 -76.035819813229409 124.77072135398976 0 0 0 0 -247.90884718691814 -62.420217789601793 0 -62.420217789601793 11.465360447627972 0 0 0 0 -284.90268018774805 -207.920803468146 0 -207.920803468146 -146.17627739077693 0 0 0 0 -352.46360510215891 -128.30066561703575 0 -128.30066561703575 -29.83884121274059 0 0 0 0 -232.5352189266705 -129.86997965258433 0 -129.86997965258433 -79.152395754443205 0 0 0 0 -237.67750977235846 -140.96604276703601 0 -140.96604276703601 -102.53451746495352 0 0 0 0 -143.67533625807846 -90.74560278476747 0 -90.74560278476747 -90.030638870473922 0 0 0 0 -170.05740030755987 -170.90091973275753 0 -170.90091973275753 -139.92570912319025 0 0 0 0 -186.11032110278029 -169.11023477132585 0 -169.11023477132585 -146.91994155379871 0 0 0 0 -202.5429658567009 -186.95251045416717 0 -186.95251045416717 -154.9109811940798 0 0 0 0 -131.04884767322801 -165.10277339895219 0 -165.10277339895219 -148.46796540198852 0 0 0 0 -326.61518927471479 -167.10270618530103 0 -167.10270618530103 -86.576859191572794 0 0 0 0 59.598515574878547 -38.18669637063374 0 -38.18669637063374 0.43533445083448363 0 0 0 0 -35.620357368228724 -37.231602473532973 0 -37.231602473532973 8.6303438807950084 0 0 0 0 -12.89279226247934 -8.820234422575993 0 -8.820234422575993 -5.8272927364584284 0 0 0 0 -5.1779478748991892 -2.5001823031984713 0 -2.5001823031984713 -0.39316991851817917 0 0 0 0 -231.35421909345314 -255.31919804854442 0 -255.31919804854442 -134.00375308451794 0 0 0 0 -217.51246272205026 -166.5836830973567 0 -166.5836830973567 -125.44029851477899 0 0 0 0 -26.294827345705926 -7.5238358631503388 0 -7.5238358631503388 -1.6208478617518267 0 0 0 0 -16.349432852581003 -4.2570379533794664 0 -4.2570379533794664 4.6070665688319741 0 0 0 0 -63.764406380883884 -24.331911350810515 0 -24.331911350810515 4.760313840685285 0 0 0 0 -14.65824182749202 3.7093706848319101 0 3.7093706848319101 18.879481894479976 0 0 0 0 1.9419167286641823 -9.2288761237034524 0 -9.2288761237034524 28.817028903363752 0 0 0 0 -241.840150999662 -179.31973229678761 0 -179.31973229678761 -185.36846915565411 0 0 0 0 -10.321136975157458 -0.35006698564413341 0 -0.35006698564413341 7.3603604494964863 0 0 0 0 2.6576620490791356 0.25295581983684912 0 0.25295581983684912 13.469165135692069 0 0 0 0 -6.5134140379232122 5.4774261675625979 0 5.4774261675625979 13.498287710211848 0 0 0 0 -10.824607973481761 2.5408399678314098 0 2.5408399678314098 11.568077990062179 0 0 0 0 0.63324209221173078 5.5886076477567599 0 5.5886076477567599 7.844909681208236 0 0 0 0 0.71927536044677254 7.4432685481632177 0 7.4432685481632177 19.626823194448136 0 0 0 0 -2.572083786764324 1.0905526970329902 0 1.0905526970329902 -0.041063643304430658 0 0 0 0 -0.41922825671728958 -0.43517926604786794 0 -0.43517926604786794 -0.13527639747102857 0 0 0 0 -54.253118615306448 2.983234786691682 0 2.983234786691682 -3.9569875306454709 0 0 0 0 -0.4310464866575785 -0.83154862138084695 0 -0.83154862138084695 -0.45229770803467773 0 0 0 0 -4.3797151528997347 2.4152556900166005 0 2.4152556900166005 1.0807655466077506 0 0 0 0 -92.088725086578052 19.098294167360812 0 19.098294167360812 -7.9641202695102749 0 0 0 0 -80.00284985176404 7.911461972898449 0 7.911461972898449 0.084345031040218288 0 0 0 0 -78.844769146235194 -5.3326244036652195 0 -5.3326244036652195 -1.3125702909457502 0 0 0 0 -92.678440916060936 31.287439594417094 0 31.287439594417094 -5.5112877852678466 0 0 0 0 -68.096013761256472 15.615896346024403 0 15.615896346024403 -13.06284551206776 0 0 0 0 -142.60722509934567 4.2123334727430475 0 4.2123334727430475 3.7489713873424115 0 0 0 0 -1.0302968684953839 0.74650022701311514 0 0.74650022701311514 -0.20748555933514634 0 0 0 0 21.690120011473482 45.479504636514918 0 45.479504636514918 57.789839719904919 0 0 0 0 -377.83427359904454 -44.065080700016324 0 -44.065080700016324 110.61811921207232 0 0 0 0 -428.77995630493388 -25.041312688962307 0 -25.041312688962307 325.08009298517885 0 0 0 0 -402.30855344741576 -103.97253098783972 0 -103.97253098783972 129.09476677015618 0 0 0 0 -479.55578094137309 -34.216536518098906 0 -34.216536518098906 183.08289544691979 0 0 0 0 -664.68106441313284 -125.05162033112106 0 -125.05162033112106 162.21934549181788 0 0 0 0 -645.38753427007759 -98.458597252879372 0 -98.458597252879372 227.28510752129569 0 0 0 0 -635.67416841203521 -136.76069283995321 0 -136.76069283995321 121.95009503438564 0 0 0 0 -587.53743004969283 -123.53817483324131 0 -123.53817483324131 72.758564008215217 0 0 0 0 -689.25762628600023 -42.980951272392872 0 -42.980951272392872 175.39622180863125 0 0 0 0 -588.17116468898894 -77.119531004763303 0 -77.119531004763303 184.61711788929733 0 0 0 0 -485.31575129370322 -78.266755965880293 0 -78.266755965880293 110.54307619590236 0 0 0 0 -391.38861475596786 -52.549137363414957 0 -52.549137363414957 90.878202356524071 0 0 0 0 -496.60633441869868 -83.096296550057559 0 -83.096296550057559 87.014360323148594 0 0 0 0 -342.92101239707699 -91.89914037836752 0 -91.89914037836752 17.760773719984172 0 0 0 0 -536.4835069493347 -131.96630511845365 0 -131.96630511845365 66.125100223473055 0 0 0 0 -581.32870677145547 -213.43642625091979 0 -213.43642625091979 -4.1004243892148224 0 0 0 0 -473.80184365311288 -125.71185576925973 0 -125.71185576925973 65.515270690677937 0 0 0 0 -477.82859154365724 -159.78570133551057 0 -159.78570133551057 -11.339883143259613 0 0 0 0 -336.51731681458477 -180.06286904614831 0 -180.06286904614831 -98.930798439910177 0 0 0 0 -476.68189200798224 -286.86794134968318 0 -286.86794134968318 -280.87541901921122 0 0 0 0 -440.84182890446391 -261.99781150955232 0 -261.99781150955232 -157.75867182363982 0 0 0 0 -341.08695786716999 -183.55560075210906 0 -183.55560075210906 -97.999277983773254 0 0 0 0 -510.90558664075797 -205.05451672261438 0 -205.05451672261438 -9.2086349732162489 0 0 0 0 -345.24551797285676 -209.42060103376843 0 -209.42060103376843 -194.22998829817561 0 0 0 0 -63.777937694336288 -432.74418551820418 0 -432.74418551820418 -444.0537491187788 0 0 0 0 -625.09639559348579 -372.47356656356988 0 -372.47356656356988 -289.11840022021352 0 0 0 0 -2.1200739523009773 -2.1738700634515453 0 -2.1738700634515453 0.14412664300495237 0 0 0 0 -10.911155310692266 11.549916202935947 0 11.549916202935947 33.26331837644625 0 0 0 0 -2.6369530267035763 -0.16080777919987099 0 -0.16080777919987099 8.6561615248929762 0 0 0 0 -3.2597887883754595 2.074779608349715 0 2.074779608349715 0.10502926263472823 0 0 0 0 -899.8403287527326 -303.67092935490723 0 -303.67092935490723 -29.787038720555756 0 0 0 0 -777.5714465782803 -574.96533472606745 0 -574.96533472606745 -352.36789567409949 0 0 0 0 -676.548086477982 -307.5073633614013 0 -307.5073633614013 -128.54257822931845 0 0 0 0 -694.62168311686401 -215.99517605474074 0 -215.99517605474074 68.191988060575568 0 0 0 0 -640.91902696911711 -349.51770850773937 0 -349.51770850773937 -163.22231171479916 0 0 0 0 -673.79905642320227 -193.07963570783238 0 -193.07963570783238 140.61205930607866 0 0 0 0 -651.63489489461153 -132.09708321280112 0 -132.09708321280112 -68.49781903476196 0 0 0 0 -746.77443026231776 -309.96004988839917 0 -309.96004988839917 -47.074421580536864 0 0 0 0 -708.09356765210396 -130.96706337798923 0 -130.96706337798923 -0.66474161205331939 0 0 0 0 -793.25726775210933 -101.15919387322288 0 -101.15919387322288 4.9077531588618513 0 0 0 0 -438.56561592174694 -5.2256680742486878 0 -5.2256680742486878 32.317570869135466 0 0 0 0 -1043.8967015581875 -225.04380507290074 0 -225.04380507290074 -717.82984898183986 0 0 0 0 -1058.9962216256972 -275.65083661414468 0 -275.65083661414468 -128.28394094124607 0 0 0 0 -881.26889386305993 -12.423566874508651 0 -12.423566874508651 -36.633047961983493 0 0 0 0 -1065.8133382474334 -191.92026078653851 0 -191.92026078653851 -24.52145626704214 0 0 0 0 -732.26478400101405 -321.7005140834529 0 -321.7005140834529 -128.2367710851056 0 0 0 0 -918.16549595567631 -395.3691836334703 0 -395.3691836334703 -157.23650411544213 0 0 0 0 -800.41633016710693 -320.01577094842276 0 -320.01577094842276 -246.64953376165568 0 0 0 0 -774.32742267310823 -395.55316015636095 0 -395.55316015636095 -59.544754340078725 0 0 0 0 -472.19356785902346 -367.83795493795935 0 -367.83795493795935 -232.48525158463326 0 0 0 0 -103.91854943698854 -197.76396442633495 0 -197.76396442633495 -181.99298573193906 0 0 0 0 -433.989930412994 -86.622733319555152 0 -86.622733319555152 3.0126332692628921 0 0 0 0 -670.62034884891182 -329.13018842661734 0 -329.13018842661734 -54.882422498552899 0 0 0 0 -450.73015517450403 -7.2737670388270885 0 -7.2737670388270885 70.30622300322284 0 0 0 0 -760.78189489014767 -250.84063584625102 0 -250.84063584625102 -292.1809850193863 0 0 0 0 -616.49620630154095 -376.15423747212918 0 -376.15423747212918 -195.49691537708213 0 0 0 0 -168.15137954706734 73.57939889516399 0 73.57939889516399 39.464531545979298 0 0 0 0 -0.32940773909126264 0.25728733637174628 0 0.25728733637174628 4.1381173036667773 0 0 0 0 145.29393401823472 -21.917363526332508 0 -21.917363526332508 -126.72554334025216 0 0 0 0 -36.96713094667939 -98.744520013767271 0 -98.744520013767271 -65.793565302180809 0 0 0 0 2.1790395543177397 0.16688736930187531 0 0.16688736930187531 0.21095657975518703 0 0 0 0 -76.322812410726328 104.44299279878763 0 104.44299279878763 34.23268796249063 0 0 0 0 26.047565795179253 30.666591308087799 0 30.666591308087799 48.11204982605031 0 0 0 0 -4.9107432119500594 2.2808148185937682 0 2.2808148185937682 0.38793813069850502 0 0 0 0 -7.5117406909848796 1.0363069265426215 0 1.0363069265426215 0.23773963271546084 0 0 0 0 28.612908397102728 52.010954677272053 0 52.010954677272053 19.079644662975682 0 0 0 0 -5.4031571988014662 2.5679622871752912 0 2.5679622871752912 0.12919084991936497 0 0 0 0 -6.398392190802042 2.1971390694778989 0 2.1971390694778989 0.23773963271552301 0 0 0 0 -1.1560307232818445 0.096673506109709706 0 0.096673506109709706 -0.0055857462671800862 0 0 0 0 -7.5328463196201483 2.2946460991379309 0 2.2946460991379309 -0.0024946797553404682 0 0 0 0 -10.459553837485146 1.82114492484952 0 1.82114492484952 0.91679319802877424 0 0 0 0 -4.5850331731053302 1.5098081008091822 0 1.5098081008091822 -0.68154824506861633 0 0 0 0 -68.464432056352962 88.073051352372161 0 88.073051352372161 70.361609869713831 0 0 0 0 -930.80807363813437 -89.262142177596388 0 -89.262142177596388 -408.53039774104013 0 0 0 0 -890.03086606724537 -274.17049241649556 0 -274.17049241649556 -7.1191935447367669 0 0 0 0 -327.89749222383398 -354.24145067344966 0 -354.24145067344966 -175.7637384852182 0 0 0 0 -3.9497530960378526 0.68460479745964165 0 0.68460479745964165 0.099684471704915512 0 0 0 0 -1185.0621838956431 -315.72138384291912 0 -315.72138384291912 -125.73089533530562 0 0 0 0 -4.4465672539690786 2.7312602961332555 0 2.7312602961332555 0.0041567423997935626 0 0 0 0 -1319.5416868712346 -29.838533261616689 0 -29.838533261616689 12.73347039300765 0 0 0 0 -1417.6165733138914 -77.950596497465469 0 -77.950596497465469 69.126240768894533 0 0 0 0 -1280.0294396778045 -4.838743714111672 0 -4.838743714111672 -7.8996559073841581 0 0 0 0 -1490.095372156291 309.29533401516886 0 309.29533401516886 -420.42533517603403 0 0 0 0 -0.99201758918206906 0.061454662998633225 0 0.061454662998633225 0.45623012775711747 0 0 0 0 -1.4689893307513557 -0.18297175820281517 0 -0.18297175820281517 0.38475584600374463 0 0 0 0 -68.726273816871981 14.679031313601849 0 14.679031313601849 -0.47542169162193115 0 0 0 0 -79.507233292206365 13.055303332736424 0 13.055303332736424 -0.71642045832331114 0 0 0 0 -80.674931107918383 9.333264694636215 0 9.333264694636215 4.2858822782222319 0 0 0 0 -70.617974056307503 11.499625697611195 0 11.499625697611195 0.67397675254598344 0 0 0 0 -0.25403487983157902 -0.42631026042653275 0 -0.42631026042653275 0.029041002406789501 0 0 0 0 -72.219785963219692 3.7064299339618589 0 3.7064299339618589 2.7024767662339784 0 0 0 0 -0.17838269173070387 0.061428447604953362 0 0.061428447604953362 -0.14077179029664799 0 0 0 0 -50.729967236358789 2.5587020907979823 0 2.5587020907979823 -2.1888557242864195 0 0 0 0 0.093119053056042844 0.080306717666616123 0 0.080306717666616123 -0.070213309791666775 0 0 0 0 -9.2686563025417854 1.9126471617170218 0 1.9126471617170218 1.9888500440919401 0 0 0 0 -4.5902150565525517 -5.0427070629629966 0 -5.0427070629629966 3.0463621546076558 0 0 0 0 -10.358159103285288 -2.5892306390413449 0 -2.5892306390413449 2.7608365761299467 0 0 0 0 4.6689296211770852 5.2562028389697009 0 5.2562028389697009 -1.0584283253559406 0 0 0 0 -2.7245046941025066 4.3612214169204586 0 4.3612214169204586 5.9935708467084794 0 0 0 0 -2.3997428838146675 1.6624458833691023 0 1.6624458833691023 0.067585468980874475 0 0 0 0 -6.2779595731990412 9.2990758883466924 0 9.2990758883466924 4.1352104231952467 0 0 0 0 -3.3176503751892596 2.6020010691702282 0 2.6020010691702282 5.7498175829928186 0 0 0 0 -8.6893632349347172 3.3852067237183396 0 3.3852067237183396 -2.3391605839925091 0 0 0 0 -8.7781560187286232 2.6543809672881729 0 2.6543809672881729 1.0973211322521212 0 0 0 0 0.96211780471907105 0.51130599438887714 0 0.51130599438887714 -0.23095935918381102 0 0 0 0 5.6319105234160816 3.8738415860263213 0 3.8738415860263213 6.3872607572157065 0 0 0 0 0.045877068703703117 0.76934731901530684 0 0.76934731901530684 -2.2116689373308169 0 0 0 0 -0.025154349399798548 0.031165962321125562 0 0.031165962321125562 -0.039336667897893952 0 0 0 0 -16.141546294486034 -2.3053285385941171 0 -2.3053285385941171 -1.9468472687487988 0 0 0 0 -12.446924292540643 4.8711169287185019 0 4.8711169287185019 0.11862475173373221 0 0 0 0 -2.6853907353361137 0.11285050419395581 0 0.11285050419395581 -2.1879712404605627 0 0 0 0 -7.8012115560413804 4.830741173924725 0 4.830741173924725 -0.64613880760900955 0 0 0 0 -12.283319464841043 2.4394896947181128 0 2.4394896947181128 0.326959958770213 0 0 0 0 -6.5860360167425824 1.1501315157522836 0 1.1501315157522836 -6.5986599059659818 0 0 0 0 -1.0915629139490193 0.33745594673202661 0 0.33745594673202661 -2.7154280609475752 0 0 0 0 -6.7173755213298136 1.7382522231383941 0 1.7382522231383941 0.64221029365056315 0 0 0 0 0.019395091342481408 0.012223281823821708 0 0.012223281823821708 -0.0047931444291290223 0 0 0 0 -2.1095827885910694 -0.69563742207550017 0 -0.69563742207550017 -1.3315137470447722 0 0 0 0 -7.4509643033088651 0.98385900699932494 0 0.98385900699932494 0.003707336505621849 0 0 0 0 -5.9939177529740846 1.948728231939554 0 1.948728231939554 0.36307382068728788 0 0 0 0 -1.9695003670349251 1.5530279767994606 0 1.5530279767994606 -1.2121536006526001 0 0 0 0 -5.2836066965683131 1.2355635737780239 0 1.2355635737780239 -0.0014669907618177552 0 0 0 0 -0.76892153718654299 -0.25898646066158537 0 -0.25898646066158537 -1.5387189848314982 0 0 0 0 -0.3014075872206945 -0.28936757070633234 0 -0.28936757070633234 0.038848308817865058 0 0 0 0 -3.2751130139367888 3.6734885377343089 0 3.6734885377343089 -3.7509991805324447 0 0 0 0 -2.7600037868178333 0.15377123206428533 0 0.15377123206428533 -0.16222708207946956 0 0 0 0 -82.151845850457903 15.753262266228507 0 15.753262266228507 -3.4516048051966752 0 0 0 0 -112.23153192674363 21.170439897314289 0 21.170439897314289 -1.3801331923340676 0 0 0 0 -0.18982885248225045 -0.08987577375245337 0 -0.08987577375245337 0.020208923378248683 0 0 0 0 -91.339554776423029 5.2101928830158482 0 5.2101928830158482 -0.024981774096023045 0 0 0 0 -85.656377111437905 11.637787530544077 0 11.637787530544077 -2.1740868039495993 0 0 0 0 -75.869355298069422 3.9512849607744713 0 3.9512849607744713 -0.0038559451361247191 0 0 0 0 -0.19879692030612972 -0.040741434460159098 0 -0.040741434460159098 -0.036692299217430627 0 0 0 0 -85.647999104854534 5.3992272350255757 0 5.3992272350255757 0.92372780794577136 0 0 0 0 -108.23965387328644 -7.6492305644572474 0 -7.6492305644572474 -0.016254271690308353 0 0 0 0 -115.49630315703689 3.5549594707401546 0 3.5549594707401546 -9.7536098344766913 0 0 0 0 -93.517500887290225 -4.1364731204747542 0 -4.1364731204747542 -12.410784368041083 0 0 0 0 -115.32535479635226 0.97511406527090905 0 0.97511406527090905 -1.9184494603195166 0 0 0 0 -107.33976086464827 -3.8346065478517408 0 -3.8346065478517408 -3.7546486050821759 0 0 0 0 -100.5521314068319 5.7914974467571243 0 5.7914974467571243 -0.34831183996810022 0 0 0 0 -100.14510752481874 -3.505064532909016 0 -3.505064532909016 -7.7402914043733722 0 0 0 0 -107.75076302724483 -5.0337959571226207 0 -5.0337959571226207 -5.8199226977511742 0 0 0 0 -91.752810787860653 -4.9616475912933433 0 -4.9616475912933433 2.9937728959718068 0 0 0 0 -102.58902253601991 0.51683922473305688 0 0.51683922473305688 0.31575120173199167 0 0 0 0 -95.099810341404009 5.2511920909863452 0 5.2511920909863452 2.6442355433517353 0 0 0 0 -92.942575755383587 3.2997104802363131 0 3.2997104802363131 -0.69159324989276705 0 0 0 0 -82.757504702705774 0.099692804435505877 0 0.099692804435505877 4.7619994951479763 0 0 0 0 -93.496434323344147 -2.87760052240314 0 -2.87760052240314 10.08801508567108 0 0 0 0 -90.70973195649276 -1.2583698708492468 0 -1.2583698708492468 8.4230449885507248 0 0 0 0 -80.600083326877211 8.3933567667940103 0 8.3933567667940103 -0.066856511293367005 0 0 0 0 -79.790869310643757 6.9279174803475172 0 6.9279174803475172 0.95729930085228654 0 0 0 0 -0.19638176092243498 -0.10289504301167085 0 -0.10289504301167085 -0.074385330156724813 0 0 0 0 -78.880004218257454 -3.5103652652070725 0 -3.5103652652070725 6.3271959831620492 0 0 0 0 -0.18078698938405324 -0.11444980857316978 0 -0.11444980857316978 -0.092013031581382854 0 0 0 0 -79.724480198841775 9.9002059022173228 0 9.9002059022173228 1.2715667428766571 0 0 0 0 -80.863115430505786 12.748444781736348 0 12.748444781736348 -1.3672196880683432 0 0 0 0 -70.427461872241111 9.2655743643421982 0 9.2655743643421982 -25.386228657903381 0 0 0 0 -0.10020866952003615 -0.053782298634672543 0 -0.053782298634672543 -0.054904289852226909 0 0 0 0 -77.730155893033952 3.6611316562686005 0 3.6611316562686005 -9.3925332651044648 0 0 0 0 -34.386752395954318 -16.379953138046957 0 -16.379953138046957 -4.3964097791344621 0 0 0 0 -92.804521080470295 -4.624179699819071 0 -4.624179699819071 14.495646314645771 0 0 0 0 -84.537084899886395 -14.223163298789153 0 -14.223163298789153 12.546880866832458 0 0 0 0 -76.667626078400644 -0.44753851012164603 0 -0.44753851012164603 7.0580741105943527 0 0 0 0 -97.201884373880603 3.396859064822277 0 3.396859064822277 14.552877729154726 0 0 0 0 -84.512940182830789 3.3809346732932464 0 3.3809346732932464 12.395309084688837 0 0 0 0 -100.58282913008588 -5.1373552044705741 0 -5.1373552044705741 14.593821367195046 0 0 0 0 -93.757031398330582 5.6835076709836612 0 5.6835076709836612 15.966615441563135 0 0 0 0 -144.35487350134645 14.030118363673157 0 14.030118363673157 15.132404597561234 0 0 0 0 -105.07690795099188 -12.619860117595859 0 -12.619860117595859 4.359435333440798 0 0 0 0 -75.195396838535089 -26.891028950938214 0 -26.891028950938214 4.0138696898880006 0 0 0 0 -100.38445768496604 -6.199175295659674 0 -6.199175295659674 12.428026248984148 0 0 0 0 -102.95997785763757 -20.004735890898772 0 -20.004735890898772 6.893857123043496 0 0 0 0 -99.662020621733973 -16.134714369245415 0 -16.134714369245415 1.8156679307901404 0 0 0 0 -178.8463574553025 28.774625840641704 0 28.774625840641704 31.350387676102098 0 0 0 0 -159.60748787567718 -5.1241021494929093 0 -5.1241021494929093 9.3029896389590707 0 0 0 0 -177.2896201899639 69.14987759909674 0 69.14987759909674 -15.15970423097156 0 0 0 0 -225.05018500079314 47.031575320626132 0 47.031575320626132 79.727246807256904 0 0 0 0 -48.950217628728865 -6.4020826436996003 0 -6.4020826436996003 14.754512391612492 0 0 0 0 -132.57819760248822 82.515944239215116 0 82.515944239215116 67.867788937272934 0 0 0 0 -269.29142821575806 -21.435628236680476 0 -21.435628236680476 55.05170752706843 0 0 0 0 -122.62105371463258 -68.347130422354056 0 -68.347130422354056 12.887923503753129 0 0 0 0 -1.6724424999107441 0.48966138241257084 0 0.48966138241257084 -0.10306322624168751 0 0 0 0 -168.63028331828536 -71.890205904275021 0 -71.890205904275021 12.716109792033436 0 0 0 0 -164.97982270951616 -1.4183664117015695 0 -1.4183664117015695 58.892703880929943 0 0 0 0 27.451629907023744 -2.1488190324968621 0 -2.1488190324968621 15.183142097712274 0 0 0 0 -3.5148582789400393 0.91909645974285326 0 0.91909645974285326 0.021039668261598837 0 0 0 0 -45.98294254753273 22.182000019235531 0 22.182000019235531 121.45387318426089 0 0 0 0 -125.80025280074915 62.008417524149678 0 62.008417524149678 138.8686529010792 0 0 0 0 -68.071257154706473 44.86308922538506 0 44.86308922538506 79.356519832275296 0 0 0 0 11.264705919951666 -47.600879164802286 0 -47.600879164802286 51.00253660836114 0 0 0 0 1.843275656705373 8.2207296350804917 0 8.2207296350804917 -27.156295541036872 0 0 0 0 -58.825786328627146 -48.950249418770824 0 -48.950249418770824 26.638498926249785 0 0 0 0 214.38654590473743 93.430295782924532 0 93.430295782924532 -51.741607941938582 0 0 0 0 247.33215694132377 49.138057517967695 0 49.138057517967695 7.3687103612978717 0 0 0 0 112.56597430838156 5.0190491833704982 0 5.0190491833704982 14.564728829584169 0 0 0 0 -192.01667911580444 -35.520146776731423 0 -35.520146776731423 4.0718103072329086 0 0 0 0 -19.805950186710106 -130.89327164631095 0 -130.89327164631095 -84.54981271245174 0 0 0 0 178.75029283072217 -39.203038917454251 0 -39.203038917454251 -175.06349822856441 0 0 0 0 148.5253352803411 81.289860499847464 0 81.289860499847464 -103.89967160651531 0 0 0 0 132.69702796053025 -36.760901128801379 0 -36.760901128801379 16.630686159045382 0 0 0 0 15.807094799056358 16.156461470919794 0 16.156461470919794 15.924904923578652 0 0 0 0 1.0394544282052607 9.3018390439016514 0 9.3018390439016514 -12.661089647307914 0 0 0 0 39.61050981295557 33.072260643940808 0 33.072260643940808 4.5543130926225786 0 0 0 0 333.15190295768298 163.98709610279946 0 163.98709610279946 -40.853414161171713 0 0 0 0 318.33426512568258 -0.64643027771899142 0 -0.64643027771899142 -81.681389026581655 0 0 0 0 -69.381534889762406 24.208461434210221 0 24.208461434210221 -15.295185582263002 0 0 0 0 -13.859169797387878 23.670272776604463 0 23.670272776604463 -0.006121070621727398 0 0 0 0 -72.322470464365324 21.0188672625045 0 21.0188672625045 -16.6752251753569 0 0 0 0 -65.772465210713563 32.948702757441424 0 32.948702757441424 -30.595070916611121 0 0 0 0 -46.867560021029078 2.0692915665942309 0 2.0692915665942309 15.368941049956021 0 0 0 0 4.7567430506969686 -55.06922046520593 0 -55.06922046520593 37.496048264056014 0 0 0 0 11.507027082741843 -55.643962568909849 0 -55.643962568909849 2.36560945937741 0 0 0 0 8.7564976554713212 -28.5914033150789 0 -28.5914033150789 -3.177968890502946 0 0 0 0 4.291734637125046 -29.613744480803014 0 -29.613744480803014 41.313571829514821 0 0 0 0 -2.823190498034819 -38.335127640937479 0 -38.335127640937479 30.322281738919173 0 0 0 0 -20.225798902742099 -9.2664443817395465 0 -9.2664443817395465 14.287483325946994 0 0 0 0 -0.25942025368374289 -0.29299673487302869 0 -0.29299673487302869 -0.52434245681181912 0 0 0 0 110.37552314059576 -47.47540746980394 0 -47.47540746980394 30.280504568660035 0 0 0 0 -15.037829216281423 18.210278498176052 0 18.210278498176052 0.093350245977433133 0 0 0 0 -8.9600890789879486 13.417504460962846 0 13.417504460962846 9.9752630997936649 0 0 0 0 -25.408204845578666 20.550956448315119 0 20.550956448315119 0.13862508015751757 0 0 0 0 -21.126733983883241 32.598686294151506 0 32.598686294151506 -1.5143745339624584 0 0 0 0 -8.4630698271289191 0.43282972240481854 0 0.43282972240481854 6.3241219482325013 0 0 0 0 32.552316326502478 -20.232420894936126 0 -20.232420894936126 29.56844106250287 0 0 0 0 -21.616724516876275 8.0451802883978161 0 8.0451802883978161 -6.2672159111938726 0 0 0 0 79.247194160998333 103.16678136589996 0 103.16678136589996 30.659147652093679 0 0 0 0 -5.207118457635147 4.2336977447612867 0 4.2336977447612867 0.89763169139816057 0 0 0 0 -5.1780076133185418 4.5481712610065017 0 4.5481712610065017 5.9688434646758042 0 0 0 0 37.898909794697829 21.309670409405868 0 21.309670409405868 27.06753599855756 0 0 0 0 -26.899541831837269 -13.08850219731854 0 -13.08850219731854 37.836408060378972 0 0 0 0 114.51430644250649 -0.64261192955063962 0 -0.64261192955063962 -19.334411252164045 0 0 0 0 -66.887857020396041 9.438075873945472 0 9.438075873945472 1.1133316838102814 0 0 0 0 -81.188734239985934 37.610179027880221 0 37.610179027880221 -13.637214904498521 0 0 0 0 -49.358085448606289 18.795226257541611 0 18.795226257541611 -9.1248402452577348 0 0 0 0 7.3276645629666746 32.804209731595108 0 32.804209731595108 -5.8445629533697456 0 0 0 0 -2.4700434808665364 -0.69024364580748454 0 -0.69024364580748454 -0.53633927894775857 0 0 0 0 -52.416894233523635 1.2700075832240376 0 1.2700075832240376 -2.9192873235319858 0 0 0 0 -84.174294488067972 24.709783992486862 0 24.709783992486862 -2.5713466679157988 0 0 0 0 -50.590159495026455 9.4632986322549559 0 9.4632986322549559 -1.52769906976291 0 0 0 0 1.7412260389212975 1.5656991159178091 0 1.5656991159178091 1.4557637452493717 0 0 0 0 1.3654673051933059 1.8899143851784634 0 1.8899143851784634 5.1326621832255395 0 0 0 0 0.044395613342516071 0.57137087623235061 0 0.57137087623235061 0.21257293881637002 0 0 0 0 86.191878563797218 -55.066150924356236 0 -55.066150924356236 -11.942333220707155 0 0 0 0 78.313248736501919 -10.214634647323038 0 -10.214634647323038 -30.929684756221036 0 0 0 0 114.02787907107268 -86.363336595296914 0 -86.363336595296914 -45.110409401111838 0 0 0 0 -35.810440145862231 -21.370778893219565 0 -21.370778893219565 2.9975468216435956 0 0 0 0 173.08443501660076 22.61291487848996 0 22.61291487848996 -29.980710107645564 0 0 0 0 -58.7864668358161 -65.660119044528102 0 -65.660119044528102 -45.730035197931898 0 0 0 0 -66.035805007992167 17.04448326690979 0 17.04448326690979 -7.0941821370021998 0 0 0 0 -21.677927250988432 -128.77223399855046 0 -128.77223399855046 49.459896120918565 0 0 0 0 4.5001622814452276 -11.072761696241859 0 -11.072761696241859 -24.479574395895654 0 0 0 0 1.0431399516482429 0.36433839890571562 0 0.36433839890571562 -0.12547356988387698 0 0 0 0 -35.226624517978053 -33.268912406850596 0 -33.268912406850596 -19.521302580369799 0 0 0 0 -41.449568194981111 -24.257902955134313 0 -24.257902955134313 -32.362773037149772 0 0 0 0 -142.00609260983038 -143.95927779054128 0 -143.95927779054128 -0.7505064854800807 0 0 0 0 -89.797663010119322 -9.3812090607466132 0 -9.3812090607466132 5.9803360194656934 0 0 0 0 -75.003915230940038 -8.0147314792098854 0 -8.0147314792098854 5.9685853071259833 0 0 0 0 -9.9531229105778039 5.1454330896955707 0 5.1454330896955707 4.2441685842467098 0 0 0 0 -15.633297306514578 1.5328959115833065 0 1.5328959115833065 -8.7038842891732529 0 0 0 0 8.3647793423442636 -1.1908981366649272 0 -1.1908981366649272 -14.59762513594173 0 0 0 0 -0.33559230416366859 0.44892853497276519 0 0.44892853497276519 -0.014604364766328343 0 0 0 0 -86.802902685696608 -7.7273884712088234 0 -7.7273884712088234 2.0806015387603907 0 0 0 0 -100.2716417236752 -18.334643533223389 0 -18.334643533223389 -5.458112149888823 0 0 0 0 -132.13619146088604 -11.745123586633111 0 -11.745123586633111 0.84454289719104025 0 0 0 0 0.46669140391168185 -13.360478258031996 0 -13.360478258031996 -20.645366793952157 0 0 0 0 -0.16413644153459472 0.14262203119304218 0 0.14262203119304218 -0.061074012311535752 0 0 0 0 -23.401176309838775 -31.718313238033961 0 -31.718313238033961 -23.455856558792668 0 0 0 0 -53.497250108608569 -37.153872182976386 0 -37.153872182976386 -7.8340984539473197 0 0 0 0 -36.201577432642807 -17.246598306382836 0 -17.246598306382836 -4.7579198020068265 0 0 0 0 -80.810920224961592 -17.373086227182139 0 -17.373086227182139 0.0061237539296139986 0 0 0 0 -139.0841093978961 -88.536177567471256 0 -88.536177567471256 -32.858524819654534 0 0 0 0 -61.347642260727298 -26.701685358071163 0 -26.701685358071163 -0.086445401391963148 0 0 0 0 -139.70884264959022 -86.938543899975258 0 -86.938543899975258 -32.285651690089225 0 0 0 0 -259.87380765409034 -60.42208978949818 0 -60.42208978949818 0.0040260006787611602 0 0 0 0 -285.46319600561401 -126.80075246210171 0 -126.80075246210171 -21.786482025851228 0 0 0 0 -456.70698148623705 -173.59050814156285 0 -173.59050814156285 -32.314280309889426 0 0 0 0 -311.8601203050639 -81.940972169545233 0 -81.940972169545233 5.2362034766703474 0 0 0 0 -313.63202551734139 -103.59245189751508 0 -103.59245189751508 10.84512989476832 0 0 0 0 -326.45897435484494 -15.68308759778118 0 -15.68308759778118 27.692100635797445 0 0 0 0 -373.53423836664297 -53.719575439069523 0 -53.719575439069523 0.10434201689431143 0 0 0 0 -319.97791114987467 53.017745722480655 0 53.017745722480655 48.436620925395474 0 0 0 0 -74.36207554108114 148.32740054524118 0 148.32740054524118 -77.543587867023433 0 0 0 0 -396.59698650563405 31.119103226202036 0 31.119103226202036 47.886349954615724 0 0 0 0 -389.89570374008326 -39.240344915573587 0 -39.240344915573587 23.564809762389217 0 0 0 0 -472.3238469541011 -0.60772151371602323 0 -0.60772151371602323 14.00372805221545 0 0 0 0 -720.90002001759422 -64.383149527544902 0 -64.383149527544902 8.6295960154700708 0 0 0 0 -573.41568704743986 165.7327030168384 0 165.7327030168384 -56.42838227295988 0 0 0 0 -3.9050653909882271 -3.074252285264194 0 -3.074252285264194 -2.8231227378332266 0 0 0 0 -1.4778461664672022 -1.8154457195052203 0 -1.8154457195052203 -1.2881360429194799 0 0 0 0 -120.92171933711506 -202.57037163983642 0 -202.57037163983642 -327.47083604530309 0 0 0 0 -20.438322452188004 -1.2459186959531507 0 -1.2459186959531507 -363.86891986053604 0 0 0 0 -440.19891980295506 -185.05603453383094 0 -185.05603453383094 -311.78509089272768 0 0 0 0 -309.25635623806738 -75.789184026857711 0 -75.789184026857711 37.586681728827926 0 0 0 0 -165.16783882935124 -89.529674933683594 0 -89.529674933683594 -88.179581614481719 0 0 0 0 -185.90862222110445 -68.918122814245947 0 -68.918122814245947 -90.534286808118367 0 0 0 0 -311.47780983919802 -32.212546128995527 0 -32.212546128995527 -132.00521198765318 0 0 0 0 -1010.0427735511767 -411.83382469168737 0 -411.83382469168737 0.46355852720340862 0 0 0 0 -3.4154624965780158 -1.4056338901529699 0 -1.4056338901529699 -0.46850090154378077 0 0 0 0 -1012.5504638952916 -403.05379547806399 0 -403.05379547806399 -29.569132015767082 0 0 0 0 -705.77386153834959 91.838326797237869 0 91.838326797237869 -16.122326689627585 0 0 0 0 -261.00453775917413 -191.95062759536893 0 -191.95062759536893 -10.124259768524311 0 0 0 0 -37.844242489314638 124.11593041786068 0 124.11593041786068 -85.449278906726022 0 0 0 0 58.21256568521494 -32.009840447052511 0 -32.009840447052511 -1.5865252322275865 0 0 0 0 76.867046100080188 -2.5071678031407032 0 -2.5071678031407032 -64.293681838212706 0 0 0 0 16.072686684245127 -26.323792527714037 0 -26.323792527714037 -0.015631979182629253 0 0 0 0 -36.330671628114942 44.437418788094938 0 44.437418788094938 -10.525323186605796 0 0 0 0 -160.61373745679157 -19.403018414409118 0 -19.403018414409118 -0.0097635003219560691 0 0 0 0 -76.357696057020803 -48.750930193866793 0 -48.750930193866793 5.7857162744309534 0 0 0 0 -6.5699755116704637 -3.4671658961388516 0 -3.4671658961388516 -1.5829645674818302 0 0 0 0 -8.8849738332719426 7.2373213796225855 0 7.2373213796225855 -114.25844183313097 0 0 0 0 -12.18683727897951 38.59470425325307 0 38.59470425325307 -198.49536087862975 0 0 0 0 34.568405946309213 -60.517058660586841 0 -60.517058660586841 -254.51585117354472 0 0 0 0 -0.27654125426488463 -41.556671383117305 0 -41.556671383117305 -156.14239143149393 0 0 0 0 31.982763417880051 -72.379981344286776 0 -72.379981344286776 -130.54871222154856 0 0 0 0 -20.331990921593388 -62.666116069929217 0 -62.666116069929217 -104.27778092295421 0 0 0 0 -9.1330654926227908 -1.0714895197958896 0 -1.0714895197958896 -0.32632596160591421 0 0 0 0 16.756174875510624 24.469507059550097 0 24.469507059550097 20.268723340151723 0 0 0 0 -25.210758978137164 75.521801747562449 0 75.521801747562449 -36.63925697986474 0 0 0 0 -320.16206050515757 34.941936513327391 0 34.941936513327391 45.748809384577498 0 0 0 0 -64.759041236942721 -44.846756849891278 0 -44.846756849891278 8.080316866999965 0 0 0 0 -49.477621450365405 1.7340328826834366 0 1.7340328826834366 41.481918694778756 0 0 0 0 -18.058966567089044 3.6029227588422756 0 3.6029227588422756 0.59544623151639664 0 0 0 0 -16.612016851686349 -63.83253448819886 0 -63.83253448819886 -109.64159906796908 0 0 0 0 -3.3209099931115702 -2.5206271292255309 0 -2.5206271292255309 2.2292166419433448 0 0 0 0 -51.864126127562486 -41.603425629523031 0 -41.603425629523031 -94.456695505412995 0 0 0 0 -77.171842824835039 -46.932391938387354 0 -46.932391938387354 -62.65146698666922 0 0 0 0 -2.9977696819933044 1.4530064904763123 0 1.4530064904763123 1.1897767605925464 0 0 0 0 -26.087659365685511 -4.0963309043687985 0 -4.0963309043687985 -3.1225324846729472 0 0 0 0 -278.52159245265648 207.86633969994969 0 207.86633969994969 -110.93856135931492 0 0 0 0 -32.935900739161298 15.812201756009358 0 15.812201756009358 33.454756899084259 0 0 0 0 -76.558474733723415 -49.598421172961551 0 -49.598421172961551 -53.334848866438676 0 0 0 0 -1198.4072367942426 -554.2780589095704 0 -554.2780589095704 27.413322932607002 0 0 0 0 -253.44193490847647 -490.12686675480438 0 -490.12686675480438 -325.27754737995247 0 0 0 0 -648.64063976908801 -505.74107656104769 0 -505.74107656104769 -39.656631261013672 0 0 0 0 -1306.3594324678415 27.673814619466157 0 27.673814619466157 -267.57785010145028 0 0 0 0 -632.90241482668353 -586.42685750437306 0 -586.42685750437306 -720.62561635880161 0 0 0 0 -186.98120476187614 257.40864889482486 0 257.40864889482486 -135.60877246313885 0 0 0 0 -83.060715417645952 -55.084270352193194 0 -55.084270352193194 -32.068783549903401 0 0 0 0 -80.952352895212243 -48.821781451433708 0 -48.821781451433708 17.435010854723259 0 0 0 0 -74.510793000310514 -47.746240496690817 0 -47.746240496690817 -10.249077790838328 0 0 0 0 -76.068509187112795 -60.685959761393178 0 -60.685959761393178 -16.307645168338638 0 0 0 0 -82.123153319000266 -40.840015035883198 0 -40.840015035883198 -4.6643040415610812 0 0 0 0 -100.2440702246131 -65.283962494663143 0 -65.283962494663143 -13.552501848142583 0 0 0 0 -93.847947468944767 -47.722835012285913 0 -47.722835012285913 -24.292990437010531 0 0 0 0 -84.904102726715792 -46.465325377861305 0 -46.465325377861305 -54.034904888086601 0 0 0 0 -82.629667055312893 -52.490810166198344 0 -52.490810166198344 -44.840890884273783 0 0 0 0 -67.924094720830908 -60.561078606631483 0 -60.561078606631483 -47.286981594163649 0 0 0 0 -67.03640850452939 -57.461164376176015 0 -57.461164376176015 -58.761528600444812 0 0 0 0 -70.213867464008217 -54.26438607245327 0 -54.26438607245327 -46.491369895052472 0 0 0 0 -72.910596722882474 -63.915375590602366 0 -63.915375590602366 -31.840174432803224 0 0 0 0 -58.466627893620171 -70.156748903726509 0 -70.156748903726509 -25.671899599428201 0 0 0 0 -56.355154493856389 -59.739408849054755 0 -59.739408849054755 -35.046583607303091 0 0 0 0 -30.870759092038497 -76.677990352181212 0 -76.677990352181212 -61.096812056171871 0 0 0 0 -38.462753946776502 -62.309605208489842 0 -62.309605208489842 -84.386982286375499 0 0 0 0 -31.236671021054462 -83.936716252668788 0 -83.936716252668788 -36.098220032301015 0 0 0 0 -45.75889403790643 -78.361102756067339 0 -78.361102756067339 -9.3243730952233363 0 0 0 0 -43.26287574548769 -77.629630273514195 0 -77.629630273514195 -36.291536775819168 0 0 0 0 -64.266810116445413 -45.259928169824434 0 -45.259928169824434 26.520047625575899 0 0 0 0 -62.693252505414421 -52.378051858556319 0 -52.378051858556319 -10.603288919560782 0 0 0 0 -70.700688525888836 -43.620221693444819 0 -43.620221693444819 27.864703491939508 0 0 0 0 -88.270867393825029 -44.3150234389243 0 -44.3150234389243 141.12240204068439 0 0 0 0 -69.823015517788008 -36.300670263497295 0 -36.300670263497295 78.644039878641252 0 0 0 0 -91.349058369305567 -37.518130667564378 0 -37.518130667564378 214.46982444066998 0 0 0 0 -106.16281576181063 21.938396717975593 0 21.938396717975593 188.05875683596309 0 0 0 0 -41.693864375149133 -91.373204827081892 0 -91.373204827081892 51.5307174368304 0 0 0 0 -58.34149693857762 -130.85890339104049 0 -130.85890339104049 101.98234696325017 0 0 0 0 -44.110629919086932 -101.34333775741413 0 -101.34333775741413 26.59578644648326 0 0 0 0 8.1394710664171726 -93.68396507996772 0 -93.68396507996772 -101.27736871673312 0 0 0 0 2.5464992207853356 -76.452754943808458 0 -76.452754943808458 -128.85675922903661 0 0 0 0 29.481235051789554 -161.4883706970511 0 -161.4883706970511 -48.929000586283337 0 0 0 0 16.291861473823701 -57.64880282657321 0 -57.64880282657321 -105.08049577104339 0 0 0 0 -93.558820530350204 -113.04813097836387 0 -113.04813097836387 -132.65788287400903 0 0 0 0 123.55829223606997 -191.90270843323776 0 -191.90270843323776 -24.193773453868516 0 0 0 0 -20.688409276655875 62.682583420289575 0 62.682583420289575 240.87059094536971 0 0 0 0 -54.658138824532216 -161.28930212805156 0 -161.28930212805156 351.33960499115165 0 0 0 0 96.781649558535719 -157.24710278196096 0 -157.24710278196096 109.2523290959607 0 0 0 0 -33.451936092989854 -16.665786765887525 0 -16.665786765887525 -6.5150493402140093 0 0 0 0 -14.165170245688927 -7.224187103403068 0 -7.224187103403068 -0.51764206034655214 0 0 0 0 -53.437661868338182 -184.70856084218207 0 -184.70856084218207 -171.31107188319947 0 0 0 0 -218.481172617845 -259.47159099961902 0 -259.47159099961902 -65.423778650612803 0 0 0 0 -10.872822432496633 -2.0894379689047469 0 -2.0894379689047469 0.2773547180579814 0 0 0 0 -207.37751976706852 202.12232944866702 0 202.12232944866702 -45.77794746136442 0 0 0 0 -77.765573488009977 -54.358879446320543 0 -54.358879446320543 -0.75525020843281254 0 0 0 0 -52.011847646252136 -22.938521095796887 0 -22.938521095796887 -33.879735040105288 0 0 0 0 -79.57700356701389 -28.460863728245386 0 -28.460863728245386 12.506356979768498 0 0 0 0 -26.189404605400341 7.4466347594773765 0 7.4466347594773765 35.894877713128153 0 0 0 0 -48.706192388162435 -18.017502800189384 0 -18.017502800189384 -1.5824232247559946 0 0 0 0 -4.7284393984367057 -9.420714881687104 0 -9.420714881687104 0.90993840384486901 0 0 0 0 -52.372321826296684 29.021673542362237 0 29.021673542362237 80.715487000294161 0 0 0 0 -43.484961045927776 -18.776824337313883 0 -18.776824337313883 119.42519839983197 0 0 0 0 -5.905307703481526 7.7624471873954448 0 7.7624471873954448 6.0147632599732939 0 0 0 0 -55.746926805885664 -8.5024293684858776 0 -8.5024293684858776 4.0076662521570761 0 0 0 0 -76.893004985307925 -31.435263205813044 0 -31.435263205813044 25.261106663689588 0 0 0 0 -71.32971060705313 11.887272430564735 0 11.887272430564735 59.214968633405306 0 0 0 0 -64.738918098883005 0.75324876472336655 0 0.75324876472336655 69.697474744712963 0 0 0 0 -76.528658725947025 -46.33505980191137 0 -46.33505980191137 19.5575031874655 0 0 0 0 -82.76565221666533 -43.568660251745769 0 -43.568660251745769 18.363753286730798 0 0 0 0 -97.648998155564186 -62.202843080895832 0 -62.202843080895832 7.7447971988840436 0 0 0 0 -53.212043971914682 1.1277823223820178 0 1.1277823223820178 29.283841286983716 0 0 0 0 -80.986117816319165 16.960286743190125 0 16.960286743190125 55.539451726383049 0 0 0 0 -139.78859317753813 0.88255410772580944 0 0.88255410772580944 39.74522008911697 0 0 0 0 -94.833497055580665 -35.507470953623624 0 -35.507470953623624 20.99251864025473 0 0 0 0 -63.545524053178866 -7.1461354481390416 0 -7.1461354481390416 8.6978646151595846 0 0 0 0 -54.41625407502579 -18.345096005531559 0 -18.345096005531559 -1.9186185307073629 0 0 0 0 -615.4706132147694 7.534761345871857 0 7.534761345871857 74.623730066427584 0 0 0 0 -300.54715048763319 32.884494244621237 0 32.884494244621237 9.8162621338086637 0 0 0 0 -345.64172035073716 0.25897304004624289 0 0.25897304004624289 55.265274435506399 0 0 0 0 -696.88981714972033 9.9477662848121611 0 9.9477662848121611 57.591740150811688 0 0 0 0 -506.16035363569972 174.10026904692259 0 174.10026904692259 -132.59122940050037 0 0 0 0 -220.89206483821908 18.95025439464672 0 18.95025439464672 250.78035022010613 0 0 0 0 -199.46654471034708 18.07153708275905 0 18.07153708275905 45.656904746032779 0 0 0 0 -540.08946243089304 124.82001617868093 0 124.82001617868093 122.5618974898191 0 0 0 0 -55.641365186957046 30.960273589269434 0 30.960273589269434 66.33478155373632 0 0 0 0 -112.16382818658894 -112.62520740532125 0 -112.62520740532125 102.4415432848848 0 0 0 0 34.39853072254482 -96.930976182672111 0 -96.930976182672111 -181.253586977738 0 0 0 0 144.71869172318839 -202.31804927390067 0 -202.31804927390067 -182.54968362169302 0 0 0 0 -626.61681274938746 222.39300078432291 0 222.39300078432291 25.696219009003414 0 0 0 0 71.960200885412632 -129.78748796131754 0 -129.78748796131754 -906.79258327600382 0 0 0 0 -11.091740498874685 -6.4044199669337729 0 -6.4044199669337729 -3.9275495680853898 0 0 0 0 -869.66875819524284 -304.92929206189228 0 -304.92929206189228 -48.31513026534833 0 0 0 0 -260.6376948258403 -93.458288436194607 0 -93.458288436194607 16.600656991692176 0 0 0 0 49.272157968116517 -44.797209638594722 0 -44.797209638594722 -589.06932019071178 0 0 0 0 24.699043903114216 34.916077837874354 0 34.916077837874354 173.61684013497779 0 0 0 0 -525.08051158464514 534.66774915412725 0 534.66774915412725 -248.1560001677085 0 0 0 0 -992.07191219831293 92.770755708687716 0 92.770755708687716 223.47934998175333 0 0 0 0 -605.99982930429542 -463.07027277010525 0 -463.07027277010525 -155.04955476932628 0 0 0 0 -410.90810375459841 -111.25169098958349 0 -111.25169098958349 313.8880582229358 0 0 0 0 -243.44163901645516 113.59165296518768 0 113.59165296518768 220.34052447429912 0 0 0 0 -388.35068327466433 355.45873888675715 0 355.45873888675715 226.39111836051688 0 0 0 0 -430.9748246707386 260.46479247797424 0 260.46479247797424 188.30286379967401 0 0 0 0 -47.360930860770168 -146.92573270077719 0 -146.92573270077719 -0.13325711444963417 0 0 0 0 -104.10900984616455 -181.49305904103358 0 -181.49305904103358 473.89134892231596 0 0 0 0 -32.026361141723953 -10.018184577605922 0 -10.018184577605922 0.38886998108414517 0 0 0 0 -26.385129822883755 -3.922208280754603 0 -3.922208280754603 7.1096540452999761 0 0 0 0 -10.441417488470819 9.1593873930650744 0 9.1593873930650744 3.9245492734216469 0 0 0 0 -33.729621518108161 -20.442524738422186 0 -20.442524738422186 0.52678756598913345 0 0 0 0 -57.572888957406235 -1.9028073178154088 0 -1.9028073178154088 3.42116086786808 0 0 0 0 -414.3346578164128 136.17983534677296 0 136.17983534677296 543.52762778689612 0 0 0 0 -53.836264903729898 21.14569667338219 0 21.14569667338219 32.570226067055728 0 0 0 0 -130.75729518920707 -18.46562289133999 0 -18.46562289133999 85.684390842382527 0 0 0 0 -203.9678138668678 59.008437001916718 0 59.008437001916718 24.106355327112396 0 0 0 0 -74.57829238074919 72.091121822516016 0 72.091121822516016 44.717779156469987 0 0 0 0 -40.939261322026141 34.639301818453532 0 34.639301818453532 -32.502182521731811 0 0 0 0 216.39673191784823 -122.05399803551563 0 -122.05399803551563 111.38235462299963 0 0 0 0 -140.90532009942399 104.17486558179007 0 104.17486558179007 -62.600196263299495 0 0 0 0 -9.7171239111621901 -7.1681514471851813 0 -7.1681514471851813 -6.1784143388208896 0 0 0 0 3.3228921285139847 -3.5718661483051761 0 -3.5718661483051761 -5.5113042291074716 0 0 0 0 -27.114550261845579 -31.343014745187247 0 -31.343014745187247 -10.327254500596609 0 0 0 0 131.82623002737819 -548.98290919160672 0 -548.98290919160672 380.57526395219975 0 0 0 0 -189.4709820105345 175.17931626059453 0 175.17931626059453 -137.27361606706381 0 0 0 0 -124.54487314006474 41.024677011516246 0 41.024677011516246 -10.97257905566039 0 0 0 0 0.47732903076385469 -0.69360639690060566 0 -0.69360639690060566 -1.6115386286117701 0 0 0 0 -371.42187910855864 223.63925255208505 0 223.63925255208505 -124.614282311235 0 0 0 0 162.40409503002593 85.714156408534109 0 85.714156408534109 -129.34971912170477 0 0 0 0 -552.364352928882 225.72353422374181 0 225.72353422374181 -143.77516537338465 0 0 0 0 -95.873764833915629 -167.5360913027198 0 -167.5360913027198 443.56999759699261 0 0 0 0 -31.904973851502291 -137.06746669706399 0 -137.06746669706399 28.017695425010515 0 0 0 0 441.95801480473165 -161.92790124335295 0 -161.92790124335295 -272.8897620570483 0 0 0 0 350.26375948536952 -506.43650799747707 0 -506.43650799747707 -72.571884324081566 0 0 0 0 -60.985609144649061 -348.30323775337354 0 -348.30323775337354 -82.745248665378767 0 0 0 0 -1.6887398165709158 -3.7121714539144932 0 -3.7121714539144932 -4.973044192219243 0 0 0 0 -778.02737005562813 98.316954512608845 0 98.316954512608845 -71.053559201582175 0 0 0 0 -736.64911837072577 -265.44370024848467 0 -265.44370024848467 -71.146549117739596 0 0 0 0 -195.65309429288027 -441.55408833639103 0 -441.55408833639103 -261.65820631347924 0 0 0 0 61.303669479908422 -201.05680818386782 0 -201.05680818386782 -325.63400003237803 0 0 0 0 -219.88089448462551 -147.78529351690389 0 -147.78529351690389 -132.38297575756951 0 0 0 0 -223.53468883375172 -219.6379345780845 0 -219.6379345780845 -132.84804350968807 0 0 0 0 -109.36588109249715 -167.90182759571053 0 -167.90182759571053 -121.64856688958298 0 0 0 0 -368.13467242894694 -146.20588902592135 0 -146.20588902592135 -61.886341119686222 0 0 0 0 -633.05756092604133 229.61131268935969 0 229.61131268935969 -131.39706762912465 0 0 0 0 -280.56591642502462 35.730800045691467 0 35.730800045691467 -126.09500037260113 0 0 0 0 -293.24544925137889 96.787671117386708 0 96.787671117386708 -145.12500892709886 0 0 0 0 -365.48692369168566 64.200843813649044 0 64.200843813649044 -25.857477436777117 0 0 0 0 -497.04742523134337 232.91734812795767 0 232.91734812795767 -184.68737993669811 0 0 0 0 -410.58606902392057 24.968648297752452 0 24.968648297752452 -66.058995307506848 0 0 0 0 -67.985807439807104 64.774633469361561 0 64.774633469361561 -22.699321223589777 0 0 0 0 -69.518341856666666 12.485966666414782 0 12.485966666414782 16.639559376829766 0 0 0 0 -212.09180713322712 42.224958391021573 0 42.224958391021573 24.485207192044982 0 0 0 0 -2.7474437753288612 3.4223594877649077 0 3.4223594877649077 -0.0046983454278972658 0 0 0 0 -193.93891062008333 -87.901853923591261 0 -87.901853923591261 9.3221715603454811 0 0 0 0 -92.225479852291755 9.2883938947211391 0 9.2883938947211391 -191.23545833277785 0 0 0 0 43.150191524916409 -68.425631773093869 0 -68.425631773093869 -191.20986292968155 0 0 0 0 -119.32750677845615 -152.2067805572633 0 -152.2067805572633 -85.476997566913269 0 0 0 0 -92.271670459595043 -86.432058662208419 0 -86.432058662208419 -22.926552654126681 0 0 0 0 -177.04517449869491 -249.91102198508219 0 -249.91102198508219 -160.47971712698472 0 0 0 0 -2.7174911291136539 -2.3436293276012137 0 -2.3436293276012137 1.2230720878444314 0 0 0 0 -227.78422222905374 -193.44044541362314 0 -193.44044541362314 -30.986615839439764 0 0 0 0 -92.829205334608559 -105.99129710183342 0 -105.99129710183342 -4.2796934471789427 0 0 0 0 -3.7022902359285581 1.7290650814160813 0 1.7290650814160813 1.4927109385724613 0 0 0 0 -180.7658259531745 -111.33803058515514 0 -111.33803058515514 2.7429241791410277 0 0 0 0 -216.45628480300365 -127.77856139935517 0 -127.77856139935517 -44.680436437707613 0 0 0 0 -171.73301007508417 -165.20102121944547 0 -165.20102121944547 -13.371629610428499 0 0 0 0 -174.95534317840429 -162.36658645323337 0 -162.36658645323337 50.924084895857959 0 0 0 0 -147.57296660233987 -41.399199139204029 0 -41.399199139204029 19.812875277906642 0 0 0 0 -174.4688738446639 -127.95265585962488 0 -127.95265585962488 28.584046653459154 0 0 0 0 -159.02732873776404 -42.210325140715213 0 -42.210325140715213 36.228861954719832 0 0 0 0 -160.52499453199562 -41.995049762913368 0 -41.995049762913368 41.845917130316593 0 0 0 0 -167.67666138568802 -173.4325007802762 0 -173.4325007802762 -80.793818969699714 0 0 0 0 -86.752406510458968 -67.919347253393425 0 -67.919347253393425 -84.886270971624981 0 0 0 0 -180.78518649406033 81.711697388375796 0 81.711697388375796 82.884956604055333 0 0 0 0 -265.44237288468867 -18.355725362097473 0 -18.355725362097473 -32.512223067569721 0 0 0 0 -24.699056160752662 -188.33142781234437 0 -188.33142781234437 -2.7452752658027748 0 0 0 0 -173.54573015561618 -93.652612558063993 0 -93.652612558063993 -59.656429958808985 0 0 0 0 -132.46753942365467 -216.83955261605115 0 -216.83955261605115 -64.490970966861823 0 0 0 0 -165.16658290938358 -117.92620069024315 0 -117.92620069024315 24.113178692630754 0 0 0 0 -191.28870682379056 -142.25478864017532 0 -142.25478864017532 234.70667030957338 0 0 0 0 -99.067029849145911 34.180801036480261 0 34.180801036480261 134.53536480502316 0 0 0 0 -2.2011543884675859 0.027247109428060412 0 0.027247109428060412 3.4730495595046378 0 0 0 0 -31.794380945939338 -156.57561174184684 0 -156.57561174184684 45.921488684579344 0 0 0 0 -177.84380949984188 -75.505331338807991 0 -75.505331338807991 202.84672490207777 0 0 0 0 -78.950616484884449 -63.903266614900815 0 -63.903266614900815 -0.81284866472924477 0 0 0 0 -39.344685079032445 -17.18732993204668 0 -17.18732993204668 4.4631404875796603 0 0 0 0 -88.121177604696641 -66.483298599650084 0 -66.483298599650084 -26.251994804726564 0 0 0 0 -85.014386677954462 -42.719100848874405 0 -42.719100848874405 19.973879342253895 0 0 0 0 -21.076505938181597 -12.75751129588123 0 -12.75751129588123 -0.41998076873998968 0 0 0 0 -56.66024244124128 -32.313201354852254 0 -32.313201354852254 -8.2560667817242575 0 0 0 0 -46.665603939768772 -27.636084176090407 0 -27.636084176090407 -4.815886604684529 0 0 0 0 -36.945228418516251 -16.579967873183442 0 -16.579967873183442 1.1873566546973748 0 0 0 0 -50.113177901788731 -50.392472518730983 0 -50.392472518730983 30.339364836358527 0 0 0 0 -58.832547352308666 -5.0525670397824314 0 -5.0525670397824314 -4.0705872478988567 0 0 0 0 -52.902766332430275 -8.4435950663556767 0 -8.4435950663556767 2.2756566277420727 0 0 0 0 112.70459500078869 -114.54285585068055 0 -114.54285585068055 -100.43290798189628 0 0 0 0 -48.559438991171191 -281.7854852583373 0 -281.7854852583373 31.542534690196362 0 0 0 0 -164.6694500517624 -58.492939807392759 0 -58.492939807392759 54.710470301564783 0 0 0 0 -82.440572193811732 -39.586010184958141 0 -39.586010184958141 -13.453740096984721 0 0 0 0 -171.07322859931446 -73.950838048269361 0 -73.950838048269361 19.309924066569494 0 0 0 0 -141.09480016047019 -55.605347158266341 0 -55.605347158266341 -60.624758166656648 0 0 0 0 -16.218957747600427 -32.871403671471484 0 -32.871403671471484 -14.883626826858539 0 0 0 0 -32.028876406562631 -21.862029107650415 0 -21.862029107650415 -0.47029885365918744 0 0 0 0 2.6982682551131063 -6.2231374129798098 0 -6.2231374129798098 -5.3925877590826392 0 0 0 0 5.0898649052160749 -6.3957756119832148 0 -6.3957756119832148 -4.1766230632364207 0 0 0 0 -11.433846414060099 -18.83830047156448 0 -18.83830047156448 -18.681252924499631 0 0 0 0 33.562182513669541 -256.12273546729671 0 -256.12273546729671 -236.80939436604274 0 0 0 0 -125.93314623442711 -176.66975499815203 0 -176.66975499815203 -116.58429408812754 0 0 0 0 -1.5022577872296097 -9.849034855053219 0 -9.849034855053219 -11.161564170013662 0 0 0 0 -1.0650467279762665 -6.3079838377907009 0 -6.3079838377907009 -2.026708045176008 0 0 0 0 -9.7060704635368893 -10.659874655599197 0 -10.659874655599197 -10.909422344137795 0 0 0 0 -42.504892135642876 -23.265898711008731 0 -23.265898711008731 -8.3728947540339504 0 0 0 0 -32.351958468585508 -19.211218174566397 0 -19.211218174566397 -7.2448594872139438 0 0 0 0 -30.983502137009054 -16.999788147813888 0 -16.999788147813888 -3.6754572156896756 0 0 0 0 -34.669857880930067 -21.224150990784665 0 -21.224150990784665 -4.7010528407222409 0 0 0 0 -34.017529774813738 -20.014861499838162 0 -20.014861499838162 -2.6980070085274974 0 0 0 0 -26.790998797825182 -9.5862343276480999 0 -9.5862343276480999 -2.8912776761019003 0 0 0 0 -69.886820829859062 -41.802703682928495 0 -41.802703682928495 -311.44225772965149 0 0 0 0 -4.6797277074604438 1.5595455906523767 0 1.5595455906523767 -7.9258412834592926 0 0 0 0 -46.399647671310959 -10.183582314444948 0 -10.183582314444948 -2.0784511432755153 0 0 0 0 -44.78961686004186 -7.7889210539792657 0 -7.7889210539792657 1.2590542382527019 0 0 0 0 -37.190807158236566 -5.8723219522319141 0 -5.8723219522319141 -0.25836784939747304 0 0 0 0 -38.914108144389559 -8.1900321523635498 0 -8.1900321523635498 -0.45208523288081226 0 0 0 0 -40.85479910803042 -0.24634787848071937 0 -0.24634787848071937 -2.7096393323508892 0 0 0 0 -48.903063011159247 -7.593824502311918 0 -7.593824502311918 2.603506597478713 0 0 0 0 -38.466638467310986 0.33137778880268343 0 0.33137778880268343 7.2014968127796237 0 0 0 0 -33.576554391620448 -5.7050015576292026 0 -5.7050015576292026 1.2823198222454266 0 0 0 0 -26.799284246410167 4.0471075911308958 0 4.0471075911308958 4.1761103325778723 0 0 0 0 -47.532747540157288 0.31454520522748908 0 0.31454520522748908 8.6852352645613848 0 0 0 0 -30.774413800967608 -0.035065060895384192 0 -0.035065060895384192 4.799193076147775 0 0 0 0 -14.304515576520874 1.6099829023643935 0 1.6099829023643935 6.8993174197457394 0 0 0 0 -37.190064158945461 5.4395173906626155 0 5.4395173906626155 13.607619139518476 0 0 0 0 -50.629449698717508 1.7488473483961684 0 1.7488473483961684 10.505781248760741 0 0 0 0 -47.801717517417273 1.5499188637892303 0 1.5499188637892303 3.1369053570779215 0 0 0 0 -48.320431995845865 17.167739172942674 0 17.167739172942674 24.792218914051773 0 0 0 0 -45.28656408648385 -3.0388789719775104 0 -3.0388789719775104 14.603927210203437 0 0 0 0 -11.058745688506498 -2.0333644372730078 0 -2.0333644372730078 0.76763885943868004 0 0 0 0 -18.204242271953262 3.5134176951755762 0 3.5134176951755762 10.365322662958079 0 0 0 0 -40.724555719205121 0.9893892433844087 0 0.9893892433844087 12.513213175040889 0 0 0 0 -40.936627216593479 5.0845104935913241 0 5.0845104935913241 -3.9582202935121131 0 0 0 0 -33.40851765904705 0.85650243818652427 0 0.85650243818652427 11.07707896618694 0 0 0 0 -20.629699893364887 0.91232500010198692 0 0.91232500010198692 14.842440847631224 0 0 0 0 -28.870984535348384 3.3067461052697595 0 3.3067461052697595 5.0113701715957868 0 0 0 0 -31.283756642754781 0.34360143999739989 0 0.34360143999739989 2.7233790339933037 0 0 0 0 -50.216499405883951 2.0133250201843111 0 2.0133250201843111 37.478510303711573 0 0 0 0 -29.488619691292115 5.1925564879549029 0 5.1925564879549029 11.008226346006722 0 0 0 0 -64.625323743981426 10.078748811781225 0 10.078748811781225 36.525675728208341 0 0 0 0 -53.204381229959836 18.088863997054432 0 18.088863997054432 28.544422873473195 0 0 0 0 -64.43997342637158 28.684992381564371 0 28.684992381564371 21.2651985120551 0 0 0 0 -45.378356170527695 -4.4909881854960076 0 -4.4909881854960076 1.4139164654975502 0 0 0 0 -60.136393143657187 20.55871380021722 0 20.55871380021722 -12.294653300912614 0 0 0 0 -40.631208634634504 -11.713643377765251 0 -11.713643377765251 3.5565994687613802 0 0 0 0 -70.580951078372891 22.752663550415491 0 22.752663550415491 15.895154805475613 0 0 0 0 -35.894509879568943 5.4439240066254229 0 5.4439240066254229 15.989061244691481 0 0 0 0 -60.029294184401806 -16.399307858211046 0 -16.399307858211046 -42.021702324352191 0 0 0 0 -79.012810469306714 23.475340542472622 0 23.475340542472622 -12.713473204070397 0 0 0 0 -70.328688270822397 1.1617822160722255 0 1.1617822160722255 5.7600753194729268 0 0 0 0 -72.704493222212477 5.9567237374149045 0 5.9567237374149045 6.1525748074618605 0 0 0 0 -66.598233713127229 7.6047932089484789 0 7.6047932089484789 96.277602808635493 0 0 0 0 -51.480297726321709 -2.1560044511280623 0 -2.1560044511280623 7.6678697387193804 0 0 0 0 -48.831494470810867 -41.433163952233372 0 -41.433163952233372 -37.226107743696502 0 0 0 0 -65.61070173313783 -34.979239080916614 0 -34.979239080916614 61.088480333364714 0 0 0 0 -27.730923620292742 9.5116020476229437 0 9.5116020476229437 5.8983471867741173 0 0 0 0 -25.123078426498978 -12.93046120861618 0 -12.93046120861618 7.6112857773709948 0 0 0 0 -113.96374196431884 149.62921725317682 0 149.62921725317682 -684.58826344106978 0 0 0 0 -632.38141340359289 299.23786101949258 0 299.23786101949258 -422.9258776239526 0 0 0 0 -114.61470107619243 161.089169639597 0 161.089169639597 -416.55138038476434 0 0 0 0 -261.00871945112885 248.33153397879346 0 248.33153397879346 -445.86856310913464 0 0 0 0 -435.61579213549703 1.2033181023980433 0 1.2033181023980433 -491.54909068882216 0 0 0 0 -274.24432559913112 116.96273848451375 0 116.96273848451375 -605.17559199132108 0 0 0 0 -682.18117200148845 1014.0405094809742 0 1014.0405094809742 -994.43079676711147 0 0 0 0 -2632.3160318237242 348.75537745379791 0 348.75537745379791 14.152869468983681 0 0 0 0 -1671.8210674251532 219.80024904043933 0 219.80024904043933 14.393449087636535 0 0 0 0 -898.37757884518214 -202.37208511298729 0 -202.37208511298729 -59.01269582310556 0 0 0 0 -832.46485672445124 -9.7502594368459086 0 -9.7502594368459086 -54.764399631238106 0 0 0 0 -2094.4292195164671 -412.3560647317542 0 -412.3560647317542 371.93154683747343 0 0 0 0 -1459.8574934672506 -190.00905713714701 0 -190.00905713714701 130.1763275515043 0 0 0 0 -1479.80509292434 -652.10747562096037 0 -652.10747562096037 -0.87575918920174445 0 0 0 0 -646.77158015220266 -285.38314533446953 0 -285.38314533446953 276.46215154179208 0 0 0 0 586.50716645309149 303.67291233299352 0 303.67291233299352 -129.06563309227579 0 0 0 0 -294.85222289765807 -14.098239600188208 0 -14.098239600188208 122.56618138485101 0 0 0 0 139.05412080667156 40.360610743526195 0 40.360610743526195 -356.49562137092084 0 0 0 0 24.769523316790583 273.09266789430603 0 273.09266789430603 -447.09338557906187 0 0 0 0 -43.117038359559956 379.95120829569458 0 379.95120829569458 -153.81699099141633 0 0 0 0 -126.74603602733987 172.13916156894686 0 172.13916156894686 -94.252565353041973 0 0 0 0 -107.66692521153891 98.807023760532502 0 98.807023760532502 187.5318285224821 0 0 0 0 -74.000716393013136 8.5013461803928294 0 8.5013461803928294 84.081356197777154 0 0 0 0 -58.490751404469847 103.41854381098642 0 103.41854381098642 -190.70012448260331 0 0 0 0 -32.017911063579959 109.805387575753 0 109.805387575753 -189.21845387850237 0 0 0 0 -51.047000464292069 -112.46990493301564 0 -112.46990493301564 180.00826094205604 0 0 0 0 149.40849060469918 -18.389377193982 0 -18.389377193982 -355.01132983072148 0 0 0 0 -16.748366714661785 9.125160562188718 0 9.125160562188718 -5.8701700346843868 0 0 0 0 -157.2927059950016 515.96382071988455 0 515.96382071988455 -944.55216681826823 0 0 0 0 85.566402973476215 277.17956812680097 0 277.17956812680097 -686.61648813478268 0 0 0 0 -247.79970285543095 510.4402989740604 0 510.4402989740604 -537.87711791101128 0 0 0 0 -591.95928941094462 838.19674121766457 0 838.19674121766457 -666.82376699404313 0 0 0 0 -293.33717623636767 473.99963875747397 0 473.99963875747397 -518.44752539813396 0 0 0 0 -58.520461121901462 402.48999339172599 0 402.48999339172599 -505.26062422237351 0 0 0 0 -129.86249369071447 311.74225319494337 0 311.74225319494337 -328.17888868254386 0 0 0 0 2.3345167836014298 132.30085565233287 0 132.30085565233287 -319.60046800671239 0 0 0 0 -632.40322076843586 1058.1491879482091 0 1058.1491879482091 -891.38735419101727 0 0 0 0 -700.74376127857249 929.12226592001571 0 929.12226592001571 -293.68023824816134 0 0 0 0 -1023.7656827501487 930.1449179777519 0 930.1449179777519 -685.10916878847513 0 0 0 0 -1494.0150691316612 1331.303224975763 0 1331.303224975763 866.84588403947851 0 0 0 0 -970.36312761581212 590.90130067731957 0 590.90130067731957 -346.36572023526764 0 0 0 0 -1092.205430952803 566.94830770236922 0 566.94830770236922 -339.40396339658309 0 0 0 0 -736.12256091315066 587.97207276190693 0 587.97207276190693 -387.03688162562457 0 0 0 0 -1109.0491286550241 467.80559215666017 0 467.80559215666017 -313.45868545047688 0 0 0 0 -1245.1566714531655 319.24014326355496 0 319.24014326355496 -363.13528942055063 0 0 0 0 -1525.0677063847543 561.87460481405776 0 561.87460481405776 33.973561336240437 0 0 0 0 -1366.2577390769147 159.38334228181066 0 159.38334228181066 -197.21554353576721 0 0 0 0 -2809.9806130772922 -272.35502665492754 0 -272.35502665492754 -337.05289070252445 0 0 0 0 -1377.8489017005195 216.02103482300708 0 216.02103482300708 -320.60600799613712 0 0 0 0 -1562.4969358828384 -1096.1499817975343 0 -1096.1499817975343 -886.0668762658554 0 0 0 0 -2401.1884525371897 -1621.5843150839996 0 -1621.5843150839996 -1127.4781319459962 0 0 0 0 -1.3607150363324649 0.94386025247554173 0 0.94386025247554173 -1.5214626993170381 0 0 0 0 -1556.6809272304527 782.54422733666343 0 782.54422733666343 -208.94646481694099 0 0 0 0 -1367.6154353320308 906.58114678722256 0 906.58114678722256 -499.50902538662422 0 0 0 0 -783.76495139923645 -320.52194266527158 0 -320.52194266527158 230.24370626319097 0 0 0 0 -5.6850704007483728 -4.8111200574838335 0 -4.8111200574838335 -10.3666778557822 0 0 0 0 -3.4114375999952244 -3.6057654259224705 0 -3.6057654259224705 -10.087747422558095 0 0 0 0 -4.6338469089403702 -5.2982173603558493 0 -5.2982173603558493 -7.1722100758042018 0 0 0 0 0.69578121184591168 1.5256994151442917 0 1.5256994151442917 -2.3023784625167094 0 0 0 0 -608.71906194266921 -536.37423391597031 0 -536.37423391597031 -1365.500641928578 0 0 0 0 -198.22688202941208 -297.42723111751161 0 -297.42723111751161 -521.69438404527796 0 0 0 0 -52.818178982925019 -177.03171191639422 0 -177.03171191639422 -444.10210361442296 0 0 0 0 -630.67993601564376 -247.46645992230879 0 -247.46645992230879 -223.08112305973123 0 0 0 0 -422.12494961172342 -144.56556700795522 0 -144.56556700795522 -403.35658462194442 0 0 0 0 -213.93259591117385 -146.48021695872512 0 -146.48021695872512 -206.63252105323818 0 0 0 0 -302.64122414106532 -142.1877072816676 0 -142.1877072816676 137.10245133755598 0 0 0 0 -729.71170268631977 74.832996626927979 0 74.832996626927979 -41.577053369574969 0 0 0 0 -547.47121239978878 7.3101683209380326 0 7.3101683209380326 -171.33449463832039 0 0 0 0 -1208.1192277644441 -231.04243320876822 0 -231.04243320876822 -229.712272048469 0 0 0 0 -487.32112448531552 -361.62785402545677 0 -361.62785402545677 -580.14758396430898 0 0 0 0 -867.69086209355737 174.88126597031305 0 174.88126597031305 -203.75270895509288 0 0 0 0 -994.59518641192699 354.65494945244905 0 354.65494945244905 -208.84022937044665 0 0 0 0 -942.18347071243625 338.5253082904112 0 338.5253082904112 -243.44243239267234 0 0 0 0 -645.19391417136285 458.09675285477078 0 458.09675285477078 -235.16741616050558 0 0 0 0 -545.50432204529352 238.69853925693087 0 238.69853925693087 -182.47019544607133 0 0 0 0 -281.24781565179001 279.30963662788292 0 279.30963662788292 -147.51564487770202 0 0 0 0 11.331894079892663 193.33299123657571 0 193.33299123657571 113.52652041753799 0 0 0 0 -466.10899228723792 51.115027500957012 0 51.115027500957012 85.784515965919127 0 0 0 0 -470.25201215814741 163.81407092858126 0 163.81407092858126 -13.565376497625039 0 0 0 0 -75.762729808135191 -325.30442055457797 0 -325.30442055457797 33.033683478726289 0 0 0 0 -66.23044743725481 -27.281057145432193 0 -27.281057145432193 -10.976204200077715 0 0 0 0 -257.70812314676004 -269.69764695848357 0 -269.69764695848357 472.23510656095277 0 0 0 0 -192.46465818477373 342.87865444835563 0 342.87865444835563 -329.77606264370615 0 0 0 0 -260.52732715477759 430.90560960044286 0 430.90560960044286 -357.01960576317788 0 0 0 0 -307.87376711120305 489.7752317131517 0 489.7752317131517 -398.01311491572767 0 0 0 0 -400.62072758330032 609.38461650986301 0 609.38461650986301 -499.78614255953448 0 0 0 0 -590.79766976460814 422.81830275285677 0 422.81830275285677 -291.6354322322718 0 0 0 0 -172.77209812362707 116.72483675190961 0 116.72483675190961 -0.99178312016374548 0 0 0 0 -399.77190769078516 417.03501413915455 0 417.03501413915455 -158.5502557015061 0 0 0 0 -484.7683627561637 233.54982742736229 0 233.54982742736229 -221.21225400218577 0 0 0 0 -328.45595261266135 321.67447563153314 0 321.67447563153314 -186.67986271124391 0 0 0 0 -1074.7142508533507 380.80129363017977 0 380.80129363017977 -156.13778679021334 0 0 0 0 33.502690458772122 -292.39699945581606 0 -292.39699945581606 100.97426662810994 0 0 0 0 270.92041742978472 287.82331925502012 0 287.82331925502012 -511.88834242221492 0 0 0 0 -4.361388159054286 -3.0972177154346117 0 -3.0972177154346117 1.6164534405277564 0 0 0 0 -1927.8143712559104 77.32640797057411 0 77.32640797057411 1032.6667686766432 0 0 0 0 -14.282334596216003 -4.6159657203241693 0 -4.6159657203241693 -2.2965155201606446 0 0 0 0 32.343795116947149 -89.422976202579775 0 -89.422976202579775 -91.497538424086542 0 0 0 0 -169.93855596300273 -140.74974089022544 0 -140.74974089022544 -3.2771097539871334 0 0 0 0 33.817351213045185 -30.751568364880768 0 -30.751568364880768 -314.67435251994539 0 0 0 0 -41.310082935548934 -16.800828063234022 0 -16.800828063234022 -6.8718166766558539 0 0 0 0 -359.59509826237627 31.872524722168919 0 31.872524722168919 332.47653648432151 0 0 0 0 98.858659426448867 -276.77220528535781 0 -276.77220528535781 -117.20130679588874 0 0 0 0 -11.480689105694182 -14.614986730342025 0 -14.614986730342025 68.08435737942159 0 0 0 0 -16.74045578994992 -111.8259440922825 0 -111.8259440922825 -12.545397649861115 0 0 0 0 -92.057454020279692 -80.515820167243419 0 -80.515820167243419 -18.000080445754065 0 0 0 0 -31.961635838233633 -100.13124091994177 0 -100.13124091994177 -12.17242177274602 0 0 0 0 -92.354205336108862 -86.607489581795335 0 -86.607489581795335 13.127357863080761 0 0 0 0 -61.48331822817272 -116.89828545258842 0 -116.89828545258842 34.027250750480562 0 0 0 0 -6.0410383389419167 -2.7405993306630236 0 -2.7405993306630236 4.1472332910078844 0 0 0 0 -75.973533897027664 -117.54744861059271 0 -117.54744861059271 371.58519776071626 0 0 0 0 -6.3607602043057909 -7.0947038876993496 0 -7.0947038876993496 4.5789314624141388 0 0 0 0 -164.07404344613315 -102.9061360800788 0 -102.9061360800788 -40.029676663268674 0 0 0 0 -22.177194133713783 1.5097971838131343 0 1.5097971838131343 9.3030440133716183 0 0 0 0 -48.024710404439247 -33.670790769732321 0 -33.670790769732321 1.1801531130204239 0 0 0 0 -209.68939468693861 83.176283539231463 0 83.176283539231463 -25.243034287483169 0 0 0 0 -5.7319782006379683 -5.0379948732349931 0 -5.0379948732349931 17.61304950200207 0 0 0 0 -1.4068443031125852 -0.33789411635099498 0 -0.33789411635099498 13.614154698675858 0 0 0 0 -72.022136081190183 25.140802595609856 0 25.140802595609856 13.776163976210682 0 0 0 0 1.5194689607887994 -9.9426223069841058 0 -9.9426223069841058 -5.6408871857966005 0 0 0 0 -166.93697486103338 -692.22451655878376 0 -692.22451655878376 -660.89369489713545 0 0 0 0 -199.49360028696537 -82.25743527129589 0 -82.25743527129589 -66.634146338951723 0 0 0 0 -219.7712758941525 -99.4035313719437 0 -99.4035313719437 126.25446080443362 0 0 0 0 -510.28736967386794 164.43489516157342 0 164.43489516157342 89.97758758439204 0 0 0 0 -253.59552338412323 12.947101307299818 0 12.947101307299818 164.90507974646562 0 0 0 0 -525.77891523539438 -169.17594212915947 0 -169.17594212915947 556.87792427002387 0 0 0 0 40.787860019081563 -310.27070623129521 0 -310.27070623129521 143.81666486553149 0 0 0 0 -660.26534496698878 -756.10688673070536 0 -756.10688673070536 -871.12689147115134 0 0 0 0 -666.15684018546017 -732.03608963539057 0 -732.03608963539057 -878.74334962303215 0 0 0 0 -51.736685922398095 35.329615603286712 0 35.329615603286712 -16.7165169634102 0 0 0 0 48.038616730412258 635.99949259099685 0 635.99949259099685 644.3409491891025 0 0 0 0 -674.40798707435897 -782.12817351790841 0 -782.12817351790841 -905.83707927929765 0 0 0 0 -662.36677817458985 -740.15943139280739 0 -740.15943139280739 -907.80621399293068 0 0 0 0 -675.9319774711621 -785.42030137077086 0 -785.42030137077086 -839.68148253042636 0 0 0 0 -1018.8632698626534 -413.46593344198851 0 -413.46593344198851 -654.65424329867631 0 0 0 0 -653.68666564558225 -742.56716999545927 0 -742.56716999545927 -941.11158433717992 0 0 0 0 -1361.0932026582013 -247.68098682375694 0 -247.68098682375694 946.91261981291018 0 0 0 0 261.96463643705647 -62.667300528937631 0 -62.667300528937631 -683.86840090690202 0 0 0 0 503.56440301373368 198.45087347500521 0 198.45087347500521 -862.64150763015095 0 0 0 0 208.56790092242591 114.144198391793 0 114.144198391793 -1058.4344125431726 0 0 0 0 409.73560610530058 714.26042657756022 0 714.26042657756022 441.27632312732294 0 0 0 0 -39.372284800072919 30.416906770342862 0 30.416906770342862 -20.432142271205748 0 0 0 0 0.73961664339731215 26.379993274136268 0 26.379993274136268 -735.52431923617087 0 0 0 0 343.32981747082522 -319.56167273776691 0 -319.56167273776691 -403.52121988336057 0 0 0 0 -417.07789641747513 -70.344140493325995 0 -70.344140493325995 -95.576009907503703 0 0 0 0 -790.15904467481596 -609.47878844340312 0 -609.47878844340312 -762.3360256639678 0 0 0 0 -21.563598789633943 -271.12763506569007 0 -271.12763506569007 -316.60289718127115 0 0 0 0 -2842.2704839074177 152.78313000865228 0 152.78313000865228 -532.54056842765567 0 0 0 0 -3179.3141045094453 -935.98457242680388 0 -935.98457242680388 -355.68402788824102 0 0 0 0 402.9314531759519 562.88595955985784 0 562.88595955985784 -942.50939099847255 0 0 0 0 -15.98549753443254 11.5427031572343 0 11.5427031572343 -10.006222146754297 0 0 0 0 -1688.3075017222145 -732.07365425208195 0 -732.07365425208195 -344.40309703272226 0 0 0 0 -2375.2430646803432 -320.04425455584061 0 -320.04425455584061 -534.15242309098403 0 0 0 0 -1024.0956248450893 -533.5746957994869 0 -533.5746957994869 -955.69594211699143 0 0 0 0 -1578.3689043003615 -155.68160637096122 0 -155.68160637096122 -1116.3662644958076 0 0 0 0 -1060.4965429571494 -452.48078451625111 0 -452.48078451625111 -756.33393445844399 0 0 0 0 -1236.8531673832331 -769.28201473676052 0 -769.28201473676052 -1150.0102562347909 0 0 0 0 -2202.4310260820348 -628.8812617823711 0 -628.8812617823711 -619.89229706691594 0 0 0 0 -2616.3003734166814 483.87088513129322 0 483.87088513129322 -251.94184033912188 0 0 0 0 -1526.7398798882423 143.67781281994911 0 143.67781281994911 -105.10933231777017 0 0 0 0 -838.65464210158098 -210.70749676791206 0 -210.70749676791206 -496.39157124579373 0 0 0 0 -1005.9970007158554 479.21933266264432 0 479.21933266264432 -252.70345520454066 0 0 0 0 -890.09853536395531 49.461276614188606 0 49.461276614188606 -91.617279410069614 0 0 0 0 -661.65455222447054 161.01436745540622 0 161.01436745540622 -39.292352406771897 0 0 0 0 -465.31439781724475 -464.36339945464022 0 -464.36339945464022 -231.40066404655312 0 0 0 0 -813.29258516894333 60.568486695075308 0 60.568486695075308 238.26521233076119 0 0 0 0 -486.84166266894317 -276.53233296563212 0 -276.53233296563212 -364.5274924557981 0 0 0 0 -1030.2593600277178 -668.57141192589552 0 -668.57141192589552 -647.07871963785863 0 0 0 0 -685.21743108688679 -753.93253479236159 0 -753.93253479236159 -770.13853986905156 0 0 0 0 -613.96126434362668 -711.67229735103263 0 -711.67229735103263 -776.181589473602 0 0 0 0 -567.88705763315193 -1023.6367448973283 0 -1023.6367448973283 -554.02769316635681 0 0 0 0 15.473009211447788 -519.90437303289468 0 -519.90437303289468 -377.79017092326404 0 0 0 0 -848.39136680131196 -1134.7404054498757 0 -1134.7404054498757 97.251547732515633 0 0 0 0 -526.95575342685333 -886.57724126970948 0 -886.57724126970948 -534.00591624287517 0 0 0 0 533.18408586489386 -52.586349949179748 0 -52.586349949179748 349.75994233454173 0 0 0 0 -256.25366221365402 -644.53662618547094 0 -644.53662618547094 -14.837602423145427 0 0 0 0 152.2551925504813 -1161.0348610002968 0 -1161.0348610002968 90.325410997506651 0 0 0 0 -14.066845193623351 -3.945074499341672 0 -3.945074499341672 -0.42273581134225147 0 0 0 0 35.021478137845406 297.11000054422033 0 297.11000054422033 -681.97634323219006 0 0 0 0 -820.9957553218992 957.05464111247852 0 957.05464111247852 -999.40173010372939 0 0 0 0 -40.215680289793141 -11.253730270291086 0 -11.253730270291086 2.6393876531598659 0 0 0 0 55.109945405289182 -857.19080175863951 0 -857.19080175863951 1247.416091404843 0 0 0 0 -230.75945387572574 -275.95336099626604 0 -275.95336099626604 1312.9648164717103 0 0 0 0 21.832206862600287 -234.22560432503178 0 -234.22560432503178 491.77228869715168 0 0 0 0 -198.49747769144597 -384.3287736873898 0 -384.3287736873898 864.37159521923945 0 0 0 0 -373.08078971103532 -168.64046571962115 0 -168.64046571962115 538.85498450223588 0 0 0 0 -22.256670174974715 9.4680553085719481 0 9.4680553085719481 565.44096684011777 0 0 0 0 417.59433787461603 36.358435941489915 0 36.358435941489915 503.49180401516196 0 0 0 0 607.6241203660029 -528.78669713497175 0 -528.78669713497175 563.40256251269739 0 0 0 0 -243.78812313394155 -147.80533414549467 0 -147.80533414549467 680.35591227438499 0 0 0 0 -590.43083407238009 -32.357267888758997 0 -32.357267888758997 734.31242051382685 0 0 0 0 -596.16515553526551 -33.710805990646627 0 -33.710805990646627 679.02785985653702 0 0 0 0 -324.21261019448866 97.737726639480741 0 97.737726639480741 686.84325528886143 0 0 0 0 -767.76917301330832 -32.007719400348947 0 -32.007719400348947 659.75657261201559 0 0 0 0 -756.61211158602964 -56.077796431822208 0 -56.077796431822208 706.62045066767621 0 0 0 0 -647.20137833934859 55.660211898041865 0 55.660211898041865 643.21748059771369 0 0 0 0 -703.86123636475531 115.63551000790969 0 115.63551000790969 520.21875566732808 0 0 0 0 -733.35148308992211 -23.755701511041536 0 -23.755701511041536 578.80203497472985 0 0 0 0 -610.13871763079078 -13.646218684414549 0 -13.646218684414549 466.44427647302069 0 0 0 0 -445.60719781252556 122.52958711258265 0 122.52958711258265 569.54202978432431 0 0 0 0 -653.56101741938619 161.51316722221247 0 161.51316722221247 426.4411743156154 0 0 0 0 -660.38366938044783 81.620984789643501 0 81.620984789643501 230.5731737044166 0 0 0 0 -868.2537230720045 138.5686131943047 0 138.5686131943047 242.94333548966074 0 0 0 0 -471.12460172300052 -93.809016360887767 0 -93.809016360887767 233.69091382636248 0 0 0 0 -5.7191879474230518 -62.448712773395556 0 -62.448712773395556 93.159032468000532 0 0 0 0 -370.45864130072005 -356.63068212481153 0 -356.63068212481153 464.09936713525406 0 0 0 0 -322.50147558040044 77.658902719375078 0 77.658902719375078 427.03127915204533 0 0 0 0 -69.556145185575588 -52.42855107143464 0 -52.42855107143464 -26.604780307411602 0 0 0 0 -113.38435997720808 -17.620851692560109 0 -17.620851692560109 4.3590084278007453 0 0 0 0 -0.9506569664427218 -21.599984449482292 0 -21.599984449482292 -11.798548782956807 0 0 0 0 -21.14166964260221 6.7290485768289727 0 6.7290485768289727 19.794716797995534 0 0 0 0 -13.337411419639565 -3.3718791992705945 0 -3.3718791992705945 15.241637941497878 0 0 0 0 -37.209684504196048 -44.169906496912063 0 -44.169906496912063 50.860272252777577 0 0 0 0 -17.43288706166544 -6.4354123546448392 0 -6.4354123546448392 1.879405304576844 0 0 0 0 -26.57021455028007 -24.474790781275487 0 -24.474790781275487 -3.3234302945595573 0 0 0 0 6.1501665641990257 5.5292536110705441 0 5.5292536110705441 -16.653876887743479 0 0 0 0 -125.16864704880572 -8.4979755308950189 0 -8.4979755308950189 41.734646342572887 0 0 0 0 -216.59853291720356 -79.178022903113913 0 -79.178022903113913 91.033535039134222 0 0 0 0 -129.17241123577696 -113.62587053221158 0 -113.62587053221158 -87.000746822806306 0 0 0 0 -53.548588622965781 24.130059100709175 0 24.130059100709175 8.294398320052327 0 0 0 0 -862.34730597742964 -636.94175017327518 0 -636.94175017327518 -903.97667063282438 0 0 0 0 -865.32311691531504 -673.98588065226704 0 -673.98588065226704 -737.44221804152949 0 0 0 0 308.51705729226524 -295.95698777021835 0 -295.95698777021835 -470.72868498570597 0 0 0 0 -165.79347476942348 157.51374243903479 0 157.51374243903479 -71.405324922380714 0 0 0 0 -5.0914899562971243 -1.1843984886656393 0 -1.1843984886656393 0.59735658892543864 0 0 0 0 -996.30908222626022 -924.24750167788386 0 -924.24750167788386 -519.70916477935202 0 0 0 0 -541.77430827150238 420.87007092127897 0 420.87007092127897 -222.74550765707863 0 0 0 0 -1025.2684573314909 -759.67776727148475 0 -759.67776727148475 -703.03840816722186 0 0 0 0 -55.809311381643568 31.487600640139149 0 31.487600640139149 -5.722514850385684 0 0 0 0 -1335.7504078227212 -624.74712379142716 0 -624.74712379142716 -422.29279073921953 0 0 0 0 -1014.4021224560129 -978.75949238340058 0 -978.75949238340058 -272.62486628859381 0 0 0 0 -1220.7295611661975 -696.167832851051 0 -696.167832851051 -627.27825908774344 0 0 0 0 -1104.0477506612806 -355.87637964502255 0 -355.87637964502255 -1140.7281993731433 0 0 0 0 -930.6044398729864 -890.54643808241269 0 -890.54643808241269 -1267.3375116175212 0 0 0 0 -1093.3467504866276 -232.01253533611225 0 -232.01253533611225 -183.88601734813528 0 0 0 0 -94.31621767274919 -394.37161425747672 0 -394.37161425747672 -158.38392977833126 0 0 0 0 -1894.7331798034793 -643.31254355309636 0 -643.31254355309636 -380.63167226746668 0 0 0 0 -678.22710786896641 -622.20457248449736 0 -622.20457248449736 -108.11549902494119 0 0 0 0 -756.13033364392322 -989.68889049573704 0 -989.68889049573704 -683.95745690713329 0 0 0 0 -660.64735814114101 -834.07913203329986 0 -834.07913203329986 -844.55116578831417 0 0 0 0 -874.02920082228957 -701.44487532025175 0 -701.44487532025175 -734.95939404850185 0 0 0 0 -125.14009489455353 -27.852579879687973 0 -27.852579879687973 -26.617972218888099 0 0 0 0 -965.57814533064084 -806.28446594094476 0 -806.28446594094476 -559.70669767674713 0 0 0 0 -623.21893468414783 -1046.4340616967131 0 -1046.4340616967131 -394.50201224983903 0 0 0 0 -114.30923169462039 -53.314586126454856 0 -53.314586126454856 -18.361490190809491 0 0 0 0 -940.65327066123791 -903.22837667255158 0 -903.22837667255158 -407.27927085532525 0 0 0 0 -1189.3583648056956 -677.47689210224451 0 -677.47689210224451 -468.75014843990471 0 0 0 0 -49.880780747167961 13.535811085281267 0 13.535811085281267 21.364870742432444 0 0 0 0 2.2839049603288117 -19.92823935901427 0 -19.92823935901427 -26.849007116217511 0 0 0 0 -4.4748880705430309 -3.3303292294946232 0 -3.3303292294946232 -0.54387388054000241 0 0 0 0 -613.92787480089464 420.53615655314132 0 420.53615655314132 641.45217938893313 0 0 0 0 -1104.1829095752328 -197.57499063295705 0 -197.57499063295705 -129.70184815258204 0 0 0 0 -113.89864054310601 -66.877547991487063 0 -66.877547991487063 -36.278567521812874 0 0 0 0 -1845.7953758750809 -544.11111943828962 0 -544.11111943828962 99.455260844423719 0 0 0 0 -1790.5246282120934 -761.55941968364402 0 -761.55941968364402 13.041548971860493 0 0 0 0 -1347.1164173154684 -374.8320901806037 0 -374.8320901806037 33.875598683324739 0 0 0 0 -1507.8157754845452 -812.13036558604983 0 -812.13036558604983 37.534254621718588 0 0 0 0 -1455.1298201052705 -604.7104453220195 0 -604.7104453220195 343.14562471703948 0 0 0 0 -1490.3031595958382 -656.88757146034368 0 -656.88757146034368 -155.97040519942107 0 0 0 0 -1321.6685114363863 -905.00829270764302 0 -905.00829270764302 -312.40004103684942 0 0 0 0 -1034.6893685271207 -833.37353156465542 0 -833.37353156465542 -376.37212820165536 0 0 0 0 -264.44578305269533 -762.5146900692971 0 -762.5146900692971 -393.32378013374716 0 0 0 0 -1013.4722313516304 -964.7928524522481 0 -964.7928524522481 -165.20870236285862 0 0 0 0 -15.174071854747297 -0.78451043272708532 0 -0.78451043272708532 0.40240768034028629 0 0 0 0 -596.88889048881538 226.25828771962938 0 226.25828771962938 495.53779976208409 0 0 0 0 -1095.1202506644477 -1118.7685202406956 0 -1118.7685202406956 -441.78444248030996 0 0 0 0 -23.757185003174527 160.50824397788472 0 160.50824397788472 566.92297217478642 0 0 0 0 -856.89483456760354 -756.50742491944959 0 -756.50742491944959 47.350288446387708 0 0 0 0 -612.87565502306097 -74.571590033359286 0 -74.571590033359286 1281.3092183373578 0 0 0 0 -369.76000281018787 -120.64919521154462 0 -120.64919521154462 306.9283076346037 0 0 0 0 -382.78530101676006 -341.14995226929886 0 -341.14995226929886 934.11336934996643 0 0 0 0 -484.12096162140369 -438.37602856516543 0 -438.37602856516543 376.15724106333414 0 0 0 0 88.160844434198225 -118.21609956419903 0 -118.21609956419903 505.21245352260701 0 0 0 0 350.19520002510399 654.97062577678355 0 654.97062577678355 1789.8092817358799 0 0 0 0 19.744171063968679 -483.21996074189656 0 -483.21996074189656 963.76938714628045 0 0 0 0 459.5205488774518 -353.21271616744383 0 -353.21271616744383 652.94976836775925 0 0 0 0 -6.9779329005976223 -0.46345917736087472 0 -0.46345917736087472 2.8176582023221495 0 0 0 0 -34.539701697285636 -111.44743537115028 0 -111.44743537115028 261.60696787165693 0 0 0 0 58.562856514377927 -126.03462941067455 0 -126.03462941067455 77.937781046884254 0 0 0 0 -33.271983935392313 3.5473996417263827 0 3.5473996417263827 2.351210154596985 0 0 0 0 91.607918271780363 -104.99228864207919 0 -104.99228864207919 78.755670589181307 0 0 0 0 12.1448745896123 -221.13635196214074 0 -221.13635196214074 -0.11803639271304692 0 0 0 0 -282.42575383464282 -3.2905246011094675 0 -3.2905246011094675 64.900403761275584 0 0 0 0 36.778659420728218 -129.38027231872709 0 -129.38027231872709 88.53634336770682 0 0 0 0 -575.29916813082673 -261.65119484685596 0 -261.65119484685596 0.078559456534967043 0 0 0 0 -755.61087653590948 -159.08116679815791 0 -159.08116679815791 229.81053105334493 0 0 0 0 -1570.2592368132682 -453.32978910080624 0 -453.32978910080624 212.93023744619524 0 0 0 0 -1733.7848288898531 -275.79725619422629 0 -275.79725619422629 -195.19179176886632 0 0 0 0 -1389.0102527776326 297.52555878615505 0 297.52555878615505 -277.56234227336222 0 0 0 0 -826.09481936579687 52.024329996304971 0 52.024329996304971 -114.11763760570017 0 0 0 0 -1142.5550637839187 -145.49904644944777 0 -145.49904644944777 18.44818231319914 0 0 0 0 -1004.9196486585424 237.71170435033434 0 237.71170435033434 -165.59894929271763 0 0 0 0 -1108.648740159726 299.88358332003156 0 299.88358332003156 0.28449652939718817 0 0 0 0 -260.59373505279655 260.23235198091299 0 260.23235198091299 -251.2503997183527 0 0 0 0 -766.54547902713966 684.38907228298604 0 684.38907228298604 -526.89449652470569 0 0 0 0 -1023.2374225064123 809.70745312368206 0 809.70745312368206 -559.41244610009028 0 0 0 0 -1736.1722351898206 423.27501138412561 0 423.27501138412561 -148.74854597403512 0 0 0 0 -729.8496145317331 10.364593076376877 0 10.364593076376877 618.824570938541 0 0 0 0 2933.8964753930632 -3266.2610510939589 0 -3266.2610510939589 2430.0124884592324 0 0 0 0 -1828.9554617511603 839.61113945931379 0 839.61113945931379 -468.97158959224942 0 0 0 0 -995.56424255532329 -2963.9118341483063 0 -2963.9118341483063 3779.4599022869861 0 0 0 0 -22.26527783225248 -10.115016444725924 0 -10.115016444725924 1.0973022148692371 0 0 0 0 -14.850637159389748 -7.667791464077311 0 -7.667791464077311 2.0563529417275617 0 0 0 0 -478.26921434383257 78.298629090763143 0 78.298629090763143 636.84313418270676 0 0 0 0 -898.91139976878185 -88.935040046753784 0 -88.935040046753784 658.57727284650446 0 0 0 0 -777.30611034632602 -68.530945697601169 0 -68.530945697601169 662.38338561471392 0 0 0 0 -788.53448109305464 -86.805468440259688 0 -86.805468440259688 652.62239441276415 0 0 0 0 -810.05312195210718 -57.558360923905411 0 -57.558360923905411 698.9768204100269 0 0 0 0 -599.67746735466062 -1.8755499000887994 0 -1.8755499000887994 667.90696775186143 0 0 0 0 -791.10197564641567 -35.894724884981258 0 -35.894724884981258 709.05326779127427 0 0 0 0 -145.53755968972109 148.87528763832381 0 148.87528763832381 642.49534815986863 0 0 0 0 -562.72217831976013 1027.2014498889687 0 1027.2014498889687 976.37512065047713 0 0 0 0 4361.6075336078648 -3200.1118078694126 0 -3200.1118078694126 -815.33312112378394 0 0 0 0 -1924.5514165760542 -1017.9421297881313 0 -1017.9421297881313 -1572.8027333929817 0 0 0 0 -2584.1641903064155 24.239662492859452 0 24.239662492859452 -284.64561903078038 0 0 0 0 -627.01966077703401 98.11550063983259 0 98.11550063983259 -658.45803208825146 0 0 0 0 -188.42017330808449 820.70485652873629 0 820.70485652873629 240.67831008936582 0 0 0 0 -11.014082193275442 2.9885961836702322 0 2.9885961836702322 -0.068756296351105028 0 0 0 0 -674.11585055625255 100.59247326488239 0 100.59247326488239 168.87256691533821 0 0 0 0 -333.67170101212105 659.01444642472916 0 659.01444642472916 1406.5376090418545 0 0 0 0 -29.455660781959523 3.1576679390639022 0 3.1576679390639022 2.079362042895744 0 0 0 0 -331.70202930503001 48.120033238635948 0 48.120033238635948 716.06286182306985 0 0 0 0 -513.93695235138966 319.60102907200451 0 319.60102907200451 610.44359486228655 0 0 0 0 551.55689945035556 477.80468288705276 0 477.80468288705276 620.86589015790378 0 0 0 0 -51.627026965514233 115.04548230244909 0 115.04548230244909 2455.5391142155086 0 0 0 0 -6.3635824177531219 1.7719607585168262 0 1.7719607585168262 4.1773843928193628 0 0 0 0 -23.451990367859253 85.335085699545516 0 85.335085699545516 79.928484382064582 0 0 0 0 43.619364801954362 -9.6662943359245759 0 -9.6662943359245759 -66.152796541525277 0 0 0 0 -496.71781514497707 -301.85061417502891 0 -301.85061417502891 -84.150111652500186 0 0 0 0 14.810707500073477 -29.252667999528171 0 -29.252667999528171 -109.14680737617334 0 0 0 0 -380.74285909035825 -219.22543800750373 0 -219.22543800750373 -118.58721019525517 0 0 0 0 -81.858553026875597 76.555556448021946 0 76.555556448021946 2.3050690669501819 0 0 0 0 0.36374741233805707 -0.41161273158468248 0 -0.41161273158468248 1.0884905259159632 0 0 0 0 218.16184483864345 -181.11018190865809 0 -181.11018190865809 0.13023154631111056 0 0 0 0 -496.6988506870839 31.428134454814231 0 31.428134454814231 0.21817601824126626 0 0 0 0 -300.70095888145443 -116.90688861030218 0 -116.90688861030218 -12.019391290771198 0 0 0 0 -354.3609968468154 -2.5768366411738306 0 -2.5768366411738306 -46.016751895092696 0 0 0 0 -668.44157963020552 -5.0709428244857264 0 -5.0709428244857264 62.90925146724058 0 0 0 0 -637.92877552307255 78.434028669393427 0 78.434028669393427 69.738373493352611 0 0 0 0 -487.90789866112027 -113.00855253583401 0 -113.00855253583401 34.5724898902983 0 0 0 0 -636.26858201373398 -41.228790640429949 0 -41.228790640429949 55.093632552248678 0 0 0 0 -643.5152051012119 -63.17434355176276 0 -63.17434355176276 -3.9230570757063106 0 0 0 0 -971.69835349990171 108.92046903314974 0 108.92046903314974 77.002145921817274 0 0 0 0 -734.12905831363787 324.61864167091238 0 324.61864167091238 -96.039963359400929 0 0 0 0 -756.85578810816514 184.7245199782592 0 184.7245199782592 30.871520239834879 0 0 0 0 -624.60621278084727 93.445538779500566 0 93.445538779500566 0.10563193208408482 0 0 0 0 -503.31466700411693 207.42373371692005 0 207.42373371692005 -6.1039195560781536 0 0 0 0 -221.6395331438689 102.10041441436795 0 102.10041441436795 -33.283214976668368 0 0 0 0 -289.04519085152424 88.999572242884753 0 88.999572242884753 -0.052120755450616417 0 0 0 0 -50.384755318344105 58.200552564132067 0 58.200552564132067 359.56294839638144 0 0 0 0 -156.04558076248577 31.294462459154897 0 31.294462459154897 -42.255245244268124 0 0 0 0 -37.715449516317278 -4.3806868766669282 0 -4.3806868766669282 12.219964795134796 0 0 0 0 -328.95913703634869 159.37858772051152 0 159.37858772051152 -134.3653257197862 0 0 0 0 -389.13916393861291 176.02704533477643 0 176.02704533477643 -43.053961324166991 0 0 0 0 -246.2405423411692 239.84960307626935 0 239.84960307626935 -128.97203685876502 0 0 0 0 -159.97458163261763 -657.93439963465153 0 -657.93439963465153 1280.9547334195886 0 0 0 0 -1513.5765080295678 1207.7209416917981 0 1207.7209416917981 1161.2940486250614 0 0 0 0 -36.115524025565236 -11.141140819656229 0 -11.141140819656229 9.5494572989333566 0 0 0 0 -566.7857144298323 -448.98000559660795 0 -448.98000559660795 144.62691894938393 0 0 0 0 -35.506666747760391 29.896694536300544 0 29.896694536300544 363.49337995425412 0 0 0 0 -125.23854413875961 84.862105855547725 0 84.862105855547725 514.29400691195951 0 0 0 0 -161.30364151603862 -134.41153653892786 0 -134.41153653892786 287.62281306788282 0 0 0 0 -319.36278413471518 143.96183221780598 0 143.96183221780598 496.3046417472342 0 0 0 0 -398.72073753188306 38.584983321735308 0 38.584983321735308 416.51920521869124 0 0 0 0 -455.17721918533425 -138.76300240503556 0 -138.76300240503556 383.31855074532177 0 0 0 0 -424.02207560976967 64.967139251875778 0 64.967139251875778 389.0494029364977 0 0 0 0 -703.94959329449921 -105.30009786199207 0 -105.30009786199207 408.17625150391109 0 0 0 0 -702.65076003227296 -117.99358344178569 0 -117.99358344178569 505.75644073801323 0 0 0 0 -747.80862814738066 -213.63008074254367 0 -213.63008074254367 513.02435616719299 0 0 0 0 -773.0612385047134 -149.06265433317367 0 -149.06265433317367 506.81022559793684 0 0 0 0 -772.90405862301122 -142.0811398272408 0 -142.0811398272408 611.32268940666154 0 0 0 0 -874.20471361390082 -110.68234613833647 0 -110.68234613833647 673.65011567893544 0 0 0 0 -859.12615114638902 -195.69293644285088 0 -195.69293644285088 578.03815723842035 0 0 0 0 -767.70234735342092 -237.15191519823111 0 -237.15191519823111 596.02720807985952 0 0 0 0 -1055.9070114243659 -170.06400407632736 0 -170.06400407632736 620.36012402698816 0 0 0 0 -977.33314134831744 -317.27147028255217 0 -317.27147028255217 570.92035994030357 0 0 0 0 -1113.0769153423062 -367.64439037488177 0 -367.64439037488177 568.46739963260916 0 0 0 0 -638.72022160849883 -247.91269098174553 0 -247.91269098174553 322.06967625372863 0 0 0 0 223.9525308101729 216.11378026282159 0 216.11378026282159 431.16457463569736 0 0 0 0 -89.407513474987354 460.68784319360873 0 460.68784319360873 277.95505519906237 0 0 0 0 -131.69724765421415 193.31596448823234 0 193.31596448823234 318.41599745608323 0 0 0 0 -263.9335232993908 181.34595979367032 0 181.34595979367032 369.62545540782253 0 0 0 0 -326.39690385536232 245.99861112163421 0 245.99861112163421 537.46793747735637 0 0 0 0 -121.23423404779169 157.67081263143245 0 157.67081263143245 325.19028670139869 0 0 0 0 61.441437459849112 293.43874111409968 0 293.43874111409968 411.94434261484594 0 0 0 0 91.448313190693625 541.89209683411593 0 541.89209683411593 645.4886880650929 0 0 0 0 -17.83774069887761 16.393481026094278 0 16.393481026094278 -10.801426300016487 0 0 0 0 -71.871318652488299 90.179789628506398 0 90.179789628506398 -81.754072894029719 0 0 0 0 -26.30602265787843 22.245953595820438 0 22.245953595820438 -14.145217428547239 0 0 0 0 -69.057921096886275 61.068449026981597 0 61.068449026981597 -28.384351039894 0 0 0 0 -43.806334501277888 88.79279494270304 0 88.79279494270304 346.64921121331736 0 0 0 0 -23.888616447715322 7.7109440479743343 0 7.7109440479743343 -0.0049190170008761164 0 0 0 0 -44.340138129220577 -12.885300646539779 0 -12.885300646539779 5.3071533735889096 0 0 0 0 -5.184191159257125 4.8604930228500791 0 4.8604930228500791 -2.6897173428121914 0 0 0 0 -8.6763497510472405 -1.2454694307199929 0 -1.2454694307199929 2.7896241418825278 0 0 0 0 -47.829013968411346 19.823794726380299 0 19.823794726380299 -77.520557533603096 0 0 0 0 -388.06282211714279 155.46346243038766 0 155.46346243038766 -0.016273992518974462 0 0 0 0 -752.54561114188982 61.016775074657915 0 61.016775074657915 137.93059119183039 0 0 0 0 -749.54827297368911 93.98108999809466 0 93.98108999809466 8.9549439751942828 0 0 0 0 -402.26369399132818 -85.333907231555997 0 -85.333907231555997 -10.561019122048947 0 0 0 0 -1169.7673045193806 296.38555786200317 0 296.38555786200317 51.114913834552908 0 0 0 0 -977.3598312138638 231.06960553122181 0 231.06960553122181 0.06766558174524373 0 0 0 0 -1179.4630257190729 200.17293474094743 0 200.17293474094743 108.71291495717702 0 0 0 0 -1069.6613217902195 162.53111019528652 0 162.53111019528652 119.43013294593254 0 0 0 0 -1666.0250497650704 319.44425186758031 0 319.44425186758031 217.03982961684346 0 0 0 0 -1679.330446903652 291.33863251553942 0 291.33863251553942 272.72303428461237 0 0 0 0 -1357.741454246001 374.91419149850287 0 374.91419149850287 201.84225321449958 0 0 0 0 -1381.737974850962 160.09237372685578 0 160.09237372685578 141.93805759898896 0 0 0 0 -1813.0560718943889 -0.32154382310795881 0 -0.32154382310795881 152.935536283901 0 0 0 0 -1233.2414184919908 99.522633903054725 0 99.522633903054725 161.21319263911289 0 0 0 0 -994.63680992083391 121.27094230202516 0 121.27094230202516 -8.4169851763786028 0 0 0 0 -1173.1881990034599 20.861513290371249 0 20.861513290371249 -24.91922114588192 0 0 0 0 -702.28266101470581 -67.432552826865532 0 -67.432552826865532 -67.190515058270648 0 0 0 0 -676.86663971468806 -53.201516848857864 0 -53.201516848857864 -59.303234495361039 0 0 0 0 -1063.225825388683 32.572603503006349 0 32.572603503006349 -23.698328630937226 0 0 0 0 -1830.9375077282893 -186.32459354907587 0 -186.32459354907587 177.03853795972918 0 0 0 0 -1174.3688888940087 -246.10802107518305 0 -246.10802107518305 50.543591216378445 0 0 0 0 -861.28138964514073 -569.13442603037629 0 -569.13442603037629 304.46432184561945 0 0 0 0 -2007.7535468779388 -307.15853589065182 0 -307.15853589065182 1099.9705497411574 0 0 0 0 -1963.9195892660646 -376.0222633101107 0 -376.0222633101107 266.48014011030864 0 0 0 0 -2903.3723253088538 772.24762208913853 0 772.24762208913853 -200.69235541832404 0 0 0 0 -2868.3030504064664 372.78579722597499 0 372.78579722597499 357.89582020259968 0 0 0 0 -873.66757301437246 -243.20373845879769 0 -243.20373845879769 -31.251418582458427 0 0 0 0 -475.47998925071442 44.663550730366296 0 44.663550730366296 -24.783726350501212 0 0 0 0 -1126.158432649012 278.00722921834847 0 278.00722921834847 -20.390335485898959 0 0 0 0 -992.76473497328698 145.08471193555908 0 145.08471193555908 102.63938856401074 0 0 0 0 -598.12324699456622 358.2477501529508 0 358.2477501529508 -82.079266652133811 0 0 0 0 -1692.258021763002 522.20170915147764 0 522.20170915147764 106.73445655898308 0 0 0 0 744.45004137392971 1031.5511606840003 0 1031.5511606840003 170.14579851421604 0 0 0 0 -2035.2768075245258 -335.14266765275488 0 -335.14266765275488 69.735147297554818 0 0 0 0 -7.1378008565474715 6.3967615364958306 0 6.3967615364958306 -4.3655382436165091 0 0 0 0 -305.20787081088929 943.06151885292888 0 943.06151885292888 199.9760172442318 0 0 0 0 -909.40370496033574 747.72898131005309 0 747.72898131005309 242.73268031808232 0 0 0 0 -1168.2691704600238 -17.095941205562809 0 -17.095941205562809 765.05047302962362 0 0 0 0 159.85421661645523 627.447961128727 0 627.447961128727 -268.27833326490099 0 0 0 0 -40.062663245433839 -7.4288336877324781 0 -7.4288336877324781 7.4285591744568968 0 0 0 0 -560.90118456825076 -279.97966687470608 0 -279.97966687470608 670.27904416906949 0 0 0 0 -1292.8845739679236 94.388209297338562 0 94.388209297338562 308.76047745928622 0 0 0 0 -3192.8792927446484 830.60010300950296 0 830.60010300950296 470.08957253313196 0 0 0 0 -93.133394115764531 572.94686666399491 0 572.94686666399491 -449.21574869467349 0 0 0 0 -212.61283108267526 587.51752849123352 0 587.51752849123352 -184.53501460642133 0 0 0 0 -147.11997363956471 368.61703063225838 0 368.61703063225838 -76.138427951072572 0 0 0 0 -262.87032136994094 642.85879637648816 0 642.85879637648816 258.8678182890547 0 0 0 0 -2529.8711885451194 2326.5070505741623 0 2326.5070505741623 -1305.5628846756254 0 0 0 0 -1881.943901267332 1172.366309192937 0 1172.366309192937 -1651.7790233642208 0 0 0 0 -3747.1422947198007 1422.5787126105508 0 1422.5787126105508 -410.08867256504072 0 0 0 0 -1894.7218549633399 738.4145228071061 0 738.4145228071061 -338.61733478244321 0 0 0 0 -19.278775198086066 -2.8120776118263677 0 -2.8120776118263677 2.5305004914674978 0 0 0 0 -2093.331751378224 2026.8217658545937 0 2026.8217658545937 -1461.1711741991091 0 0 0 0 -687.02195724114426 -1197.4475339950295 0 -1197.4475339950295 1158.156731813488 0 0 0 0 433.43437679595081 -698.9858283315084 0 -698.9858283315084 120.37275642945536 0 0 0 0 -1003.9851040073263 1339.0456537317825 0 1339.0456537317825 -1259.1305872237226 0 0 0 0 -682.05513721180614 873.12855202755179 0 873.12855202755179 -616.31921135380162 0 0 0 0 -1030.2931692940183 1118.386970098906 0 1118.386970098906 -606.56142794417042 0 0 0 0 -1524.2568080165802 704.53345250731036 0 704.53345250731036 -522.80833514490394 0 0 0 0 -1943.5619785296003 906.23986891671382 0 906.23986891671382 -271.45079688623252 0 0 0 0 -11.0989096097328 212.9990235537739 0 212.9990235537739 -65.184775417239507 0 0 0 0 -1158.7315038506713 304.29163445537768 0 304.29163445537768 46.033130118148108 0 0 0 0 -749.64604510879144 548.67099605073076 0 548.67099605073076 -211.23980210656418 0 0 0 0 -1200.6636488618533 998.49618308062679 0 998.49618308062679 -213.85125152423279 0 0 0 0 -1143.9454892776193 1129.6248414455956 0 1129.6248414455956 -397.91912314499245 0 0 0 0 -1188.9079071100277 896.45796064363913 0 896.45796064363913 -495.51446753033372 0 0 0 0 -944.06270072740153 1005.8749270579332 0 1005.8749270579332 -478.67492055081885 0 0 0 0 -244.24888987321174 491.96008317918034 0 491.96008317918034 -467.19824665169017 0 0 0 0 -757.33382245167741 224.04986603812642 0 224.04986603812642 522.5693872919137 0 0 0 0 -62.911682985864616 -8.1582798844250632 0 -8.1582798844250632 0.22927546191117987 0 0 0 0 -14.262815393901775 -2.8799556076828878 0 -2.8799556076828878 1.1983289323051012 0 0 0 0 158.11674429461709 -818.95518729181299 0 -818.95518729181299 1267.8560747218603 0 0 0 0 -30.552983920992745 -5.6682854957338833 0 -5.6682854957338833 6.4201347166804528 0 0 0 0 1448.2132884706225 -472.28524434914652 0 -472.28524434914652 301.43586481517218 0 0 0 0 -1849.7447954232666 754.65347765647402 0 754.65347765647402 -38.801972761928027 0 0 0 0 -1733.0102943236197 863.77104648075033 0 863.77104648075033 -202.07187183743258 0 0 0 0 -1175.5660815160663 681.2796405599247 0 681.2796405599247 -572.13323195182716 0 0 0 0 -960.02348755701678 759.63265106503854 0 759.63265106503854 -603.13230945053272 0 0 0 0 -1347.091613304503 1618.3259882347656 0 1618.3259882347656 -1311.0935455789663 0 0 0 0 -2625.978259031137 1127.8536412380863 0 1127.8536412380863 -31.098467678730003 0 0 0 0 -2495.6491846615827 297.83544063344652 0 297.83544063344652 -72.134286847717249 0 0 0 0 -665.7177093767823 811.41224664590379 0 811.41224664590379 -193.5416518424754 0 0 0 0 -463.34897514033946 98.159179661263806 0 98.159179661263806 106.02978121952106 0 0 0 0 -30.456340068314432 -10.319013111361734 0 -10.319013111361734 0.31804279914507028 0 0 0 0 -343.78291467708186 532.81338218542578 0 532.81338218542578 -630.74954130388574 0 0 0 0 393.80333497401443 -913.06413536820526 0 -913.06413536820526 1297.0640542388323 0 0 0 0 -275.04470300904359 -432.15327761668277 0 -432.15327761668277 607.32732176428635 0 0 0 0 293.67933030005952 -159.73331860754558 0 -159.73331860754558 -607.32447372819217 0 0 0 0 110.06370533051086 -534.40541021905915 0 -534.40541021905915 -123.62628788886872 0 0 0 0 -332.30586922832299 614.94028890473191 0 614.94028890473191 -439.88027232058971 0 0 0 0 -494.43570873259887 342.49580002356231 0 342.49580002356231 -740.52729447271759 0 0 0 0 -635.86496765777702 566.85456969270558 0 566.85456969270558 -473.77757665111039 0 0 0 0 -520.76386033778908 433.16805360367016 0 433.16805360367016 -480.03980977948095 0 0 0 0 -557.65221223831759 765.3677902972122 0 765.3677902972122 -1186.7314025157882 0 0 0 0 -890.76611566444626 490.82395244612349 0 490.82395244612349 -388.54452870621185 0 0 0 0 -690.78997472730407 468.7872213660977 0 468.7872213660977 -621.8568644996576 0 0 0 0 -594.8131303350383 403.71757740640487 0 403.71757740640487 -501.51870802801807 0 0 0 0 -794.84446008823579 582.5651547634202 0 582.5651547634202 -571.94431653512834 0 0 0 0 -456.73886220506392 482.0769977161508 0 482.0769977161508 -1062.1835819281887 0 0 0 0 -870.80539642044459 477.99628168823938 0 477.99628168823938 -539.73730461645755 0 0 0 0 -1063.6410956562613 717.77273227677551 0 717.77273227677551 -642.38792574876356 0 0 0 0 -10.557975142026407 -0.92252146309128591 0 -0.92252146309128591 2.9825599689964815 0 0 0 0 1435.4129801699601 -608.64129026247156 0 -608.64129026247156 896.88474006382785 0 0 0 0 -1644.7654376203136 699.49072581699966 0 699.49072581699966 -412.54428023853416 0 0 0 0 -1046.5177140899177 1108.9944984108174 0 1108.9944984108174 -1025.3528719660881 0 0 0 0 -94.587805161456345 351.09610309095615 0 351.09610309095615 385.4423304317138 0 0 0 0 -33.420038886779139 -11.191871159233614 0 -11.191871159233614 -1.0949977080397924 0 0 0 0 -2210.6154223501508 -106.84648568757348 0 -106.84648568757348 1145.7790542619994 0 0 0 0 -297.15368697144731 -272.17556714338411 0 -272.17556714338411 -232.64380792898532 0 0 0 0 -547.02370533332578 478.56537620118479 0 478.56537620118479 -484.06227022556322 0 0 0 0 -1431.6688856470864 212.5912038741676 0 212.5912038741676 -435.80105878495397 0 0 0 0 -964.35989442194114 145.8883897692931 0 145.8883897692931 -520.08094271057553 0 0 0 0 -1213.8753462550812 696.20741743295321 0 696.20741743295321 -566.04493169179068 0 0 0 0 -542.15017369692214 358.04944656539806 0 358.04944656539806 -560.77166718359513 0 0 0 0 212.30032254652178 624.29716981891283 0 624.29716981891283 -798.54621877158911 0 0 0 0 -798.48945086570166 677.54769438098617 0 677.54769438098617 -641.41165346817297 0 0 0 0 -1006.158383351838 487.9828389199954 0 487.9828389199954 -280.90250465941813 0 0 0 0 -800.09543451441277 396.80496206578323 0 396.80496206578323 -310.29172732369966 0 0 0 0 -836.02195283755282 453.86576285142985 0 453.86576285142985 -268.73271884310861 0 0 0 0 -769.18068566240254 306.20994466931904 0 306.20994466931904 -98.52068899993742 0 0 0 0 -734.26740684208926 242.13514442695475 0 242.13514442695475 -109.6377907960692 0 0 0 0 -975.80696210193491 362.33177619830724 0 362.33177619830724 4.7075793612882535 0 0 0 0 -757.11829638728523 247.61133092691688 0 247.61133092691688 -30.623828905611759 0 0 0 0 -985.15723911396344 465.93967188909983 0 465.93967188909983 -446.80949903914461 0 0 0 0 -727.13044181742589 254.59163524450946 0 254.59163524450946 -538.77114330293489 0 0 0 0 -678.33109205504297 440.20168313986665 0 440.20168313986665 -485.32686922873296 0 0 0 0 -645.02446707084891 379.62195816280246 0 379.62195816280246 -385.42473661988743 0 0 0 0 -744.84645089042897 367.66218639576942 0 367.66218639576942 -386.81071312408585 0 0 0 0 -775.8650166427251 261.92974861871187 0 261.92974861871187 -159.81151991895695 0 0 0 0 -748.98175599775277 308.80857322266797 0 308.80857322266797 -407.91874495970455 0 0 0 0 -777.00027013325598 369.5216197212975 0 369.5216197212975 -270.93834567367935 0 0 0 0 -698.02143177865946 235.70965152725455 0 235.70965152725455 -195.23223333154328 0 0 0 0 -770.98469503784145 255.65256853972198 0 255.65256853972198 3.0389479026470099 0 0 0 0 -761.10671874657419 202.35747256196754 0 202.35747256196754 17.063249098962388 0 0 0 0 -724.57523408895941 273.89790809071479 0 273.89790809071479 -157.72328774194406 0 0 0 0 -779.47626698228123 157.11686481832982 0 157.11686481832982 224.15329287747051 0 0 0 0 -663.5635768515931 171.85420884108839 0 171.85420884108839 21.594736365592297 0 0 0 0 -729.28918730915757 236.05061636255192 0 236.05061636255192 108.79381021577024 0 0 0 0 -812.09705524546735 179.25299845857731 0 179.25299845857731 181.64005916359145 0 0 0 0 -778.39604151123785 277.76327254965952 0 277.76327254965952 -3.2440154542665596 0 0 0 0 -806.41274098676513 251.38931949247143 0 251.38931949247143 118.6472442248288 0 0 0 0 -713.35792041153763 124.84777940665927 0 124.84777940665927 144.31855900412387 0 0 0 0 -792.75260035306565 149.84781943780911 0 149.84781943780911 292.11699739258461 0 0 0 0 -751.88720523170196 187.13994061911418 0 187.13994061911418 179.21031590477645 0 0 0 0 -769.14744022586819 81.078325735748237 0 81.078325735748237 313.6507326892243 0 0 0 0 -767.19492569382419 117.52267528004171 0 117.52267528004171 359.84775768695914 0 0 0 0 -740.82950475680991 39.505544150660057 0 39.505544150660057 396.17127572042426 0 0 0 0 -803.75314150382474 159.29078545125674 0 159.29078545125674 380.29552770419997 0 0 0 0 -783.24008277527173 29.92465803666289 0 29.92465803666289 476.08327836553042 0 0 0 0 -763.52601977752056 17.180044493157766 0 17.180044493157766 464.7173343231774 0 0 0 0 -737.79483474147855 56.218932282241894 0 56.218932282241894 309.08124059308898 0 0 0 0 -760.17329014455026 -53.43249970580257 0 -53.43249970580257 482.05406431252186 0 0 0 0 -687.94418715617212 -6.6848153247569826 0 -6.6848153247569826 374.49976907704627 0 0 0 0 -764.39302628074074 -60.159638806600469 0 -60.159638806600469 528.93669715773763 0 0 0 0 -798.87467356631532 -80.156810075290878 0 -80.156810075290878 564.70028535505662 0 0 0 0 -809.6288558182423 -75.53648953255265 0 -75.53648953255265 636.87139053710325 0 0 0 0 -775.32777452218579 16.916585749671299 0 16.916585749671299 580.14532785315441 0 0 0 0 -536.64935499444255 149.51257165546599 0 149.51257165546599 132.33064630354789 0 0 0 0 -691.94182001033914 119.87494804271802 0 119.87494804271802 298.62563601512056 0 0 0 0 -642.52049023634754 88.384785390490379 0 88.384785390490379 218.79409453697406 0 0 0 0 -746.71286089168279 40.129199615014727 0 40.129199615014727 395.37644355393218 0 0 0 0 -608.92852346375003 34.302773030882463 0 34.302773030882463 385.62683359497044 0 0 0 0 -592.97600319358753 -66.850585457857278 0 -66.850585457857278 409.73507614288769 0 0 0 0 -482.69921917440661 71.410360755791203 0 71.410360755791203 303.99474622248658 0 0 0 0 -364.2611334088142 167.43452333347119 0 167.43452333347119 227.6617718782195 0 0 0 0 -539.51481352219707 145.09314113782079 0 145.09314113782079 377.59311315393938 0 0 0 0 -604.61915984368534 251.67849037921349 0 251.67849037921349 198.63927525110088 0 0 0 0 -503.94996333355084 415.60052030208453 0 415.60052030208453 54.009254036327945 0 0 0 0 -415.77176849780153 327.46928811876552 0 327.46928811876552 265.58626858950538 0 0 0 0 -279.36246834590565 350.646182890506 0 350.646182890506 244.81238658915072 0 0 0 0 111.06438881911163 549.59571122532907 0 549.59571122532907 -56.334543373197221 0 0 0 0 -216.48826474412635 307.18725669372299 0 307.18725669372299 94.646726055246518 0 0 0 0 -340.72548866089164 352.87524056990173 0 352.87524056990173 -88.761334889547641 0 0 0 0 -344.94178789498983 574.53970947376035 0 574.53970947376035 -57.583475327486582 0 0 0 0 -320.71231453982182 618.94400056496954 0 618.94400056496954 -176.65298469107029 0 0 0 0 -339.86544979203609 600.62802766833693 0 600.62802766833693 -185.30021246856444 0 0 0 0 -333.64271012443896 512.86211887058528 0 512.86211887058528 -257.67017690122998 0 0 0 0 -489.59890019691011 415.37297972950387 0 415.37297972950387 -344.40106179326904 0 0 0 0 -590.29753829655237 511.50725833386508 0 511.50725833386508 -188.04078547674726 0 0 0 0 -455.46702624802128 616.36668048053104 0 616.36668048053104 -337.42893167492264 0 0 0 0 -525.32536455278751 317.60917714192254 0 317.60917714192254 -201.1195711252669 0 0 0 0 -749.0637957501167 470.17166053727465 0 470.17166053727465 -282.38719427915009 0 0 0 0 -653.31481886052643 311.64655905797252 0 311.64655905797252 -315.80194615288627 0 0 0 0 -776.41356888665177 344.09262227175498 0 344.09262227175498 -123.94623804087269 0 0 0 0 -591.55430564965354 227.04468341453207 0 227.04468341453207 -84.439221858308059 0 0 0 0 -669.568439983399 359.56663329651241 0 359.56663329651241 -20.758570612776516 0 0 0 0 -422.73730490208254 247.25343199583838 0 247.25343199583838 23.280261776901394 0 0 0 0 -3468.2698452784389 1437.4379618115811 0 1437.4379618115811 -221.28126096664127 0 0 0 0 -15.536421846279836 -1.1280620942546697 0 -1.1280620942546697 -0.5740630005072056 0 0 0 0 -261.41714949163725 369.98737071462853 0 369.98737071462853 -411.36319947814457 0 0 0 0 -230.99348640849348 219.98126069331147 0 219.98126069331147 -437.55240957818268 0 0 0 0 -1515.9085693520465 670.78885874336788 0 670.78885874336788 165.78611510883269 0 0 0 0 -543.31533605454024 -1690.8526603539585 0 -1690.8526603539585 -815.17310730313136 0 0 0 0 -1802.979750548704 -63.105544430099478 0 -63.105544430099478 -0.81292686707575845 0 0 0 0 -3491.0924565308724 -958.26646910714715 0 -958.26646910714715 141.29191993886269 0 0 0 0 290.64401059196098 174.35123741170563 0 174.35123741170563 -376.46536056028754 0 0 0 0 -5.6083441374819358 1.2837405829514807 0 1.2837405829514807 -0.7487033438313363 0 0 0 0 -418.41845466686937 -709.48127028162639 0 -709.48127028162639 -592.0922037588789 0 0 0 0 281.61254127467691 184.86679332076042 0 184.86679332076042 -354.63957226242496 0 0 0 0 -11.801789414402776 2.627577537151339 0 2.627577537151339 -0.014989731641161574 0 0 0 0 -671.57135349446253 -100.90940513262952 0 -100.90940513262952 70.561761480703495 0 0 0 0 -666.13947898795595 225.6789880126102 0 225.6789880126102 271.97892029300726 0 0 0 0 -422.66849962304696 -257.24854284335152 0 -257.24854284335152 23.781968286606286 0 0 0 0 -918.72609006159473 25.056186282462079 0 25.056186282462079 -30.221069194516758 0 0 0 0 -1355.9665477444942 760.356587683827 0 760.356587683827 767.02252842597977 0 0 0 0 -1351.4999247770756 156.28310976375067 0 156.28310976375067 545.09448586181213 0 0 0 0 -2884.1890008416376 176.30614320142638 0 176.30614320142638 682.43526054269637 0 0 0 0 -740.62343840979156 -73.082838919853941 0 -73.082838919853941 -84.385807509048746 0 0 0 0 -566.49298637571337 344.84598601895902 0 344.84598601895902 -354.61617370151305 0 0 0 0 -278.04936581334914 -351.13848252621278 0 -351.13848252621278 1006.6513018200909 0 0 0 0 140.94530451389437 757.3382720531531 0 757.3382720531531 -116.3786213160426 0 0 0 0 -904.52078432939015 530.664882356313 0 530.664882356313 753.00058481221413 0 0 0 0 -31.208144614012554 -0.74739997866348684 0 -0.74739997866348684 1.4433735061008668 0 0 0 0 67.614396391261835 -499.64038529776553 0 -499.64038529776553 -307.46250441516247 0 0 0 0 -15.829888920130657 -0.73273048800495744 0 -0.73273048800495744 0.94926681403582314 0 0 0 0 -1750.8741358252737 -977.16712000466589 0 -977.16712000466589 220.73820260884042 0 0 0 0 -4.6841639270646791 -7.6750733195426903 0 -7.6750733195426903 -2.9810375465956884 0 0 0 0 123.51023808594618 -140.72433389063099 0 -140.72433389063099 117.57342426477021 0 0 0 0 -1651.7085425300029 -974.89348940073148 0 -974.89348940073148 -252.99274102396521 0 0 0 0 -655.7632801161526 530.13735516044289 0 530.13735516044289 -983.86592697296817 0 0 0 0 62.171732380720641 -155.06956412328478 0 -155.06956412328478 145.72819029962056 0 0 0 0 -47.910253887006547 -236.55127941508886 0 -236.55127941508886 189.9291778478987 0 0 0 0 49.397342035750626 -69.182336854784126 0 -69.182336854784126 -26.489348188759323 0 0 0 0 -212.07271726035106 -76.121067494223098 0 -76.121067494223098 71.692334081688728 0 0 0 0 7.6757451052480974 -67.717646138562571 0 -67.717646138562571 -10.530285955703675 0 0 0 0 -0.75755775168440742 -4.0246747968446073 0 -4.0246747968446073 -4.6380465503031987 0 0 0 0 772.09169826240395 -317.08889623102471 0 -317.08889623102471 -265.73154895507275 0 0 0 0 -2450.772787103997 -740.2329929292498 0 -740.2329929292498 546.99532715306771 0 0 0 0 16.671838686705087 7.3058906055010624 0 7.3058906055010624 90.035410375488482 0 0 0 0 -2966.8330936577695 -1104.544822633758 0 -1104.544822633758 405.49906229057046 0 0 0 0 1.7714951337547973 51.773730707005356 0 51.773730707005356 0.010461583554278224 0 0 0 0 -1241.8753929820377 -872.84432783143916 0 -872.84432783143916 -463.85777529945676 0 0 0 0 -2385.5496327029832 -748.45309104098783 0 -748.45309104098783 240.80862478352583 0 0 0 0 -125.64025913234218 -192.49488627130381 0 -192.49488627130381 -537.55601639363783 0 0 0 0 -1023.9461083731512 -1002.8200344512562 0 -1002.8200344512562 -489.92416345596058 0 0 0 0 -7.3171029262812226 0.12221927248805287 0 0.12221927248805287 0.26516514646635375 0 0 0 0 -1275.4564613586135 241.61529137229573 0 241.61529137229573 10.240535613824704 0 0 0 0 -1561.1644834281688 -671.30926020792594 0 -671.30926020792594 -0.45225324755790552 0 0 0 0 -34.183289565393352 -605.55352788938535 0 -605.55352788938535 0.74186866402794749 0 0 0 0 -772.27662845230225 120.02545317407544 0 120.02545317407544 79.155277777965694 0 0 0 0 -687.86549844544788 149.39712386849067 0 149.39712386849067 3.4854583843625164 0 0 0 0 -885.53078078904946 465.87301689226138 0 465.87301689226138 20.575266907752848 0 0 0 0 -1060.4756575149368 327.06548458399806 0 327.06548458399806 -1.94603033269939 0 0 0 0 -1083.6287117966276 336.91291475942859 0 336.91291475942859 26.23111854301888 0 0 0 0 -1104.1442400988162 312.5693429940124 0 312.5693429940124 0.6080215893658274 0 0 0 0 -1352.1571595575078 393.743790719299 0 393.743790719299 140.4513733744231 0 0 0 0 -1097.946437230712 360.46344429883368 0 360.46344429883368 19.77640812601544 0 0 0 0 -1130.1753824799089 358.04889047930578 0 358.04889047930578 144.83162014159973 0 0 0 0 -1614.6750714679656 726.00772523090268 0 726.00772523090268 75.118188104302817 0 0 0 0 -1039.9169634976715 530.18586603812423 0 530.18586603812423 91.68813124651615 0 0 0 0 -1047.0247471859157 468.76512669936812 0 468.76512669936812 48.054028218950862 0 0 0 0 -401.58631062120548 397.45729953273826 0 397.45729953273826 -107.60436056868912 0 0 0 0 -461.96170083485777 314.71479573489745 0 314.71479573489745 -189.43378616339032 0 0 0 0 184.75785024061042 -131.28933530778625 0 -131.28933530778625 -79.854116726314146 0 0 0 0 33.846438597101951 375.56609323636786 0 375.56609323636786 -527.36186918958254 0 0 0 0 -1878.5173924982519 1097.1103184112173 0 1097.1103184112173 -294.55533474933463 0 0 0 0 -725.5373643519124 763.75316239677693 0 763.75316239677693 -644.3532089993962 0 0 0 0 -6.2979512561958586 3.3833730176186769 0 3.3833730176186769 -0.9934231455225484 0 0 0 0 -1033.4109798701538 733.60684419169456 0 733.60684419169456 -138.90064581066804 0 0 0 0 -985.49054950222489 572.51272686486107 0 572.51272686486107 -144.77701970114981 0 0 0 0 -1457.2795569898299 21.041230134015677 0 21.041230134015677 141.18938099520597 0 0 0 0 -888.61756421634345 -174.13357725984019 0 -174.13357725984019 -579.35938337374148 0 0 0 0 -2697.8599575251792 32.647308076440595 0 32.647308076440595 -211.09947833224533 0 0 0 0 270.34487367174734 65.524542408868129 0 65.524542408868129 -159.56491562558722 0 0 0 0 122.22260821909003 -517.6365701992213 0 -517.6365701992213 -423.78292205157749 0 0 0 0 -862.00654339829634 -33.931804096207998 0 -33.931804096207998 -199.59568575429489 0 0 0 0 -520.62633312332036 -416.62112489586184 0 -416.62112489586184 -106.97314991431229 0 0 0 0 -1652.7263526256611 118.43803916922224 0 118.43803916922224 -84.283074548236073 0 0 0 0 -604.23124671263213 277.94930423281335 0 277.94930423281335 -246.04886295319443 0 0 0 0 -353.30569575108348 -469.22542907391664 0 -469.22542907391664 585.69078921545815 0 0 0 0 -83.950409202599758 -14.966223917934141 0 -14.966223917934141 -1.8241499143878031 0 0 0 0 -106.86575088069731 -17.674730886476596 0 -17.674730886476596 70.373288176929236 0 0 0 0 -157.91507848818583 -29.377476539933468 0 -29.377476539933468 252.18941040218715 0 0 0 0 46.101387009315658 -282.96460336873554 0 -282.96460336873554 -107.3042174321947 0 0 0 0 -52.956466238887515 -114.97777695707208 0 -114.97777695707208 66.938057732564971 0 0 0 0 2.9762835388974054 -230.92152903327917 0 -230.92152903327917 172.85528631768307 0 0 0 0 -96.340428601169549 -19.800469801629809 0 -19.800469801629809 0.80620073852070995 0 0 0 0 -145.03025740357407 34.720773932376233 0 34.720773932376233 78.503892537701631 0 0 0 0 -216.57671685879177 12.010708484004226 0 12.010708484004226 111.6164930042446 0 0 0 0 -10.939334000390248 24.783791185242578 0 24.783791185242578 15.090584241904788 0 0 0 0 -356.60973777521576 -77.404746346527475 0 -77.404746346527475 14.705941350214289 0 0 0 0 -234.42462719135074 40.887399610075363 0 40.887399610075363 -189.95955322138798 0 0 0 0 -240.38799047338398 -9.0452920293671468 0 -9.0452920293671468 95.827776684649507 0 0 0 0 -244.09158100205741 -147.51551707524584 0 -147.51551707524584 -86.639361656392794 0 0 0 0 -16.199728116063355 -26.54290410807647 0 -26.54290410807647 0.40042288269771442 0 0 0 0 -1.1820396284159642 1.8861358226159162 0 1.8861358226159162 0.52588041018901288 0 0 0 0 -732.25098425221222 272.48088504657096 0 272.48088504657096 198.14696608831468 0 0 0 0 -61.009092895731044 -86.379209983912176 0 -86.379209983912176 -14.67068043853935 0 0 0 0 -6.5625626825850869 -25.545844484100826 0 -25.545844484100826 1.1485585403989047 0 0 0 0 -193.24731785528968 -92.582691585424499 0 -92.582691585424499 -7.5156445845492499 0 0 0 0 -864.25992142203904 404.43724900398172 0 404.43724900398172 -135.69983243675199 0 0 0 0 12.75476130550669 -22.777454675755735 0 -22.777454675755735 -34.32448871789029 0 0 0 0 150.45879783917917 -111.636518645617 0 -111.636518645617 -272.00036377870697 0 0 0 0 145.85232982903835 -58.956734301290453 0 -58.956734301290453 -29.954953298539181 0 0 0 0 101.26823492270341 71.731967883192738 0 71.731967883192738 54.388978611775656 0 0 0 0 -1.3146360695391195 -114.91667191410795 0 -114.91667191410795 289.40448922933393 0 0 0 0 -10.129184988238819 0.39404596217891452 0 0.39404596217891452 -1.0465095817347134 0 0 0 0 -19.506073582641193 -4.0003187854097213 0 -4.0003187854097213 1.4249515033682703 0 0 0 0 -1317.1792990440008 -1207.0082776953 0 -1207.0082776953 -651.95870017840866 0 0 0 0 -1137.1654484502942 640.3729552494068 0 640.3729552494068 -232.16897988727999 0 0 0 0 -2777.4375829072014 -375.85982064346575 0 -375.85982064346575 -294.7402977730959 0 0 0 0 -301.6725455674532 -36.272833566386169 0 -36.272833566386169 -1388.2053838416991 0 0 0 0 -1679.2901640619602 -688.67845727355439 0 -688.67845727355439 -507.12898732674921 0 0 0 0 -2090.2705290453741 -153.07400469666243 0 -153.07400469666243 355.23141771076502 0 0 0 0 -1297.6659141621712 -56.099858087541321 0 -56.099858087541321 247.89418367972792 0 0 0 0 -1417.5793278388883 70.216434292969154 0 70.216434292969154 190.9412683550695 0 0 0 0 -1512.405701366486 97.973317880499508 0 97.973317880499508 251.76406055472484 0 0 0 0 -1008.2930549935918 -332.72501287199088 0 -332.72501287199088 -100.16230357777522 0 0 0 0 -329.32394780007962 -144.77096760568213 0 -144.77096760568213 -144.43409611459379 0 0 0 0 -3074.3932795915316 360.83873832871899 0 360.83873832871899 218.76809965590766 0 0 0 0 -7.3551349595789191 -4.9007663372109675 0 -4.9007663372109675 -1.0668994317954814 0 0 0 0 -1425.6157967316067 128.27349897372508 0 128.27349897372508 64.888987668788275 0 0 0 0 -1453.6044078680206 25.614556778671414 0 25.614556778671414 138.059777547728 0 0 0 0 -1020.5225592288625 -145.45177057495673 0 -145.45177057495673 -62.985470984857216 0 0 0 0 -1661.9758032332466 -273.37726497750253 0 -273.37726497750253 479.73600234497638 0 0 0 0 -14.612124710459 -9.6303926057244809 0 -9.6303926057244809 -0.7375213577982217 0 0 0 0 -1489.6315799502554 -46.024408934349765 0 -46.024408934349765 781.43607861670841 0 0 0 0 -2727.1424224663642 62.423684721508039 0 62.423684721508039 865.02665097232614 0 0 0 0 -3498.9442855762682 580.41080237737935 0 580.41080237737935 927.05340580043332 0 0 0 0 -1990.8515267046168 821.14101730292464 0 821.14101730292464 32.568937158712913 0 0 0 0 -3498.1183122472576 1566.0381602156892 0 1566.0381602156892 -309.18228499910515 0 0 0 0 -298.5138091671397 371.71103539362787 0 371.71103539362787 -457.86093678925221 0 0 0 0 -1039.3283334923544 -18.375611975244198 0 -18.375611975244198 -89.283143962348504 0 0 0 0 -603.6845288409022 215.38077022983524 0 215.38077022983524 -403.1515315224442 0 0 0 0 -10.116162392484512 -3.3171875254624439 0 -3.3171875254624439 -0.31944903918529383 0 0 0 0 -252.01173253681918 287.71072402598458 0 287.71072402598458 -442.00836301977949 0 0 0 0 -3389.2570759141454 -1803.6781497456004 0 -1803.6781497456004 608.15319049716504 0 0 0 0 -3389.2570759141818 -1803.6781497455961 0 -1803.6781497455961 608.15319049716175 0 0 0 0 -3389.2570759141818 -1803.6781497455954 0 -1803.6781497455954 608.15319049716072 0 0 0 0 -29.056414684590379 -11.688879181610766 0 -11.688879181610766 -2.8286234070452823 0 0 0 0 -26.979965275924769 -72.352284784582707 0 -72.352284784582707 -0.67564189375718797 0 0 0 0 -22.154756941901724 -60.749951676354755 0 -60.749951676354755 -46.198174320241151 0 0 0 0 -37.234169927949551 -28.536517011828835 0 -28.536517011828835 -47.136451154897259 0 0 0 0 -31.387512070519733 -47.885518981106372 0 -47.885518981106372 -3.8342496283156464 0 0 0 0 14.967495100438327 -8.3833998055412096 0 -8.3833998055412096 -0.23598709232027337 0 0 0 0 -2802.8857247012493 -2417.4205666337762 0 -2417.4205666337762 -1537.5590163405577 0 0 0 0 -3550.3679328358267 -1996.024897560894 0 -1996.024897560894 -915.13996762205147 0 0 0 0 -2659.8594200027437 -941.25719999804824 0 -941.25719999804824 221.86766810518836 0 0 0 0 -3499.3762504435199 -1133.1670825933861 0 -1133.1670825933861 522.89363811471287 0 0 0 0 -600.51622681728259 -1553.3431170492761 0 -1553.3431170492761 194.54403799206568 0 0 0 0 -1300.896288930664 -1799.9297542518734 0 -1799.9297542518734 -1579.7312787026465 0 0 0 0 -831.65304216804725 -621.16044452427104 0 -621.16044452427104 -126.10678406600695 0 0 0 0 1.3395126134017517 -3.3022533535169885 0 -3.3022533535169885 1.8604237379391169 0 0 0 0 -603.6429015850299 -265.43984904769491 0 -265.43984904769491 -136.90789124087235 0 0 0 0 -1179.1322730869942 -411.51555992313615 0 -411.51555992313615 189.25398756204771 0 0 0 0 -1171.8132353280671 -809.25365447065315 0 -809.25365447065315 -219.21022550922692 0 0 0 0 -1616.7290435539981 -590.88821288644135 0 -590.88821288644135 155.65021873473501 0 0 0 0 -1311.5646392147173 -437.14220754425969 0 -437.14220754425969 -532.63522746876572 0 0 0 0 -1.1479314559789273 -0.92081528558617265 0 -0.92081528558617265 1.2853716833013356 0 0 0 0 -281.47767270392069 -59.231949286104509 0 -59.231949286104509 -12.280989427104259 0 0 0 0 -798.29809663284686 118.34883210413241 0 118.34883210413241 -132.10198144433565 0 0 0 0 -285.62681433938087 9.596470659429075 0 9.596470659429075 25.246659827346093 0 0 0 0 -1.3363691218482243 -2.3671322332549778 0 -2.3671322332549778 4.675484191189879 0 0 0 0 -818.87336369096738 -45.598781326953372 0 -45.598781326953372 293.66944737620167 0 0 0 0 -792.60606106527848 -90.568569723411514 0 -90.568569723411514 -47.243719056836426 0 0 0 0 -443.1077133732615 -250.76643375603419 0 -250.76643375603419 -137.24210424602438 0 0 0 0 -524.61339610614232 -51.592624575817581 0 -51.592624575817581 -42.618704736806876 0 0 0 0 -515.37571370282967 67.402805899375608 0 67.402805899375608 40.331863896476534 0 0 0 0 0.80033398285912494 -3.1574161196687953 0 -3.1574161196687953 7.7855855265664182 0 0 0 0 -901.17088593295193 119.70178313146289 0 119.70178313146289 481.451668345911 0 0 0 0 -440.93769462130149 -231.86761024752946 0 -231.86761024752946 176.24089148360156 0 0 0 0 -227.30437972103209 24.817706257704298 0 24.817706257704298 12.320909477855366 0 0 0 0 -743.34783736986719 -125.560325068118 0 -125.560325068118 468.27877125164514 0 0 0 0 -214.80378847080283 13.77745770518095 0 13.77745770518095 7.905975153515044 0 0 0 0 -154.42007846826164 13.144284429860818 0 13.144284429860818 6.9150484941505681 0 0 0 0 -147.12563460459933 169.74030725017576 0 169.74030725017576 -162.32979152203006 0 0 0 0 -116.12143746651418 126.52874831336021 0 126.52874831336021 -19.542942146262874 0 0 0 0 -88.570581170366495 9.9817194542506513 0 9.9817194542506513 5.8625283874993386 0 0 0 0 -173.4473624762104 74.534050450307632 0 74.534050450307632 -15.578376706427662 0 0 0 0 -128.26661884166242 52.386873186971343 0 52.386873186971343 16.232441660334189 0 0 0 0 -182.85793014129013 115.83306669273304 0 115.83306669273304 -11.432130992539896 0 0 0 0 -192.00043523054501 23.481626824222321 0 23.481626824222321 -3.1386571004209145 0 0 0 0 -33.871222285102704 84.216085323275934 0 84.216085323275934 -46.069800582792595 0 0 0 0 1.2469392534196646 27.083768927720371 0 27.083768927720371 4.9118199713770876 0 0 0 0 -207.25689830459305 37.493642755945757 0 37.493642755945757 -0.74163951017959562 0 0 0 0 -211.15709179226391 73.189604220518817 0 73.189604220518817 38.681206836333786 0 0 0 0 0.78705933990851074 27.678883849818035 0 27.678883849818035 9.6059425376361389 0 0 0 0 -217.76181331396947 42.55272759652388 0 42.55272759652388 4.123719908168141 0 0 0 0 -339.47107765692635 -23.78458346090946 0 -23.78458346090946 100.31558465020385 0 0 0 0 -194.24236089342594 -12.870447992688696 0 -12.870447992688696 33.822271454088877 0 0 0 0 -180.8765454266395 66.563696307568534 0 66.563696307568534 13.1233596247082 0 0 0 0 -187.16570809173481 47.259374516520609 0 47.259374516520609 36.665273297178828 0 0 0 0 -193.27152098968509 78.158297849126939 0 78.158297849126939 20.713393120580747 0 0 0 0 -153.74145756503276 63.417014999436788 0 63.417014999436788 44.251032519434375 0 0 0 0 -171.30678212824751 27.603382723657603 0 27.603382723657603 96.125036978100979 0 0 0 0 -47.148800080583896 19.327033479946977 0 19.327033479946977 70.136487099724945 0 0 0 0 -171.47479072950955 -62.716210831134731 0 -62.716210831134731 34.232435487555676 0 0 0 0 -156.84833340030843 -54.780483624153383 0 -54.780483624153383 24.284928718391257 0 0 0 0 -360.47491873928811 -113.06220167172432 0 -113.06220167172432 28.605201253757286 0 0 0 0 -289.50112769263797 53.81326794942629 0 53.81326794942629 38.345892113300124 0 0 0 0 -266.86208255741803 34.642370963746316 0 34.642370963746316 47.888103567358257 0 0 0 0 -637.28423548219143 -30.792997211701618 0 -30.792997211701618 37.302343533429166 0 0 0 0 -364.51351656072075 221.97318925009478 0 221.97318925009478 -46.527126210060146 0 0 0 0 -379.01830767496358 -198.69283374693907 0 -198.69283374693907 -255.64898888392077 0 0 0 0 -200.20765025907895 -169.10315078326767 0 -169.10315078326767 -54.113617756025633 0 0 0 0 -367.61017461353185 -135.13640516553698 0 -135.13640516553698 4.2417232469258579 0 0 0 0 -421.76361450849026 126.14942607276666 0 126.14942607276666 278.49035973320429 0 0 0 0 -417.06204080928001 98.887777324209139 0 98.887777324209139 -210.76114192000352 0 0 0 0 -12.389129402472747 -2.0433898168241598 0 -2.0433898168241598 -4.0432866389498949 0 0 0 0 -777.63723769856006 88.159225076333399 0 88.159225076333399 234.52601150619057 0 0 0 0 -546.56880932856438 -226.26575555877443 0 -226.26575555877443 -80.749313824641376 0 0 0 0 -111.96498546988138 -17.293167711024424 0 -17.293167711024424 9.6055292979912714 0 0 0 0 -490.33989659047438 191.08018277589144 0 191.08018277589144 -35.306845146335036 0 0 0 0 -824.3125997834577 124.5059605199167 0 124.5059605199167 23.029417504141293 0 0 0 0 -2.8899509869571602 23.470043995146245 0 23.470043995146245 8.5255349857182559 0 0 0 0 -409.39054486058853 -39.954828160133616 0 -39.954828160133616 97.036319117305538 0 0 0 0 -201.69672089995038 15.798340196700792 0 15.798340196700792 52.300932403566549 0 0 0 0 -405.38110939796024 -467.15936504759884 0 -467.15936504759884 -57.415615092242433 0 0 0 0 -415.78039048048959 71.013731846187511 0 71.013731846187511 173.82467931582141 0 0 0 0 -821.05662405228941 52.216248847408679 0 52.216248847408679 186.64359263283404 0 0 0 0 -448.09021559730172 111.34761249016447 0 111.34761249016447 92.315544594335734 0 0 0 0 -450.81770272511631 130.78418231359154 0 130.78418231359154 244.9334574653094 0 0 0 0 -496.47564516544662 184.01557606037295 0 184.01557606037295 239.64005788517534 0 0 0 0 -435.5908363246017 172.15124459793606 0 172.15124459793606 239.72075461656641 0 0 0 0 -466.52617565151922 197.21954311165678 0 197.21954311165678 344.77246528988144 0 0 0 0 -513.89660674774495 234.70336480368042 0 234.70336480368042 339.15189406136813 0 0 0 0 -450.31467876855095 308.79010225391357 0 308.79010225391357 321.15391028035265 0 0 0 0 -87.051181617367547 275.1389248714263 0 275.1389248714263 199.78495336612696 0 0 0 0 -300.37420862695581 204.38553771651095 0 204.38553771651095 179.99800353984756 0 0 0 0 -290.87820067642315 231.60156160111455 0 231.60156160111455 255.39561582327406 0 0 0 0 -417.999211480339 188.75216332485979 0 188.75216332485979 247.9037889075787 0 0 0 0 -231.35439992857937 181.49527343694808 0 181.49527343694808 187.49728258252981 0 0 0 0 -387.27379446920531 110.22963730300762 0 110.22963730300762 195.48586911465941 0 0 0 0 -312.74759933998575 122.90931043049113 0 122.90931043049113 193.89676418825002 0 0 0 0 -461.66637376933431 70.780603248460466 0 70.780603248460466 192.64339620944884 0 0 0 0 -241.11932661457831 16.841862918839979 0 16.841862918839979 109.59447615119279 0 0 0 0 -207.42136391916574 60.446447324700785 0 60.446447324700785 95.776208866479919 0 0 0 0 -130.72547733278043 -3.1371348709126323 0 -3.1371348709126323 56.765129912897464 0 0 0 0 -103.73146563662885 58.84761807648556 0 58.84761807648556 68.642957846122954 0 0 0 0 -60.33326367672089 43.788793291317461 0 43.788793291317461 63.170029053879261 0 0 0 0 -95.639934233622625 80.381537846305037 0 80.381537846305037 99.038441882207053 0 0 0 0 102.10486499479157 94.720701803976226 0 94.720701803976226 51.617926956592896 0 0 0 0 -60.026336703736888 71.252756161680736 0 71.252756161680736 57.363651997741727 0 0 0 0 -134.3578900944849 -20.352170885602618 0 -20.352170885602618 -7.0367214655007047 0 0 0 0 -162.69135031358019 23.267587699037449 0 23.267587699037449 87.587781346003339 0 0 0 0 -18.234382934886661 4.7808570605548937 0 4.7808570605548937 28.143126121644414 0 0 0 0 -151.79235179490934 14.802910535829028 0 14.802910535829028 -8.2321339265988627 0 0 0 0 -165.285265443963 13.858873701344919 0 13.858873701344919 54.833920352544283 0 0 0 0 -18.059893925743381 50.980645248056135 0 50.980645248056135 39.020511120101219 0 0 0 0 -129.51598315060983 -29.43070261968353 0 -29.43070261968353 75.725157572845092 0 0 0 0 -17.444453870103175 11.40148170418875 0 11.40148170418875 10.727232954359929 0 0 0 0 -55.817331619924516 25.758016751545711 0 25.758016751545711 49.733999314423272 0 0 0 0 -88.135794279776746 87.828442705997531 0 87.828442705997531 16.006397390036909 0 0 0 0 -53.148207232164182 34.943079328300868 0 34.943079328300868 7.4976379752000675 0 0 0 0 -8.8328117510827724 17.008055643308523 0 17.008055643308523 9.6417500147268527 0 0 0 0 0.59355206103174396 4.135890129147004 0 4.135890129147004 1.7381938831666566 0 0 0 0 -25.155288048423245 85.127531900639354 0 85.127531900639354 -111.06876780748695 0 0 0 0 -73.999085495393956 -82.282125748745528 0 -82.282125748745528 -67.183901880589758 0 0 0 0 0.042809948296053335 8.1272873455627064 0 8.1272873455627064 -2.8179254790713628 0 0 0 0 -139.42728145128058 -41.492221889744087 0 -41.492221889744087 103.26271425836421 0 0 0 0 -86.832035765864475 5.9666480150919625 0 5.9666480150919625 9.6460431500964408 0 0 0 0 -155.54451789917948 15.666929767428627 0 15.666929767428627 12.996197957372942 0 0 0 0 -35.93758007689911 4.5914243906701984 0 4.5914243906701984 2.0400915769774159 0 0 0 0 -26.571665039940854 -3.3083090880987811 0 -3.3083090880987811 61.687950969720973 0 0 0 0 -30.857900054162258 6.7445429151766856 0 6.7445429151766856 9.405750063880987 0 0 0 0 -30.890910887170946 15.637115494986039 0 15.637115494986039 11.24554513903022 0 0 0 0 -44.818868092312982 14.233703913314129 0 14.233703913314129 20.115432312549274 0 0 0 0 -48.42753534285734 5.6835136111662408 0 5.6835136111662408 16.462889695906309 0 0 0 0 -56.954066512851568 38.285558645211495 0 38.285558645211495 49.096505813674412 0 0 0 0 -56.594470225557863 -2.4472209132158298 0 -2.4472209132158298 9.8388829890290914 0 0 0 0 -60.456735219068882 8.2986282859120308 0 8.2986282859120308 13.243476599593668 0 0 0 0 -194.87178543891059 0.2172177111988276 0 0.2172177111988276 78.648174138805189 0 0 0 0 -53.004769483750351 -2.6175822855184947 0 -2.6175822855184947 44.051305969245732 0 0 0 0 -61.35761911160867 -5.6110629473465821 0 -5.6110629473465821 9.6270952139257151 0 0 0 0 -36.694885224394966 15.762642256815525 0 15.762642256815525 69.013350814949263 0 0 0 0 -54.368852033858133 4.2846770360555642 0 4.2846770360555642 9.3112471602646174 0 0 0 0 -48.915770536055788 14.232275053104331 0 14.232275053104331 21.247769695040006 0 0 0 0 -64.879213911014858 -28.164558175536044 0 -28.164558175536044 1.7631355018818491 0 0 0 0 -45.298522534578765 -38.210911882946043 0 -38.210911882946043 -1.759848084040641 0 0 0 0 -45.218576286482858 34.70633084494375 0 34.70633084494375 -137.28828855598317 0 0 0 0 -12.914905800597406 25.673071633405584 0 25.673071633405584 1.6647065772725238 0 0 0 0 25.51835772524646 -7.0798773567096047 0 -7.0798773567096047 -41.83546899915109 0 0 0 0 -156.54690694007206 14.112282606745275 0 14.112282606745275 10.620532816710238 0 0 0 0 21.007632124455995 -21.137326832991334 0 -21.137326832991334 -81.573454490969652 0 0 0 0 374.24326712547918 -75.171048408939441 0 -75.171048408939441 -1256.8231671464619 0 0 0 0 -153.24398574567749 14.821963162914273 0 14.821963162914273 9.2958655128068131 0 0 0 0 -1027.2025393633157 -236.03026546441333 0 -236.03026546441333 1062.8164224999073 0 0 0 0 -17.610521834056421 -1.8936532380893993 0 -1.8936532380893993 14.888533081359423 0 0 0 0 -718.3721847711422 332.57859709039326 0 332.57859709039326 14.651653331681274 0 0 0 0 -11.726157285289531 -7.5623929124208829 0 -7.5623929124208829 -4.3198210952314202 0 0 0 0 207.34846105669567 -627.79169776646995 0 -627.79169776646995 -344.95132349513915 0 0 0 0 -35.076733010736234 -29.404916180607277 0 -29.404916180607277 17.341104128744064 0 0 0 0 -33.201619141321714 -16.060162504833528 0 -16.060162504833528 -4.4203400541420823 0 0 0 0 -36.587106351550773 -7.1686887772268619 0 -7.1686887772268619 0.79479461066423651 0 0 0 0 -34.370577122777377 -2.1832749768160884 0 -2.1832749768160884 -2.1616158579408875 0 0 0 0 -155.43905277172598 10.467639930877795 0 10.467639930877795 -195.21001643137424 0 0 0 0 -32.912503485940256 4.4686685397035149 0 4.4686685397035149 5.7842022145218417 0 0 0 0 -66.545747923279123 -9.4395778517375675 0 -9.4395778517375675 13.501735900125141 0 0 0 0 -56.166291466683106 -8.3129789907499845 0 -8.3129789907499845 3.4466000010934472 0 0 0 0 -175.37450322907534 -99.12271431445015 0 -99.12271431445015 43.919094677201372 0 0 0 0 -181.2569332895655 154.10693045012272 0 154.10693045012272 45.376063629955752 0 0 0 0 -35.851921735963515 -8.6882678099791235 0 -8.6882678099791235 -0.27458686728664683 0 0 0 0 -81.632422697794027 19.261124461467915 0 19.261124461467915 152.86638937819771 0 0 0 0 279.01301576853416 -30.168007396792685 0 -30.168007396792685 -168.97839927560003 0 0 0 0 -39.908750744293066 12.937976962508245 0 12.937976962508245 -1.4683113988868215 0 0 0 0 -48.48199791109073 14.688035402125251 0 14.688035402125251 15.993973830335563 0 0 0 0 -113.83939311792983 50.277916583543714 0 50.277916583543714 109.13186395988669 0 0 0 0 -52.721791267134591 8.2939645038468228 0 8.2939645038468228 8.9629657574560895 0 0 0 0 -42.298757466747887 16.800175092929727 0 16.800175092929727 16.223487028728542 0 0 0 0 -10.909705127332861 2.1754675443697735 0 2.1754675443697735 31.720699813333802 0 0 0 0 -134.72188425068452 -13.220320754980548 0 -13.220320754980548 69.036290251077048 0 0 0 0 -33.244616448764575 31.959795114534202 0 31.959795114534202 -23.098299391787151 0 0 0 0 -372.02700703117443 209.90780584213891 0 209.90780584213891 10.521794265911728 0 0 0 0 -281.37389844027348 -67.91186297638275 0 -67.91186297638275 -276.24880630299492 0 0 0 0 28.202801249785807 92.6828520672357 0 92.6828520672357 -303.08698497477229 0 0 0 0 -29.491170488916396 -280.9593162659317 0 -280.9593162659317 83.498717629803934 0 0 0 0 -1927.284951631118 246.3839696710906 0 246.3839696710906 -5.2758406700234843 0 0 0 0 -3501.7624282561737 742.0115781627436 0 742.0115781627436 370.58934446836247 0 0 0 0 -2281.1118963646859 1111.0889350902844 0 1111.0889350902844 184.09310750090822 0 0 0 0 -2608.5219808324618 1103.2198846642395 0 1103.2198846642395 201.85586489320337 0 0 0 0 -12.537506143427578 0.77964350870883159 0 0.77964350870883159 -3.1169817636068742 0 0 0 0 -1834.2773736676463 1904.6417986390609 0 1904.6417986390609 -1602.430743626988 0 0 0 0 -3493.6253880684744 1797.7017527434616 0 1797.7017527434616 -175.27717240044942 0 0 0 0 -580.02302547374711 1103.8965853000918 0 1103.8965853000918 -1150.1532385135986 0 0 0 0 -485.0963383831695 -204.68602798501308 0 -204.68602798501308 223.97338088387266 0 0 0 0 306.39461493338626 440.38920778478183 0 440.38920778478183 -809.02293868418224 0 0 0 0 331.04176193251624 -551.74537745846055 0 -551.74537745846055 -362.06342899792708 0 0 0 0 -3462.0339347177942 -26.941077450531377 0 -26.941077450531377 -24.691031857490991 0 0 0 0 -15.017787839170353 -6.8202909225546691 0 -6.8202909225546691 -7.4173415222914612 0 0 0 0 -657.78870353207458 448.84418699843218 0 448.84418699843218 -454.77122820314008 0 0 0 0 -1417.9152729727866 1087.4945187050955 0 1087.4945187050955 -531.83542840751113 0 0 0 0 -2004.8700497156024 23.878359496812436 0 23.878359496812436 -556.68600060643882 0 0 0 0 -970.59188770889887 -259.01274451427525 0 -259.01274451427525 -920.25816932831708 0 0 0 0 -764.35156284699042 -135.25740889303782 0 -135.25740889303782 -1027.5690383017907 0 0 0 0 -1422.1425997201513 422.87101744194189 0 422.87101744194189 -1124.6307696490701 0 0 0 0 -1261.9239146570908 -340.17714457136424 0 -340.17714457136424 -464.90686830465557 0 0 0 0 -935.81947758316528 84.146432622742054 0 84.146432622742054 -979.77360794737797 0 0 0 0 -1032.6661649985399 -16.665661267194878 0 -16.665661267194878 -743.58160791024818 0 0 0 0 -313.80502531496313 375.72476623106922 0 375.72476623106922 -613.44966793702474 0 0 0 0 -1181.0165485238249 -836.25631332794433 0 -836.25631332794433 -251.44432599754259 0 0 0 0 -2374.1885535969386 -302.04518542076187 0 -302.04518542076187 -336.24207776190281 0 0 0 0 -1488.8890547805495 1410.5285806363609 0 1410.5285806363609 -954.66559423499075 0 0 0 0 236.04781016339257 -750.83111636220201 0 -750.83111636220201 -284.10447073179705 0 0 0 0 -15.932832580000905 -4.5993017725801195 0 -4.5993017725801195 -1.7438428369103987 0 0 0 0 -409.80923668694231 487.88019863990888 0 487.88019863990888 123.59975751160073 0 0 0 0 -215.57755512828589 -203.39166988508441 0 -203.39166988508441 693.9733370743495 0 0 0 0 -36.971577954973327 -486.32966126142901 0 -486.32966126142901 657.39714940953127 0 0 0 0 -288.11535691522295 352.57221688021991 0 352.57221688021991 38.106962841130155 0 0 0 0 474.46307755757152 -123.41509253325603 0 -123.41509253325603 90.054530782271286 0 0 0 0 -205.21783022205636 241.75184788775914 0 241.75184788775914 -185.3625492216288 0 0 0 0 -238.56461205112282 42.870299059635272 0 42.870299059635272 -328.19955697146611 0 0 0 0 -654.02530277206097 550.83702075836777 0 550.83702075836777 -272.35890985384412 0 0 0 0 -1173.78108495784 866.209239397278 0 866.209239397278 -208.59149182398414 0 0 0 0 -1193.5245583889846 676.02546427261086 0 676.02546427261086 -429.19031360089048 0 0 0 0 -425.50636138282425 739.82034006202684 0 739.82034006202684 -552.54967149203912 0 0 0 0 -648.04173804874881 556.85146553264258 0 556.85146553264258 -346.06596914721604 0 0 0 0 -104.98054521688027 137.65457823836709 0 137.65457823836709 -395.97325824097334 0 0 0 0 -392.02120217550691 723.71261457818707 0 723.71261457818707 -279.12165676230688 0 0 0 0 -680.57304287224997 1046.4436574629538 0 1046.4436574629538 -1301.552248594101 0 0 0 0 -2204.6085118459523 1225.0062243837008 0 1225.0062243837008 -293.50224037320277 0 0 0 0 -959.11958648145082 -3.8942626208640831 0 -3.8942626208640831 -1070.3580709495127 0 0 0 0 -1486.5037125598174 -89.551839894452769 0 -89.551839894452769 -36.35901686313764 0 0 0 0 -230.44369333171926 -457.55742047392278 0 -457.55742047392278 -23.140539083735007 0 0 0 0 -25.046323062725207 -1.0542286500007023 0 -1.0542286500007023 -0.31282841907519021 0 0 0 0 -238.49497667697142 -259.5154508847811 0 -259.5154508847811 -191.82347323331044 0 0 0 0 -1027.5885073396639 777.05575607989613 0 777.05575607989613 -198.22441809104089 0 0 0 0 -111.78578382208798 -56.488096496709204 0 -56.488096496709204 296.306157271247 0 0 0 0 -32.866287043143529 113.07770426980477 0 113.07770426980477 -165.11550029069076 0 0 0 0 -126.56143728348979 -101.36705902753113 0 -101.36705902753113 -230.54227844192383 0 0 0 0 -36.797824415640207 -211.61779370833256 0 -211.61779370833256 -147.61218307891016 0 0 0 0 -68.326465836649732 -207.36302870621648 0 -207.36302870621648 -37.339322928867659 0 0 0 0 -216.83350310935202 -190.45414602716949 0 -190.45414602716949 -34.685913285791671 0 0 0 0 -122.51800319241011 -299.68613124822696 0 -299.68613124822696 -120.08320134556743 0 0 0 0 140.31114034312486 -200.3458897793264 0 -200.3458897793264 -94.758510255249121 0 0 0 0 143.35137962004228 -607.34365807747054 0 -607.34365807747054 406.88854720962377 0 0 0 0 125.39120977716811 -373.67025953951315 0 -373.67025953951315 158.67757605486122 0 0 0 0 617.28503980956157 -273.42731756993794 0 -273.42731756993794 162.70892936887685 0 0 0 0 -118.03538408285021 -384.85160429555793 0 -384.85160429555793 341.71511032095395 0 0 0 0 -799.4360099608748 777.34999793778252 0 777.34999793778252 -317.63279035383539 0 0 0 0 -967.31285338129237 871.7974707013276 0 871.7974707013276 -335.40144745737689 0 0 0 0 -490.54554969586025 514.7316726314923 0 514.7316726314923 -300.07904334415286 0 0 0 0 -985.08144224460557 6.2024844492682405 0 6.2024844492682405 -39.992760088026444 0 0 0 0 -99.309149963307846 164.88488627816577 0 164.88488627816577 -197.74422141233254 0 0 0 0 -147.72700751412776 22.690520068176738 0 22.690520068176738 -110.42786361348112 0 0 0 0 -542.63777148369991 550.04493659694742 0 550.04493659694742 -80.409054556738283 0 0 0 0 374.09829432962579 110.36674676128837 0 110.36674676128837 -155.51998354540842 0 0 0 0 69.892396770272171 -96.307956129217018 0 -96.307956129217018 200.84919003281311 0 0 0 0 433.93708428395985 -263.0223265586605 0 -263.0223265586605 823.2174664355307 0 0 0 0 547.98712798621273 204.27216819104751 0 204.27216819104751 389.6992644273696 0 0 0 0 0.99550571586769365 306.06675419409635 0 306.06675419409635 -248.94599245765039 0 0 0 0 -112.43066670607368 -294.61717831709848 0 -294.61717831709848 368.81380771464637 0 0 0 0 -95.165126121419576 317.30646211400625 0 317.30646211400625 -1227.5868407359446 0 0 0 0 809.61246820680026 639.67133422395818 0 639.67133422395818 271.00436764700498 0 0 0 0 -258.11702693217376 -1463.9201465689262 0 -1463.9201465689262 827.01288238446853 0 0 0 0 37.490797454462154 -29.491322043437322 0 -29.491322043437322 603.86198363301537 0 0 0 0 -61.262250337936678 -33.891832524841327 0 -33.891832524841327 -13.950691288709649 0 0 0 0 787.7080343326088 -311.25000235206608 0 -311.25000235206608 611.2482977964321 0 0 0 0 880.39204696763773 -342.45948987623706 0 -342.45948987623706 583.66713814638706 0 0 0 0 1463.9545689907391 -1175.8417216644409 0 -1175.8417216644409 1372.1358196279507 0 0 0 0 -72.00231185434825 -6.0411932343889205 0 -6.0411932343889205 35.228521962661873 0 0 0 0 -47.033653509948635 -22.801981397917189 0 -22.801981397917189 66.837691832202836 0 0 0 0 -93.175157390649076 13.125083349855061 0 13.125083349855061 66.293475919264495 0 0 0 0 -49.560078905285735 -40.294808136665857 0 -40.294808136665857 -21.632747646097577 0 0 0 0 -55.25564282531559 84.16772282047441 0 84.16772282047441 180.11636170668589 0 0 0 0 -26.60393334966605 -13.285485426485394 0 -13.285485426485394 2.003589078111105 0 0 0 0 -63.88825810257913 38.453848746451513 0 38.453848746451513 10.006912080367783 0 0 0 0 -23.597898081179665 -187.20884181189058 0 -187.20884181189058 222.98516263818601 0 0 0 0 -422.92498867051472 -117.17721575762458 0 -117.17721575762458 14.908221285987779 0 0 0 0 -110.07330629328095 -12.680568596988365 0 -12.680568596988365 10.307892423547287 0 0 0 0 -109.22516417524457 -1.4615328320754699 0 -1.4615328320754699 107.22455405719103 0 0 0 0 58.783213296439499 -264.81437004774489 0 -264.81437004774489 676.09122065921747 0 0 0 0 -120.96916907306877 -10.406983304686946 0 -10.406983304686946 66.73860050735766 0 0 0 0 -156.14105885133904 201.00646447648288 0 201.00646447648288 -24.253340111331894 0 0 0 0 -6.7183753932872889 3.5824208857094035 0 3.5824208857094035 4.3284947197618218 0 0 0 0 -108.00921786616863 -13.121218267827217 0 -13.121218267827217 15.806342996396952 0 0 0 0 -15.214168916817826 -2.5763700025683249 0 -2.5763700025683249 7.4511725662118433 0 0 0 0 -203.54724082392568 -55.973110791110685 0 -55.973110791110685 264.82605275735295 0 0 0 0 -104.13748629454494 -42.824674554878584 0 -42.824674554878584 111.94997282955774 0 0 0 0 -280.3547674250367 103.51314007089968 0 103.51314007089968 94.07174293665139 0 0 0 0 -243.01925719360588 -0.53283699318762956 0 -0.53283699318762956 196.27036650650007 0 0 0 0 -450.53339115803828 163.93807729521086 0 163.93807729521086 220.07985457128143 0 0 0 0 -384.38871139557523 48.403085730400107 0 48.403085730400107 396.86847804728131 0 0 0 0 -247.52300221901532 -81.642469849794907 0 -81.642469849794907 342.38403827217189 0 0 0 0 -347.4556368093763 54.73968383789088 0 54.73968383789088 244.82967683627078 0 0 0 0 -483.39801243965485 -60.752373711456585 0 -60.752373711456585 534.65749233025872 0 0 0 0 -235.13889600094262 -88.279916189847881 0 -88.279916189847881 345.66651297369754 0 0 0 0 -641.07041192741599 153.50594344300407 0 153.50594344300407 383.27399497633087 0 0 0 0 -538.50081059336662 244.67537710385704 0 244.67537710385704 403.27468243769727 0 0 0 0 -797.39331307919565 -319.89063339676295 0 -319.89063339676295 -223.27637188751396 0 0 0 0 31.652231537649641 130.45724745256257 0 130.45724745256257 -100.01265587198213 0 0 0 0 -231.19962961957935 -77.609362235707977 0 -77.609362235707977 336.59639125722879 0 0 0 0 -240.39506069182789 -71.607087868332428 0 -71.607087868332428 332.80442221551675 0 0 0 0 283.08929003992671 -675.72288879531857 0 -675.72288879531857 507.89586293431967 0 0 0 0 -9.2338773778608925 -13.072703975107231 0 -13.072703975107231 -5.9187312326329717 0 0 0 0 -1511.8123780410533 -296.4079843274194 0 -296.4079843274194 369.77949589231775 0 0 0 0 -707.53790238700822 -536.48165191366911 0 -536.48165191366911 -50.71035736059639 0 0 0 0 -1115.0047061202131 489.17069918338439 0 489.17069918338439 671.15790156912635 0 0 0 0 -2062.9821107894331 105.40978340931429 0 105.40978340931429 933.69700307823223 0 0 0 0 -633.09452321768276 -902.74353329744577 0 -902.74353329744577 -795.44920204874325 0 0 0 0 -940.38024439547735 1087.396144847231 0 1087.396144847231 -5057.7900923608286 0 0 0 0 -1767.4923371016084 -470.43105802150149 0 -470.43105802150149 428.79185761839472 0 0 0 0 -2648.7335020794599 -795.87183363044323 0 -795.87183363044323 644.53058036598668 0 0 0 0 -1807.0916622765362 -1068.085990620184 0 -1068.085990620184 -307.16898692835093 0 0 0 0 -29.302827573989418 -11.2992242097305 0 -11.2992242097305 -4.8890939058347254 0 0 0 0 -488.35375285517512 -681.08708865028711 0 -681.08708865028711 -649.50313785738581 0 0 0 0 -3400.6042807858903 692.18704384123976 0 692.18704384123976 433.18664995877361 0 0 0 0 -2988.6686524375255 1391.9520608686435 0 1391.9520608686435 1620.7845963667532 0 0 0 0 -13.185946916742964 -13.387795901974954 0 -13.387795901974954 -12.6015891786761 0 0 0 0 -3594.5180765010737 802.05375896730277 0 802.05375896730277 1123.3072234445967 0 0 0 0 542.04456729838421 -72.15724208850051 0 -72.15724208850051 -646.85687981168007 0 0 0 0 -498.87488284343272 -615.33082899705448 0 -615.33082899705448 -924.48060978118042 0 0 0 0 -3438.9904766581749 -860.99319882784152 0 -860.99319882784152 -144.10002071427505 0 0 0 0 -1807.5885919914272 -737.94370702687888 0 -737.94370702687888 -1303.2995637289655 0 0 0 0 -1180.4894963790284 51.559779073974326 0 51.559779073974326 -434.97310563922809 0 0 0 0 -1137.6285758270424 208.8611469622214 0 208.8611469622214 135.08588379709465 0 0 0 0 -980.55914524340551 -90.580357587486361 0 -90.580357587486361 -329.49207738420563 0 0 0 0 -1018.6265289029252 -86.42754950477152 0 -86.42754950477152 463.10534873197696 0 0 0 0 -1652.1954498448758 -514.75454646594676 0 -514.75454646594676 -237.18693036869226 0 0 0 0 -1431.8183996717125 -142.11916335364077 0 -142.11916335364077 171.91348792183214 0 0 0 0 -2079.9748507429031 -364.14627639187916 0 -364.14627639187916 375.86507879341281 0 0 0 0 -19.224868900353187 -24.260151449943137 0 -24.260151449943137 -25.672700387321182 0 0 0 0 -776.47113181479654 -148.91875188111362 0 -148.91875188111362 10.01281430941458 0 0 0 0 -684.74766392348101 -551.59618126284738 0 -551.59618126284738 88.421815792614211 0 0 0 0 -9.2653152054552237 -10.32671884167641 0 -10.32671884167641 -12.747616092221151 0 0 0 0 -3525.6039306391685 140.08292512508183 0 140.08292512508183 281.60891826481361 0 0 0 0 -1767.7147642220007 152.32141941195596 0 152.32141941195596 178.70061716751593 0 0 0 0 -1014.1087282188382 -0.90430834432595475 0 -0.90430834432595475 -1285.8209978916866 0 0 0 0 -2339.4185532371812 -1180.609965391302 0 -1180.609965391302 -665.27604392081957 0 0 0 0 196.07369657985328 -772.84624544799897 0 -772.84624544799897 -778.73609127824329 0 0 0 0 -957.2619297667261 -885.45013403310622 0 -885.45013403310622 -786.82032208295823 0 0 0 0 -2333.7751210654023 -1.5374234576601111 0 -1.5374234576601111 -91.838685070465544 0 0 0 0 -1277.4281623027709 -202.56263771405224 0 -202.56263771405224 -103.20210150847186 0 0 0 0 -841.6316509959579 41.986548370552782 0 41.986548370552782 -6.6868725457593428 0 0 0 0 -981.27923016422392 -39.941817607567998 0 -39.941817607567998 148.05937922525618 0 0 0 0 -333.52045988358441 299.40931322383631 0 299.40931322383631 251.46376465593141 0 0 0 0 -1167.4740656324648 232.3608413888698 0 232.3608413888698 258.57080904358531 0 0 0 0 -901.6827516736812 129.51917331336017 0 129.51917331336017 236.32109946741866 0 0 0 0 -1049.6668760134198 190.1241652491799 0 190.1241652491799 273.25218573075108 0 0 0 0 112.63939536557154 -476.69760007955392 0 -476.69760007955392 -761.33601792851346 0 0 0 0 1.4906714799217298 -254.89387250724531 0 -254.89387250724531 -205.84394600457313 0 0 0 0 -583.46874726048554 -495.20291785105155 0 -495.20291785105155 -550.34502392725813 0 0 0 0 -695.7429843002119 -604.49847887451403 0 -604.49847887451403 -306.33205414262284 0 0 0 0 -998.55383714181426 -1189.1542039620306 0 -1189.1542039620306 -562.91440117171067 0 0 0 0 -1383.9681772879485 46.23901374672505 0 46.23901374672505 144.24840073359337 0 0 0 0 -2966.081407705944 -354.80736619135223 0 -354.80736619135223 65.042116943344809 0 0 0 0 -852.46835867827758 -739.11617410024928 0 -739.11617410024928 -662.14530249757559 0 0 0 0 -4.7755601115590451 -5.207438503599235 0 -5.207438503599235 -4.2030066053166628 0 0 0 0 -827.38060583320475 -1208.3331612431662 0 -1208.3331612431662 -91.779912172909576 0 0 0 0 1171.7335596817047 -905.96760205886483 0 -905.96760205886483 -66.610710565010322 0 0 0 0 -604.31534737493348 -362.70673006428251 0 -362.70673006428251 533.21900243198752 0 0 0 0 -471.67127159405209 -164.85194152552913 0 -164.85194152552913 388.89323165398491 0 0 0 0 -610.52188913258215 -140.68804964655612 0 -140.68804964655612 -81.185754832082921 0 0 0 0 -656.67716203645614 168.14475012599837 0 168.14475012599837 360.96660610113395 0 0 0 0 -730.01228068598175 257.23625322023508 0 257.23625322023508 402.46423895913176 0 0 0 0 -874.71120538571995 80.28353475062795 0 80.28353475062795 497.1645521158589 0 0 0 0 -1133.0736715198727 -166.6830272429379 0 -166.6830272429379 392.09060875168109 0 0 0 0 -1159.6863336054303 381.18083401849594 0 381.18083401849594 271.2887880679898 0 0 0 0 -703.6780895115262 169.44318612458119 0 169.44318612458119 -161.69848491894481 0 0 0 0 -1997.0438723251718 -578.87593773563071 0 -578.87593773563071 -159.63584849690687 0 0 0 0 -1473.297681225331 706.01718865965427 0 706.01718865965427 -520.14048950992708 0 0 0 0 -411.37808046035207 -125.88075450412785 0 -125.88075450412785 -882.8749706190016 0 0 0 0 -1474.9041288962471 -978.43728089163528 0 -978.43728089163528 -173.14548573482386 0 0 0 0 -930.6527347065894 -755.41436016005332 0 -755.41436016005332 -685.14569341866502 0 0 0 0 -3622.8502033670666 -570.24173242665802 0 -570.24173242665802 -672.75886283900127 0 0 0 0 -1583.6133188192707 886.17177856404521 0 886.17177856404521 -134.00502132268184 0 0 0 0 -27.02549029612176 -5.7490307529313931 0 -5.7490307529313931 -1.8698796965672146 0 0 0 0 -820.56876718951025 -1488.2333914624685 0 -1488.2333914624685 -1749.0825774743103 0 0 0 0 -2670.9159325273649 -1455.4770206268975 0 -1455.4770206268975 -700.70848074490686 0 0 0 0 -1550.9018247553395 40.267150621548581 0 40.267150621548581 135.38505322737433 0 0 0 0 -3250.4864982031722 -177.39161908810246 0 -177.39161908810246 229.90837291998969 0 0 0 0 -1017.7549418821472 336.75446772519194 0 336.75446772519194 -302.16401352477214 0 0 0 0 -70.110141222219681 249.97803712673124 0 249.97803712673124 -531.57644999096601 0 0 0 0 -1765.5087832788013 -309.76794098018979 0 -309.76794098018979 -2236.8314082585921 0 0 0 0 -6.1120659139792508 2.9449419375880765 0 2.9449419375880765 -2.2776805838621996 0 0 0 0 -1765.7910362857729 -301.08380360949934 0 -301.08380360949934 -409.6499413340473 0 0 0 0 -1845.9453895721745 -706.7552406119944 0 -706.7552406119944 -81.810785204952026 0 0 0 0 -1391.8365915502145 -1302.4297013220753 0 -1302.4297013220753 -789.34962729074914 0 0 0 0 -948.4839833818869 -622.20366717776403 0 -622.20366717776403 -348.1737666024294 0 0 0 0 -10.141681844675425 6.3596080309782437 0 6.3596080309782437 -5.3300262476041027 0 0 0 0 -1421.5484082443959 -655.09301696055411 0 -655.09301696055411 -158.32954734602527 0 0 0 0 -1061.2007750008761 -721.28196571889418 0 -721.28196571889418 -383.19604186187814 0 0 0 0 -1899.3102637727789 -721.52034775767038 0 -721.52034775767038 -43.484000161359518 0 0 0 0 -1556.5958475727966 -611.67079125503301 0 -611.67079125503301 -8.9114679166632413 0 0 0 0 -1439.317147693273 -566.20301358761958 0 -566.20301358761958 -120.69998432230568 0 0 0 0 -1410.9215105636631 -444.02195743045968 0 -444.02195743045968 -199.72954134335055 0 0 0 0 -1335.1780066508363 -525.47302725211273 0 -525.47302725211273 -113.70340070367141 0 0 0 0 -1327.7289960177841 -620.78764465411007 0 -620.78764465411007 -158.83412063911021 0 0 0 0 -1411.3686549369377 -88.147497826699237 0 -88.147497826699237 -87.246733630547624 0 0 0 0 -1122.8432559298599 -39.568164608606367 0 -39.568164608606367 -80.789782101863665 0 0 0 0 -2050.0299677863513 -305.54733997347194 0 -305.54733997347194 85.828455766201841 0 0 0 0 -1441.6384181096728 -242.58824933502342 0 -242.58824933502342 62.845435390864623 0 0 0 0 -1412.7509302796097 -275.7020929233579 0 -275.7020929233579 -33.1155704931125 0 0 0 0 -1632.9106043054107 -406.47283090865693 0 -406.47283090865693 -9.1152943845163463 0 0 0 0 -1358.8234793518641 -343.07985899883829 0 -343.07985899883829 -24.514061178419297 0 0 0 0 -1204.493912725633 -215.97259915308371 0 -215.97259915308371 -40.03037186897518 0 0 0 0 -1359.2864170592766 -330.46228894439969 0 -330.46228894439969 -79.338551503586586 0 0 0 0 -1056.1834087535062 -348.22251535027976 0 -348.22251535027976 -110.45261655425975 0 0 0 0 -908.37939534399629 -249.27914508384185 0 -249.27914508384185 -168.7842060397561 0 0 0 0 -894.19468178888201 -186.78642311647809 0 -186.78642311647809 -168.86978915562173 0 0 0 0 -716.45595766074257 -371.71675609326485 0 -371.71675609326485 -167.80326846540129 0 0 0 0 -403.52718226909201 -257.26507229802428 0 -257.26507229802428 -82.673517009810439 0 0 0 0 -407.87222553791798 -195.77299531456583 0 -195.77299531456583 -323.64332268347243 0 0 0 0 -415.8420702248477 -250.87559080743904 0 -250.87559080743904 -329.48673114373628 0 0 0 0 -178.1200521407809 -163.26999103253092 0 -163.26999103253092 -473.56279719320105 0 0 0 0 -665.67337898473124 -59.908579630364898 0 -59.908579630364898 -335.16928517957695 0 0 0 0 -342.61359375376196 -159.74520312082427 0 -159.74520312082427 -467.71132240072984 0 0 0 0 -367.79627107247507 29.191097446542926 0 29.191097446542926 -410.21614027787609 0 0 0 0 -481.97037143780472 -86.422431057725589 0 -86.422431057725589 -350.36756430754622 0 0 0 0 -233.24472904445611 -234.79727975607409 0 -234.79727975607409 -363.02328198729447 0 0 0 0 -111.16073954560852 -349.85148448127075 0 -349.85148448127075 -364.1356081235258 0 0 0 0 31.075589928092086 -14.506793361058953 0 -14.506793361058953 -491.24220865683225 0 0 0 0 -34.740627135790419 -264.60350990247434 0 -264.60350990247434 -490.98087555610624 0 0 0 0 -50.055936550179467 -40.481806356329571 0 -40.481806356329571 -267.14192481045211 0 0 0 0 -41.339016652433202 -49.332621458894664 0 -49.332621458894664 -287.13598970452585 0 0 0 0 -4.9209051930438701 -0.21383601869566604 0 -0.21383601869566604 -1.7780511528001792 0 0 0 0 -3.7463937995678975 -1.2725858820096079 0 -1.2725858820096079 0.2870795450561312 0 0 0 0 -5.6116530100662203 3.8057395491246098 0 3.8057395491246098 -153.84927494355907 0 0 0 0 -276.25373147525534 -262.24998804529741 0 -262.24998804529741 -334.78635366531284 0 0 0 0 -58.877542896436353 -21.885732583733443 0 -21.885732583733443 211.17177458952574 0 0 0 0 -12.388685731217265 -2.1234940960803215 0 -2.1234940960803215 -3.0455218107272231 0 0 0 0 -10.944520708261891 1.1625765037787907 0 1.1625765037787907 -0.73987046055724637 0 0 0 0 -40.588806435615879 5.2984645058412525 0 5.2984645058412525 -30.509239662000255 0 0 0 0 -13.511995524453077 0.99336776887664868 0 0.99336776887664868 -5.3366547549247692 0 0 0 0 -70.896453358858707 -105.85595078583356 0 -105.85595078583356 -98.67738319259206 0 0 0 0 -209.37771923821128 -150.37602230190396 0 -150.37602230190396 -112.98845647543658 0 0 0 0 -234.29301161403419 -138.47075422212038 0 -138.47075422212038 -60.544457567385052 0 0 0 0 -6.0333000300015556 -85.261736441093035 0 -85.261736441093035 96.448325314990143 0 0 0 0 -238.11911498499103 -112.70057687151802 0 -112.70057687151802 -135.08878030847654 0 0 0 0 -12.87405205797522 4.6223403622445609 0 4.6223403622445609 -1.6766512743905437 0 0 0 0 -296.41026086600323 -132.35201345332553 0 -132.35201345332553 -61.107829884680314 0 0 0 0 -296.19543766013658 -132.50824008348155 0 -132.50824008348155 -109.7461041092638 0 0 0 0 -425.21211782458704 -165.82562259861561 0 -165.82562259861561 -26.669561207795596 0 0 0 0 -377.42854982933204 -200.75155836579779 0 -200.75155836579779 -128.68914603837766 0 0 0 0 -233.36093418642122 -95.641148187504768 0 -95.641148187504768 -280.8009018843486 0 0 0 0 -389.96720825453667 -23.686790017883141 0 -23.686790017883141 6.8146039936780483 0 0 0 0 -643.00520219413738 -161.14224165571477 0 -161.14224165571477 13.240967739348406 0 0 0 0 -413.23793534512515 -289.04762433228393 0 -289.04762433228393 -326.11701612568049 0 0 0 0 -5.606684671014321 1.2338437514874165 0 1.2338437514874165 -0.065242198276523666 0 0 0 0 -3.6161568626315734 -1.7009191587135604 0 -1.7009191587135604 4.0917433727065973 0 0 0 0 -270.4378791849158 178.61627786255303 0 178.61627786255303 -13.015606481200848 0 0 0 0 -868.85889801190569 -836.15080104473964 0 -836.15080104473964 -450.57571246899352 0 0 0 0 -58.409435350462445 -6.1138119918491611 0 -6.1138119918491611 23.651772737706779 0 0 0 0 -1748.4033480405924 -308.27555975720634 0 -308.27555975720634 1017.2189032983852 0 0 0 0 -3.0143779650333071 -4.4099876811110761 0 -4.4099876811110761 3.6650585090353474 0 0 0 0 -469.71128386753844 -181.28528085644211 0 -181.28528085644211 -177.05867247842207 0 0 0 0 -654.61479170464736 86.826283768091344 0 86.826283768091344 104.02536949332216 0 0 0 0 -414.35759683319338 -252.26125449198753 0 -252.26125449198753 -282.36294031705438 0 0 0 0 -1386.5479981813332 -271.01341283495958 0 -271.01341283495958 -1114.6588672643138 0 0 0 0 391.95591249308745 -125.78876868722881 0 -125.78876868722881 6.0977703876014857 0 0 0 0 -94.355343351548072 -284.41662155833455 0 -284.41662155833455 -127.52368055948091 0 0 0 0 -285.87172230177384 -206.52202939831113 0 -206.52202939831113 -454.84251506242344 0 0 0 0 133.86044994430267 34.208936810908199 0 34.208936810908199 -275.3641390116245 0 0 0 0 192.02316274793702 -138.01297110798532 0 -138.01297110798532 -384.69833567595924 0 0 0 0 -155.79833163382136 -150.67407771021954 0 -150.67407771021954 -355.31646191736581 0 0 0 0 -100.79979897684825 -206.79069005550809 0 -206.79069005550809 -281.76284661269892 0 0 0 0 -39.393602336102049 -35.377733913024713 0 -35.377733913024713 -176.35265662194251 0 0 0 0 -331.01397512778931 -163.63061484860646 0 -163.63061484860646 -227.20805060163002 0 0 0 0 -178.99984325603873 -321.18604785347634 0 -321.18604785347634 -328.16407053914645 0 0 0 0 37.468672813811281 -333.95055310418456 0 -333.95055310418456 -329.18824464511363 0 0 0 0 -98.920243756903801 -355.89018667373682 0 -355.89018667373682 -571.20257480490773 0 0 0 0 30.107047398356372 -240.65877180285383 0 -240.65877180285383 -497.19894437368885 0 0 0 0 -44.879005523871456 -344.06674010520169 0 -344.06674010520169 -452.93880761972832 0 0 0 0 -247.70408599281654 -214.3787523879073 0 -214.3787523879073 -381.46457788220778 0 0 0 0 -557.72458129205188 -187.16240235970372 0 -187.16240235970372 -359.00840662611245 0 0 0 0 -1385.1914493282966 -333.05357496190572 0 -333.05357496190572 -137.2420624700585 0 0 0 0 -0.78511791204922066 -1.6762464518204325 0 -1.6762464518204325 0.092566140225327942 0 0 0 0 489.94284156271169 -97.197580459456276 0 -97.197580459456276 -942.15885767439977 0 0 0 0 -558.14645100135385 -239.52449595323537 0 -239.52449595323537 -591.9025826318566 0 0 0 0 -971.81738569460867 -39.968598561249109 0 -39.968598561249109 -473.81334229274739 0 0 0 0 -704.46893042011652 197.01748832275575 0 197.01748832275575 195.10992804716443 0 0 0 0 -408.64707005859236 -344.32645635179949 0 -344.32645635179949 -461.66797803059103 0 0 0 0 -801.12716658055615 13.823037980824949 0 13.823037980824949 899.32865170683408 0 0 0 0 -87.795480365560138 -10.365428397578029 0 -10.365428397578029 -0.75280893996699605 0 0 0 0 -199.00274722327595 -216.69749151510564 0 -216.69749151510564 197.7544834437137 0 0 0 0 -474.31899998684457 -539.11931088358915 0 -539.11931088358915 507.42368685029669 0 0 0 0 -68.403745914685999 -10.478427208659753 0 -10.478427208659753 -0.74573292214199749 0 0 0 0 -52.399778052408351 -275.10729711549698 0 -275.10729711549698 -335.98758175360672 0 0 0 0 19.224138990757638 -136.80133724166831 0 -136.80133724166831 -332.98760181662465 0 0 0 0 -2728.2431553681818 448.76003345428637 0 448.76003345428637 443.39121214884312 0 0 0 0 -2895.5631092890326 758.54466531451362 0 758.54466531451362 536.32946185843252 0 0 0 0 -3174.0614462682247 1717.1743524531078 0 1717.1743524531078 -355.37132179665866 0 0 0 0 -3441.1630095347173 85.526528178954663 0 85.526528178954663 -564.46998966839385 0 0 0 0 -3502.1196707517956 805.12643988733589 0 805.12643988733589 302.0885185204732 0 0 0 0 -3498.1430485039482 838.91534166028964 0 838.91534166028964 -1335.2699466706792 0 0 0 0 -3643.1072103152983 1403.2713225768207 0 1403.2713225768207 -319.38903162803217 0 0 0 0 -14.685707604705556 11.334198925359047 0 11.334198925359047 -11.767539779929292 0 0 0 0 -3669.7305639746323 -286.8980383649743 0 -286.8980383649743 162.9034736309157 0 0 0 0 -383.82768544879946 1130.8073301129393 0 1130.8073301129393 -1262.2221074316419 0 0 0 0 -600.76923294006565 342.26685314038212 0 342.26685314038212 -232.72453724563593 0 0 0 0 14.05648451995512 537.21747843492722 0 537.21747843492722 -1020.5209603591256 0 0 0 0 -66.364903322622695 -291.77724364357834 0 -291.77724364357834 -47.629729071116344 0 0 0 0 -70.131013423923378 25.40566067867482 0 25.40566067867482 -63.945955383168666 0 0 0 0 -76.530651229528303 -20.497008935573831 0 -20.497008935573831 270.98019380872529 0 0 0 0 -297.16054956863809 342.39503529407875 0 342.39503529407875 -489.50615488335359 0 0 0 0 1.7782858756335926 -1.0005938436852873 0 -1.0005938436852873 9.3742732216009799 0 0 0 0 401.34098025172943 280.1148411240772 0 280.1148411240772 282.24815118372089 0 0 0 0 -1303.8712181709343 819.61109715114776 0 819.61109715114776 -54.455639177196019 0 0 0 0 -1304.9888070039451 671.82076541487891 0 671.82076541487891 692.7536989660382 0 0 0 0 -1464.2124076651089 931.44457766991468 0 931.44457766991468 298.28079764631968 0 0 0 0 -1978.3326843372633 1469.696794580093 0 1469.696794580093 152.88034355931381 0 0 0 0 -717.88938104714907 1344.1362024120704 0 1344.1362024120704 420.75515591742021 0 0 0 0 56.710841107393207 526.7687451858385 0 526.7687451858385 250.41365637181161 0 0 0 0 -585.75113056955161 818.65803496805779 0 818.65803496805779 128.00675868074848 0 0 0 0 6.1430992831010371 259.39412992003463 0 259.39412992003463 -55.176974319561737 0 0 0 0 -262.9201385570741 -186.87267001272045 0 -186.87267001272045 28.30468705119597 0 0 0 0 -316.92361924551369 221.37906562212049 0 221.37906562212049 293.16601152069165 0 0 0 0 92.291931694700907 585.18777774974569 0 585.18777774974569 1022.7248344913696 0 0 0 0 -154.862070930958 168.14384493116188 0 168.14384493116188 566.23574971809876 0 0 0 0 301.34393047527556 -15.740073024738763 0 -15.740073024738763 382.17184265928017 0 0 0 0 19.00879722879472 642.56099552851595 0 642.56099552851595 939.08172554351518 0 0 0 0 313.48660498414392 875.66645158373115 0 875.66645158373115 549.59657916965273 0 0 0 0 -507.38083637178352 152.23958971303949 0 152.23958971303949 550.54305080804875 0 0 0 0 0.3346821201696229 2.5718533562950299 0 2.5718533562950299 6.9978140383464282 0 0 0 0 1193.1030482735043 669.20145419501455 0 669.20145419501455 242.87014333646584 0 0 0 0 19.438106288009294 -177.39384914536859 0 -177.39384914536859 -107.6138645629095 0 0 0 0 1.2879522399920964 5.8067639784806957 0 5.8067639784806957 18.822916920032199 0 0 0 0 -142.55674088269734 111.63707174459239 0 111.63707174459239 -108.54784036037024 0 0 0 0 210.7787395467476 165.38059194946248 0 165.38059194946248 72.986045313367867 0 0 0 0 -236.83056067843705 37.909358510720807 0 37.909358510720807 -12.128392937919671 0 0 0 0 -84.06227872692034 270.35268497042853 0 270.35268497042853 147.82366157237448 0 0 0 0 170.88281022225419 149.73510475201101 0 149.73510475201101 131.96849895388641 0 0 0 0 236.74484780673265 312.48197684003173 0 312.48197684003173 148.03916552857117 0 0 0 0 -129.07933382779447 370.91782122487211 0 370.91782122487211 380.13466055257686 0 0 0 0 540.92485391817172 208.63569612254241 0 208.63569612254241 138.78586186563007 0 0 0 0 269.06859995499508 660.87294465159096 0 660.87294465159096 545.26207719096965 0 0 0 0 -128.62400451354551 358.32077403996936 0 358.32077403996936 222.12125013034756 0 0 0 0 -465.07177886156205 309.16174256043598 0 309.16174256043598 480.23563107709197 0 0 0 0 -359.99493950322722 353.35984119112914 0 353.35984119112914 312.44047237492305 0 0 0 0 -384.24087890007468 298.15309806454502 0 298.15309806454502 306.43005948787686 0 0 0 0 -565.86702614611568 415.82697033011709 0 415.82697033011709 314.6560494856717 0 0 0 0 -483.22527501903096 176.87756971969759 0 176.87756971969759 146.35966469892458 0 0 0 0 -682.62772851121372 329.65008764513061 0 329.65008764513061 42.674562808829251 0 0 0 0 -172.37181734911064 265.50964552487625 0 265.50964552487625 174.59676478492202 0 0 0 0 -417.2425577881113 -63.183831513281348 0 -63.183831513281348 93.625614857695496 0 0 0 0 -408.6277075953476 -134.82008203084354 0 -134.82008203084354 253.06377672045676 0 0 0 0 -424.06304764659581 -186.18404589171308 0 -186.18404589171308 -365.50933031577478 0 0 0 0 -479.41634467004769 -266.99523740025484 0 -266.99523740025484 -174.11282745426445 0 0 0 0 -490.68602771704172 -344.55305619955197 0 -344.55305619955197 -221.61100961647992 0 0 0 0 -275.09945413052628 -106.23675390874837 0 -106.23675390874837 -125.20698142418212 0 0 0 0 -629.77156188898334 -210.81957054894932 0 -210.81957054894932 -101.89732473043068 0 0 0 0 -475.09545792117024 -317.58781717929497 0 -317.58781717929497 -258.41642643961416 0 0 0 0 -762.7051133067298 -337.42463895048564 0 -337.42463895048564 -191.27198199986969 0 0 0 0 -1130.0624857302937 -587.82978528223884 0 -587.82978528223884 -209.86547403574519 0 0 0 0 -736.57058524874515 -197.92204678714685 0 -197.92204678714685 -267.10929887643238 0 0 0 0 -762.47244549730385 -388.66041283654778 0 -388.66041283654778 -273.22756895140003 0 0 0 0 -10.206615260034113 6.1188194317519375 0 6.1188194317519375 -4.3317904535308287 0 0 0 0 -1312.2142109995111 -464.84503653937566 0 -464.84503653937566 -232.92985508036409 0 0 0 0 -5.648162778156923 2.4245223668442364 0 2.4245223668442364 -2.0586104883538381 0 0 0 0 -2308.7423726555062 -426.06306148680295 0 -426.06306148680295 -233.80627947119589 0 0 0 0 -1442.1866851061313 214.84194720510163 0 214.84194720510163 -350.62032803663101 0 0 0 0 -1891.0387602388764 266.69108536596275 0 266.69108536596275 -356.55628519566409 0 0 0 0 -1487.865038417257 285.23437447573247 0 285.23437447573247 -148.92423646681459 0 0 0 0 -1023.8455502246434 124.95311483602256 0 124.95311483602256 -94.40420452919949 0 0 0 0 -1311.9724269401886 547.58848326649718 0 547.58848326649718 -40.654025106462768 0 0 0 0 -662.34307192289998 -274.02771821588578 0 -274.02771821588578 -215.20097196479173 0 0 0 0 -825.43480780022583 263.63082553528585 0 263.63082553528585 -75.445667034859639 0 0 0 0 -694.51221862869897 440.5021257904653 0 440.5021257904653 -42.586552003199245 0 0 0 0 -881.87610941624007 273.29138031497212 0 273.29138031497212 -48.784264447893975 0 0 0 0 -1059.5943746308112 869.88662900237978 0 869.88662900237978 41.011810633562106 0 0 0 0 -776.1827115507549 730.17178909089853 0 730.17178909089853 103.7606196672541 0 0 0 0 -1062.2037505003755 1139.0121586030577 0 1139.0121586030577 128.03279802842849 0 0 0 0 -1605.0720621271248 1040.779883276387 0 1040.779883276387 213.50449326900758 0 0 0 0 -1455.6510935481565 736.57656823083812 0 736.57656823083812 93.850136476845847 0 0 0 0 -1127.9073387545759 839.94312523180383 0 839.94312523180383 111.97772847148951 0 0 0 0 -1199.2615979735128 604.85088228502741 0 604.85088228502741 -86.541346813682026 0 0 0 0 -1763.9542277004766 630.58001876591902 0 630.58001876591902 -77.085482493876725 0 0 0 0 -1354.0988805324814 665.77276641145818 0 665.77276641145818 -366.34753568508557 0 0 0 0 -1360.1866042117144 821.81021088413934 0 821.81021088413934 27.389060674544339 0 0 0 0 -1335.4650947519112 -38.750540719605453 0 -38.750540719605453 58.857217455515354 0 0 0 0 -1415.4288345148379 597.68921401837849 0 597.68921401837849 22.818012837219953 0 0 0 0 -15.01454388768029 -5.4303629802589128 0 -5.4303629802589128 2.5701184231866594 0 0 0 0 -1442.1364585982519 520.74391998634394 0 520.74391998634394 51.19178440162915 0 0 0 0 -3498.502144621958 1349.6823646897315 0 1349.6823646897315 -264.32762493050427 0 0 0 0 -1176.4393174431716 -573.18084173747889 0 -573.18084173747889 705.61159005657987 0 0 0 0 -10.459205407217581 -2.1934788031647798 0 -2.1934788031647798 1.7914737773543821 0 0 0 0 -1242.402425798784 698.99574652059778 0 698.99574652059778 155.15576032235657 0 0 0 0 -1705.045133509906 709.39113910882327 0 709.39113910882327 272.95714286526197 0 0 0 0 -2476.072027361799 837.81621841905803 0 837.81621841905803 549.10979512389235 0 0 0 0 -3492.8103690191929 40.920149671282879 0 40.920149671282879 653.30278912839799 0 0 0 0 -2464.555539326022 477.02157258257614 0 477.02157258257614 446.4067102369271 0 0 0 0 -2847.9864210994529 1056.069181701509 0 1056.069181701509 -251.44533389669783 0 0 0 0 -3111.0261853045122 1220.5795353861492 0 1220.5795353861492 -297.76058753473109 0 0 0 0 -26.204001027713275 92.357840363226956 0 92.357840363226956 -54.193596547639117 0 0 0 0 -5.1996869414424509 18.573708667148651 0 18.573708667148651 -56.31830333388325 0 0 0 0 -31.924128753270452 -311.43380377833262 0 -311.43380377833262 387.50713666549927 0 0 0 0 -118.66341261730486 24.530557575148805 0 24.530557575148805 36.105486147373995 0 0 0 0 7.3080091423762497 142.38420648108209 0 142.38420648108209 -120.877034597711 0 0 0 0 -43.163870203709941 -12.849065497201297 0 -12.849065497201297 6.4241433265228789 0 0 0 0 -3497.7335795690933 1628.8971893949522 0 1628.8971893949522 -478.01092022447733 0 0 0 0 -3002.4650306739195 2096.6955935815859 0 2096.6955935815859 -1253.537547544054 0 0 0 0 -2644.150990594866 1259.4442982201044 0 1259.4442982201044 -631.34732922821468 0 0 0 0 -4.3113131455256308 8.0649726075721428 0 8.0649726075721428 -7.3090286071959616 0 0 0 0 -8.1844415151323062 3.5181244669872207 0 3.5181244669872207 -2.1947069721660828 0 0 0 0 -3486.3255769809984 7.0556683133892282 0 7.0556683133892282 -9.6758029215788763 0 0 0 0 582.31969383189607 -753.8035228341605 0 -753.8035228341605 47.474644125140777 0 0 0 0 -11.846939720503141 -2.4971603404940694 0 -2.4971603404940694 -1.5157778597276743 0 0 0 0 -1101.7512438462472 -993.919951154008 0 -993.919951154008 116.91083632087454 0 0 0 0 -3492.9892447913467 -183.78540984666728 0 -183.78540984666728 687.32584704269266 0 0 0 0 -957.17734963321027 188.46691035031489 0 188.46691035031489 213.37459382764536 0 0 0 0 -266.12750193936154 333.10666136112417 0 333.10666136112417 -91.517096677570891 0 0 0 0 -174.10992356727002 114.67816540994419 0 114.67816540994419 263.66326521475929 0 0 0 0 -398.68644683430102 -10.737405157642556 0 -10.737405157642556 277.51776298299683 0 0 0 0 -573.59127837946016 303.63013951734735 0 303.63013951734735 134.43951987544739 0 0 0 0 -1268.9456630779932 -247.76518949411729 0 -247.76518949411729 279.80327615507804 0 0 0 0 -161.29227006719066 -336.24051308788637 0 -336.24051308788637 268.30102261958194 0 0 0 0 -7.2109698411139647 -2.1408727082830339 0 -2.1408727082830339 0.81384215174557006 0 0 0 0 -2454.8729786439726 1015.7739778163448 0 1015.7739778163448 -460.00254055413325 0 0 0 0 -1866.2465316735124 293.07275247162636 0 293.07275247162636 -364.5697257112688 0 0 0 0 -1878.9584410537991 527.64731281770844 0 527.64731281770844 187.06279619423626 0 0 0 0 -1992.5412634127206 271.58701001408508 0 271.58701001408508 -335.34910124446424 0 0 0 0 -1908.9033968359618 118.58431200368247 0 118.58431200368247 368.69495593831982 0 0 0 0 -2197.8857739070718 433.32648879022258 0 433.32648879022258 342.931456550262 0 0 0 0 -481.90688658945874 -73.048108479140097 0 -73.048108479140097 47.188898020775547 0 0 0 0 -520.8984884953752 361.82565586447868 0 361.82565586447868 134.92830101078101 0 0 0 0 -1092.0109089819816 70.270259001230187 0 70.270259001230187 262.29378011814538 0 0 0 0 -1186.0694170838615 464.59771491103589 0 464.59771491103589 0.34604308575137566 0 0 0 0 -554.70829249863891 -28.216028575835026 0 -28.216028575835026 182.46511328137731 0 0 0 0 -132.39702177714935 -128.83039021252455 0 -128.83039021252455 105.60875883966173 0 0 0 0 -1123.2337028346228 111.78576490176863 0 111.78576490176863 186.59899628288645 0 0 0 0 -45.91715950216345 -15.705671544504447 0 -15.705671544504447 9.4085422199225661 0 0 0 0 -57.317107865281287 687.93596562778021 0 687.93596562778021 -434.95935958144764 0 0 0 0 -13.660288159456428 -0.72775108656615828 0 -0.72775108656615828 1.1709093434741416 0 0 0 0 -3394.438544617853 1049.3670396954781 0 1049.3670396954781 88.488317458087408 0 0 0 0 -1370.7299612983988 845.32844970980887 0 845.32844970980887 -715.20143455447305 0 0 0 0 -3618.9278573402735 -392.19523730338346 0 -392.19523730338346 118.24649885538827 0 0 0 0 -2868.2007278485507 153.83484646619058 0 153.83484646619058 387.6278467019722 0 0 0 0 -2635.9617881761806 20.994355118348551 0 20.994355118348551 249.78592183300702 0 0 0 0 -1602.1352562060001 816.61917604592838 0 816.61917604592838 0.41802921929433978 0 0 0 0 -2899.5827103200281 -361.13727289289562 0 -361.13727289289562 59.861902779008631 0 0 0 0 -2822.3034638270583 -307.02218236724684 0 -307.02218236724684 -59.498784517583772 0 0 0 0 -2901.8529309553742 -462.54792191694514 0 -462.54792191694514 -303.59590428875254 0 0 0 0 -2617.4828861325768 -799.75548212414026 0 -799.75548212414026 -398.11653060884618 0 0 0 0 -1855.4831146656852 -487.84589270991859 0 -487.84589270991859 -271.62719779296077 0 0 0 0 -2380.2563193628375 -285.65641446516867 0 -285.65641446516867 -157.7967258347847 0 0 0 0 -2289.5044830008555 -93.177247968851546 0 -93.177247968851546 106.93383600138841 0 0 0 0 -2445.4718430311332 27.293078076207529 0 27.293078076207529 74.921780373685678 0 0 0 0 -2004.8124212283765 202.24716511280198 0 202.24716511280198 24.869139700897136 0 0 0 0 -2061.9409222977847 35.874757764818142 0 35.874757764818142 -444.7529408080137 0 0 0 0 -1871.8122996035272 294.8037544012891 0 294.8037544012891 -503.74961565707281 0 0 0 0 -1918.4310870768441 -181.92538865326236 0 -181.92538865326236 -139.72754824016278 0 0 0 0 -1805.1155769117959 -132.68911467656409 0 -132.68911467656409 -418.48005573496715 0 0 0 0 -498.87767578899729 -113.55507625395524 0 -113.55507625395524 -434.23356682799414 0 0 0 0 -1200.112928450827 -582.57570761929185 0 -582.57570761929185 -473.40915053777212 0 0 0 0 -1139.0121425751004 -423.64516326922637 0 -423.64516326922637 -489.81762920803919 0 0 0 0 -1860.6646712912316 -544.66345020936183 0 -544.66345020936183 -484.85802533275563 0 0 0 0 -1227.2099018573299 -624.99340644586346 0 -624.99340644586346 -638.9895306527917 0 0 0 0 -1934.4365043083981 -757.85313433140243 0 -757.85313433140243 -533.4308354759396 0 0 0 0 -1498.8120560876559 -599.56083120398171 0 -599.56083120398171 -696.17871311681222 0 0 0 0 -2011.9613283855906 -479.11232786760149 0 -479.11232786760149 -541.56915064612167 0 0 0 0 -1600.5304091889793 -822.69552156251984 0 -822.69552156251984 -496.31281872595372 0 0 0 0 -1105.7548208915814 -875.60287334795748 0 -875.60287334795748 -714.55606335470395 0 0 0 0 -40.949879675188861 35.699877795817173 0 35.699877795817173 -27.487896353930175 0 0 0 0 -1075.038038185 -429.99969447668786 0 -429.99969447668786 -584.8282084755806 0 0 0 0 647.95231321247377 1006.0428770522003 0 1006.0428770522003 489.23754257226574 0 0 0 0 491.54337179775672 436.73476341790592 0 436.73476341790592 -268.1659318337729 0 0 0 0 510.58071987515319 213.76063606702337 0 213.76063606702337 282.83552677251282 0 0 0 0 -2737.5461655361833 -973.26393788517089 0 -973.26393788517089 -524.90054499573125 0 0 0 0 -2619.0005798310049 -1087.4863044577673 0 -1087.4863044577673 -451.98382591801555 0 0 0 0 -15.71200267702789 12.819573406688921 0 12.819573406688921 -12.019621834120592 0 0 0 0 -2107.2708344053081 -1154.3440097288249 0 -1154.3440097288249 -489.14746786508249 0 0 0 0 -2495.4330537510764 -626.6032290692267 0 -626.6032290692267 -309.64974418092015 0 0 0 0 -3129.1673348549812 -418.39943856952652 0 -418.39943856952652 -346.59703337722522 0 0 0 0 -3199.2397605336428 -720.37984494413865 0 -720.37984494413865 -322.04568458538301 0 0 0 0 -2550.1055294179378 -851.6493266757625 0 -851.6493266757625 -640.27417000317973 0 0 0 0 -3381.1498302833506 -450.64439037010044 0 -450.64439037010044 -280.43139441359244 0 0 0 0 -3160.2167575951626 -700.60741343228028 0 -700.60741343228028 -438.05792395324528 0 0 0 0 -3126.4931699483568 -495.03980714680915 0 -495.03980714680915 3.6325023218440151 0 0 0 0 -2908.5289126962352 -645.81535172606345 0 -645.81535172606345 -203.60508197313357 0 0 0 0 -3830.2918049764157 117.1665303842336 0 117.1665303842336 -465.70510186641309 0 0 0 0 -2112.4376310611442 -677.24097919090036 0 -677.24097919090036 -738.23031399185629 0 0 0 0 -1986.7598810851737 -605.04463314527709 0 -605.04463314527709 -818.9604090812436 0 0 0 0 -2764.8790055481968 -591.82060293924997 0 -591.82060293924997 -533.12916651348075 0 0 0 0 -5065.5521502555239 -821.08585270077003 0 -821.08585270077003 -354.24252641395697 0 0 0 0 -2764.8182279782841 -605.62559246535852 0 -605.62559246535852 -1698.6430223315265 0 0 0 0 -349.66893148979761 -609.43080063787886 0 -609.43080063787886 -1089.1258581757431 0 0 0 0 -15.55204109613171 -11.563612784923134 0 -11.563612784923134 -3.803679983571028 0 0 0 0 -4141.5371988097131 1560.5452805671252 0 1560.5452805671252 -722.94234251323587 0 0 0 0 -10.19517010188658 -6.5368861777302332 0 -6.5368861777302332 14.310532725291482 0 0 0 0 -367.04999890356976 202.85407762950098 0 202.85407762950098 -151.72858475932799 0 0 0 0 -296.68580688415932 3.6971068162873451 0 3.6971068162873451 132.78716376866836 0 0 0 0 -290.33715507523539 343.00825263810032 0 343.00825263810032 -371.24181249296475 0 0 0 0 -3484.3816997445138 -1023.254046642796 0 -1023.254046642796 179.48957677756937 0 0 0 0 -2910.5368544676767 -591.5792354633254 0 -591.5792354633254 -43.240292990351236 0 0 0 0 -2340.9530867795752 -985.29393481959562 0 -985.29393481959562 -297.58736873521138 0 0 0 0 -1436.9423066605932 -823.74600039384939 0 -823.74600039384939 -253.94295663006994 0 0 0 0 -1.8917638339650749 -0.088407526263363678 0 -0.088407526263363678 -2.4408526052549666 0 0 0 0 -1600.4140250384698 264.994648233384 0 264.994648233384 1.1137941617922706 0 0 0 0 -2463.1167624450054 -245.92415964410912 0 -245.92415964410912 203.99434484751544 0 0 0 0 -2496.4594395022932 -323.08687408328882 0 -323.08687408328882 227.85874613199994 0 0 0 0 -4.6729047012434268 -0.23664331457962628 0 -0.23664331457962628 -6.2554458751016941 0 0 0 0 -3499.4737982061401 272.5305307561481 0 272.5305307561481 564.73739991462708 0 0 0 0 -2756.9029071161112 271.56139370320716 0 271.56139370320716 498.85339118516697 0 0 0 0 -2243.2984711173581 926.13172466572917 0 926.13172466572917 -154.43025791385642 0 0 0 0 -1556.3076054410867 -83.670390620152546 0 -83.670390620152546 156.41254145078423 0 0 0 0 -0.35079609595065619 1.8277761441573279 0 1.8277761441573279 -1.6621138386245793 0 0 0 0 -123.95409000139989 72.186305746288042 0 72.186305746288042 -32.187758905413091 0 0 0 0 -2761.7688481077648 900.58161037590583 0 900.58161037590583 -150.65835369927203 0 0 0 0 -126.07248935869393 6.57664768651982 0 6.57664768651982 -42.966729692823947 0 0 0 0 -156.53588468740327 106.04785844889032 0 106.04785844889032 -298.80144804926044 0 0 0 0 -3499.6412603894942 850.04807307625026 0 850.04807307625026 219.37138200984401 0 0 0 0 -210.91023460084034 -138.00258549828868 0 -138.00258549828868 27.693261636502712 0 0 0 0 -98.736216544687608 -17.750881003331667 0 -17.750881003331667 2.1002458651147577 0 0 0 0 -347.76511187829601 -13.007756960814277 0 -13.007756960814277 101.52451386598659 0 0 0 0 -737.0856640923048 255.14945046055072 0 255.14945046055072 -32.547654004527431 0 0 0 0 -69.562980809458168 11.441916259621394 0 11.441916259621394 -5.376897878485579 0 0 0 0 -463.84058601505603 312.93995257726601 0 312.93995257726601 -301.12417323896261 0 0 0 0 -74.035242509103355 3.284078451953599 0 3.284078451953599 -0.6780949050707008 0 0 0 0 -803.49495002945059 294.38046754416337 0 294.38046754416337 65.360022991073492 0 0 0 0 -20.286774254527398 1.552014369031907 0 1.552014369031907 5.5844039055850558 0 0 0 0 -600.9822322779346 342.32815248633506 0 342.32815248633506 23.260963229342451 0 0 0 0 -734.32464641676597 377.1643417585201 0 377.1643417585201 139.37460028575333 0 0 0 0 -837.57951471097203 97.567195270313277 0 97.567195270313277 303.77146322885892 0 0 0 0 -266.93401679927229 75.574756677602181 0 75.574756677602181 169.50737243697404 0 0 0 0 -128.26373326671091 -47.64376226197146 0 -47.64376226197146 108.6443444198967 0 0 0 0 -177.55881988527562 -137.01050713285258 0 -137.01050713285258 -0.80582162912742206 0 0 0 0 -46.438994189512869 -16.537993442531842 0 -16.537993442531842 27.995058495329431 0 0 0 0 -59.014995504691115 -24.547322169838651 0 -24.547322169838651 48.666838819422992 0 0 0 0 -23.176726203998715 -10.627544399222771 0 -10.627544399222771 56.542011136902424 0 0 0 0 -6.5267167280746854 7.1432374718813261 0 7.1432374718813261 11.901299832928023 0 0 0 0 -123.36238241482829 42.934735490246908 0 42.934735490246908 96.751708069569759 0 0 0 0 -37.145243637678504 55.106228394342907 0 55.106228394342907 3.4767309959188424 0 0 0 0 -141.70383345350183 107.59013468123385 0 107.59013468123385 -29.222371542337896 0 0 0 0 -29.897892433030446 33.149310919992566 0 33.149310919992566 36.569287181305079 0 0 0 0 -101.32040175360552 -12.355482831195307 0 -12.355482831195307 16.54190640961378 0 0 0 0 -194.96535937213775 -109.02518357234385 0 -109.02518357234385 -141.89984382271359 0 0 0 0 -225.1145817566794 -66.987082103939429 0 -66.987082103939429 160.45027379714065 0 0 0 0 -394.04613241210609 -14.082252253214392 0 -14.082252253214392 149.44495447230747 0 0 0 0 -264.48607964321127 -70.404044763951788 0 -70.404044763951788 10.447817017515263 0 0 0 0 -383.18733641643666 -10.884675770605554 0 -10.884675770605554 -19.060846062802739 0 0 0 0 -93.468982656822845 5.0315263867037743 0 5.0315263867037743 23.839794304461066 0 0 0 0 -185.30108803864641 -63.951086821833883 0 -63.951086821833883 -12.245840869241874 0 0 0 0 -11.022809193477769 4.8930658534457976 0 4.8930658534457976 17.922079746243352 0 0 0 0 -23.567009996024606 -8.3575474684754596 0 -8.3575474684754596 27.922370382473435 0 0 0 0 -136.87810426122633 -1.832404335556248 0 -1.832404335556248 3.5890771168033098 0 0 0 0 -71.030115307545032 8.8081370462654576 0 8.8081370462654576 31.795932902060891 0 0 0 0 -1.0406162196743907 8.2153990428272472 0 8.2153990428272472 6.3982060167986532 0 0 0 0 -207.79070834988124 153.99295656143659 0 153.99295656143659 -27.327399822603184 0 0 0 0 -334.24328274018626 -169.33195629859347 0 -169.33195629859347 -64.389521893986341 0 0 0 0 -154.38562694298798 -21.947663961138915 0 -21.947663961138915 16.817411963468658 0 0 0 0 -89.590767409263208 11.817229172293764 0 11.817229172293764 14.411020284065621 0 0 0 0 -2.5989221856005083 -13.686399341670956 0 -13.686399341670956 12.804117372225685 0 0 0 0 -283.27388418380906 -63.728381632665901 0 -63.728381632665901 -4.444912695333187 0 0 0 0 -5.6910948750307053 7.0785214351787502 0 7.0785214351787502 13.442806830884678 0 0 0 0 -367.8330547994774 -77.641930912003772 0 -77.641930912003772 29.594515510592828 0 0 0 0 -322.08931088558165 -77.939979563920133 0 -77.939979563920133 12.886051867368224 0 0 0 0 -319.77192330351681 -101.6499531059635 0 -101.6499531059635 9.8283155723884192 0 0 0 0 -349.96627696190626 -104.00393673275767 0 -104.00393673275767 18.091520922585914 0 0 0 0 -255.94143648142926 -107.63956558022892 0 -107.63956558022892 -4.1515157907160756 0 0 0 0 -323.89551881761872 -115.89407271862547 0 -115.89407271862547 -2.9966510510221269 0 0 0 0 -5.1319586615445871 -8.252001124798074 0 -8.252001124798074 -10.736843960777593 0 0 0 0 -149.82526928632433 -106.01283497500026 0 -106.01283497500026 -38.876942454686287 0 0 0 0 -226.94310869250239 -103.94141228591798 0 -103.94141228591798 -32.014817691089775 0 0 0 0 -122.9660175656536 -49.252539004859045 0 -49.252539004859045 -44.845484346251396 0 0 0 0 -153.41731374379742 -56.393894456321505 0 -56.393894456321505 -15.539236612926288 0 0 0 0 -32.869096634054571 4.3788714364294634 0 4.3788714364294634 -2.0641078993181523 0 0 0 0 -238.6354223933613 -78.230879601073184 0 -78.230879601073184 -3.9014375180031493 0 0 0 0 -250.85987430601381 -86.681908403879788 0 -86.681908403879788 -4.7677034928580042 0 0 0 0 -193.55341398756536 -26.94100190057361 0 -26.94100190057361 -12.938695021315652 0 0 0 0 -229.39359982024689 -92.686791956820343 0 -92.686791956820343 -40.432409050857132 0 0 0 0 -29.370449364359491 -6.863191971489961 0 -6.863191971489961 -1.7225293350993347 0 0 0 0 -89.865788724129288 -2.4491348194131888 0 -2.4491348194131888 -1.2006191898180987 0 0 0 0 -49.602736704997369 16.69595008424551 0 16.69595008424551 -10.166838954115519 0 0 0 0 -59.403882771654025 -7.8663127290697048 0 -7.8663127290697048 -11.702394059032486 0 0 0 0 24.504242693019705 -82.305471327194283 0 -82.305471327194283 -17.576041101546707 0 0 0 0 -79.258368701505333 -5.0356848272763273 0 -5.0356848272763273 -8.0849884143080999 0 0 0 0 -28.177013993159207 13.091335755797871 0 13.091335755797871 -1.3050350958493775 0 0 0 0 30.263992327585584 55.789885193646114 0 55.789885193646114 -32.07742041596066 0 0 0 0 -355.07606842607493 -6.5588327156522155 0 -6.5588327156522155 -3.1087833736900166 0 0 0 0 -2.8812075905730978 2.5306744501698724 0 2.5306744501698724 -1.1234211044310083 0 0 0 0 7.9967921140105318 8.3634681221926712 0 8.3634681221926712 18.408040012995571 0 0 0 0 -266.17552934262221 -287.26143802495301 0 -287.26143802495301 -268.92988573168532 0 0 0 0 -1105.3149334335831 -248.02883587973656 0 -248.02883587973656 -203.9272867623813 0 0 0 0 -1020.795293316005 -521.75041200811711 0 -521.75041200811711 -234.90558824878758 0 0 0 0 -2.960182233966492 0.18854200579765035 0 0.18854200579765035 0.53101559604431792 0 0 0 0 -1239.8706911636446 -316.52081478443898 0 -316.52081478443898 -220.10580014444486 0 0 0 0 -1227.4557666646942 -300.93532159996448 0 -300.93532159996448 -72.34742276548377 0 0 0 0 -1237.7800109596792 -244.79787424308643 0 -244.79787424308643 -156.16754747148047 0 0 0 0 -1269.8112541352602 -290.06138198313351 0 -290.06138198313351 -194.55236045608444 0 0 0 0 -1258.3463416011032 -170.48619237806736 0 -170.48619237806736 -369.36657266452085 0 0 0 0 -1119.0392296769569 -223.9840890072503 0 -223.9840890072503 -423.44818722713057 0 0 0 0 -1119.8809852773629 -259.65438643088675 0 -259.65438643088675 -681.63264896599776 0 0 0 0 -1231.2482657382498 -26.360555029278657 0 -26.360555029278657 -729.67935198634905 0 0 0 0 -680.31653981120326 -849.12998799345826 0 -849.12998799345826 -269.99191305423153 0 0 0 0 -18.087946676848063 26.078617858129125 0 26.078617858129125 1.2573676011502597 0 0 0 0 -45.702459127540237 18.77093889496162 0 18.77093889496162 -3.1283474838312699 0 0 0 0 -584.94239741739875 213.54453289307116 0 213.54453289307116 -45.585357652595576 0 0 0 0 -1407.5534479527923 -141.66682486661637 0 -141.66682486661637 -306.68810029575752 0 0 0 0 -1094.4912410907491 -591.14038653550233 0 -591.14038653550233 -344.16229072303122 0 0 0 0 -1174.8232947436954 -504.64429962158101 0 -504.64429962158101 -393.45140446674145 0 0 0 0 -1186.2470526997677 -475.32818700375742 0 -475.32818700375742 -422.02080565518327 0 0 0 0 -1230.0590060076138 -430.05212188411883 0 -430.05212188411883 -201.0300564589395 0 0 0 0 -1272.9299137639673 -316.33310649251894 0 -316.33310649251894 -409.90018544960913 0 0 0 0 -1099.0420901632879 -410.36305065686156 0 -410.36305065686156 -545.31626797906483 0 0 0 0 -1086.7898696600023 -367.66157452426569 0 -367.66157452426569 -418.84270341426986 0 0 0 0 -1007.0970884643193 -590.23126210743362 0 -590.23126210743362 -650.06921378246079 0 0 0 0 -959.05061428985391 -415.57984823967354 0 -415.57984823967354 -748.37887011044711 0 0 0 0 -967.10935288727342 -457.49703801397999 0 -457.49703801397999 -612.00911838271918 0 0 0 0 -669.78303236392821 -388.58749288998428 0 -388.58749288998428 -746.21389519702927 0 0 0 0 -67.068888841907665 53.20511392772908 0 53.20511392772908 -32.67834948088386 0 0 0 0 -1231.5462720719083 -603.99334660895477 0 -603.99334660895477 -616.74513034078177 0 0 0 0 -74.702331112406142 53.425912156006589 0 53.425912156006589 -27.250971799696956 0 0 0 0 -1354.1997649286131 149.96489556222946 0 149.96489556222946 -786.80769554174776 0 0 0 0 -368.47817930511519 479.79655352583359 0 479.79655352583359 -16.044496482936665 0 0 0 0 -368.3893157066268 485.16353703922528 0 485.16353703922528 -90.369399496379629 0 0 0 0 -950.97316512889665 -270.25831381778937 0 -270.25831381778937 -774.83894273310511 0 0 0 0 -947.64099329902456 -373.01573238461981 0 -373.01573238461981 -633.21920503836338 0 0 0 0 -220.46995500900084 352.51108878565356 0 352.51108878565356 -29.525699323334379 0 0 0 0 -390.98096054287726 506.39948276008727 0 506.39948276008727 31.021177286662351 0 0 0 0 -604.07792138200966 359.35390261077191 0 359.35390261077191 6.9073588306910096 0 0 0 0 -541.12820020258914 414.26828662734351 0 414.26828662734351 -303.38418556611941 0 0 0 0 -271.55201337558083 282.77915694767944 0 282.77915694767944 -57.835582776197043 0 0 0 0 -504.17560149582096 285.56725209609249 0 285.56725209609249 126.96304721079105 0 0 0 0 76.747096702717045 741.18993290571461 0 741.18993290571461 311.39696426415139 0 0 0 0 -285.85863301301731 315.2389979076404 0 315.2389979076404 528.60855741651358 0 0 0 0 -69.55844742925683 50.254379417302516 0 50.254379417302516 253.99124530569861 0 0 0 0 -354.53196757860405 211.50778909422206 0 211.50778909422206 258.36746819321343 0 0 0 0 -420.35539964521013 6.3090748599352082 0 6.3090748599352082 -17.664391810994857 0 0 0 0 -560.99553599055025 35.97841915500635 0 35.97841915500635 -224.942412471235 0 0 0 0 -537.84608891874814 138.96092012529971 0 138.96092012529971 148.35844664943215 0 0 0 0 -738.40029452590534 -393.68751827670621 0 -393.68751827670621 -551.49858856936339 0 0 0 0 -850.68512829232532 -732.37115904632731 0 -732.37115904632731 -670.34332614858465 0 0 0 0 225.12659695377124 204.34294537107189 0 204.34294537107189 71.024884708425816 0 0 0 0 -57.892080149247995 48.435175928740151 0 48.435175928740151 -33.576591281480709 0 0 0 0 310.15171703048009 773.90632986985793 0 773.90632986985793 684.89853846961159 0 0 0 0 81.119121531835845 140.67174821981735 0 140.67174821981735 163.17430925325516 0 0 0 0 728.77734315264013 699.42630409611957 0 699.42630409611957 -135.33219996222033 0 0 0 0 -645.37931227436979 -201.7379098910767 0 -201.7379098910767 -70.291737253373867 0 0 0 0 -525.28487869414994 614.01546438811636 0 614.01546438811636 71.395644854983402 0 0 0 0 75.279769719234537 531.98026179280168 0 531.98026179280168 -920.31153311129492 0 0 0 0 237.28468381935849 143.85195082955988 0 143.85195082955988 -65.443194466870409 0 0 0 0 -624.91542998839031 -2.7242574363372114 0 -2.7242574363372114 59.062713010829611 0 0 0 0 -452.09350134028819 -39.54268325867406 0 -39.54268325867406 -130.05803421667042 0 0 0 0 -322.45763592090952 253.34667134732808 0 253.34667134732808 321.23854486057553 0 0 0 0 -478.3958735077822 -66.286459125209149 0 -66.286459125209149 76.921293515129037 0 0 0 0 -298.49159232268357 -18.268975919467721 0 -18.268975919467721 -916.35254387118539 0 0 0 0 -300.76075007270725 6.0075327482107355 0 6.0075327482107355 -319.52166520238643 0 0 0 0 -427.5822513201656 24.918129918760314 0 24.918129918760314 -136.68677254295289 0 0 0 0 -439.7802009316174 89.20267968161852 0 89.20267968161852 -259.95119571022224 0 0 0 0 -454.64513669436928 208.30823927683309 0 208.30823927683309 -157.67212364077204 0 0 0 0 -626.52286947759967 181.88099930817953 0 181.88099930817953 -13.848838242467536 0 0 0 0 -669.52447726796163 240.37435049047144 0 240.37435049047144 -69.80588691267593 0 0 0 0 -684.62757416438217 255.45678846724741 0 255.45678846724741 103.82255316351802 0 0 0 0 -670.35877633667496 192.30801880543459 0 192.30801880543459 37.455612925823516 0 0 0 0 -638.15620118901552 145.78367271770617 0 145.78367271770617 62.779904969333074 0 0 0 0 -763.37448858286189 121.76710778177949 0 121.76710778177949 10.630202981293678 0 0 0 0 -619.08517136707314 18.896555390449976 0 18.896555390449976 26.325311185566534 0 0 0 0 -875.05330778593975 225.8665999597165 0 225.8665999597165 43.517300570651059 0 0 0 0 -947.44623006201073 -31.46039880151875 0 -31.46039880151875 31.877978083473863 0 0 0 0 -1422.0551582531934 5.3569343542203569 0 5.3569343542203569 -43.968210147439095 0 0 0 0 -10.184046142267075 0.51751886446705342 0 0.51751886446705342 -0.39278708166899845 0 0 0 0 -705.39634059449509 -545.41449167509109 0 -545.41449167509109 -381.98861388840487 0 0 0 0 -582.33646176825187 583.47162674636184 0 583.47162674636184 -375.28254478590316 0 0 0 0 -251.01268194454042 -331.63629816351386 0 -331.63629816351386 -287.48732965865202 0 0 0 0 -1768.1724486572311 -164.33027877670065 0 -164.33027877670065 245.51732234227893 0 0 0 0 -854.47065530631517 871.37579451814872 0 871.37579451814872 -619.90318719474089 0 0 0 0 -792.4570312317046 487.65708823829664 0 487.65708823829664 158.46968869196189 0 0 0 0 -654.16854821051857 161.84838134735583 0 161.84838134735583 -92.655477378284559 0 0 0 0 -688.14212975415103 -14.220731015975616 0 -14.220731015975616 -951.23409459974937 0 0 0 0 -61.888900808950083 29.642560220222233 0 29.642560220222233 5.6628125951647617 0 0 0 0 -44.872518542173566 9.4533129991750684 0 9.4533129991750684 -21.374265198506691 0 0 0 0 -27.632373326173351 0.52531416250758411 0 0.52531416250758411 8.2578560811809414 0 0 0 0 -77.140383724747153 -34.012037793186209 0 -34.012037793186209 29.142242239433472 0 0 0 0 -61.434813041724738 -48.72237450144894 0 -48.72237450144894 19.545577208225041 0 0 0 0 -158.56899103408978 58.372351312971659 0 58.372351312971659 -8.2259735935718936 0 0 0 0 -116.45216461496057 53.699699514730582 0 53.699699514730582 -151.03405371183362 0 0 0 0 -52.435110608086688 9.4153666788461123 0 9.4153666788461123 16.249052016013934 0 0 0 0 -43.852760254095301 19.050697280661552 0 19.050697280661552 -4.8028859591267974 0 0 0 0 -9.1620309139273566 1.9108632237366621 0 1.9108632237366621 1.8183562109404789 0 0 0 0 -67.831631487404593 29.624929526109554 0 29.624929526109554 18.683402654545716 0 0 0 0 -209.30863125309952 122.33823723490741 0 122.33823723490741 -25.694944143415341 0 0 0 0 -513.89331888197376 262.92621153957771 0 262.92621153957771 62.505671537261151 0 0 0 0 -614.54387342460495 85.34444224881031 0 85.34444224881031 242.70931223495427 0 0 0 0 -566.43599962254484 235.32833918835604 0 235.32833918835604 -23.944507975198576 0 0 0 0 -12.082408355243388 -38.967107841413508 0 -38.967107841413508 90.233735054272984 0 0 0 0 -221.00808854133356 -16.683925978034495 0 -16.683925978034495 117.62732916011009 0 0 0 0 -50.179310748475473 22.69512850625506 0 22.69512850625506 228.75466971211699 0 0 0 0 11.105046409720671 7.5390478929475648 0 7.5390478929475648 69.531229289517796 0 0 0 0 -18.898713741567917 30.839915490728345 0 30.839915490728345 172.15398157029244 0 0 0 0 -0.97652039187960327 8.7914192847088088 0 8.7914192847088088 73.256072605448935 0 0 0 0 -20.86332251769727 49.112918181607256 0 49.112918181607256 102.75737508850216 0 0 0 0 -18.723447203912656 47.365622937394619 0 47.365622937394619 49.297680308586678 0 0 0 0 -29.792715670349935 16.200946504414787 0 16.200946504414787 17.304449825564006 0 0 0 0 -43.438661049556686 -6.1970548846802558 0 -6.1970548846802558 71.192184798324092 0 0 0 0 -68.365048563141499 62.428915539982427 0 62.428915539982427 62.976157132679873 0 0 0 0 -123.61752500694274 35.8004207733984 0 35.8004207733984 54.57503289348233 0 0 0 0 -41.010936621564724 10.329195897991212 0 10.329195897991212 93.229477412818596 0 0 0 0 -45.231694334699569 58.042117035979572 0 58.042117035979572 39.334969431647551 0 0 0 0 -30.169908548168678 25.127144011925338 0 25.127144011925338 52.813185955432346 0 0 0 0 -57.686923364683025 24.661352269988129 0 24.661352269988129 155.13993822625298 0 0 0 0 -44.194603223571903 55.717765178254922 0 55.717765178254922 27.234263547319642 0 0 0 0 -74.618769983080711 49.102920852835268 0 49.102920852835268 40.273379621150525 0 0 0 0 -45.183330222891527 45.767674879118204 0 45.767674879118204 -0.66805761734030966 0 0 0 0 -98.44289064111581 67.848743327903321 0 67.848743327903321 34.218503642920041 0 0 0 0 -70.916741443223145 54.596683440483503 0 54.596683440483503 4.6529857108889701 0 0 0 0 -47.78280721194664 -2.1041482191833172 0 -2.1041482191833172 39.406907778321028 0 0 0 0 -94.005686968846931 62.686647940204011 0 62.686647940204011 -21.344773502831231 0 0 0 0 -113.67347039568995 54.378029788364984 0 54.378029788364984 -5.0917602779582012 0 0 0 0 -107.55779945770837 78.022843917056434 0 78.022843917056434 -9.8598604510352743 0 0 0 0 -96.923805476298185 61.138234163760444 0 61.138234163760444 12.212020729559299 0 0 0 0 -70.78600300511971 60.303647287932108 0 60.303647287932108 -7.3060760273683627 0 0 0 0 -59.15791627931867 50.866453976130288 0 50.866453976130288 -18.2748972268746 0 0 0 0 -77.971158156675301 46.715282289873358 0 46.715282289873358 0.3875113982194307 0 0 0 0 -53.400236370454877 52.753240544977871 0 52.753240544977871 92.813192645289064 0 0 0 0 -69.387957666627614 30.894249200101513 0 30.894249200101513 4.7229939945032156 0 0 0 0 -61.145485341697167 36.75665272732158 0 36.75665272732158 97.381153356731375 0 0 0 0 -79.054197646562898 38.690800704151115 0 38.690800704151115 -23.600051802815869 0 0 0 0 -8.5011356692850732 -6.3938553584126518 0 -6.3938553584126518 9.2136339715431443 0 0 0 0 -38.006114883611872 34.950746329840968 0 34.950746329840968 24.896798688286253 0 0 0 0 -48.758086826463114 18.157690649260303 0 18.157690649260303 85.435531661824825 0 0 0 0 -5.5123420355243837 2.8958669068915146 0 2.8958669068915146 -0.9115480637454727 0 0 0 0 -70.87744079611366 25.490873004662717 0 25.490873004662717 -7.8911953714456331 0 0 0 0 -32.793852890456037 18.162299822502064 0 18.162299822502064 -7.6109347602359776 0 0 0 0 -58.167435117180503 25.010294497629729 0 25.010294497629729 -11.649719063231714 0 0 0 0 -55.253538952240888 39.323554404161314 0 39.323554404161314 3.7727540079577011 0 0 0 0 -79.485980168030892 69.074252722778056 0 69.074252722778056 150.09121541131066 0 0 0 0 -65.465689677418567 34.378247331059697 0 34.378247331059697 -4.0865165026343826 0 0 0 0 -48.793693087905922 33.884353863692013 0 33.884353863692013 -38.849993392159377 0 0 0 0 -155.66686712335604 -12.509091144621379 0 -12.509091144621379 159.89622854068131 0 0 0 0 -99.925030206401516 -20.966522386883526 0 -20.966522386883526 -6.1852217379728245 0 0 0 0 -60.37624889409085 98.187506724680929 0 98.187506724680929 19.166051544420043 0 0 0 0 -67.058957186967291 6.5905394303408684 0 6.5905394303408684 16.913832492243273 0 0 0 0 -180.76550536783679 -20.815717712526521 0 -20.815717712526521 68.684752789467439 0 0 0 0 -94.709704539818631 29.195080350389617 0 29.195080350389617 89.635704574940746 0 0 0 0 -151.76196063828957 5.7930415711225578 0 5.7930415711225578 92.815832305814638 0 0 0 0 -81.448895525162698 45.258608590694394 0 45.258608590694394 107.3706064291174 0 0 0 0 -25.963883830963983 -1.0444193141078495 0 -1.0444193141078495 0.47049990560824106 0 0 0 0 -60.362323772179934 20.367495989192662 0 20.367495989192662 63.092979060254152 0 0 0 0 -54.849592266232548 37.182088183406279 0 37.182088183406279 73.961121993768757 0 0 0 0 -48.097735519307207 43.954171749290254 0 43.954171749290254 64.187417147866881 0 0 0 0 -51.956176617805795 57.159911485251996 0 57.159911485251996 70.806201969310223 0 0 0 0 -47.993200774461002 42.632416810040922 0 42.632416810040922 80.267214808738117 0 0 0 0 -47.146875921347146 47.424823372785113 0 47.424823372785113 75.988450487217051 0 0 0 0 -49.355089164639139 36.092151398310762 0 36.092151398310762 55.751033934300267 0 0 0 0 -52.588180682103484 50.876508497295845 0 50.876508497295845 75.54308396484339 0 0 0 0 -80.017434239055092 59.702826294260376 0 59.702826294260376 118.35294797537153 0 0 0 0 -42.794960226187982 19.024743398479131 0 19.024743398479131 125.64481045648517 0 0 0 0 -46.478797864835087 42.954609064998976 0 42.954609064998976 82.259333284533113 0 0 0 0 -58.192604022629439 29.473978749495473 0 29.473978749495473 100.63143051367524 0 0 0 0 -46.906914475532631 50.325346945894353 0 50.325346945894353 78.445593736534192 0 0 0 0 -62.95417102811416 42.058325624758822 0 42.058325624758822 117.89294477738304 0 0 0 0 -159.15443640965532 50.26988315851986 0 50.26988315851986 110.99328898529893 0 0 0 0 -64.984212389588947 14.876732769338824 0 14.876732769338824 -1.3062535376033115 0 0 0 0 -32.23176019487164 40.637549281405256 0 40.637549281405256 -33.221099217394112 0 0 0 0 -21.409374266316263 -37.621613258167827 0 -37.621613258167827 -199.19657215405641 0 0 0 0 -44.522142731126223 244.35996071397381 0 244.35996071397381 -531.88599242832436 0 0 0 0 -88.416954304768296 137.4043498948057 0 137.4043498948057 -79.431535035921399 0 0 0 0 -54.955399267055327 89.822881092222815 0 89.822881092222815 -120.03124732196602 0 0 0 0 -78.3283823532729 -31.11906395400365 0 -31.11906395400365 22.591785009665728 0 0 0 0 -124.87822776007306 56.385092665893694 0 56.385092665893694 -65.662417884373326 0 0 0 0 -133.34581295922908 -9.9743029748374283 0 -9.9743029748374283 30.858438243944647 0 0 0 0 -84.011626491605881 14.175903635545163 0 14.175903635545163 4.4492857675756667 0 0 0 0 -128.22642965612431 -9.8723120880449642 0 -9.8723120880449642 100.70877342584845 0 0 0 0 -82.022047680038668 -3.5858644127406478 0 -3.5858644127406478 30.253551255405 0 0 0 0 -1121.2221638588881 259.79814743709449 0 259.79814743709449 -74.274346048243245 0 0 0 0 -871.926727147983 723.66647275407354 0 723.66647275407354 -719.00010458517636 0 0 0 0 -961.94066109324194 254.95157665664124 0 254.95157665664124 -593.34369429354297 0 0 0 0 -1326.2273326101231 636.15182488444179 0 636.15182488444179 -504.02570763117865 0 0 0 0 -971.41690822464216 751.29684332462375 0 751.29684332462375 -620.21371796969743 0 0 0 0 -1153.3553362685859 507.9214948554478 0 507.9214948554478 -239.06449396804692 0 0 0 0 -658.51738404224261 259.30941696059404 0 259.30941696059404 -330.73235527012503 0 0 0 0 -879.15765241955978 233.94472561435092 0 233.94472561435092 -128.80454024267601 0 0 0 0 -902.64794446252699 382.87293974060174 0 382.87293974060174 -401.81175449304919 0 0 0 0 -654.02170378321534 309.16473580109874 0 309.16473580109874 -212.04696852278281 0 0 0 0 -926.18114752647489 144.6861607598363 0 144.6861607598363 -154.57921372906054 0 0 0 0 -696.87143891286905 429.56536702355857 0 429.56536702355857 -478.99219228520201 0 0 0 0 -996.07693892389307 335.76908884686003 0 335.76908884686003 -306.77893450310057 0 0 0 0 -358.69789980531459 536.68731299419437 0 536.68731299419437 -720.65413869942449 0 0 0 0 -691.15719980469203 430.99567493641388 0 430.99567493641388 -503.60003554751052 0 0 0 0 -402.13804769141279 617.16689687071357 0 617.16689687071357 -868.18382078729485 0 0 0 0 -3.74135835170555 -0.68526627028506581 0 -0.68526627028506581 0.25092742763359066 0 0 0 0 -41.211141780913749 27.294260997708534 0 27.294260997708534 -3.8532499679340617 0 0 0 0 -43.830730629180835 12.151994516678061 0 12.151994516678061 -1.1998188544089285 0 0 0 0 -78.817384077065071 17.563271616645579 0 17.563271616645579 157.94733051205046 0 0 0 0 -10.736236861339663 0.27352058063618578 0 0.27352058063618578 -4.7082473806467995 0 0 0 0 -271.93902375410107 377.98773374991742 0 377.98773374991742 -709.73974888547696 0 0 0 0 -501.03762266960257 801.29642172438298 0 801.29642172438298 -1279.7658738208875 0 0 0 0 -4.2771946008343669 -0.73908653984224593 0 -0.73908653984224593 -2.5549286404439524 0 0 0 0 -21.82991514134255 -3.4497453289549593 0 -3.4497453289549593 1.0466133740924137 0 0 0 0 -47.886105456634553 -90.912619688695514 0 -90.912619688695514 299.03757635238117 0 0 0 0 -90.763041413131305 78.30902010141881 0 78.30902010141881 88.648657391866436 0 0 0 0 -106.1716730322787 37.672747410098054 0 37.672747410098054 189.58770268831813 0 0 0 0 -57.240163051175003 13.535477768596124 0 13.535477768596124 149.22329459715411 0 0 0 0 -54.561538865555349 59.905380547241236 0 59.905380547241236 45.073224607258453 0 0 0 0 -23.868718853671226 53.009199857368912 0 53.009199857368912 44.661460083084876 0 0 0 0 -243.45826196820553 -36.831040325464983 0 -36.831040325464983 172.07572345582412 0 0 0 0 -20.417484137548513 78.211825851939921 0 78.211825851939921 214.38659906194971 0 0 0 0 -190.81881334609795 165.15605119494626 0 165.15605119494626 50.993898744624857 0 0 0 0 182.46611104067415 -75.099014857087241 0 -75.099014857087241 66.175799291539761 0 0 0 0 27.316121953461334 12.62786573043968 0 12.62786573043968 134.29884839462784 0 0 0 0 -830.46881517639031 761.87260992496931 0 761.87260992496931 -685.9985206863962 0 0 0 0 -1723.8597333922062 1328.8027085143187 0 1328.8027085143187 -692.20109784920919 0 0 0 0 -911.13367377339955 802.16112377230183 0 802.16112377230183 -579.45288496343255 0 0 0 0 -8.3718136262396783 -2.2123715382665097 0 -2.2123715382665097 1.5368833548728169 0 0 0 0 -234.12208356560291 -614.97516259819747 0 -614.97516259819747 535.68586612533363 0 0 0 0 -1801.4706921134227 389.29205962519478 0 389.29205962519478 -157.13929932363772 0 0 0 0 -1283.1261644229903 436.23819092950373 0 436.23819092950373 10.070487181091266 0 0 0 0 -617.98571232124846 244.73840716381801 0 244.73840716381801 24.852190107295883 0 0 0 0 -989.00161482663373 -73.731675721810916 0 -73.731675721810916 372.21698590629251 0 0 0 0 158.62170758803279 147.15511293913187 0 147.15511293913187 -145.02111630767922 0 0 0 0 -0.5834716694167742 1.6301663304090701 0 1.6301663304090701 -0.68983870992964036 0 0 0 0 -680.59024003204775 56.273159505327385 0 56.273159505327385 -27.059187927489575 0 0 0 0 -752.35334785359464 84.180305811433755 0 84.180305811433755 -16.456105788847253 0 0 0 0 -180.35977602969018 27.131827949989031 0 27.131827949989031 -11.315873179968378 0 0 0 0 -2.5915398064240627 1.5379286602244253 0 1.5379286602244253 -0.091824162465767634 0 0 0 0 -36.63300869303211 -35.329091454758441 0 -35.329091454758441 41.726988922106159 0 0 0 0 -36.76705142038432 111.39023306854949 0 111.39023306854949 -159.16601793597738 0 0 0 0 -186.83982654090096 -123.2557446699202 0 -123.2557446699202 -24.33339253470109 0 0 0 0 27.751583870977477 -31.375264136052621 0 -31.375264136052621 -282.07935916402403 0 0 0 0 -217.8573213874231 211.23260792407359 0 211.23260792407359 -110.63811757883877 0 0 0 0 48.653372787444368 -4.5270241541762744 0 -4.5270241541762744 40.797423262118627 0 0 0 0 -101.09068348677465 41.156338357105824 0 41.156338357105824 103.09054076738812 0 0 0 0 -119.29155712962694 -20.45150219757889 0 -20.45150219757889 70.833950675874348 0 0 0 0 -34.945918236191929 -29.275877258318474 0 -29.275877258318474 28.656471035275445 0 0 0 0 -145.14592787507172 54.447493968919844 0 54.447493968919844 31.951247096996667 0 0 0 0 -146.38169853965428 49.293293325619743 0 49.293293325619743 11.446250275326747 0 0 0 0 -125.94569637740642 38.896912772295764 0 38.896912772295764 3.7414552822056066 0 0 0 0 -46.21395860114751 -13.92223403195953 0 -13.92223403195953 38.99054364146852 0 0 0 0 -18.963489197399213 58.805035704194211 0 58.805035704194211 60.798401969406768 0 0 0 0 -44.7387293477573 -6.7294030319496301 0 -6.7294030319496301 5.152962324807504 0 0 0 0 -54.161307954420181 14.164952661461029 0 14.164952661461029 79.958905005695556 0 0 0 0 -34.286021175885253 0.42370688948722091 0 0.42370688948722091 12.032232410037068 0 0 0 0 -21.94931638043245 -12.489607747029382 0 -12.489607747029382 23.205491601072289 0 0 0 0 -8.9811959412412161 -20.839895762802193 0 -20.839895762802193 23.545284109674963 0 0 0 0 -42.204945647962091 -11.50793578386598 0 -11.50793578386598 21.75005301327943 0 0 0 0 25.873090515194519 -32.278468970376167 0 -32.278468970376167 31.072049054536365 0 0 0 0 -182.17471396321343 -4.2748700630709209 0 -4.2748700630709209 23.238850917496165 0 0 0 0 -139.61778661592871 15.80673703008506 0 15.80673703008506 30.583950916059621 0 0 0 0 -151.32338279837859 29.022816945413069 0 29.022816945413069 15.953544877219883 0 0 0 0 -150.60201758206676 32.014803719615884 0 32.014803719615884 24.106814212781956 0 0 0 0 -173.57291951871321 33.371675659076118 0 33.371675659076118 58.668213673518039 0 0 0 0 -126.83076406536202 51.997198439024942 0 51.997198439024942 40.084524260142643 0 0 0 0 -0.63160427287823762 1.0131907662106499 0 1.0131907662106499 0.64087682646930855 0 0 0 0 -228.82074949934304 10.567390123802966 0 10.567390123802966 10.429629123892937 0 0 0 0 -233.39459113063248 0.50051017102668993 0 0.50051017102668993 4.8940981342029772 0 0 0 0 -6.9728303428837792 3.7474657892558891 0 3.7474657892558891 -0.54027892069312244 0 0 0 0 -221.44278940969025 8.1689880897565104 0 8.1689880897565104 23.028891916782072 0 0 0 0 4.5169652813542296 -2.1705169539460805 0 -2.1705169539460805 0.22579701250261541 0 0 0 0 -220.91474624722514 12.23336105464216 0 12.23336105464216 4.932988649318653 0 0 0 0 -0.60768448173526901 1.5373166748520892 0 1.5373166748520892 2.4108427512644939 0 0 0 0 -213.34271289548838 10.02795118267376 0 10.02795118267376 9.1129599965308898 0 0 0 0 -268.90555279953139 17.655392913290484 0 17.655392913290484 86.049532569951396 0 0 0 0 240.12494736450719 145.96970523671061 0 145.96970523671061 -194.04764191418383 0 0 0 0 -750.3467411793107 503.46278060293582 0 503.46278060293582 -264.80712589509562 0 0 0 0 -1021.006887206546 314.56026466353057 0 314.56026466353057 -70.963869511968369 0 0 0 0 -3.5068680988956169 4.4548325287880726 0 4.4548325287880726 -4.0719610985203705 0 0 0 0 -1798.1446243103592 -69.235216813339548 0 -69.235216813339548 20.264556666599894 0 0 0 0 -882.92019960424204 126.29788637076371 0 126.29788637076371 -117.40773337256417 0 0 0 0 -1145.4773535554939 574.59345341858386 0 574.59345341858386 -495.98009685727527 0 0 0 0 -598.48755352612466 259.26624370411429 0 259.26624370411429 -474.13932530372779 0 0 0 0 -511.09747431046009 37.042702010583554 0 37.042702010583554 -245.95787131540459 0 0 0 0 -624.64961933758229 177.68127312615093 0 177.68127312615093 -463.70136250531766 0 0 0 0 -689.96881083299945 100.44338830122138 0 100.44338830122138 -264.08997543457326 0 0 0 0 -205.3772320294679 198.46142671422001 0 198.46142671422001 -272.31433691862776 0 0 0 0 -316.84750352091822 -90.944748910728464 0 -90.944748910728464 -178.85390521609793 0 0 0 0 -240.91705424546808 90.423542094824143 0 90.423542094824143 30.821185543069532 0 0 0 0 -329.3113853333108 159.7702717775685 0 159.7702717775685 6.6134799730992313 0 0 0 0 -646.58309964037835 393.96061731107307 0 393.96061731107307 -18.662950146781668 0 0 0 0 -843.76527562777869 526.78019284542097 0 526.78019284542097 -41.447528172166784 0 0 0 0 -938.79125827355028 519.5618271771682 0 519.5618271771682 -39.951260573487218 0 0 0 0 -895.9706879220721 479.77955139886876 0 479.77955139886876 -20.286406008106496 0 0 0 0 -613.80493217211051 353.31986863349266 0 353.31986863349266 -102.3594267139033 0 0 0 0 -670.02936749190224 358.31780417208506 0 358.31780417208506 -71.461981326329578 0 0 0 0 25.215229703884916 22.945615422819557 0 22.945615422819557 8.5623051428362942 0 0 0 0 -30.723554860454897 -25.44406635164205 0 -25.44406635164205 -30.547220218116308 0 0 0 0 -39.785648514010973 -23.064503765646577 0 -23.064503765646577 -7.6265096093948159 0 0 0 0 -5.2225779614515631 -8.2057815685084812 0 -8.2057815685084812 -16.49298701365764 0 0 0 0 -52.288411804765929 -8.8071061951795855 0 -8.8071061951795855 -7.3239368097783881 0 0 0 0 69.508473901506591 -14.846498891968565 0 -14.846498891968565 -32.989398137363423 0 0 0 0 -6.1541239981015678 -2.6500858557383253 0 -2.6500858557383253 1.8015985631918738 0 0 0 0 -8.7822730431765059 -6.3215160045405536 0 -6.3215160045405536 -5.6156520763337809 0 0 0 0 -24.107066528969881 -0.44712449797407317 0 -0.44712449797407317 2.2860455973132048 0 0 0 0 -9.2257426115586476 -1.9871443028777973 0 -1.9871443028777973 -1.0077199901588632 0 0 0 0 -18.359790521262916 -11.958011309234045 0 -11.958011309234045 -6.3051474639185949 0 0 0 0 -2.0770754942146539 -4.1702133799410106 0 -4.1702133799410106 -8.0746951661137807 0 0 0 0 -152.30228793509013 -43.935615176617198 0 -43.935615176617198 -3.2943885451672088 0 0 0 0 -117.07938752167865 97.518191931968857 0 97.518191931968857 -146.85699940885496 0 0 0 0 -298.93960412587512 66.438135082956478 0 66.438135082956478 -90.801667603009832 0 0 0 0 -24.119229018051556 65.075487479862488 0 65.075487479862488 -27.25031089667948 0 0 0 0 -32.21574523680556 -52.851614717529969 0 -52.851614717529969 -226.15154700538733 0 0 0 0 -1.2583807974518511 -1.7227337239003204 0 -1.7227337239003204 -2.6957429266133648 0 0 0 0 -560.10293913205123 -124.81155741084763 0 -124.81155741084763 -218.9348819212947 0 0 0 0 -633.27469957723042 65.291215267453765 0 65.291215267453765 -30.820436768885571 0 0 0 0 -467.12712341482597 40.230108552787016 0 40.230108552787016 -176.92071216404906 0 0 0 0 -402.92160391718176 172.74265468966331 0 172.74265468966331 -57.099414351140297 0 0 0 0 -243.48254229088184 180.33697694391154 0 180.33697694391154 -109.40511428424033 0 0 0 0 -490.67327955636722 37.032014199321665 0 37.032014199321665 -258.3054931162302 0 0 0 0 -490.97445218068401 41.307305420182885 0 41.307305420182885 -147.56058302002174 0 0 0 0 -363.2176959556889 19.459149698665215 0 19.459149698665215 -357.43177683061867 0 0 0 0 -343.7007424429172 -145.76487264814224 0 -145.76487264814224 -338.11943379819161 0 0 0 0 -360.58276032668414 -113.96506906440391 0 -113.96506906440391 -37.978563132327054 0 0 0 0 -233.087621029395 -218.16737359396132 0 -218.16737359396132 -78.882587426424834 0 0 0 0 -324.22867316832526 -495.05944745937541 0 -495.05944745937541 69.337823411451154 0 0 0 0 -330.93879847552034 -249.80792417989005 0 -249.80792417989005 -71.893692372867008 0 0 0 0 -598.63216998045573 -52.722946472398007 0 -52.722946472398007 -152.30389127764198 0 0 0 0 -485.7122432176202 -354.34453313363576 0 -354.34453313363576 15.608222922375717 0 0 0 0 43.688215675236279 -20.751617720914737 0 -20.751617720914737 -52.541014674437065 0 0 0 0 -93.788912789737878 -221.86181366784785 0 -221.86181366784785 -281.80672572185205 0 0 0 0 -116.30303920368078 -118.00082106524064 0 -118.00082106524064 -67.717064832483118 0 0 0 0 -529.01521446329843 -378.2670328209324 0 -378.2670328209324 3.8209582705826506 0 0 0 0 -604.20630310731167 -788.21209596439553 0 -788.21209596439553 -237.56179785216682 0 0 0 0 -1393.1356215747273 -438.07869175971064 0 -438.07869175971064 516.91634494349876 0 0 0 0 -395.55525195104178 87.428532496090384 0 87.428532496090384 555.60660430858479 0 0 0 0 70.046355068643607 -22.38227734422594 0 -22.38227734422594 -4.3338246020095426 0 0 0 0 6.2251114055688959 -29.280251792508807 0 -29.280251792508807 0.75050105129344047 0 0 0 0 18.733281901241298 -31.902284151795754 0 -31.902284151795754 -16.307968960349172 0 0 0 0 3.5319486722146394 -18.537748177716367 0 -18.537748177716367 -14.384268615370502 0 0 0 0 -0.8074948036198677 -7.4276644780728738 0 -7.4276644780728738 -20.427219353032243 0 0 0 0 16.537088092802151 -141.12497003400551 0 -141.12497003400551 -55.114764016790332 0 0 0 0 101.67755684524491 4.5154009621369369 0 4.5154009621369369 76.449717927345006 0 0 0 0 -1.9264588679852688 -7.101645034963262 0 -7.101645034963262 -17.32332325278383 0 0 0 0 151.5865522502454 -90.245564308964333 0 -90.245564308964333 -1.8904040692178796 0 0 0 0 8.8054508512796019 -49.32625198690107 0 -49.32625198690107 35.872887618827008 0 0 0 0 7.4243157558576058 -84.813802433803971 0 -84.813802433803971 42.370223943426936 0 0 0 0 39.112224838358088 -112.4196434371315 0 -112.4196434371315 85.508874300797515 0 0 0 0 27.637017406013001 -453.69261115401673 0 -453.69261115401673 -201.39112816572469 0 0 0 0 -1255.9212408287285 316.18598698476899 0 316.18598698476899 71.590528424767399 0 0 0 0 -961.04522925746096 -475.98033805100727 0 -475.98033805100727 -978.37657781219787 0 0 0 0 -1134.7897300422301 414.84221262005849 0 414.84221262005849 -175.42807524054388 0 0 0 0 -5.9003959376113073 -6.3398775605831332 0 -6.3398775605831332 -2.261162769715833 0 0 0 0 -1038.1219993239015 101.03136583733453 0 101.03136583733453 127.20493680144682 0 0 0 0 3.6658162796220424 -2.3910823362208955 0 -2.3910823362208955 0.12940413606702084 0 0 0 0 -1476.1075990635072 20.522477994607357 0 20.522477994607357 328.10672046486593 0 0 0 0 -1023.1337093385955 140.59930878792761 0 140.59930878792761 201.94468709063926 0 0 0 0 60.996371805378658 120.39963657494422 0 120.39963657494422 -112.9621788559607 0 0 0 0 -34.748449822033308 -18.448698871266515 0 -18.448698871266515 297.37056172552911 0 0 0 0 177.96324178230805 -42.859660201169731 0 -42.859660201169731 -1.9536569741094354 0 0 0 0 -118.14098266035762 -245.7575582820723 0 -245.7575582820723 -131.60617673992874 0 0 0 0 -34.501974314672793 1.4148326288594149 0 1.4148326288594149 -6.6294323311749395 0 0 0 0 -64.218730196698743 -25.853070208067493 0 -25.853070208067493 56.512576894846461 0 0 0 0 -8.8223284877730901 -15.210425419313641 0 -15.210425419313641 -13.755965708606235 0 0 0 0 -80.202708554191531 11.078438485742936 0 11.078438485742936 194.09546859957845 0 0 0 0 11.492841099759517 -198.4123842547906 0 -198.4123842547906 311.9570375296106 0 0 0 0 -0.477826489475774 -9.7279720917204031 0 -9.7279720917204031 56.659160672447797 0 0 0 0 113.37656587535582 -88.826004435575669 0 -88.826004435575669 114.45999907224541 0 0 0 0 -17.19934493693253 6.9040275360591004 0 6.9040275360591004 10.554532656900308 0 0 0 0 1.5601336466897919 -22.969791079015522 0 -22.969791079015522 118.48715874421532 0 0 0 0 24.498612567558212 -202.48515992548522 0 -202.48515992548522 15.544505519043014 0 0 0 0 -23.209594183194795 -11.074377309647941 0 -11.074377309647941 20.383885587991529 0 0 0 0 -137.23770182294191 122.35701569197225 0 122.35701569197225 174.6563217136536 0 0 0 0 -56.357199869406031 245.77372653568273 0 245.77372653568273 100.12981897276609 0 0 0 0 -82.181022888989773 37.829399289132219 0 37.829399289132219 -11.034324737968559 0 0 0 0 85.616417321680728 -15.125579531250651 0 -15.125579531250651 -382.01692176579922 0 0 0 0 16.557997972071462 -120.81010315718277 0 -120.81010315718277 -44.897504486538764 0 0 0 0 -888.77308231398547 -398.20273148892613 0 -398.20273148892613 -201.67617000021642 0 0 0 0 -1.1700885472934233 -2.3156144449859237 0 -2.3156144449859237 -6.5982210416358393 0 0 0 0 -286.56075852049071 249.02792990080752 0 249.02792990080752 189.86726702275132 0 0 0 0 -562.20622402503432 124.60060875667114 0 124.60060875667114 193.19051197011186 0 0 0 0 -37.388429100328722 -49.137426228294316 0 -49.137426228294316 21.267836311493248 0 0 0 0 -635.6342536295756 -218.76049627251882 0 -218.76049627251882 19.050858553734543 0 0 0 0 -317.47591664279025 -413.01256200301736 0 -413.01256200301736 -220.7760935044148 0 0 0 0 -124.16032298946811 -258.69941939687328 0 -258.69941939687328 -100.51571493266874 0 0 0 0 405.40323982838504 -137.08673358181807 0 -137.08673358181807 -205.85917487771735 0 0 0 0 92.8914744373742 -337.00770084153072 0 -337.00770084153072 -301.8896605416403 0 0 0 0 -61.517965742280467 -109.94734320702051 0 -109.94734320702051 -58.593731866941653 0 0 0 0 -291.35930747404745 26.859221856599106 0 26.859221856599106 -171.17272475079216 0 0 0 0 -577.09590062188272 358.55836582115262 0 358.55836582115262 -166.71801256905357 0 0 0 0 -737.38330172271799 236.94725987628476 0 236.94725987628476 -287.43597143078944 0 0 0 0 -1055.8258912718011 576.48753378543506 0 576.48753378543506 -372.48537679282288 0 0 0 0 -666.94308236427094 204.70288195637863 0 204.70288195637863 -369.52133810274336 0 0 0 0 -971.00552162439885 521.40207206160267 0 521.40207206160267 -227.18598105240653 0 0 0 0 -646.92209885393049 440.06235617266725 0 440.06235617266725 -318.92299226707337 0 0 0 0 -1038.3021550825513 256.52302468383323 0 256.52302468383323 -506.90630843295912 0 0 0 0 -941.96904327372602 572.37483464581169 0 572.37483464581169 -408.706840226022 0 0 0 0 -226.94143047373541 144.73699957807185 0 144.73699957807185 -273.99295470114521 0 0 0 0 -661.40606704942297 435.46925487991109 0 435.46925487991109 -72.718757227887636 0 0 0 0 0.24078616069889691 1.1223086158861539 0 1.1223086158861539 2.3261682682562395 0 0 0 0 7.5732416465845063 162.73843732743831 0 162.73843732743831 -159.06715264305058 0 0 0 0 -124.50489944522663 107.68441005415241 0 107.68441005415241 15.519092973271654 0 0 0 0 -124.83375344947973 100.37888570606287 0 100.37888570606287 4.1120307779972336 0 0 0 0 -15.560832875276816 4.6505115220254538 0 4.6505115220254538 0.5985622349071491 0 0 0 0 -131.52215196857378 -37.834855027740559 0 -37.834855027740559 87.831386831364398 0 0 0 0 241.04746678947799 -16.51736464883902 0 -16.51736464883902 -204.77482534289607 0 0 0 0 1.1846415002144843 2.6638460134546014 0 2.6638460134546014 8.1944030255585165 0 0 0 0 -274.88225739297451 98.324157681375254 0 98.324157681375254 73.282671071651293 0 0 0 0 -230.84683860856862 78.192397637349359 0 78.192397637349359 89.383133309056575 0 0 0 0 24.572526045769223 -5.4843380919623996 0 -5.4843380919623996 -42.302535507910761 0 0 0 0 44.699348676240334 -166.48783327220281 0 -166.48783327220281 102.51261096950202 0 0 0 0 4.3120576833853193 -133.98136675190426 0 -133.98136675190426 122.65594425636118 0 0 0 0 -15.767376174319235 -17.799780344934192 0 -17.799780344934192 -16.387363007986615 0 0 0 0 -19.338959309519396 -135.92642138495103 0 -135.92642138495103 176.34383537427564 0 0 0 0 18.182296400148516 -183.38401892018874 0 -183.38401892018874 92.561192479382498 0 0 0 0 5.410253490386026 -43.222445866613725 0 -43.222445866613725 33.932767925476583 0 0 0 0 -8.9693219931032218 -34.438697115768719 0 -34.438697115768719 175.29802298276263 0 0 0 0 35.737703888151373 -83.081442085070194 0 -83.081442085070194 143.26473586327268 0 0 0 0 -81.416752341297965 -22.410063014660377 0 -22.410063014660377 34.643614235682541 0 0 0 0 -139.74218985470034 -96.793218103766506 0 -96.793218103766506 136.71890036981677 0 0 0 0 -19.83803633531457 -20.867522414970509 0 -20.867522414970509 -15.443220938357838 0 0 0 0 -5.2880443138079993 0.90478278797146405 0 0.90478278797146405 19.058372779619372 0 0 0 0 -111.22396715096795 -44.317702088332226 0 -44.317702088332226 102.77892298808638 0 0 0 0 46.792362599542685 -145.82324421388648 0 -145.82324421388648 107.20520510215647 0 0 0 0 -153.40159100732217 136.86158117580686 0 136.86158117580686 -70.12794968834055 0 0 0 0 170.53147806714463 -184.70679893475989 0 -184.70679893475989 -65.094912264385584 0 0 0 0 -226.16557082850795 160.83633512391691 0 160.83633512391691 78.287885262071995 0 0 0 0 -625.77492077135639 326.66758159619508 0 326.66758159619508 -193.25672839895265 0 0 0 0 -653.07266153332716 341.33016300838904 0 341.33016300838904 -184.39097601310186 0 0 0 0 -435.31630156116626 -6.5860521714353126 0 -6.5860521714353126 -32.54133200940413 0 0 0 0 -607.63705161812686 111.04855432935609 0 111.04855432935609 22.488535495041514 0 0 0 0 -184.74974021480512 201.79968540068057 0 201.79968540068057 -188.37331680534726 0 0 0 0 -556.97346152600403 289.0743861692938 0 289.0743861692938 9.3053863987775003 0 0 0 0 10.911158871054681 -84.772072135763125 0 -84.772072135763125 -224.39277261556299 0 0 0 0 -7.2121820347047318 -2.8706328095393285 0 -2.8706328095393285 -1.3151942514836445 0 0 0 0 54.626058465764345 -290.97271220242283 0 -290.97271220242283 -202.70355945275651 0 0 0 0 9.150459528514034 -87.844583098356566 0 -87.844583098356566 144.88532838174251 0 0 0 0 56.403504476687885 -313.34394369346478 0 -313.34394369346478 -40.111293944485851 0 0 0 0 105.507156339826 -215.94350755833602 0 -215.94350755833602 149.01483558471705 0 0 0 0 -91.499375831936646 -32.851592851093557 0 -32.851592851093557 24.794709877401896 0 0 0 0 147.44577575701805 -225.81758024240992 0 -225.81758024240992 151.32626124922717 0 0 0 0 -6.2056033101555563 -3.2128474925321076 0 -3.2128474925321076 3.5201517241185929 0 0 0 0 -16.095261604669425 -9.8670202520848758 0 -9.8670202520848758 -2.0598223543829275 0 0 0 0 -52.396878133586142 -10.776515246332337 0 -10.776515246332337 71.356216834472889 0 0 0 0 -122.25428553709617 -162.20524921913977 0 -162.20524921913977 119.79520334495879 0 0 0 0 17.010897584996314 -183.32506078463365 0 -183.32506078463365 39.729977971256631 0 0 0 0 -79.896174170488436 -32.533045261771534 0 -32.533045261771534 30.642407591358143 0 0 0 0 130.40098927684812 -132.79704819734138 0 -132.79704819734138 101.99293039582307 0 0 0 0 -171.46583427835867 -130.83037568971213 0 -130.83037568971213 -164.26185620593515 0 0 0 0 -300.42797444231837 -8.3102774950184539 0 -8.3102774950184539 157.51629451581357 0 0 0 0 9.4645977172185667 26.391872284499186 0 26.391872284499186 -37.906027928678668 0 0 0 0 -181.06346273332383 116.75290991452312 0 116.75290991452312 -130.2373526290321 0 0 0 0 -122.35685723342613 -23.069881451148831 0 -23.069881451148831 -22.830509621857345 0 0 0 0 7.2089288784263772 39.826259564990778 0 39.826259564990778 -43.871252877198458 0 0 0 0 -105.99614496684808 41.224351685450529 0 41.224351685450529 108.5170409100574 0 0 0 0 -127.29396239853668 93.23488409173433 0 93.23488409173433 -61.239675552956328 0 0 0 0 -112.92664134964616 -9.7733350964077772 0 -9.7733350964077772 -49.81041624829777 0 0 0 0 -162.56595481889963 -18.009074971990231 0 -18.009074971990231 14.046315535706313 0 0 0 0 -186.6099120623021 64.368398349767006 0 64.368398349767006 -40.384032064592702 0 0 0 0 -202.82390890897659 103.29968771963308 0 103.29968771963308 -88.729195280724525 0 0 0 0 -220.50927288501589 125.28096801803918 0 125.28096801803918 -41.275114580553691 0 0 0 0 -203.4955997455636 138.24537959593198 0 138.24537959593198 -138.59869915984154 0 0 0 0 -210.26145437726518 126.66115562504024 0 126.66115562504024 -57.129352309624892 0 0 0 0 -215.60018915103137 81.867691508678377 0 81.867691508678377 57.339507686378738 0 0 0 0 -187.23885992955184 70.056658951436475 0 70.056658951436475 14.874360882783549 0 0 0 0 -168.65946424821414 15.162751571454862 0 15.162751571454862 111.14229372660066 0 0 0 0 -59.360177450129413 5.1621283119634427 0 5.1621283119634427 47.760144589244646 0 0 0 0 -114.19691690494074 40.861954751152325 0 40.861954751152325 84.626752221216179 0 0 0 0 -29.016459641663459 -96.624191094633659 0 -96.624191094633659 147.91260973607541 0 0 0 0 -33.565191241585552 1.0104364072028318 0 1.0104364072028318 19.89127525312275 0 0 0 0 -137.47936147795372 -6.7738104093493803 0 -6.7738104093493803 191.41907488589277 0 0 0 0 -99.558476933131615 -11.528841569332833 0 -11.528841569332833 8.8450454749940537 0 0 0 0 -146.78424935333169 12.460181853600261 0 12.460181853600261 70.625521802894582 0 0 0 0 -24.199140820303001 -164.87529573721986 0 -164.87529573721986 27.61151201713983 0 0 0 0 5.3456751050998434 -16.53227801321113 0 -16.53227801321113 5.5159030277389833 0 0 0 0 17.014336010739498 72.776763335922624 0 72.776763335922624 -4.4305596982421775 0 0 0 0 43.159192191116745 118.7437836733825 0 118.7437836733825 -175.38257251676168 0 0 0 0 -9.4284288160920653 9.7258001441118722 0 9.7258001441118722 -1.539973869662854 0 0 0 0 17.299038658780773 175.28983268934053 0 175.28983268934053 -261.69335503149796 0 0 0 0 -156.543188707338 -132.66784770371683 0 -132.66784770371683 -35.597214772211373 0 0 0 0 -48.014798720591898 14.429200796551207 0 14.429200796551207 -3.1751115497931615 0 0 0 0 -145.68179656735447 -243.18258975395429 0 -243.18258975395429 -110.73506610512277 0 0 0 0 13.60589116405265 1.0584585848945025 0 1.0584585848945025 -120.64210738930888 0 0 0 0 3.1546987757501483 139.07871895066182 0 139.07871895066182 20.082861149740438 0 0 0 0 -61.403056996829093 30.592536170132558 0 30.592536170132558 -13.033730522563211 0 0 0 0 -7.6379665769469369 4.7345258545111086 0 4.7345258545111086 -0.58920813465305377 0 0 0 0 -51.989756727176427 135.34868735074679 0 135.34868735074679 178.50867674629632 0 0 0 0 -1.1838859601980403 47.053571944841707 0 47.053571944841707 -188.52476404450317 0 0 0 0 -243.36723891657311 40.259945349219379 0 40.259945349219379 143.4611428276703 0 0 0 0 -83.212391292636312 192.82091424945111 0 192.82091424945111 -411.28548739617509 0 0 0 0 -379.67887042673101 236.38321762244141 0 236.38321762244141 -86.82095263878 0 0 0 0 -407.83820511835074 -88.580090282117908 0 -88.580090282117908 108.44302037022771 0 0 0 0 -375.08536019962412 37.700435264928956 0 37.700435264928956 -52.311422501342349 0 0 0 0 -2.9942485664385288 3.5022404331997876 0 3.5022404331997876 -0.52499844105394322 0 0 0 0 -359.89510165234242 -48.918935134202911 0 -48.918935134202911 270.96882071484816 0 0 0 0 -214.80380704942991 157.41160110282698 0 157.41160110282698 -371.02459579485094 0 0 0 0 -208.65488049829946 103.88036063670279 0 103.88036063670279 -81.349663100794487 0 0 0 0 -421.84742024712978 218.3680355439401 0 218.3680355439401 -112.81139231151587 0 0 0 0 -181.36311453897724 -172.23934950680541 0 -172.23934950680541 -118.09456024007068 0 0 0 0 -201.15862522185262 356.50881076391732 0 356.50881076391732 -116.25305019058487 0 0 0 0 125.53880415867388 245.03944544047044 0 245.03944544047044 -344.69631234807264 0 0 0 0 85.367045470509765 82.427088941464206 0 82.427088941464206 -237.45968918449876 0 0 0 0 -0.1579092280667993 2.4012242480089654 0 2.4012242480089654 -5.9247907852681685 0 0 0 0 -443.7111466383285 26.493329623081195 0 26.493329623081195 -16.722482932086677 0 0 0 0 298.73063877612003 171.9265224514038 0 171.9265224514038 -170.62329746169598 0 0 0 0 89.911128663887212 159.68209048733252 0 159.68209048733252 -167.04496755465317 0 0 0 0 82.033491149199108 151.51623016191945 0 151.51623016191945 137.35501363776405 0 0 0 0 113.19432154530659 183.81283820484714 0 183.81283820484714 -267.98726262366881 0 0 0 0 179.46292783856916 172.4946321076452 0 172.4946321076452 -269.53529958158651 0 0 0 0 127.70166412331309 140.97358103330998 0 140.97358103330998 -332.63925955667378 0 0 0 0 -6.413828146710145 6.961218173604216 0 6.961218173604216 -12.353556176494454 0 0 0 0 3.7965244899023673 7.0240035001721139 0 7.0240035001721139 -22.801093725262035 0 0 0 0 -5.6631578592932783 -6.4006891683284266 0 -6.4006891683284266 -11.069128915920373 0 0 0 0 -45.196490332741064 -55.523454679322676 0 -55.523454679322676 -24.415099597947005 0 0 0 0 -32.31551732223231 6.824982204517184 0 6.824982204517184 2.6958976002782578 0 0 0 0 -14.701536293781828 0.21660939715911809 0 0.21660939715911809 7.037075614760397 0 0 0 0 -27.262436914825479 7.7933724608765473 0 7.7933724608765473 -5.8965875681842741 0 0 0 0 -1.4371377346369485 0.43394210812472167 0 0.43394210812472167 -3.9059815213233082 0 0 0 0 -36.431332883120376 28.508800027153029 0 28.508800027153029 119.8772917358084 0 0 0 0 6.0839398543621428 -3.053451984069806 0 -3.053451984069806 -59.318001343620722 0 0 0 0 -246.49749503572093 -55.874564005050956 0 -55.874564005050956 6.3729805953339564 0 0 0 0 0.31890973222925822 0.94209428154429631 0 0.94209428154429631 -1.1906531445378026 0 0 0 0 -163.94468924080138 -112.8552135720625 0 -112.8552135720625 -83.572507499807784 0 0 0 0 -43.187314660412085 -14.685215407127544 0 -14.685215407127544 -25.638632767547733 0 0 0 0 -106.72780730247905 19.286589040511444 0 19.286589040511444 9.3308962687990515 0 0 0 0 -130.48378915180365 65.235816513530949 0 65.235816513530949 48.659311059911488 0 0 0 0 -142.66657074616523 42.519304305567175 0 42.519304305567175 -81.496669893814669 0 0 0 0 -166.86575645039557 74.303242260731793 0 74.303242260731793 -33.305702350449906 0 0 0 0 -327.82966172078523 74.717330060323434 0 74.717330060323434 -83.111020454051868 0 0 0 0 -220.82217114012747 137.9486330769746 0 137.9486330769746 -81.177477879498156 0 0 0 0 -255.22809278511704 176.76829811736238 0 176.76829811736238 -106.921689686744 0 0 0 0 -233.54624889193838 226.43200567791843 0 226.43200567791843 -96.166959753134961 0 0 0 0 -131.70047151984181 171.74506406994482 0 171.74506406994482 -109.14883557624864 0 0 0 0 -183.77645202158601 260.74016264858807 0 260.74016264858807 -117.1519214100465 0 0 0 0 -197.54053757555812 212.76741440105911 0 212.76741440105911 -114.65132649532578 0 0 0 0 -169.40398118048506 150.18829738656245 0 150.18829738656245 -103.43307066419266 0 0 0 0 -84.04025288829871 97.82961788226379 0 97.82961788226379 -73.566391542129054 0 0 0 0 -49.9807176380491 215.39514077296104 0 215.39514077296104 -158.80137280758234 0 0 0 0 -29.737725946586579 88.268403929836268 0 88.268403929836268 -90.760924697870223 0 0 0 0 78.274942462143372 -21.219177894143286 0 -21.219177894143286 -8.1921942351320922 0 0 0 0 155.45427807531087 172.94992785223985 0 172.94992785223985 -190.67476108254141 0 0 0 0 -138.6053527184049 344.97888604093305 0 344.97888604093305 -245.94455982081922 0 0 0 0 -54.897947754550842 163.44794908715303 0 163.44794908715303 -109.01702384188769 0 0 0 0 -28.414563629068653 7.8361529464509374 0 7.8361529464509374 5.2998319079715657 0 0 0 0 -2.836272949722229 -2.1085240615148066 0 -2.1085240615148066 -0.13485984557088393 0 0 0 0 -14.90705385279216 141.2496197942497 0 141.2496197942497 -332.33586209547889 0 0 0 0 -9.4452175062397146 69.764311669307858 0 69.764311669307858 246.94252591616532 0 0 0 0 -3.9185198268112629 2.3775969145520079 0 2.3775969145520079 2.6369358969264511 0 0 0 0 -71.495757983095245 -8.5007772060024536 0 -8.5007772060024536 111.205761667459 0 0 0 0 -33.384188086409267 7.9122957430884071 0 7.9122957430884071 7.4685247108919839 0 0 0 0 -25.434368670114964 -0.06661525640852517 0 -0.06661525640852517 -4.6298078309077937 0 0 0 0 -29.663080896356178 4.0600079947802108 0 4.0600079947802108 -0.72065974940904964 0 0 0 0 -2.2872210110435844 61.546276823088988 0 61.546276823088988 132.97137344647683 0 0 0 0 -112.39012928026932 85.976865840229038 0 85.976865840229038 132.57420555976199 0 0 0 0 -60.402761779158027 100.90646922787323 0 100.90646922787323 51.539134452041708 0 0 0 0 -68.449498716843664 -13.596355360951748 0 -13.596355360951748 77.274703187402793 0 0 0 0 -10.439079352465342 -56.697889520914941 0 -56.697889520914941 5.7503152793981371 0 0 0 0 -43.55980259867647 3.0707913857934273 0 3.0707913857934273 5.2803831986875593 0 0 0 0 -35.120140353108582 -2.8345205145806176 0 -2.8345205145806176 6.5377479089216877 0 0 0 0 -39.525726933764986 7.2836525445323765 0 7.2836525445323765 2.0594280531407523 0 0 0 0 -14.26284780895906 -6.6025914919387745 0 -6.6025914919387745 2.3374111177864205 0 0 0 0 -34.167815403467102 -5.6086377900614934 0 -5.6086377900614934 -0.55399105548349326 0 0 0 0 -42.634885525541904 -1.8021921240756456 0 -1.8021921240756456 9.6398024376860576 0 0 0 0 -25.944152421642457 -2.9905040367710072 0 -2.9905040367710072 5.7076150288197578 0 0 0 0 -320.40513993691275 289.83852348161838 0 289.83852348161838 39.647134789095503 0 0 0 0 -239.18142160225761 267.76710229859594 0 267.76710229859594 -97.444428834459018 0 0 0 0 -246.89601549183863 275.99370736111678 0 275.99370736111678 -76.768486895833234 0 0 0 0 -200.58106216813758 159.792150845837 0 159.792150845837 169.65803493752367 0 0 0 0 -280.96220743139565 145.85459144021843 0 145.85459144021843 186.10916961314166 0 0 0 0 -14.641262514523987 -15.946370700739863 0 -15.946370700739863 170.65302948222438 0 0 0 0 -212.84753059949435 27.389435500249192 0 27.389435500249192 268.04418187968497 0 0 0 0 -229.72995357776381 70.465041578738465 0 70.465041578738465 144.23636525821632 0 0 0 0 -220.16398236369923 138.92049227799487 0 138.92049227799487 88.507942373355036 0 0 0 0 -265.79483252261707 150.77260907682171 0 150.77260907682171 112.3435186864366 0 0 0 0 -247.91998717073238 211.44258538767599 0 211.44258538767599 -31.16209761878531 0 0 0 0 -211.22064737956316 131.30949019314528 0 131.30949019314528 -3.6732823747970542 0 0 0 0 -245.2577910071559 196.54464962542022 0 196.54464962542022 -67.461349925389982 0 0 0 0 -261.58439409980201 164.22991881333928 0 164.22991881333928 30.704425911588601 0 0 0 0 -243.29647708321863 212.36606817800021 0 212.36606817800021 -114.13060799306237 0 0 0 0 -239.01733286262242 200.50907217999827 0 200.50907217999827 -84.581805644985252 0 0 0 0 -261.18056818896002 175.47200683065296 0 175.47200683065296 -11.997204427888164 0 0 0 0 -275.46673258018564 239.28694413395021 0 239.28694413395021 -98.516486608503044 0 0 0 0 -279.63399102685798 211.52320647865167 0 211.52320647865167 -64.57715254867054 0 0 0 0 -273.36066573311837 231.60862662165769 0 231.60862662165769 -105.48381891197585 0 0 0 0 -244.04483025404625 212.16871412517821 0 212.16871412517821 -279.552329764212 0 0 0 0 -370.27547862144274 293.08355208592968 0 293.08355208592968 -110.15861623050444 0 0 0 0 -361.34210939281911 167.20240510314295 0 167.20240510314295 -146.19727858921817 0 0 0 0 -238.67059198431525 227.98826912137815 0 227.98826912137815 -91.726234339923678 0 0 0 0 -267.35059444935177 230.77426356739164 0 230.77426356739164 -21.363045771320486 0 0 0 0 -240.08569603077194 237.55221982289339 0 237.55221982289339 -153.02350979992144 0 0 0 0 -279.9868412275755 196.71719522319518 0 196.71719522319518 -63.863513888486295 0 0 0 0 -243.01892158518604 226.01287665444784 0 226.01287665444784 -162.45392427741098 0 0 0 0 -226.37879718003387 275.13563324260292 0 275.13563324260292 -173.52881594055432 0 0 0 0 -161.70006138569443 299.4651430469205 0 299.4651430469205 -225.83841246302791 0 0 0 0 -212.98637810943183 262.01450873423357 0 262.01450873423357 -182.65102482840211 0 0 0 0 -179.64341330870229 266.99734600017723 0 266.99734600017723 -284.09106948536351 0 0 0 0 -213.75149377091293 256.36182180615469 0 256.36182180615469 -224.3740318585933 0 0 0 0 -238.07867826549045 257.5323082148517 0 257.5323082148517 -224.06517724040714 0 0 0 0 -205.87092416439555 226.11013385247861 0 226.11013385247861 -308.54975178002076 0 0 0 0 -21.770065478455962 -2.6857336196055286 0 -2.6857336196055286 0.46398886271995421 0 0 0 0 -217.82111185976828 56.517550281297645 0 56.517550281297645 -78.758108037243005 0 0 0 0 -410.66675816191128 166.01989479832832 0 166.01989479832832 -22.874548181761384 0 0 0 0 -218.22326889338729 280.87301763360392 0 280.87301763360392 -243.73165689566235 0 0 0 0 -250.27963083205395 259.72983921876494 0 259.72983921876494 -209.10505680701044 0 0 0 0 -244.12012298249465 246.04691661308084 0 246.04691661308084 -241.87282500229867 0 0 0 0 3.5887416104669683 324.61634723439875 0 324.61634723439875 -376.04399224496046 0 0 0 0 -258.60941637110955 219.46480394054242 0 219.46480394054242 -243.50554106215299 0 0 0 0 -7.8627476297834704 -5.9150213421510074 0 -5.9150213421510074 4.3085335130206479 0 0 0 0 -259.72475027899782 235.17183322885194 0 235.17183322885194 -216.76343878381806 0 0 0 0 -45.759277299599489 -10.595869110901731 0 -10.595869110901731 -2.8560328166304316 0 0 0 0 -30.590629272481351 0.69245733554745925 0 0.69245733554745925 3.6076967450387887 0 0 0 0 -240.55093273809689 225.08157772310142 0 225.08157772310142 -289.59795168137953 0 0 0 0 -46.028000038552818 -8.4345389825546278 0 -8.4345389825546278 1.8233209216996329 0 0 0 0 -36.766128100465664 -13.955638747335499 0 -13.955638747335499 -2.5633366519206398 0 0 0 0 -121.32870057102264 254.18966018533592 0 254.18966018533592 -322.65140111387086 0 0 0 0 -90.467002184162993 305.80352149380246 0 305.80352149380246 -324.55701793910043 0 0 0 0 -113.0967795774086 389.16353752358805 0 389.16353752358805 -576.61600902437976 0 0 0 0 -242.49740190226294 368.51966990081451 0 368.51966990081451 -127.91334721207417 0 0 0 0 -180.60513212906517 341.9012304274807 0 341.9012304274807 -319.93701849811214 0 0 0 0 -529.99952276728436 383.81522041600874 0 383.81522041600874 75.982088428026245 0 0 0 0 -251.20020014129477 399.51095134854779 0 399.51095134854779 -232.84352016141588 0 0 0 0 -202.96520085140946 449.06650446646984 0 449.06650446646984 -248.38435457852268 0 0 0 0 7.8708890674479335 42.846420056846952 0 42.846420056846952 -1037.3454483639975 0 0 0 0 -377.33179806933185 789.88478138821756 0 789.88478138821756 -888.69800081622986 0 0 0 0 -409.50977280971711 -190.64371256988903 0 -190.64371256988903 -145.81129800125581 0 0 0 0 -1380.2916849982757 777.31723254662745 0 777.31723254662745 -549.45962283942742 0 0 0 0 -652.89113033864851 -512.3508855619616 0 -512.3508855619616 -332.00550623493996 0 0 0 0 -288.50587257697771 102.6273791564924 0 102.6273791564924 378.63424228039526 0 0 0 0 -1092.4861187409442 477.5418438760521 0 477.5418438760521 111.17722735876771 0 0 0 0 -315.27713530619621 28.946558675638286 0 28.946558675638286 253.67439374241428 0 0 0 0 -177.61055178730385 97.125663926551567 0 97.125663926551567 265.31152697000641 0 0 0 0 -208.97320911671727 -85.96568971157393 0 -85.96568971157393 472.23294597763618 0 0 0 0 177.32763911338407 -646.33262739127235 0 -646.33262739127235 665.04284287157157 0 0 0 0 -12.784215191358527 -1.8571912580057059 0 -1.8571912580057059 10.597083445766785 0 0 0 0 -883.29459553302149 765.60894081031665 0 765.60894081031665 -258.52946825342951 0 0 0 0 -745.58864048168289 344.11074876061286 0 344.11074876061286 239.99878738979623 0 0 0 0 -340.25304388049699 163.86862096879895 0 163.86862096879895 -431.51972225163024 0 0 0 0 106.4987722390797 -313.83366537276515 0 -313.83366537276515 383.88107596557717 0 0 0 0 -16.627719413942714 -2.0918752475990203 0 -2.0918752475990203 16.809325692969253 0 0 0 0 -585.9725246371745 752.58185704426978 0 752.58185704426978 -197.80953398968359 0 0 0 0 -194.17788002560519 -273.68005903637584 0 -273.68005903637584 406.27791842058377 0 0 0 0 -254.56045824249577 39.606637373900639 0 39.606637373900639 427.88028553592267 0 0 0 0 -525.46842405722964 277.46467506322995 0 277.46467506322995 386.62882802720924 0 0 0 0 -215.94747484962136 -171.12999067285591 0 -171.12999067285591 33.989417461893936 0 0 0 0 -514.75468300527427 122.6354077107228 0 122.6354077107228 -361.45190731162802 0 0 0 0 -371.36959764904896 304.86189981598272 0 304.86189981598272 -154.66376726776434 0 0 0 0 -454.31538812303006 -178.04334964528579 0 -178.04334964528579 77.197663638620725 0 0 0 0 -1345.2461805093772 847.4061010270384 0 847.4061010270384 -368.35877341687575 0 0 0 0 -736.45108786740821 -187.51319043920478 0 -187.51319043920478 38.105532143642904 0 0 0 0 -3.4668838610450194 -1.0750303363730396 0 -1.0750303363730396 1.8361078078889683 0 0 0 0 750.71156202023121 -812.41388470177708 0 -812.41388470177708 -5.6099216130637615 0 0 0 0 609.73323447201619 -1220.0259178258334 0 -1220.0259178258334 485.97038742989139 0 0 0 0 495.63181720513967 -270.22850062546723 0 -270.22850062546723 -332.85654926912366 0 0 0 0 -189.01586891753686 -495.80854027279514 0 -495.80854027279514 828.37740126043809 0 0 0 0 -50.318786780858716 24.362277338164851 0 24.362277338164851 -12.580690511424869 0 0 0 0 -609.52353844889149 143.40920779498799 0 143.40920779498799 -137.21930539618711 0 0 0 0 -130.1162644815704 141.98485276850079 0 141.98485276850079 324.45032611251554 0 0 0 0 -17.096312396279245 123.03929254730519 0 123.03929254730519 113.18958552412516 0 0 0 0 -49.112007030984387 -39.845617387307811 0 -39.845617387307811 30.225946680971902 0 0 0 0 2.4023252835960278 -2.8029375504842591 0 -2.8029375504842591 3.8668089929887142 0 0 0 0 -15.649140976376202 0.37539079381943452 0 0.37539079381943452 20.289985726591066 0 0 0 0 82.03131520241368 36.517988545544995 0 36.517988545544995 -194.59282216917109 0 0 0 0 -71.679606613447774 41.750153577859997 0 41.750153577859997 -16.919334833302546 0 0 0 0 -144.64090854300593 81.939536519033481 0 81.939536519033481 109.73556941087782 0 0 0 0 32.044244025826629 60.04986227579866 0 60.04986227579866 -156.67332558550191 0 0 0 0 26.63463939607027 27.021487813172598 0 27.021487813172598 -267.66796055297027 0 0 0 0 -441.03405733838736 -258.59746443708264 0 -258.59746443708264 -647.04089446356011 0 0 0 0 -411.20387360936002 49.312462026732192 0 49.312462026732192 331.2869954927296 0 0 0 0 487.3279784105398 418.83033998912219 0 418.83033998912219 -297.77840257030039 0 0 0 0 1.4881134589959402 308.55365041793675 0 308.55365041793675 414.17984192690892 0 0 0 0 -210.9160703302914 -24.064929683338164 0 -24.064929683338164 33.913725046377749 0 0 0 0 -460.36279507861764 282.65316527610139 0 282.65316527610139 -252.12381941177478 0 0 0 0 -1154.0401097862414 -18.074849891576605 0 -18.074849891576605 -28.379204844026162 0 0 0 0 -1468.3104877570986 527.98892164424251 0 527.98892164424251 108.25724304170808 0 0 0 0 -792.87718425726052 292.38690129588934 0 292.38690129588934 122.57996590005382 0 0 0 0 -1047.2709447044763 390.43921848630168 0 390.43921848630168 154.07134536735231 0 0 0 0 -795.23600095793881 326.90169831554499 0 326.90169831554499 316.38823069526188 0 0 0 0 -31.720262463994771 53.680772718703061 0 53.680772718703061 -15.925212880378202 0 0 0 0 -35.832062791188946 270.79377611151813 0 270.79377611151813 463.08188872458413 0 0 0 0 -313.42145184612309 217.54384273906817 0 217.54384273906817 -35.762728318610243 0 0 0 0 -615.73481548725977 268.86371182391235 0 268.86371182391235 35.376038855123852 0 0 0 0 -530.01480897457805 283.96873702805647 0 283.96873702805647 37.225438895680213 0 0 0 0 -650.27364082720305 429.44731721383801 0 429.44731721383801 325.95090724934744 0 0 0 0 -379.94439141446492 468.38813403090603 0 468.38813403090603 155.99079070788139 0 0 0 0 -219.09992856849567 529.36123565579237 0 529.36123565579237 172.75327604725817 0 0 0 0 -272.66698213008931 146.5767499804947 0 146.5767499804947 79.297255551991839 0 0 0 0 630.55333937238902 -231.54809441403268 0 -231.54809441403268 -260.76555007277057 0 0 0 0 13.895335666451103 9.5136319450266242 0 9.5136319450266242 -9.3864242706868133 0 0 0 0 -127.36723979536328 215.65892371729296 0 215.65892371729296 906.23441978493793 0 0 0 0 -306.11540675195283 31.303188748022876 0 31.303188748022876 1433.7054966538703 0 0 0 0 -492.38090663219191 -543.0047100914735 0 -543.0047100914735 1677.6417665296849 0 0 0 0 -450.52803377452801 -956.26597529470655 0 -956.26597529470655 1342.786618219654 0 0 0 0 -289.4579669048544 -930.13769594586665 0 -930.13769594586665 855.58947743354838 0 0 0 0 -1033.5947044557688 -59.999474529272447 0 -59.999474529272447 -45.294282294671461 0 0 0 0 -542.26749869095511 107.54817990660399 0 107.54817990660399 -18.377320333227999 0 0 0 0 -313.80958205422485 210.95896639687629 0 210.95896639687629 -67.743955160700352 0 0 0 0 -841.96806233535426 323.16971939295291 0 323.16971939295291 135.82286004805769 0 0 0 0 -804.51448474310746 150.52462605759422 0 150.52462605759422 92.978293397996822 0 0 0 0 -967.94787065337005 231.114991317575 0 231.114991317575 182.86538471654785 0 0 0 0 -995.65565425263776 275.88353887517451 0 275.88353887517451 122.59765265089436 0 0 0 0 -38.361720364933717 -82.852295073971618 0 -82.852295073971618 34.624229370951753 0 0 0 0 -2.038901784340851 -100.97346579708801 0 -100.97346579708801 -284.26599429424067 0 0 0 0 -5.5541345733799972 -74.840233796688153 0 -74.840233796688153 -125.05448039361704 0 0 0 0 2.2795066990220221 18.678654167004424 0 18.678654167004424 40.675360190748506 0 0 0 0 106.19403056093142 142.6979470041897 0 142.6979470041897 -200.62380403541835 0 0 0 0 56.914509566471679 76.237569579403498 0 76.237569579403498 -138.13171525407415 0 0 0 0 5.0684269959601806 9.6466597723265295 0 9.6466597723265295 7.7235979550769116 0 0 0 0 21.044752368659829 263.79564466472857 0 263.79564466472857 -70.997709196710275 0 0 0 0 7.4871927854255773 195.11565387595147 0 195.11565387595147 108.92853162589199 0 0 0 0 -127.64921068893455 229.17749019550138 0 229.17749019550138 371.9538621883612 0 0 0 0 -40.869011675371439 95.630349867024961 0 95.630349867024961 212.50795448091685 0 0 0 0 -210.59181514836382 11.788017116296942 0 11.788017116296942 673.58341163203477 0 0 0 0 -209.53247147449292 -35.046592840489211 0 -35.046592840489211 488.18417073171986 0 0 0 0 -43.240758874308085 -94.939904017865956 0 -94.939904017865956 309.02191267379385 0 0 0 0 -48.409121610249713 121.5510462666557 0 121.5510462666557 137.36539611322223 0 0 0 0 -156.77479139318166 -303.98459340534555 0 -303.98459340534555 509.20891570920503 0 0 0 0 -55.9930308640578 -524.93925577262053 0 -524.93925577262053 295.45421887098155 0 0 0 0 -281.3669478870579 -250.48428483029966 0 -250.48428483029966 504.17363989767898 0 0 0 0 1.3152075379039161 -349.31403460813726 0 -349.31403460813726 504.01508516225863 0 0 0 0 -298.00213127069037 -26.773589516847323 0 -26.773589516847323 656.70379678172685 0 0 0 0 -290.91779395323829 -275.21771391507718 0 -275.21771391507718 972.43696053479653 0 0 0 0 -336.72749585895508 -382.38448378333123 0 -382.38448378333123 826.02789065445177 0 0 0 0 155.1524537442383 -224.66669943866236 0 -224.66669943866236 392.76975763182145 0 0 0 0 -45.873325678818219 -144.74048568362082 0 -144.74048568362082 365.83353578462629 0 0 0 0 -108.47293881967198 -218.81673786727924 0 -218.81673786727924 304.70192327512814 0 0 0 0 -66.609465489687864 -3.6116935865629785 0 -3.6116935865629785 146.00679651756855 0 0 0 0 -1.3712518370812177 46.247841987209995 0 46.247841987209995 685.8661019806259 0 0 0 0 -671.55742452095001 180.9005515279307 0 180.9005515279307 -480.82807945108652 0 0 0 0 583.7517912124822 669.90150018662825 0 669.90150018662825 -1866.9176680803689 0 0 0 0 -23.477034978941447 1.1068815630697166 0 1.1068815630697166 0.056920689972599803 0 0 0 0 57.208911206386801 247.179673857583 0 247.179673857583 -388.35674791195106 0 0 0 0 -179.37912810537091 425.43273869584254 0 425.43273869584254 -243.5948800624833 0 0 0 0 -50.634544638136958 103.971229558446 0 103.971229558446 345.65287575090406 0 0 0 0 58.445846181999514 326.91461532433095 0 326.91461532433095 -18.804973728823825 0 0 0 0 -26.905266463261668 9.108901891284626 0 9.108901891284626 1.7940209752191838 0 0 0 0 179.89047071212008 -47.239960029438294 0 -47.239960029438294 289.94266956513638 0 0 0 0 -1062.8139300138209 210.34333044216055 0 210.34333044216055 319.15442058018562 0 0 0 0 -100.40551055819164 -1.4831989244948538 0 -1.4831989244948538 0.63439639029411588 0 0 0 0 -1231.5234601936972 156.34100406501057 0 156.34100406501057 307.46164389483147 0 0 0 0 -1017.969802161002 267.44512888238387 0 267.44512888238387 272.52128386179902 0 0 0 0 -1135.134060479555 133.62502995408886 0 133.62502995408886 142.89165598949603 0 0 0 0 -1287.3124275042865 128.1861656226024 0 128.1861656226024 312.02450805075478 0 0 0 0 186.30892986577055 350.81235965188489 0 350.81235965188489 -2641.2084080755467 0 0 0 0 -1383.2514285676152 -52.197909993123631 0 -52.197909993123631 242.05920688653987 0 0 0 0 -31.634493644141415 17.423465076151302 0 17.423465076151302 -2.3933084705912697 0 0 0 0 -36.654730499650555 43.826678375479425 0 43.826678375479425 -9.1339157039535408 0 0 0 0 -1090.5048074270999 786.37544384892021 0 786.37544384892021 651.6154270283746 0 0 0 0 -272.1286082522347 127.81711515461575 0 127.81711515461575 7.4833671102911694 0 0 0 0 -134.78852960865333 507.29978894451233 0 507.29978894451233 -514.62022767764302 0 0 0 0 -748.72448296332732 1042.113633065157 0 1042.113633065157 -957.91640411901881 0 0 0 0 -24.165188780693846 3.7401769272525627 0 3.7401769272525627 -3.7249231099858626 0 0 0 0 211.58787597967603 -39.908945166387184 0 -39.908945166387184 -998.10337722028544 0 0 0 0 -788.34335277580431 61.276608331872126 0 61.276608331872126 -937.57778558951441 0 0 0 0 -1185.7875556377548 14.330863808600043 0 14.330863808600043 -822.62762936184481 0 0 0 0 -2658.7918373482862 1037.0854526177532 0 1037.0854526177532 -1191.1507345338505 0 0 0 0 -639.0251123564085 -224.27709815435446 0 -224.27709815435446 -764.50998733089932 0 0 0 0 297.6581070649263 -294.23209676194438 0 -294.23209676194438 -1143.7784428827454 0 0 0 0 -641.57664222273161 -272.84820708128518 0 -272.84820708128518 -540.30752845934785 0 0 0 0 199.49812198376458 -137.0103977564961 0 -137.0103977564961 -27.659304452248307 0 0 0 0 -736.87212391164576 205.73828812218574 0 205.73828812218574 87.901430550045006 0 0 0 0 -209.26283013376815 -370.62804199014317 0 -370.62804199014317 322.1500234943851 0 0 0 0 77.392456243673223 316.99198788627905 0 316.99198788627905 -56.642455487015468 0 0 0 0 -539.68899400970258 -142.20107195088985 0 -142.20107195088985 486.47233718435109 0 0 0 0 -1414.2352261527049 -117.64795470314948 0 -117.64795470314948 -1.8382949666020068 0 0 0 0 -603.6848155794678 226.86797594355346 0 226.86797594355346 80.764562595901225 0 0 0 0 -264.18137639879387 -75.839129690697007 0 -75.839129690697007 134.32875548891207 0 0 0 0 -706.92053661093451 241.56766186064277 0 241.56766186064277 130.26057452055579 0 0 0 0 -569.14223046996267 716.53093330075762 0 716.53093330075762 -310.92386284603282 0 0 0 0 -1611.0025410653316 807.16349261981259 0 807.16349261981259 -191.47524460772001 0 0 0 0 -345.29109709996192 449.9623009723278 0 449.9623009723278 -126.03379193908768 0 0 0 0 -287.5570184340495 94.529231450946156 0 94.529231450946156 32.860176645603133 0 0 0 0 -219.48437939009636 281.3773807882647 0 281.3773807882647 -227.59152685815798 0 0 0 0 -206.44139649735007 41.110013719388007 0 41.110013719388007 46.465116728927143 0 0 0 0 -89.485831587233633 -17.217418574243936 0 -17.217418574243936 7.8914236775904101 0 0 0 0 -230.08189838350518 19.371630001952553 0 19.371630001952553 72.923313378528292 0 0 0 0 -193.74075681777322 362.97064555946105 0 362.97064555946105 -199.2490125944658 0 0 0 0 -65.245197293425008 437.8523156305414 0 437.8523156305414 -179.03057153612099 0 0 0 0 -131.51212364215417 206.13604409758517 0 206.13604409758517 -26.271234284512502 0 0 0 0 -133.49322412865877 370.20225611205592 0 370.20225611205592 -9.7422699520675451 0 0 0 0 -23.993184400558675 411.02273055690648 0 411.02273055690648 -240.0420634337404 0 0 0 0 -152.41783849807689 569.85582379272159 0 569.85582379272159 -360.03772714038132 0 0 0 0 -148.26708834444435 450.3780849192874 0 450.3780849192874 -251.83553821554756 0 0 0 0 -87.631247644876566 422.93974151173836 0 422.93974151173836 -382.94092200953628 0 0 0 0 -209.56869112719869 383.62039962452116 0 383.62039962452116 -104.09666477969876 0 0 0 0 -210.5983330595227 439.4548008456203 0 439.4548008456203 -376.10795387243218 0 0 0 0 -111.45484860587021 356.0396388453774 0 356.0396388453774 -417.260620707719 0 0 0 0 -332.05573335554072 244.31269502114637 0 244.31269502114637 -396.40483449681574 0 0 0 0 -184.14583010489514 297.42363536485777 0 297.42363536485777 -842.13064419459863 0 0 0 0 -467.24525893736973 347.95496931725825 0 347.95496931725825 -346.92078498432238 0 0 0 0 -311.69525157626776 365.54512867790027 0 365.54512867790027 -147.94097020741401 0 0 0 0 -240.00410194161259 215.8406625334417 0 215.8406625334417 -308.01517566131361 0 0 0 0 -356.7115424754229 216.63605178528269 0 216.63605178528269 50.254423865226727 0 0 0 0 -393.53235079206024 277.57749634149195 0 277.57749634149195 -262.6266552652279 0 0 0 0 -475.95692021640934 467.80650643803892 0 467.80650643803892 41.141008342299756 0 0 0 0 -479.32908755700373 302.41163804841324 0 302.41163804841324 18.604140254495519 0 0 0 0 -484.55632146805385 224.67738994685601 0 224.67738994685601 -83.765768586574268 0 0 0 0 -678.29966092275663 190.07324616925098 0 190.07324616925098 -281.80290893759638 0 0 0 0 -419.25852607061643 314.88550375054001 0 314.88550375054001 -506.73166067057241 0 0 0 0 -689.34051416809416 198.74977333901506 0 198.74977333901506 -274.46841253098256 0 0 0 0 -839.20491601914455 44.206319957347716 0 44.206319957347716 -123.07045355223545 0 0 0 0 -987.06336761709645 113.67941533199792 0 113.67941533199792 49.141782288416891 0 0 0 0 -896.24905063125698 -99.616488467749377 0 -99.616488467749377 -196.9240483608769 0 0 0 0 -909.47063914165574 162.95542272350747 0 162.95542272350747 22.571539439415801 0 0 0 0 -915.00508254488341 116.62760956977581 0 116.62760956977581 -191.99939390170414 0 0 0 0 -227.32148345271526 224.541677471414 0 224.541677471414 -331.47962678889485 0 0 0 0 -611.69173808496998 -44.517862545517346 0 -44.517862545517346 -396.83150825453504 0 0 0 0 -583.25335071243899 25.699328588695607 0 25.699328588695607 816.93108130861219 0 0 0 0 -462.22080819302755 482.56387206515205 0 482.56387206515205 52.014900224216944 0 0 0 0 -158.92378143313545 417.39736410142177 0 417.39736410142177 -46.42317144882054 0 0 0 0 -719.97067207350665 -451.6253528941179 0 -451.6253528941179 565.45084411283915 0 0 0 0 -542.8900571889244 162.99636843455937 0 162.99636843455937 345.21567132490713 0 0 0 0 -32.677658763649106 245.76775359998692 0 245.76775359998692 -353.72222909171069 0 0 0 0 -103.04007690597655 -1.8736698270213772 0 -1.8736698270213772 3.3970076348755494 0 0 0 0 -525.55028576195036 -135.18949177772674 0 -135.18949177772674 958.87763988213828 0 0 0 0 -104.49187595926287 -212.02418344455583 0 -212.02418344455583 211.85059131524577 0 0 0 0 89.767255807651964 241.77469353607421 0 241.77469353607421 305.70623192245966 0 0 0 0 -191.36585836510039 491.0206567556329 0 491.0206567556329 -1016.0903086414319 0 0 0 0 80.753554702001566 -393.02298879521777 0 -393.02298879521777 530.44320093215867 0 0 0 0 -71.806908965727331 -0.22030863335758255 0 -0.22030863335758255 2.6363584663308455 0 0 0 0 -288.21145857577358 -291.69609109643943 0 -291.69609109643943 1063.0717832317332 0 0 0 0 -11.196856857414801 7.4045274376192163 0 7.4045274376192163 0.6556502296436737 0 0 0 0 -205.10671251171152 1574.4731631254817 0 1574.4731631254817 -1700.0141680798897 0 0 0 0 -431.4301373244416 -71.306071009405059 0 -71.306071009405059 1030.6767524712941 0 0 0 0 -87.49588720607062 272.33410985021601 0 272.33410985021601 15.885001746841226 0 0 0 0 -626.31885080600478 338.80502314338992 0 338.80502314338992 681.00731412918049 0 0 0 0 -252.72897254009513 9.296136301397155 0 9.296136301397155 435.1246873717846 0 0 0 0 -640.05588571611952 593.29350676578269 0 593.29350676578269 41.632865625171689 0 0 0 0 -683.40507318637174 462.94864072097835 0 462.94864072097835 439.15815351723722 0 0 0 0 -235.20179093477418 -331.83611496124468 0 -331.83611496124468 91.137166989751677 0 0 0 0 140.06631658052356 -372.18459008994978 0 -372.18459008994978 -1654.138943218637 0 0 0 0 
</DataArray>
<DataArray type="Float64" Name="cross_section_updated" format="ascii">
0.0086856451738637902 1 1 1 1 1 1 1 1 0.008773329522996285 1 1 1 0.0091811209829060839 1 1 1 1 1 1 1 1 1 1 1 1 1 1 1 0.008776891528670016 1 1 0.006598623225227862 1 1 1 0.0064421809369394692 1 1 1 0.0085322262585760464 1 1 1 1 1 1 1 1 0.010275755081304017 1 1 1 1 1 1 0.0043155955685562353 1 1 1 1 1 1 1 1 1 0.0083434329861381065 1 1 0.0099427416147182535 1 1 1 0.0091854801554490714 1 0.0089687111423995269 1 0.0081482790911681577 0.0051793061246423328 1 1 1 1 1 1 1 1 1 0.0085345761686137257 1 0.0090604672120247389 1 1 0.0091001639440480078 1 1 1 1 1 1 1 1 1 1 1 1 1 1 1 0.010033210060861034 1 1 1 1 0.0080815810780825604 1 1 0.0099995307615313844 0.0085868245790567017 1 1 0.010000592274847253 1 1 1 0.0096350713542803224 0.0086741297308181465 0.0099929302609341325 1 0.0089920461836407728 1 1 1 1 1 1 1 1 1 0.0098910522716901955 0.0095490706352365402 1 1 1 1 1 1 0.01000327821591494 1 1 1 1 1 0.006537353031059033 0.010078335638667092 1 1 0.0080279320384306161 1 1 0.007917575352293595 0.011195604250329547 1 0.0099372021671545723 0.010056867933618849 1 1 1 1 1 1 1 1 1 1 1 1 0.0085702846708028343 1 1 0.0090267625950295506 1 1 1 1 1 1 1 1 1 1 1 1 1 1 1 1 1 1 1 1 0.0091844508617708008 1 1 1 1 1 1 1 1 1 1 1 1 1 1 1 0.0040563796048852917 1 1 0.0035833564827118802 1 1 1 1 0.0044932039431570189 0.0042930100494077798 1 1 1 1 1 1 1 1 1 1 1 1 1 1 1 0.0099061156561132749 1 1 1 0.0093360259644939478 1 1 1 1 1 1 1 1 0.0030345198616872973 0.010639066669527984 1 1 1 1 1 1 1 1 1 0.0078938227710838998 1 1 1 1 1 0.009749450082094796 1 0.010012510278746747 1 1 1 1 1 0.0093937440818571659 0.011237347689130671 1 1 1 0.0064174147699865534 1 0.010319973373577315 1 1 1 0.0094209969792990976 1 0.004490726435998342 1 1 0.0095308971236511414 1 1 1 0.0090240663378679687 1 1 1 1 1 0.0066984916611447232 0.0082815070764423737 1 1 0.0080853148592110371 1 0.0076165801091204847 0.0078396438084410037 1 1 0.0097404486946273267 1 0.0060253572548536159 1 1 1 1 0.0097380510270060304 1 0.0057156351169705515 1 1 0.0060997781431510675 0.0041442345260397917 0.0071605553422228845 1 0.0066675060563893239 1 0.0067807401215848745 0.0063037452120492474 1 1 1 1 1 1 1 1 1 0.0099643604304574564 1 1 1 1 1 1 1 1 1 1 1 1 1 1 1 1 1 1 1 1 1 1 1 1 0.0049577108462796338 1 0.0096980524227803823 1 1 1 1 1 0.0043107840651602919 1 0.010536757103130172 1 1 0.0036934218121094584 1 1 1 1 0.01008536244310986 1 0.0046362883185528253 1 1 1 1 1 1 1 1 1 1 1 1 1 0.010081554945614205 1 1 0.0047385708741136696 1 1 1 1 1 1 1 1 1 1 1 1 1 1 1 1 1 0.0075502444094937369 1 1 1 1 1 1 1 1 1 1 0.0096630596214339771 1 1 1 0.0097363108444158408 0.003398689241959553 1 1 1 1 1 1 1 1 1 1 1 1 1 1 1 1 1 1 1 1 1 1 1 0.0076815354227387292 1 1 0.0090343433756010991 1 1 0.0065774256401445654 1 0.010867525763085363 1 1 1 0.010168485348645376 1 0.0055583395047074987 0.010517251341537796 1 1 1 1 1 1 1 1 1 1 0.010290003966770035 1 1 1 1 1 1 1 1 1 1 1 1 1 1 1 1 1 1 1 1 1 1 1 1 1 1 1 1 1 1 1 1 0.0099016091462695299 1 1 1 1 0.0098685008922397531 1 1 1 1 1 1 1 0.010658888391630844 1 1 1 1 1 1 1 1 1 0.0097395860598949585 1 0.01097769409392246 0.010408137532482653 1 1 0.010410952168554177 1 0.0091217209023524252 1 1 1 1 1 1 1 1 0.00989544458426545 1 1 1 1 1 0.0087592359799846461 1 1 1 1 1 1 0.010562658532649954 1 1 1 1 1 1 1 1 0.010348619069332814 1 0.009421218115211908 1 1 1 1 1 0.0093068989257784271 1 0.010119471141772309 1 1 1 1 1 1 0.009236508629082138 1 1 1 1 1 1 1 1 1 1 0.01071341506000186 0.0081831603947416405 1 1 1 1 0.0084680306878992494 1 1 1 1 1 1 1 1 1 1 1 1 0.0060954263000785412 1 1 0.010109657198530842 1 1 1 1 1 1 1 1 1 1 0.0091334339371385211 0.0075378269759757525 1 1 1 1 1 1 1 1 1 1 0.0099763765597749802 1 0.010562703217116576 1 1 1 1 1 1 1 1 1 1 1 1 1 1 1 1 1 1 1 1 1 1 1 1 1 1 1 1 1 1 1 1 1 1 1 1 1 1 1 0.0096691827947269614 1 1 1 0.0081688124753272039 1 0.0088021126467384136 1 0.010053653054312044 1 1 0.0067678791658886909 1 0.0060929906393767767 1 0.010053344438326331 1 1 0.0089737614566732741 1 1 1 1 1 1 1 1 0.010213749880845804 1 1 0.0090182965446456397 1 1 1 1 0.0059126364831641447 1 1 1 1 1 1 1 1 1 1 0.011073846433937764 1 0.0097252379708128601 1 0.0059339700849997661 1 0.010911637371702216 1 0.009748542964488828 1 1 1 0.010001140234370112 1 0.0073162596160420319 1 1 1 1 1 1 1 1 1 1 1 1 0.0078058962210213467 1 1 0.010003272702757098 0.010072760339693716 1 1 1 0.010791696131487286 1 1 0.0071131487871472299 1 1 0.010713548181851114 1 1 1 0.01013607621864483 1 1 1 1 1 0.0092562715534967796 1 1 0.0072701385403738036 0.0062771158237914567 1 1 1 0.0079937046343848892 0.0051239850486204316 0.010485252944742448 1 1 0.0099162048258074741 1 1 0.00991831290553747 1 1 1 1 1 1 0.0099672524786351309 1 1 0.010414656097679083 1 1 0.010685840416194877 1 1 1 1 1 1 1 1 0.010082609555086539 1 1 1 1 1 0.010863924148026007 0.010243542357960312 0.0098162057902205311 1 1 1 1 1 1 1 1 1 1 1 0.011049484397638667 1 1 1 1 0.0096542503760817713 1 1 1 1 1 1 1 0.0069151021069348666 1 1 1 0.0089871009291354678 1 0.0071516823493083682 1 0.0064992731776257733 1 0.0044332857179320926 1 1 1 1 1 1 1 1 1 1 0.0076353137736000914 1 1 1 1 1 1 1 1 0.0095796318227736686 1 1 0.0094836961418809738 1 1 1 1 0.0092984352098691124 1 1 1 1 1 1 0.0084740054202578699 1 0.0081054768798754194 1 1 1 1 1 1 0.0081434810783969601 0.0094503466639738552 1 1 1 1 0.0099621992512109736 1 0.0098217240175677151 1 1 1 0.00044692765260734898 1 1 1 1 1 1 1 0.010707687846826811 0.0032995821423363429 1 1 0.008139065742113899 1 0.0067977761990803444 0.0097873268260654581 0.0081480939976995501 1 1 1 1 1 1 1 0.010014669356591899 1 1 1 1 1 1 1 1 1 1 1 1 1 0.0068499889968602779 1 1 1 1 1 1 1 1 1 1 0.0093832314264334638 1 1 0.010778187319605816 1 1 1 1 1 0.0083893832080077137 1 1 1 1 1 1 1 1 0.012502822736594792 1 0.014603691558364889 1 1 0.0064038204788922299 1 1 0.011324177306800225 1 1 1 1 0.0068146743600036343 1 1 1 1 1 0.0051029646488882988 1 1 1 1 1 1 1 1 1 0.012606152785895306 1 1 0.01001418312485689 0.0038160180918098991 1 1 1 1 0.012169289233766409 1 0.010293542537814318 1 1 0.011439022965411043 0.0034690657325620955 1 0.011412786819884425 1 0.0042295033717284335 1 1 1 1 1 0.0062716536878869925 1 1 1 0.0065717559386773783 1 1 1 0.0070717106246790413 1 1 1 1 1 1 1 1 1 1 0.0098216457294554148 1 1 1 1 1 1 1 1 1 1 1 1 1 1 1 1 1 1 0.0076346190501356895 1 1 0.0083056748230032132 1 1 1 1 0.0093400477646486679 1 1 1 1 1 1 1 1 1 1 1 1 1 1 1 1 1 1 1 1 1 1 1 1 1 1 1 1 1 1 1 1 1 1 1 1 1 1 1 1 1 1 1 1 1 1 1 1 1 1 1 1 1 1 1 1 1 1 0.0098066608015339625 1 1 1 1 1 1 1 1 1 1 1 1 1 1 1 1 1 1 1 0.0095692020204295025 1 1 1 1 0.0097625412188955436 1 1 1 1 1 1 1 1 1 1 1 1 1 1 1 1 1 1 0.0098170336362159438 1 1 1 1 0.010036683765852311 1 1 1 1 1 0.0099643807479997647 0.008549533745029517 1 1 1 1 1 1 1 1 1 1 1 1 1 1 1 1 1 1 0.0091335441761186686 1 1 1 0.0075757675474403983 1 0.0092898726354678687 1 1 1 1 1 1 1 1 1 0.0073242855736941883 1 1 1 1 0.0099620552236373405 0.0093625560347579267 1 1 1 1 1 1 1 1 1 1 1 1 1 1 1 1 1 1 1 0.0082699833022425104 1 1 1 1 1 1 1 1 1 1 1 1 1 0.0097153777866107148 1 1 1 1 1 1 1 1 1 1 1 1 1 1 1 1 1 1 1 1 1 1 0.0088985203308383706 1 1 1 1 1 1 1 0.0082838922124885486 1 1 1 0.0084606057888525626 1 1 1 1 1 1 1 1 1 1 1 1 1 1 1 1 1 1 1 1 1 1 1 1 0.0095980829801009977 1 0.0099056906672410211 1 1 1 1 0.0093244440585084423 1 0.009065471340162546 1 1 1 1 1 1 1 0.0090024494420235246 1 1 1 1 0.0083439297545445813 1 1 1 1 1 1 1 1 1 1 1 0.0077976455101999905 1 1 1 1 1 1 0.010410931828561086 1 0.008637416910207597 1 1 1 1 1 0.010946381390167147 1 1 0.0066781722192239103 1 1 0.010036932643641017 1 1 1 1 1 1 1 1 1 1 1 1 1 1 1 1 1 1 1 1 1 1 1 1 1 1 1 0.01100322979236527 1 1 1 0.010006702787901984 1 0.0096263194594468984 1 1 0.010004134140237767 0.0056817358942091506 1 1 1 0.0097231819657764007 1 1 1 1 0.0092154862596222891 1 0.0092131345239528303 1 1 0.0084871741514608041 1 1 1 1 1 0.0059106917445077446 1 1 1 1 1 0.010262198213670495 1 1 1 1 1 1 1 1 1 1 1 1 1 1 1 1 1 1 1 1 1 1 1 1 1 1 1 1 1 1 1 1 1 1 1 1 1 1 1 1 1 1 1 0.0098113744928983379 0.010009260382354586 1 1 1 1 1 1 1 1 1 1 1 1 1 1 1 1 1 1 1 1 1 1 1 1 1 1 1 1 0.0076235709998887105 1 1 1 1 0.0082518853824301575 1 1 1 1 0.010284263919418552 1 1 1 1 1 1 1 0.010900681762218142 1 0.0098956324928918659 1 1 1 1 1 0.01032350499200136 1 1 1 1 1 1 1 1 1 1 0.0094245032070029364 1 1 1 1 1 1 1 1 1 1 1 1 1 1 1 1 1 1 1 1 1 1 1 1 1 0.0090647231121154109 1 1 1 1 0.010110354759326421 1 0.0094471720632127183 1 1 0.011602616482230849 1 0.0076910998876362664 1 1 1 1 1 1 0.0079567305863622352 1 1 1 0.008509764547449207 1 1 1 1 1 1 1 1 1 1 1 1 1 1 1 1 1 0.01095789098654633 1 0.0095168038256495772 1 1 1 1 1 0.010805375640877472 1 0.010165077307448332 1 1 1 1 1 1 1 1 0.010099776996530991 1 1 1 1 1 1 1 1 1 1 1 1 1 1 1 1 1 1 1 1 1 1 1 0.010313326058825432 1 0.0098082836118965448 1 1 1 1 1 1 1 1 1 1 1 1 0.0092848933646135449 1 1 1 1 1 1 1 1 1 1 1 1 1 1 1 1 1 1 1 1 1 1 1 1 1 1 1 0.0091092433885838035 1 1 1 0.010004786485997548 1 0.0073759298310622119 0.0076476953154847689 1 1 1 1 1 0.010054433354578902 1 1 1 1 1 1 1 1 1 1 1 1 1 1 1 1 1 1 1 1 1 1 1 1 0.0082542981552226179 1 1 0.0083886887326070254 1 1 1 1 1 1 1 1 0.0082057951245486909 0.0089999397039048946 1 1 1 1 1 1 1 1 1 1 0.0089473747352121543 1 1 0.0089064189137378173 0.0085926920582155009 1 0.0090429533273689768 1 1 1 1 1 0.0090512064017381315 1 0.0082121083461708308 0.009207072555779159 0.0099956532355434825 1 1 1 1 1 1 0.0089399838341070355 1 1 1 1 1 1 1 1 1 0.0098008193130901412 1 0.0062905881372838385 1 1 0.0095433215692206537 1 1 1 1 1 1 1 1 1 1 1 1 1 1 1 1 1 1 1 1 1 1 1 1 1 1 0.0092176915882565894 0.010166658700245013 1 1 1 1 1 1 1 1 1 1 1 1 1 1 1 1 1 1 1 1 1 1 1 1 1 1 1 1 1 1 1 1 1 1 1 1 1 1 1 1 1 1 1 1 1 1 1 1 1 1 1 1 1 1 1 1 0.0074948120764221672 1 1 1 1 1 1 1 1 1 0.0070940769226356271 0.0097925421720430807 1 1 1 0.0096500505979530814 1 1 1 1 1 1 1 1 1 1 1 1 1 1 1 1 1 1 1 1 1 1 1 1 1 1 1 1 1 1 0.0091253095768689049 1 1 1 1 1 1 1 0.0070749258585112475 1 1 1 1 1 1 1 0.0099827014434694262 1 1 0.0065830740281634138 1 1 1 1 1 1 1 1 1 0.0099132396439478368 1 1 0.0072325049073932429 0.017468867730808843 1 1 1 0.0058590695134337761 1 1 1 1 1 1 1 1 1 1 1 0.0051832639331636336 1 1 1 1 0.010000298691720226 1 0.0053417102851538081 1 1 0.0048610611334952165 1 1 0.0042219310715185844 0.012037488456460769 1 1 1 1 1 1 1 1 1 1 0.01123361247918647 0.004218322947842669 1 1 1 1 1 1 0.010120809743258201 1 1 1 1 1 1 0.0031629466931695745 1 0.002941938199431113 1 1 1 1 1 0.0099981599400237407 0.0099913745141145243 1 1 1 1 1 1 1 1 1 1 1 1 1 1 1 1 1 1 1 0.011186190082770425 0.0024976950836153883 1 1 0.0069697651213095797 1 1 1 1 1 1 1 1 1 1 1 0.0074253317515553183 1 1 1 1 1 1 1 1 1 1 1 1 1 1 1 1 1 1 1 1 1 1 1 1 1 1 1 1 0.008932712269143054 1 1 1 1 0.0099597318142457744 0.0051065923884199109 1 1 1 1 1 1 1 0.0095710428889612918 1 1.0992520990682486e-08 1 1 1 1 1 1 1 1 1 1 1 1 1 1 1 1 1 1 1 1 0.0087220103370480306 0.0076509193604585649 1 0.0097725740436944483 1 1 1 1 1 0.0095239183656485975 1 1 1 1 1 1 1 1 1 1 1 1 1 1 1 1 1 0.008975472674447706 1 1 1 1 1 1 1 1 1 1 1 0.0080248774046207637 1 1 1 1 1 1 1 1 1 1 0.010276099522074499 1 1 1 1 1 1 1 1 1 0.0089136778000738666 1 1 1 1 0.0081255275358766334 1 1 1 0.010697082095627076 1 1 1 1 0.010817097766485368 1 1 1 1 1 1 1 1 1 0.010729537763457492 1 1 1 1 0.0099975314137357649 1 1 1 1 1 1 1 1 0.010016606670095813 1 0.01013532276201776 0.010393770278180392 1 0.0098972509950606032 0.0090959921009086953 1 1 1 0.0049042074955801158 1 1 1 0.0099876772894201427 1 0.0097944806751146495 1 1 1 1 1 0.0096466802661353962 1 1 1 0.0089073545456782987 1 1 1 1 1 1 0.01087586909628027 0.0062994017716061536 1 1 1 1 1 1 1 1 1 1 1 0.010013081022698407 1 0.0098748436424181338 0.0097590192681346263 1 1 1 1 1 0.0032980673779078144 0.0046841686456797933 1 1 0.0070411432288737738 1 1 1 1 0.0075995225135812808 1 1 1 1 1 0.0081875686715251715 1 1 1 1 0.0088673808909753224 0.0073916564010905452 1 1 0.0087013896250095705 1 0.009994037879163354 0.0099198895624253193 1 1 1 1 1 1 1 1 1 1 1 1 1 1 1 1 1 1 1 1 1 0.010223698061873626 1 1 0.010176697882305708 1 0.0097410812344756702 1 1 1 0.0093702953448333882 1 1 1 1 1 1 0.0069942263824735191 0.0087144468700576499 1 1 1 1 1 1 0.0042647032106376617 1 1 0.0074746509255419697 1 1 1 1 1 1 0.0093483093722193308 1 1 1 0.0090551060737209654 1 1 1 1 1 1 0.0087618661214667829 1 1 1 1 1 1 1 1 1 1 1 1 1 0.0079389178521707092 1 0.010054225055990967 1 1 1 1 1 1 1 1 1 0.0093702629491082424 1 1 1 0.0043663575870489784 1 1 1 1 1 1 1 1 1 1 0.0078396212997206734 1 1 1 1 1 1 1 1 1 1 1 1 1 1 1 1 1 1 1 1 1 1 1 1 1 0.0092805178274239734 1 1 1 0.0086924612586084336 1 1 0.0081349872316958376 1 1 1 1 1 0.0090283112595792529 1 1 1 0.0094888746666309479 1 1 1 1 1 1 1 0.0091440802441345032 1 1 1 1 1 1 1 1 1 1 1 1 1 1 1 1 1 0.0099281865004995536 1 0.0091942762233804577 1 1 1 1 1 1 1 1 1 0.0055299150900777801 1 0.0046400513697342615 1 0.010248414868652689 1 0.0027733071849546757 0.0079855394239131492 1 1 1 1 0.01073066384441505 1 1 1 1 0.0098287161472625333 1 1 1 1 1 0.0067438228142723353 1 0.011684698332992176 1 1 0.0093440427543024229 1 1 1 1 1 1 1 1 1 1 1 1 1 1 1 1 1 0.0074694631951794082 1 1 1 1 1 1 0.00894478124843575 1 1 1 1 1 0.0089151232567221839 1 1 1 1 1 1 1 0.0091704002774371171 1 1 0.0097189273907244047 1 1 1 1 1 1 4.1852625046190362e-09 1 1 1 5.2972912931159577e-09 1 1 1 1 1 1 1 1 1 1 1 1 1 1 1 1 1 0.0078930631035047556 1 1 1 1 1 4.6955546936323922e-05 0.0099863636653883328 1 1 1 1 1 0.0057180308017291855 1 0.0051104028570388219 1 0.0065148899563542964 1 1.5678004388026273e-05 0.011357102683907199 1 1 1 0.0099722728054871257 0.010002082795048935 1 1 1 1 1 1 1 1 1 1 1 1 1 1 1 1 1 1 1 1 1 1 1 1 1 1 1 1 1 1 1 1 1 1 1 1 1 1 0.0096402096918187172 1 1 1 1 1 1 1 0.010051462862200647 1 0.0042773702485466025 1 1 1 1 1 1 0.0098710323611028196 1 1 1 0.01004385439871751 1 1 1 0.0046855307637220858 0.0095420333050363834 1 0.0065626125324327019 1 1 1 1 1 1 0.010072799894965453 1 1 0.008752076782508663 1 1 1 1 1 1 1 1 1 1 1 1 0.0048762499866277023 0.01000880036542231 0.0093624638994954015 1 1 1 0.0095820376577864953 1 1 1 1 1 1 1 1 1 1 1 1 1 1 1 1 1 1 1 1 1 1 0.0087376632002702844 1 1 1 1 0.0079820477517810271 1 1 1 1 1 1 1 0.00067109599826254557 1 1 1 1 1 0.010000333877197455 1 1 1 1 1 0.00024095785800157948 1 1 1 1 1 1 1 1 1 0.0098557978292120284 1 1 1 1 0.0099226964555682376 1 1 1 1 1 1 1 1 1 1 0.010142662260060449 1 1 0.0099329801570147806 1 1 1 1 1 1 1 1 1 1 1 1 1 1 1 1 1 1 1 1 0.0097113493159979025 1 1 1 1 0.0093499372565133687 1 1 1 1 1 1 1 1 0.0089150859802668431 1 1 1 1 1 0.0078363881805359886 1 1 0.0089213022002691579 1 1 1 1 1 1 1 1 1 1 1 1 0.0078194738233880769 1 1 1 1 1 1 1 1 1 1 1 1 1 1 1 1 1 1 1 1 1 1 1 1 1 1 1 1 0.0096380892010848665 1 1 1 1 1 1 1 1 1 1 1 1 1 1 0.0097664576744236377 1 1 1 1 1 1 1 1 1 1 1 1 1 1 1 1 1 1 1 0.0094581984148909334 1 1 1 1 1 1 1 0.0096913898417684378 1 1 1 1 1 1 1 1 1 1 1 1 1 1 1 1 1 1 1 1 1 1 1 1 0.0098072297664573167 1 1 1 1 1 0.0096638730802540949 1 1 1 1 1 1 1 1 1 1 0.009418289457809724 1 1 0.010010288267027781 1 0.01003231750947029 1 1 1 1 1 1 1 0.0083286138130037601 1 0.0089976152466315421 1 0.009361147092930823 1 1 1 1 1 1 1 1 1 1 1 1 1 1 1 1 1 1 1 1 1 1 1 1 1 1 1 1 1 1 1 1 1 1 1 1 0.010734708829212082 1 1 1 1 1 1 1 1 1 1 1 1 1 1 1 1 1 1 1 1 1 1 1 1 1 1 1 1 1 1 1 0.0097706109792620108 1 1 1 1 1 1 0.010032154454868531 0.010289274687106583 1 1 1 1 1 1 1 1 1 1 1 1 1 0.01005214531009061 1 1 1 1 1 1 1 1 1 1 0.0024756125630776456 0.013136277103572763 1 0.0009037953329484455 1 1 1 0.0079920902131119589 1 0.0048179501129185804 0.0097288003806775443 1 0.0021150746964770616 1 1 1 1 1 1 1 0.0047513319480058085 0.0045966849627664362 1 1 1 1 0.010059510700831402 1 1 1 1 0.0034471192929830304 1 0.011796425855491614 1 0.002497817665918509 0.0059660291074253979 1 0.0095036256359498725 1 1 1 1 1 0.0099946817979726533 1 0.0067151150334602058 0.0065965258092064803 0.0076002910404943183 0.0058088558456848398 1 1 1 1 1 0.00079881051180070127 1 1 0.0045546415574461239 0.0073605147888500377 1 1 1 0.0016069610220799599 1 1 0.010080765396020038 1 1 1 1 -2.3408164261107256e-09 1 1 0.0097354982339850349 1 1 0.0071944449762303443 1 1 1 1 1 1 1 1 1 1 1 1 1 1 0.01213833865684661 1 0.0046748833111797915 1 1 1 1 1 0.0084247937622265005 1 1 0.0079213731133260454 1 1 1 1 1 -4.230967128732166e-09 1 1 1 1 1 1 1 1 1 1 0.0085401848416580099 1 1 1 1 1 1 1 1 1 1 1 0.010158891270429777 1 1 1 1 1 1 0.0021938363724865913 1 1 1 1 1 1 1 1 1 1 1 1 1 1 0.0042204359704958623 1 1 1 0.0098950788581965415 1 1 1 1 1 1 1 0.0063694736560868936 1 0.0087218028171599099 1 1 1 1 1 1 1 1 1 1 1 1 1 1 1 1 1 1 1 1 1 1 1 1 1 1 1 1 1 1 1 1 1 1 1 1 0.0049801823720193907 1 0.0077527238519427451 1 1 0.0043075320836890585 1 0.010325429800751067 1 1 1 1 1 1 0.0053097572165359541 1 1 0.01015531270287286 0.0066347732530931333 1 1 1 1 1 1 0.0087535547210130932 1 1 1 1 1 1 1 0.0087696512140038457 1 1 1 1 1 1 1 1 1 1 1 1 1 1 1 1 1 1 1 0.0052792861271781198 1 1 1 0.011452774429811201 1 0.01000142144381776 1 0.0098396779396611594 1 1 1 1 0.0051814651254347768 1 1 1 1 1 1 0.0080731858575229624 1 1 1 1 1 1 0.008400480066042014 1 1 0.0074703876808931563 1 1 1 1 1 1 0.0090644062231539299 1 1 1 1 1 1 1 1 1 0.0098311712704617776 1 0.0092492577375415195 1 1 1 1 1 0.0096940036939876136 0.0013711360308772541 1 1 1 0.0091123833301074066 0.010023821670441847 1 1 1 1 1 1 0.0025297901074387494 1 1 0.010015777146282052 0.010723221133600929 1 1 0.0025021945539100872 1 1 0.010037885532494004 1 1 1 1 0.0090297164383746405 1 1 1 1 1 1 0.010574062272825957 1 1 1 1 1 1 1 1 1 1 0.0098147332349048429 1 1 1 0.0096993536042550999 0.0096068824770950516 1 1 1 1 1 1 1 1 1 0.0091777970054094851 1 1 1 1 1 1 1 1 1 1 1 0.0094900055143877209 0.006646683927083518 1 1 1 1 0.0064381155031332342 1 1 1 1 0.0095355154867267488 1 1 1 1 0.0099075791132929632 1 1 1 0.0098396132723460403 1 1 1 1 0.010094823471042886 1 1 1 1 1 0.010671897418774466 1 1 1 1 0.0094011378902152595 1 1 1 1 1 1 1 1 1 1 1 1 1 1 1 1 1 1 1 1 1 1 1 1 1 1 1 1 1 1 1 1 0.009384843843002616 1 1 1 1 0.0085626408484120974 1 1 1 1 1 1 0.0090648949085632632 1 1 1 0.0096870631903326135 1 0.0084260420014940704 1 1 1 1 1 1 1 1 1 1 1 1 1 1 1 1 1 1 1 1 1 1 1 0.0091226849847369854 1 0.0094968062734386918 1 1 1 0.0093964896905603078 1 1 1 1 1 1 1 1 1 1 1 1 1 0.0017588128749938294 1 1 0.0037372595424825395 1 1 0.0090850558999134978 0.0043894418712760487 1 0.0070697881686987828 1 1 1 1 1 1 1 1 1 1 1 1 1 1 1 1 1 0.0071983296274604376 1 1 1 1 1 0.0067169920580372189 1 1 1 1 1 1 1 0.0074671318439488779 1 1 1 1 1 1 1 0.0081555150238771853 1 1 1 1 1 1 1 1 1 1 1 1 1 1 1 0.0096875572358024412 1 1 1 0.0099044952940061191 1 1 1 1 1 1 1 1 1 1 1 0.011194503331781024 1 1 1 1 1 1 0.0087328679823808746 1 1 0.009909786069389059 1 0.0099337305431266825 1 1 1 0.0062894385482985416 1 1 1 1 1 1 1 1 1 1 1 0.0061623031063307212 1 1 1 1 1 0.0092311528306552003 1 1 1 0.0082574983146640277 1 1 1 0.0084646963392314718 1 1 1 1 1 0.0076317174756469729 1 0.0075752215056898321 1 1 1 1 1 1 1 1 0.009642081561773581 1 0.0097287690157850729 1 1 0.0085714766396014809 1 0.0076331350633685856 1 0.0099614319367111789 1 1 1 1 1 1 1 1 1 1 0.01007906260448122 1 0.0061930709648772113 1 1 1 1 0.010261879216661119 1 1 1 0.0093535587825940864 0.0096741957734226072 1 1 1 0.0089004623180142638 1 0.010161835656678733 0.0086239547211158854 1 1 0.0097121782639043239 0.0079070414425382231 1 0.0077269528337614163 0.0098063575067473593 1 1 0.0093256844510026006 0.0091648287927219556 1 1 0.0091645460112336954 1 1 0.0094238229706132305 1 0.0097608343099207899 1 1 0.0097331042267463815 1 1 0.0093004364684789662 1 0.0097658025838261234 1 1 1 0.0083507342665384999 1 0.0089534958191846425 1 1 0.0094363882657287797 0.0097991481653305502 1 1 1 0.0096622259041887065 0.0093207077140143209 1 0.0096705961010768431 1 1 1 1 1 1 1 1 0.0097865061696629976 1 1 0.0076423228040850659 0.0096668874435761887 1 0.0095560047402501857 1 0.0098453493317331858 0.0087814635409953629 1 1 1 0.0096653991742753249 1 1 0.0093371208871444716 1 1 1 1 1 1 0.0099520895197592069 0.0099538186602502257 1 1 1 1 1 1 1 0.0061167732543076243 0.0083809007284840805 1 1 1 1 0.0082567798122321536 1 1 1 0.0093069342058544873 1 1 0.0099895873505516843 1 1 1 1 1 0.012897454955625316 1 1 0.01039187156633954 1 1 1 0.0066684699569612704 0.0095988180633926543 1 1 0.0099819225937449567 1 1 1 0.0062862561302272999 1 1 1 0.01363040347834792 0.0078492006793089136 1 1 0.0098008724991259909 1 1 1 1 0.0099880610413623262 0.01108467430162108 1 1 0.0094936898993228241 0.0096173984143526937 1 0.0098117968262781095 0.0056358537578175567 1 1 1 1 1 1 0.0067482913789312215 1 1 1 1 1 1 1 1 1 1 0.009570407184104731 0.0099255697489211078 1 1 1 1 1 1 1 0.0098839445301422413 1 1 1 1 1 1 1 1 1 0.0087575656798956104 1 1 0.0096393032989508451 1 1 0.0029948010719948875 1 1 1 1 1 1 1 1 1 1 1 1 1 1 1 1 1 1 0.0070433587971541218 0.0080033070154155572 1 1 1 1 0.0089228907688057389 1 1 0.008702124692979072 1 1 1 1 1 1 1 1 1 0.00064117866693416334 1 1 0.0090038185645613545 1 1 1 1 1 1 1 1 1 1 1 0.0075368126277373989 1 0.0068688018097105849 1 1 1 1 1 1 1 1 1 1 0.0098748407013938 1 1 1 1 1 1 1 1 1 1 1 1 1 1 1 1 1 1 1 1 1 1 1 1 1 1 1 1 1 1 1 1 1 1 1 1 1 1 1 -7.1960416098137969e-10 1 1 1 1 1 1 1 1 1 -4.2778636709372986e-10 1 1 0.0004442964130860292 1 1 1 1 1 1 1 1 1 1 1 1 1 1 1 1 0.0017297417957285732 1 0.0075331496515658822 1 1 0.0038784889196216473 1 1 1 0.0099189878385253505 0.011401263539381114 1 0.0032097497422756711 0.011590072813411593 1 0.0039636963683243797 1 1 0.010607491469705407 1 1 0.0091685586013987505 1 1 1 1 1 1 1 1 1 1 1 1 1 1 1 1 1 1 1 1 1 0.0093791310598333316 1 1 1 1 1 1 1 1 1 1 1 1 1 1 1 1 1 1 1 0.0093513466158903179 1 1 1 1 1 0.009631675537804028 1 1 1 1 1 1 1 1 1 1 1 1 1 1 1 1 1 1 1 1 1 1 1 1 0.0089672925034630872 1 1 1 1 1 1 0.0091182311412580687 1 1 1 1 1 1 1 1 1 1 1 1 1 1 1 0.010426424648226728 1 1 1 0.0076889620260992284 0.010828578254213558 1 1 1 0.0076854947584773462 1 1 1 1 1 1 1 1 0.0082942265312704582 1 1 1 1 0.0093348717241704161 1 1 1 1 1 1 1 1 1 1 1 1 1 0.010179538714538857 1 1 1 1 1 1 1 1 1 1 1 1 1 1 1 1 1 1 1 1 1 1 1 1 1 1 1 0.01073918923816268 1 1 1 1 1 1 1 1 1 1 1 1 1 1 1 0.011321121816244829 0.0067561952560970953 1 1 1 0.008780809924339477 1 1 1 1 1 1 1 1 1 1 1 1 1 1 1 1 1 1 1 1 1 1 1 1 1 1 1 1 1 1 0.010412827793928534 1 1 1 1 1 1 1 1 1 1 1 1 1 1 1 1 1 1 1 1 1 1 1 1 1 0.0081616471187711537 1 1 1 1 1 1 1 0.005935662525534657 1 1 1 0.0054830854718522374 1 1 0.01167505446940784 1 1 1 1 1 1 1 1 0.01058027799837272 0.012019570668511153 1 1 1 1 1 0.0094551738300821583 1 1 1 1 1 1 1 1 1 1 1 1 1 1 1 1 1 1 1 0.0073998767862812898 1 0.0084309974290601199 1 0.0060747083568563464 1 1 1 0.0083084571035305626 1 0.0094357109536006897 1 1 1 1 1 1 1 1 1 1 1 1 0.0072987695959811343 1 1 1 1 0.010010847992659208 1 1 0.0074109642145015163 1 0.010026833999325776 1 1 0.0090815053204102523 1 1 1 0.0096857559142257826 1 1 1 1 1 1 1 1 1 0.0099828980450243528 1 1 1 1 0.0089143159974467024 1 1 1 1 0.0080592038998777843 1 1 1 1 1 1 0.0091354243429277605 1 0.0010152656540993489 1 0.0079238342313198689 1 1 1 0.011083421692044303 1 1 1 1 1 1 0.0014033703530486087 -1.024132724111726e-08 1 1 1 1 1 0.01033556002778307 1 1 1 1 1 1 1 1 1 1 1 1 1 1 1 1 1 1 1 0.0048332975877837109 1 1 1 1 1 1 1 1 1 0.0090636378685952229 1 0.010016487613677405 1 0.0099509570989166699 1 1 1 1 1 1 1 1 1 1 1 1 0.011215020308772271 1 1 0.0030641507824658507 1 1 1 1 1 1 1 1 1 0.0083761634077592316 1 0.0062196933017739098 1 1 1 1 1 1 0.0093222717676325947 1 1 1 1 1 1 1 1 1 1 1 1 1 1 1 1 1 1 1 1 1 1 1 1 1 1 1 1 1 1 1 1 1 1 1 1 1 1 1 1 1 0.0075572995085787919 1 1 0.010024856879260656 1 0.0086957747786485032 1 1 1 0.0090589124991610169 0.0099955769318835937 1 1 0.0092505406893784187 1 1 1 1 1 1 1 1 1 1 1 1 0.0099297401870328834 1 1 1 1 1 1 1 1 1 1 1 1 0.0097137074555093284 1 1 1 1 1 1 1 1 1 1 1 1 1 1 1 0.0083173996295771869 1 1 1 1 1 0.0080458584120240151 1 1 1 1 1 1 1 1 1 0.0094889653532812725 1 1 1 1 0.0088403119691715937 1 1 1 1 1 1 1 1 1 1 1 0.0080188251498461149 1 0.010010345820172835 1 0.010001575342098241 1 1 1 0.011997232947564742 1 1 1 1 1 1 1 1 1 1 1 1 1 1 1 1 1 1 1 1 0.0091075898422801529 1 1 1 1 1 1 1 1 1 1 1 1 1 1 1 1 1 1 0.0099752273733720292 1 1 1 1 1 0.0045373695313542361 1 1 1 1 1 1 1 1 0.008671174895877938 1 1 0.0063364863948484262 1 1 1 1 1 1 1 0.0095439073774024 1 1 1 1 1 1 1 1 1 0.0083049262769656594 1 1 1 1 1 1 1 1 1 1 1 1 1 1 1 1 1 1 1 1 1 1 1 1 0.0098198767716877848 1 0.0097468397103441934 1 1 0.0088301665150357245 1 1 1 1 1 1 1 1 0.0099599033368446208 1 1 1 1 1 1 0.0098448130860627515 1 1 1 1 1 1 1 1 1 1 1 1 0.0090100259978802416 1 1 1 1 1 1 1 1 1 1 1 1 1 1 0.0094661186204778452 1 1 1 0.010582575240389466 1 1 1 1 0.0097765289733783168 1 1 1 1 1 1 1 1 1 1 1 1 1 1 1 1 1 1 1 1 1 1 1 1 1 1 0.008399510179755626 1 1 0.0098608921939008776 1 1 1 1 1 1 1 1 1 0.0095126593929187233 1 1 0.009946400420466012 1 1 0.0086928461521403756 1 1 1 1 1 1 1 1 1 1 1 1 1 1 1 1 1 1 1 1 1 1 1 1 1 1 1 1 1 1 1 1 1 1 1 1 1 1 1 1 1 1 1 1 1 1 1 1 1 1 1 1 1 1 1 1 1 1 1 1 1 1 1 0.0098098595075938582 1 1 1 1 1 1 0.011643277741014878 1 1 1 1 1 1 1 1 1 1 1 0.012940470034228546 0.0094969495450949685 1 1 0.011097849536851622 1 0.008196125250658045 1 1 0.0087189994092283993 1 1 0.0017638017188421132 1 1 1 1 1 1 1 1 0.0092652898275998666 1 1 1 1 1 1 1 1 1 0.010138931647739075 1 1 1 1 0.0093286096853153738 1 1 1 1 1 1 1 1 1 1 1 1 1 1 1 0.0104571958332343 1 1 1 1 0.012773905106570869 1 0.0098505228628825939 1 1 1 0.0099326154152384778 1 1 0.0099320658625217974 1 1 1 1 1 1 1 1 1 1 1 0.0024854853954230458 1 1 0.010997327411239037 1 1 1 0.0063938066273310293 1 1 0.0089338062058911469 0.0063569162956716632 1 1 0.0030330593931566542 1 1 1 1 1 1 1 1 0.0081052364934936713 1 1 1 1 0.0060621965698832948 1 0.005185918148575437 1 0.0030703286810569459 1 1 1 1 0.0024799910329567311 1 1 1 0.010342244612850833 1 1 1 1 1 1 1 1 1 1 1 1 1 1 1 1 1 1 0.0093806196884952744 1 1 1 1 1 1 1 1 1 1 1 1 1 1 1 1 1 1 1 1 1 1 1 1 1 1 1 1 1 1 1 1 1 1 1 1 1 1 1 1 0.0057601531388620404 1 1 1 1 1 0.0035336224236093036 1 1 1 1 1 1 1 1 1 1 1 1 1 0.0099912828980127499 1 1 0.0099374479545909309 1 1 1 0.0089252732264499847 1 0.0086492864499093398 1 1 1 1 0.0098345198009531856 1 1 1 1 1 1 1 1 1 0.0084206945332402933 1 1 0.009945333508865924 0.007998540013578196 1 0.0097773685245186766 1 1 1 1 1 1 1 1 1 1 1 1 1 1 1 1 1 1 1 1 1 1 1 0.010463692038378852 1 1 1 0.0099385620528602871 1 1 1 1 1 1 1 0.009869256071462185 1 1 1 1 1 1 1 1 1 1 1 1 1 1 1 1 1 1 1 1 1 1 1 0.010067259449954791 1 1 1 1 1 0.010308407096215636 1 0.00941032407634795 0.0094243963847945485 1 1 1 0.0090746515200994943 1 1 0.0096758075641131813 1 1 1 1 1 1 1 1 1 1 1 0.0098916755164724403 1 1 1 0.0087101205437015248 1 0.0095160217677900047 1 1 1 1 1 0.010397781097058977 1 0.0103913671981711 1 0.0082134743357633148 1 1 1 1 1 1 1 1 0.0038103798581296403 0.0099359100170688611 0.0015214356548444528 1 1 0.010023352522622535 1 1 1 1 1 1 1 1 1 1 1 1 1 1 1 1 1 1 1 1 1 1 1 1 1 1 1 1 1 1 1 1 1 1 1 1 1 -5.5934834116908028e-09 1 1 1 1 1 1 1 2.6208478407229417e-05 1 1 0.0099949514498531428 1 1 1 1 1 1 1 1 1 1 1 1 1 1 1 1 1 1 1 1 1 1 1 7.7764110168604406e-10 1 1 1 1 1 1 1 1 1 1 0.011330689976968733 1 1 1 1 0.012628916967793986 1 1 1 1 -3.1030900444692366e-09 1 0.0099649989169302341 0.011940371397590912 1 1 1 1 0.0093662794062263979 1 1 -1.216177438270738e-09 1 1 0.0085802555985320713 3.1112116329404249e-09 1 1 1 1 1 1 1 0.0090159068267945605 1 1 1 1 1 1 1 1 1 1 1 1 1 0.0094763420389328192 1 1 1 1 1 1 1 0.0096674479805534102 0.0086997505248443928 1 0.0064299504553382552 1 0.0092538992640311922 1 1 1 0.0062039710153759305 1 1 1 1 1 0.0073401395168447995 1 1 0.0089859542049985884 1 1 1 1 1 1 1 0.010400739242538683 1 1 1 1 1 1 1 1 0.009815858446367438 1 1 1 0.0096390940593712171 1 1 1 1 1 0.0098361195956485053 0.0085205314362172234 1 1 0.0095521684859844989 1 1 1 1 1 1 1 1 1 1 1 1 1 1 0.0099380404160684648 1 1 0.010460245795600311 1 0.009033536611592485 1 1 1 1 0.0095819014984854355 1 1 1 1 1 0.0070608508763916195 1 1 0.010066215408035087 0.0061119276026194401 1 1 1 1 0.01030921275429908 1 1 1 1 1 1 1 1 0.0059079917145810476 1 0.0085230551074801861 1 1 1 1 1 1 1 1 0.0058368980262417155 1 1 1 1 0.0096436477342667117 1 1 1 1 1 1 1 1 1 1 1 1 1 1 1 1 1 1 1 1 1 1 1 1 1 1 1 1 1 1 1 1 1 0.0093262409283353699 1 1 1 1 1 1 1 0.0078577154183324619 1 1 1 1 1 1 1 1 1 1 1 1 0.010006866059937728 1 1 1 1 0.0071128544656045845 1 1 1 1 1 1 1 1 1 1 1 1 1 0.0099995136972662064 1 1 0.0099994399421239125 1 1 1 1 0.0099429391753936419 1 1 1 1 1 1 1 1 1 1 1 0.0097398212617236905 1 0.0073158249492834143 1 1 0.0099245705787635863 1 1 1 1 0.006328547786745407 1 1 1 1 1 1 1 1 1 1 1 1 1 1 1 1 1 1 1 1 1 1 1 1 1 1 1 1 0.0087662812521573825 1 1 1 1 0.0021599974411516468 1 1 1 1 1 1 1 1 1 0.0085103357938519399 1 1 1 0.010121385406313263 1 1 1 1 1 1 0.0040161299771164635 1 0.010798118538088094 1 0.010369669318150171 1 1 1 1 1 1 1 1 1 1 1 1 1 1 1 1 1 1 1 1 1 1 1 1 1 1 1 1 1 1 1 1 1 1 1 0.0099501946029636572 1 0.0060870106588236149 1 1 1 1 1 1 1 1 0.0086933060737678456 1 1 1 1 1 1 1 1 1 1 1 1 0.010184203925729253 1 1 1 1 1 1 1 1 1 1 1 1 1 0.010029607579900261 1 1 0.0075155580593687793 1 1 1 1 0.0098007415516890295 1 1 1 1 0.0067113034692820369 1 1 1 1 1 0.0058854600374968775 0.0098381777404702164 1 0.005347828560599832 1 1 0.011747212530625439 1 1 1 1 0.010024334436320023 1 0.0070362928678522549 1 1 1 1 1 1 1 1 0.0097745487859990203 1 1 1 1 0.0080038228948727721 1 1 1 1 1 1 1 1 1 1 1 1 1 1 1 1 1 1 1 1 1 1 0.0076723218847593068 1 1 1 1 1 1 1 1 1 1 1 1 1 1 1 1 1 1 1 1 1 0.0056761447796320778 1 1 1 1 1 1 1 0.010326921091084691 1 0.010147674228505033 1 1 1 1 1 1 1 1 1 1 1 1 1 1 1 1 1 1 1 1 1 1 1 1 1 1 0.010874585207565724 1 1 1 1 1 0.010498880282255393 1 0.0097161613005975825 1 1 1 1 0.011119453788024527 0.0088660723877443826 0.0079412815294332435 1 0.011573908264190877 1 1 1 0.0062638503453093033 1 1 1 1 0.010201432287148272 1 0.0098742634425503031 1 1 1 1 0.0099938007965133784 1 1 1 0.010300467462612596 0.0092044647908777408 0.0069316848667883117 1 0.007505618580773604 1 0.0077531610614140212 1 1 0.0099742208486053967 1 1 1 1 1 1 1 1 1 1 0.0077274967117482041 1 0.0078744090963103024 1 0.0088457278002820397 1 1 1 1 0.006796892209918335 1 1 1 1 0.0099679074408531541 1 1 1 1 1 1 1 1 1 1 0.0085339904560677183 1 0.01008049394109304 1 1 0.0077692203654193305 1 1 0.0075268713142365752 1 1 1 1 1 0.0086236852675110314 1 1 1 1 1 1 1 1 1 1 1 1 0.010249460202742079 1 1 1 0.0093894712489557899 1 1 1 1 1 0.009820193189598439 1 1 1 1 1 1 1 1 1 1 1 1 1 1 1 1 1 1 1 1 1 0.0099363824927500358 1 1 1 1 0.0054738262392366628 1 1 1 0.0082561996272292725 1 0.0098166589072167521 1 1 0.0080499735781143292 1 0.0099904462259743834 1 1 1 1 1 1 0.0095491440479309152 1 1 1 1 0.0058985388648668067 1 0.0054315321569089279 1 1 1 1 1 1 1 0.0098400634243440786 1 1 1 1 1 1 1 0.0067291192888900529 1 1 1 1 1 1 1 1 1 1 1 1 1 1 1 1 1 0.00948371115861079 1 1 1 0.0097439268628592597 1 1 1 1 1 1 1 1 1 1 1 1 1 1 0.0095131041287042258 1 1 1 1 1 1 1 1 1 1 1 1 1 1 1 1 1 1 1 1 1 1 1 1 1 1 1 0.0033549907642663624 1 0.0056370367462547939 1 1 1 0.010035818617244858 1 1 1 0.012745808206510367 1 1 0.010358960119284583 0.0030303599488637843 1 1 1 1 1 1 1 1 0.0024850031405912014 1 1 0.0027607161773702295 1 1 1 1 0.010200805150100252 1 0.010055732501232118 1 1 1 0.009801716301538423 1 1 1 1 1 1 1 1 1 1 0.010384216694808202 1 1 1.820070474108787e-09 1 1 0.010031367018624292 1 1 1 1 1 1 1 0.011679187730825083 1 1 0.011527670895329158 0.014339281829033523 1 1 1 0.0099806914865728982 1 1 1 1 1 1 0.0095563707068725828 1 1 1 1 0.010659814264905263 1 1 1 0.0098276302780204283 1 1 1 1 0.0091393245705630472 1 1 0.0078656003182150502 1 1 1 1 1 1 1 1 1 1 1 0.0057063091505152059 1 1 1 1 0.0087371331740237011 1 0.0081396508445006222 1 0.0052079743983240775 1 0.0091297393955340998 1 1 1 1 1 1 1 1 1 1 1 0.0097107926639368129 0.0074651965271384443 1 1 1 1 1 1 0.010078649319241458 1 1 0.0040352772980487752 1 1 1 1 1 1 0.0046324174722328472 1 1 1 0.0045909226623674229 1 0.003149873397846132 1 1 1 0.009224920513203538 1 1 1 1 1 1 0.0094732987342643332 1 1 1 1 1 1 0.0096077240559247282 1 0.0099770460941966919 1 1 1 0.0089414408770614583 1 1 1 1 0.0063579870781698272 1 1 1 1 1 1 1 0.0099962290200467045 1 0.0089501953133206309 1 0.0084278543118510574 1 1 1 0.0088276216636540873 0.0086242760731805139 1 1 0.0063176109497915089 1 1 1 1 1 0.0072641645141090869 1 0.0096889286060577902 0.0070178717123678767 0.0091028294488623863 0.0086429682229993351 1 1 1 1 1 0.006513248112182091 0.0045679034894792817 1 1 0.0099799973544679003 1 1 1 0.0090795838034008584 1 1 1 1 1 1 1 1 1 0.0052968920655030709 1 1 1 0.010012606117007303 1 1 1 1 1 1 1 0.010321869896208126 1 0.0090576750672943795 1 1 1 1 0.0053678581670097963 1 0.0099759826692163052 1 1 1 1 0.010031033767724684 1 1 1 1 1 1 1 1 1 0.010026291221559935 1 1 1 1 1 1 1 1 1 1 1 1 1 1 1 1 1 1 1 1 1 0.0074117490636603622 1 1 1 1 0.0089297648409183868 1 1 1 1 1 0.0098240826160364055 1 0.0099945341797741897 1 1 1 1 1 1 1 1 1 1 1 0.009986328310193025 1 0.010397028384975636 1 0.0095940735877798246 0.0078851518486487259 1 0.0098061333705706487 1 0.01174031995285855 1 1 1 0.010001764370169565 1 1 1 0.0094919041593347579 1 1 1 1 0.01069495145976041 1 0.0065505191921379092 1 1 1 1 1 1 1 1 0.010343868210551414 1 1 1 1 1 1 1 1 0.0084595713931673519 1 1 1 1 1 1 1 1 1 0.0084924067153635784 1 1 0.0051308164490516239 1 1 1 0.0063278215141749448 1 1 1 1 1 1 1 1 1 1 1 1 0.010312528267450775 1 1 1 1 0.0079817341264747273 1 1 1 1 1 1 0.008649953466433942 1 1 1 1 0.01000578348216323 1 0.0099715889666848329 1 1 1 1 1 1 1 0.0099430347472399642 1 1 1 0.0099718051639377386 0.0099954675440698231 1 1 1 1 0.010101343158736431 1 0.0099933727882658956 1 1 0.0064888626542236628 1 1 1 1 1 1 1 1 1 1 1 1 1 1 1 1 1 1 1 1 1 1 1 1 1 1 1 1 1 1 1 1 1 1 1 0.0067063891504513026 1 1 1 0.0076945970664115066 1 1 1 1 1 1 1 1 1 1 1 1 1 0.0099663945681240183 1 0.0094913492245563003 1 1 1 1 1 1 1 1 1 1 1 1 1 -1.7226625750876856e-09 1 1 0.0007047186249867568 1 1 1 1 1 0.0028384935030668669 1 1 1 1 1 1 1 1 1 1 1 1 1 1 1 1 1 1 1 0.0052375708030841864 0.0074800232769217326 1 1 0.0098682404138173245 1 1 0.0099190638600227914 1 1 1 1 1 1 1 0.0049479329857379344 1 1 1 1 0.0030887492931858575 1 1 1 1 1 1 1 1 1 1 1 1 1 1 0.00922737507320677 1 1 0.0076842120311148912 1 1 1 1 1 1 1 0.0083873587353904301 0.0095341211900863993 1 1 1 1 1 1 1 1 1 1 1 1 1 1 1 1 0.0094093416319364735 1 1 1 1 0.0098435264032118597 1 1 0.010837021513523871 1 1 7.1114072086399943e-05 1 1 1 1 1 1 1 1 1 1 1 1 9.9725678513740146e-09 1 1 1 1 0.00052084741671639539 1 1 1 1 1 1 1 1 1 0.0079387527284698091 0.0043764221246032319 0.010259711583350574 1 1 1 0.0092470995209566198 1 1 0.0072140160627093431 0.002162270194552899 1 -1.1740145904048926e-09 1 1 1 0.007302626457718786 1 1 1 1 1 1 1 1 1 1 1 1 1 1 1 1 1 1 1 1 1 1 1 1 1 1 1 1 1 1 1 1 1 1 1 1 1 1 1 1 1 1 1 1 1 1 1 1 0.0096105572632510482 1 0.0070780021327285225 1 1 1 1 1 1 1 1 1 0.011507618021653423 1 1 1 1 1 1 0.0077305094955347001 1 1 1 1 1 0.0091221336684155462 1 1 1 1 1 1 1 1 1 1 1 1 1 1 1 0.0090339264720366158 1 1 1 1 1 1 1 0.010378630277181205 1 1 1 1 1 0.011099356800560215 0.0095107325976712051 1 1 1 1 0.0089326867588414259 1 1 1 1 1 1 1 1 1 1 1 1 1 1 1 1 1 1 1 1 1 0.01025247327808536 1 1 1 1 1 1 0.0094352932649221649 1 1 1 0.010651408301268222 1 1 1 1 1 1 1 1 1 1 1 1 1 1 1 1 1 1 0.010968871715783748 1 0.0091204615536547087 1 1 1 1 1 0.0098575989591467329 0.010172514539078871 1 1 1 0.00766572247923622 1 1 1 1 1 1 0.0079854141102362608 1 1 1 1 1 0.010027603094201107 1 0.0088202672991784751 1 1 0.0089930784334480551 1 1 1 1 0.0091377928421108451 1 1 1 1 0.0083497835509928637 1 1 1 1 0.0099986258869914201 1 1 1 1 1 1 1 1 1 1 1 1 1 0.0099734888673480224 1 1 1 1 1 1 1 1 1 1 1 1 1 1 1 1 0.0079616780544805119 1 1 1 1 0.0072105946837757381 1 1 1 1 0.010468093933916407 1 1 1 1 1 1 1 1 1 1 0.01009203290031706 1 1 1 1 0.0098099554127332751 1 1 1 1 1 1 1 1 1 1 1 1 1 1 1 0.0099762074265922623 1 1 1 0.0092443029253213745 1 1 1 1 1 1 1 1 1 1 1 1 1 1 0.0099284947713061469 1 1 1 1 1 1 1 1 1 1 1 0.0081440679061482099 1 1 0.009261572467022243 1 1 1 1 1 1 0.0099803363302248416 0.0075341682883739783 1 1 1 1 0.0079006917360300924 1 0.0090593889666126873 1 1 1 0.0097381347040007074 1 1 0.0097858784534094207 1 1 1 1 1 1 1 1 1 1 1 1 1 1 1 1 0.0097548537896413844 1 1 1 1 1 1 1 1 0.0094221631361621275 0.010580631308063373 1 1 1 0.00056049616292645071 0.0096395096219007402 1 0.0053341033173692314 1 0.0061816008903789049 1 1 1 1 0.0083342046230274955 1 1 1 1 1 1 1 1 1 1 1 1 1 0.010025329469167838 1 0.0052943497561174536 1 1 1 1 1 1 1 1 0.011890419701815858 0.010001260180926728 1 1 0.0020405946585585824 0.0084570996472194074 0.0033220125156730798 1 1 1 1 1 1 0.0099937805970984773 1 1 0.0056690422049957279 1 1 0.0063657437281978979 0.0029372280806982207 0.0047846985932739963 0.0036089386383634514 1 1 1 1 1 1 1 1 1 1 1 1 1 0.008640343787413551 1 1 0.01045823095922694 1 0.0094427625220124684 1 1 1 1 1 1 1 0.0099648465569564387 0.010350006569500719 1 1 0.0097677870147177565 1 1 0.001798655721228417 1 1 1 1 0.0032212375810448442 0.0042729493878907523 0.0018334275496406146 0.005149277113068694 1 1 1 1 1 1 1 1 1 1 1 1 1 1 0.0078710124814042066 1 1 0.008022789988720809 1 1 1 1 0.010052735061439964 1 1 1 0.0097460645480630988 1 1 0.0082375633020724676 1 1 0.010008071769235478 1 1 0.011727721225902009 0.010547821808948385 1 0.0076834343439979372 1 1 1 1 1 1 0.0084969619935895396 1 1 1 1 0.010423782538592838 1 1 1 1 1 0.0097101626388878971 1 1 0.010001465670153965 1 0.0090629537723818897 0.010997264371346195 1 1 1 0.008337154729610715 1 1 1 1 1 0.0099373696467960054 1 1 1 0.0092698497203936754 1 1 1 0.010041346191440873 1 1 1 1 1 1 1 0.002199426388131507 1 1 1 1 1 0.0046492970613732079 1 1 1 1 1 1 1 0.0089737424702301949 1 0.0093866116745589881 0.0069617571186440883 1 1 0.0097498306885689476 1 1 1 1 1 1 0.0081817520057218974 1 1 1 1 1 1 0.0043985230462769837 1 1 1 1 1 1 0.0086285855216432887 1 0.0060496763700435795 1 0.0080319243019370198 1 1 0.0087398091216668271 1 1 1 1 0.0096816941397510885 0.010128790553662231 0.0070910173964216314 0.0081121473890124196 1 1 1 1 1 1 1 1 0.0024143166820138999 1 1 1 0.0099983747662099297 1 0.0050731113808619062 1 1 1 1 1 1 1 1 1 1 1 1 1 1 1 1 0.010679640113351117 1 0.001953937053940074 1 1 1 1 1 1 1 1 0.0099901912092758803 1 1 1 1 1 0.0093269262942284152 1 1 0.0074465670896553511 1 1 1 1 1 1 0.0091505862914721004 0.0063811547551662698 1 1 -1.5892916583465366e-09 1 1 1 1 1 1 1 1 1 1 1 0.0084308462852234149 0.0080477334172087828 1 1 1 1 0.010006450238617411 1 1 1 1 1 1 1 1 -6.1238767008753303e-09 1 1 1 1 0.0092089939616806209 1 1 1 1 1 1 0.0080872927795066218 1 4.1266683022123107e-09 1 0.0077438769367593509 1 1 1 1 1 1 1 1 1 1 1 1 1 1 1 1 1 1 0.011511411176876672 1 1 1 1 1 1 1 1 1 1 1 1 1 1 1 1 1 0.010039889032198495 0.0096523135704651292 1 1 1 1 1 1 1 1 1 1 1 1 1 1 1 1 1 1 1 1 1 1 1 1 1 1 1 1 1 1 1 1 1 1 1 1 1 1 1 1 1 1 1 1 1 0.0095650117082500263 1 0.008986965869420235 1 1 1 1 1 1 1 0.01000567465802232 1 1 1 0.010223696529087403 1 0.004582776982593021 0.0099960520287887423 0.0067586090199022626 1 0.0047814302357221412 0.0099999089458023115 1 1 0.0099773166640472442 0.011532816926734319 0.00040161867867340162 1 1 1 1 1 0.010171541257590372 1 0.011460582487518611 0.010913814541725617 1 1 1 1 1 1 1 0.010304956655171549 1 1 0.0091323118612867023 1 1 0.0071673337990627931 0.0091145708059847744 1 1 1 1 1 1 0.0079386659142819602 1 1 0.0074971369622214949 0.0083776214761341478 1 1 0.009809505865929935 1 1 1 0.0099689638085777854 1 1 1 1 0.009004654229782097 1 1 1 0.0093981627272493613 1 1 0.0094448183421742635 1 1 1 1 1 1 1 1 1 1 1 1 1 1 1 1 1 1 1 0.0095246722487788132 0.0099791100230420503 1 1 1 0.0097097016635639549 1 1 1 1 0.009780570460150264 1 1 1 1 1 0.0097383848657095623 0.010010035720561293 1 1 1 1 1 1 1 1 1 0.0099252888629599145 1 1 1 1 1 1 1 1 1 1 1 1 1 1 1 1 1 1 1 1 1 1 1 1 1 1 1 0.0099886980490612245 1 0.010860033358894711 0.0096160854742333157 1 1 1 1 1 1 1 1 1 1 1 1 1 1 1 1 1 1 1 1 1 1 1 1 1 1 1 0.01041528856081559 1 1 0.010121661968709259 1 1 0.010063234652997405 1 1 0.0094290027347539232 1 0.010000171068509117 1 1 1 1 1 1 1 0.0096996156418555739 1 1 1 1 1 1 1 1 1 1 1 1 0.0099734710228817827 1 0.0099817934740041494 1 0.009999704151591066 1 1 1 1 1 0.0096968709192107629 1 1 1 1 0.0099985062450282519 1 1 0.0099943151952156875 1 1 1 1 1 1 1 1 0.0099996690644760834 1 1 1 1 1 1 0.0099823164149070581 1 1 1 1 0.0099942015540622157 1 1 1 0.0099953009348594073 1 1 1 1 1 1 1 1 1 1 1 1 1 1 1 1 1 1 0.009990277566968837 1 0.0099883100780282924 1 1 1 0.0099933361610583162 1 1 1 1 1 1 1 1 1 1 1 1 1 1 1 1 1 1 1 0.0064587089079072985 1 1 1 0.0098190223317077968 1 1 1 0.009628528197637716 1 1 1 1 1 1 1 1 1 1 1 1 1 1 1 0.0083532649495612066 1 1 1 1 0.0088804150365905318 1 1 0.0074022748566335977 1 1 1 1 1 1 0.0099312199030135145 1 0.0091253810934141307 1 0.01013090444262859 0.0059318836190837311 0.010025608231655679 1 1 1 0.010055369726987479 0.010338076367115645 1 1 1 1 1 1 1 0.0097828624092776706 1 1 1 0.010316056258873682 1 0.0099951047211849619 1 1 1 1 1 1 1 1 1 0.010080985392208627 1 1 1 1 1 1 1 1 0.0099770165078952155 1 1 1 1 0.0099870492388425044 1 1 1 1 1 1 1 1 1 1 1 1 1 1 1 1 1 1 1 1 1 0.0093514490557912756 0.0099662486371414269 1 1 1 1 1 1 1 1 0.0096410185373409542 1 1 1 1 1 1 1 1 1 1 0.0092064268722099017 1 1 1 1 1 1 0.009246611136838348 1 1 1 1 1 0.0081705058757092601 1 0.010220973834887574 1 1 0.0096551775656013514 0.0090488123146438854 1 1 1 1 1 1 1 1 1 1 1 1 1 1 1 1 1 1 1 1 1 1 1 1 1 1 1 1 1 1 1 1 1 1 1 1 1 1 1 1 1 1 1 1 1 1 1 1 0.0059200071491848985 0.010207915671307964 1 1 0.0098937978052676453 1 1 1 1 1 0.0045194410730729495 0.0099905403050522187 1 1 0.01000241172551581 0.0051478383803537087 1 1 1 1 1 1 1 1 1 1 0.004375307424210835 1 1 1 1 1 1 1 1 1 1 1 1 1 1 1 0.0085757952314791802 1 1 1 1 1 1 1 1 1 1 1 1 1 0.0069042446341070589 1 0.010572683092077645 0.0081381870567803875 0.0049242039991459277 1 1 1 1 1 1 1 1 0.0084843875516392095 0.0097143708395059369 1 1 1 1 0.0099157292513826142 1 1 1 1 1 1 1 1 0.0092997205228567293 1 1 1 1 1 1 1 1 1 1 1 1 1 1 1 1 1 0.0096092723704988264 1 1 1 1 1 1 0.0098548700564948643 1 1 0.0098415488174861693 1 1 1 1 1 1 1 1 1 1 1 1 1 1 1 1 1 1 0.010193178204272494 1 1 1 0.0074764511007759712 1 1 0.010534965505135276 1 0.0040287026464246485 0.0076279237628408061 1 1 0.0048407950608864419 1 1 1 6.2903642433775886e-09 1 1 0.011385647641776206 1 0.010227931965834174 0.010794800080330628 1 1 1 1 0.010381412455280721 1 1 1 1 1 1 0.0071605799565403142 1 0.009156161325998979 1 1 1 0.0060475524332024473 1 1 1 1 0.007678598139154837 1 0.0077253102955963104 0.010699675155232876 1 1 1 1 1 0.010018862998342402 1 0.011209822866677807 1 0.0072716549374084553 1 0.0075986035425894358 0.0073192791175904059 1 1 1 1 1 1 1 0.0069224846672152045 1 0.0085883338481528137 1 1 0.0036113596563065696 1 1 0.0055309399154919031 1 1 1 1 1 1 1 1 1 1 1 1 1 1 1 1 1 1 1 1 1 1 1 1 1 1 1 1 1 1 1 0.0078073842840445436 1 1 1 1 1 1 1 1 1 1 1 1 1 1 1 1 1 1 1 1 1 1 1 0.0098074508744873459 1 1 1 1 1 0.0089742856783318059 0.0099526650644997522 1 1 1 1 1 1 1 1 1 1 1 1 1 1 1 1 1 1 1 1 1 0.0022631917254843474 1 1 1 1 1 1 1 1 1 1 1 1 1 0.0097353185353121867 1 0.0084162648047052466 1 1 1 0.0051882167424540226 1 1 1 1 1 1 1 1 0.0095801210815551242 1 0.0097351047454108386 1 1 1 1 1 0.011329181359667515 1 1 1 1 1 1 1 1 1 1 1 0.0032126027173531996 1 1 1 1 1 1 1 1 1 1 1 0.0040634780008828603 1 1 1 1 1 1 1 1 0.0075770140028724592 1 1 1 1 1 1 1 1 1 1 1 1 1 1 1 1 1 1 1 1 1 1 1 1 1 1 0.0085918750566479907 1 1 0.0060722835366845418 1 1 1 1 1 1 1 1 1 1 1 1 1 1 1 1 1 1 1 1 1 1 1 1 1 1 1 1 0.0095766618984526319 1 0.011554439320818417 1 0.0086593218333674074 1 1 1 1 1 0.0056064430082797961 1 1 1 1 0.0095768316252350296 1 1 1 0.0040078254029650706 1 1 1 1 1 1 1 1 1 1 1 1 1 1 1 1 1 1 0.0075401218277451765 0.0080685457778333115 0.010045997850408529 1 1 1 1 1 1 1 1 1 1 1 1 1 0.0085482618895562981 1 1 1 1 1 1 1 1 1 1 1 1 0.010110266185258615 1 1 0.0066526632142577188 1 1 1 1 1 1 1 1 1 1 1 1 1 1 1 1 1 1 1 1 1 0.00748040848003656 0.0084577367041490555 1 1 1 1 1 1 1 1 1 1 1 1 1 1 0.0088318633721715875 1 1 0.0070360526745717397 1 1 1 1 0.010391726398584508 1 1 1 1 1 1 0.010069815975049939 1 1 1 1 1 1 1 1 1 1 1 1 1 1 1 1 1 1 0.007858120159969003 1 1 1 1 1 0.0071761875114370495 1 1 1 1 1 1 1 1 1 1 1 1 1 1 1 1 1 1 1 1 1 1 1 1 1 1 1 1 0.0070863093429487239 1 0.0060022758946104895 1 1 1 1 0.010063125978697036 0.0099815273755911767 1 1 1 1 1 1 1 1 1 1 1 1 1 1 1 1 1 1 1 1 1 1 1 1 1 1 1 1 1 1 1 1 1 1 1 0.0088470218777952428 1 1 1 1 0.0067303791214407306 1 1 1 1 1 1 1 1 1 1 1 0.0084652577899856432 1 1 1 1 1 1 1 1 1 1 1 1 1 1 1 1 1 0.0036880820774625699 0.0086670065677152876 1 0.0075287436893316829 1 1 1 1 1 1 1 1 1 1 0.0067645862441009352 1 1 1 1 1 1 1 1 1 1 1 1 1 1 1 1 1 0.009263622357876606 1 1 1 1 0.0064297650091155022 1 1 1 1 1 1 1 1 1 1 1 1 1 1 1 1 1 1 1 1 1 1 1 1 1 1 1 1 1 1 1 1 1 1 1 1 1 1 1 1 1 1 1 1 1 1 1 1 1 1 1 1 1 1 1 1 1 1 1 1 1 1 1 1 1 1 1 1 1 1 1 1 1 1 1 1 1 1 1 1 1 0.0084602935036495602 1 1 1 1 1 1 1 0.0094343703370940828 1 1 0.0088472506850693737 1 1 1 1 1 1 1 1 1 1 1 1 0.0068934640146387227 1 0.0084276296298862116 1 0.0096970581281712511 1 1 1 1 1 1 1 1 0.0095336630594210197 1 1 1 1 1 1 1 1 1 0.0094119439021389389 1 1 1 1 1 1 1 1 1 1 1 1 1 1 1 1 1 1 1 1 1 0.0092629351036940949 1 1 1 1 1 1 1 1 1 1 1 1 0.0013772813675643134 1 1 1 1 1 6.963993895436893e-10 1 1 0.011524650021819518 1 1 1 1 0.010023299870565281 0.0099783239944560946 1 1 0.010098750555078823 1 1 1 1 1 1 1 0.0090052884925086243 0.0082748811222047997 1 1 1 1 1 1 1 1 1 1 1 1 0.0092673569134944771 1 1 1 1 0.0086523492579377338 1 1 1 1 1 1 1 1 0.0093842882136062171 1 1 1 1 0.0066549969279443878 1 1 1 1 0.011840768284715295 1 1 1 1 1 1 1 0.010434427150837228 1 1 1 1 1 0.010126119323129328 1 1 1 0.010461336941301736 1 1 1 1 1 0.010770290556619376 1 1 1 1 1 1 1 1 1 1 1 1 1 1 0.010508245121747892 1 1 0.010978027271911439 1 1 1 1 1 1 1 1 1 1 1 1 1 1 1 1 1 1 1 1 1 0.0093716981894107834 1 1 8.5171947099282885e-10 1 1 0.0099409379957033448 1 1 1 1 1 1 1 1 1 1 1 1 1 1 1 1 1 1 1 1 1 1 1 1 1 1 1 1 1 1 0.012817279216093139 1 1 1 1 0.0099991926305121326 1 1 0.0041448002449262587 1 0.0098989365016876191 1 1 1 1 0.0013972351230777461 1 0.006459621200344429 1 1 0.00646170860906322 1 0.007748476698139873 1 0.010982280239376144 0.011329503853895995 1 1 0.00438369186751544 1 0.0046195622679758765 1 0.0095722482778317422 1 1 0.01018263399998676 1 1 1 1 1 1 0.011483422786159507 1 0.0083945278272516671 1 1 0.0065310955521032839 0.0066923283246678369 1 1 0.010589312173306734 1 0.0043168846491079792 1 1 0.0065846866025375365 1 1 0.0098859305067402776 1 1 0.0070783287302056738 0.006940017046454857 0.013176975960072258 1 0.0039746633093960936 1 1 1 1 1 1 1 1 0.0087560115698418865 1 1 1 1 1 1 1 0.0080975618949700786 1 1 1 1 1 1 1 1 1 1 1 1 1 1 0.0083321853327298686 1 1 1 1 1 1 1 1 1 1 1 1 1 1 1 1 1 1 1 0.0075859284768066103 1 1 1 1 1 1 1 1 1 1 1 1 1 1 1 1 1 1 1 1 1 1 1 1 1 1 1 1 1 1 1 0.0021082225344405039 1 1 1 0.0044738845553375147 1 0.014524674683449836 0.0081506875468824441 1 0.0085774592211407819 1 1 1 -2.2123421671016441e-10 1 1 1 1 0.009837830604898545 0.00023829735969498403 0.010092297714974 1 1 1 1 1 1 1 1 1 1 1 1 1 1 1 1 1 0.0083017342074677772 1 1 1 1 1 1 1 1 1 0.0066550340613499431 1 1 1 0.0076214421501771094 1 1 1 1 1 1 1 1 1 1 1 1 0.0055697673967304157 1 1 0.0079483252465533151 1 1 1 1 1 1 1 1 1 1 1 1 1 1 1 1 1 1 1 1 1 1 0.0091537485120250835 1 1 1 1 1 1 1 1 1 1 1 1 1 1 1 1 1 1 0.0072221170534373311 1 1 1 1 1 1 1 0.0093367593087224521 1 1 1 1 0.0086609705028221282 1 1 1 1 1 1 1 1 1 1 1 1 1 1 1 1 1 1 1 1 1 1 1 1 1 1 1 1 1 1 1 1 1 1 1 0.0098235364602439479 0.0099844627382235131 1 1 1 1 0.0091397807552767042 1 0.0090238386442426759 1 1 1 1 1 0.0086531718075588612 1 1 1 1 1 1 1 1 0.0095095553046032379 0.010439841788211227 1 1 1 1 0.010315190406162548 1 1 1 1 1 1 1 1 1 1 1 1 1 1 1 1 1 1 1 1 1 0.0099902706170522625 1 1 1 1 1 1 0.001111074562607766 1 1 0.0030361549604730927 1 1 1 1 1 1 1 1 1 0.00754047940199035 1 1 1 1 1 1 1 1 0.010934717469197944 1 1 1 1 1 1 1 1 1 1 1 1 1 1 1 1 1 0.010701395435534901 1 1 0.011885933401046711 1 1 1 1 1 1 1 1 1 1 1 1 1 1 1 1 1 1 1 1 1 1 1 1 1 1 1 1 1 0.0087430673976263626 1 0.0094188562035266953 1 1 1 1 1 1 1 1 1 1 1 1 1 1 1 1 1 1 1 1 1 1 0.0089872224656909749 1 1 1 0.0094513156787079493 1 1 1 1 1 1 1 1 1 1 1 1 0.0064234535698288551 1 1 1 0.0098969094463292086 0.0097683920387862493 1 1 0.0095095120954788032 1 1 1 1 1 1 1 1 1 0.0095351789638761508 1 1 1 1 1 1 1 1 1 1 1 1 1 0.0060993207899253232 1 0.010064756012534955 1 1 1 1 1 1 1 1 1 1 1 1 1 1 1 1 1 1 1 1 1 1 1 1 1 1 1 1 1 0.0031586564488335182 1 1 1 1 1 1 0.0073765274249269867 1 1 1 1 1 1 1 1 1 1 1 1 1 1 1 1 0.0077841756167519307 1 0.011594516080757044 1 1 1 1 1 1 1 0.0097632568988838472 1 1 1 0.0093947656493310484 1 1 1 1 0.0099857833151138012 1 1 1 1 1 1 -7.0412608469544447e-10 1 1 1 1 0.0034145247584917364 1 0.010512817877353597 1 1 1 1 1 1 1 1 0.01579343794526808 0.0099077917372631056 1 1 1 0.012699622095582334 0.00019174001071848093 1 1 1 1 1 1 1 0.011619147184127918 0.012682852360818089 1 0.0028485162886843392 0.0098402150593382576 1 1 1 1 0.011122818789304274 1 0.011131662529314187 1 1 1 1 1 1 0.0090716221983889005 1 1 1 1 0.0096959679927696128 1 1 1 1 0.0099247819613566719 1 1 1 1 1 0.0074446736962398927 1 1 0.0095318746942226751 1 1 1 1 0.0098038976621839628 1 1 1 1 1 1 1 1 1 0.0098233885672598647 0.0060399923360876118 1 1 1 1 1 1 1 1 1 1 1 1 1 2.928076835354617e-05 1 7.6185956076821326e-09 1 1 1 1 1 1 1 1 1 1 1 1 1 1 1 1 1 1 1 1 1 0.00083492586283400849 1 1 1 1 1 1 1 1 1 1 1 1 1 1 1 1 1 1 1 1 1 1 1 1 1 1 0.0089788856047808736 1 1 1 1 1 1 1 1 0.0035404992584910635 1 0.0072400833000482315 1 1 1 1 1 1 0.010114787684120476 1 1 1 1 1 1 1 1 1 1 1 1 1 1 1 1 1 1 1 1 1 1 1 1 1 1 0.010036654123040275 1 1 1 1 1 1 1 1 0.002780033934088752 1 1 0.009215809803615669 1 1 0.010000026187006666 1 1 1 1 1 0.0031356189023467387 1 1 1 1 1 1 1 1 1 0.010027130510934394 1 1 1 1 1 1 1 1 1 1 1 1 1 1 1 0.0034066394232547667 1 1 1 1 1 1 1 1 0.0015116720803479942 1 1 1 1 1 1 1 1 1 1 1 1 1 1 1 1 1 1 0.0097328393767410724 1 0.00553826098646006 1 0.0092177200463371516 1 1 0.0095775778004313483 0.0084773269704462063 1 1 1 1 1 1 1 1 1 1 1 1 1 1 0.00937756129253298 1 1 1 1 1 1 0.0098391272747506402 1 1 1 0.009726570952395373 1 1 1 1 1 1 1 1 1 1 1 1 0.0089111287965918905 1 1 1 1 0.011096446531971746 0.0089159755449948648 0.012261171111860911 1 1 1 1 1 1 1 0.010058285920286259 1 1 0.0096753104575712304 1 0.0099899635169098597 1 0.010232195080378387 1 1 1 1 1 0.0093368194758730629 1 1 1 1 1 1 1 1 1 1 1 1 1 1 1 1 1 1 1 1 0.0082066092190213689 1 1 1 0.009316886519379227 1 0.009689437024924712 0.0075836615965635366 0.0090692826928809676 1 1 1 1 1 0.0096285722043848148 1 1 1 1 1 1 1 1 1 1 1 1 1 1 1 1 1 1 1 1 1 1 1 1 1 1 0.0078352299804251256 1 1 0.0081479852759616996 1 1 1 1 1 1 1 1 0.0089795077366668224 1 0.010038517026256235 1 1 1 1 1 1 1 1 0.007566597768276534 1 1 1 1 0.01049453922453974 1 1 0.0099977151605016284 1 1 0.00044623952738227996 1 1 1 0.0093015161727573407 1 1 1 1 1 1 1 1 1 1 1 1 1 1 1 1 1 1 1 1 0.010277153796555097 1 1 1 1 1 1 0.010908176747422373 1 1 1 1 1 0.0067652389812442263 1 1 1 1 1 0.0060167590372315529 1 0.0062286550552770846 0.011754988040171497 1 1 1 1 1 1 1 1 1 1 1 1 0.0091943262466081688 1 1 1 1 0.0039825270252841979 1 0.010095191936917006 0.0079100150942922887 1 1 1 0.0048577536838390212 1 1 1 1 1 1 1 1 1 1 1 1 1 1 1 1 1 1 1 1 1 1 0.009686282002707684 1 -5.1769930235062711e-09 1 1 0.0099271974737463742 1 1 0.0089281960990632517 1 1 0.0052187656556477854 1 1 1 0.0025052540187888283 0.0091749241605552766 1 1 1 1 1 1 1 0.0096539630408163934 1 1 1 1 1 1 1 1 0.0093766188980980558 1 1 1 1 1 1 1 0.008307234704549242 1 1 1 0.0084276290407831536 1 0.0095534936738796584 0.0097721364683058115 1 1 1 0.0099262782991630851 1 1 1 1 1 1 1 1 1 1 1 1 1 1 1 1 1 1 1 1 1 1 0.0098717757224398954 1 1 0.010023432555417782 1 1 1 0.0070836422576026278 1 1 1 1 1 1 1 0.0060313189628294593 0.010071477890527101 1 1 0.0082785266651169438 1 1 1 1 1 1 1 1 1 1 1 1 1 1 1 1 1 1 1 1 1 1 1 1 1 1 1 1 1 1 1 1 1 1 1 0.0082455023455636871 1 1 1 1 1 1 1 0.0099812539662217561 1 1 0.0076520230291563622 1 1 0.0060722318939226277 1 1 1 1 1 1 1 1 1 1 1 1 1 1 1 1 1 1 1 0.0098237245413343218 1 1 1 1 0.0099694988903357429 1 1 1 1 1 1 1 1 1 1 0.0098382357110942866 1 1 1 1 0.0037851925602129695 1 1 1 1 0.01050986079553707 0.011800373849359638 1 0.00057748997986565784 1 1 1 1 1 1 1 1 1 1 1 1 1 1 0.0057910145394936656 1 1 1 1 1 1 1 1 1 0.010055630804343395 1 1 1 1 1 1 1 1 1 1 1 1 1 1 1 1 1 1 1 1 1 1 1 1 1 1 1 1 1 1 1 1 1 1 1 1 1 1 1 1 1 0.0077754567181999908 1 1 1 1 0.0074723299972862716 1 1 9.0586063476727485e-10 1 1 1 1 1 1 0.0071317853975675517 0.0068645888109372562 1 1 1 1 0.0093316754445677361 1 1 1 1 1 1 1 1 1 1 1 1 1 1 1 1 1 1 1 1 1 1 1 1 1 1 1 1 1 1 1 1 1 1 1 1 1 1 1 1 1 1 1 1 1 1 1 1 1 1 1 1 1 1 1 1 1 1 1 1 1 9.3094497666257325e-09 1 1 1 1 1 0.0030720319155261733 1 0.0090054172102008636 1 1 1 1 1 1 1 1 1 
</DataArray>
</CellData>
</Piece>
</UnstructuredGrid>
</VTKFile>
