<?xml version="1.0"?>
<VTKFile type="UnstructuredGrid" version="0.1" byte_order="LittleEndian">
<UnstructuredGrid>
<Piece NumberOfPoints="30618" NumberOfCells="10744">
<Points>
<DataArray type="Float64" NumberOfComponents="3" format="ascii">
-0.49427958746526202 -0.49999999999999512 0 -0.4943900888896422 -0.47349089190363358 0 -0.49427958746526202 -0.49999999999999512 0 -0.5 -0.5 0 -0.4943900888896422 -0.47349089190363358 0 -0.5 -0.5 0 -0.4943900888896422 -0.47349089190363358 0 -0.5 -0.44150235328842258 0 -0.49427958746526202 -0.49999999999999512 0 -0.4943900888896422 -0.47349089190363358 0 -0.48436842240857858 -0.48714093788813112 0 -0.49427958746526202 -0.49999999999999512 0 -0.47650045540741742 -0.5 0 -0.48436842240857858 -0.48714093788813112 0 -0.4943900888896422 -0.47349089190363358 0 -0.47066899942757451 -0.47576530412887819 0 -0.48436842240857858 -0.48714093788813112 0 -0.47066899942757451 -0.47576530412887819 0 -0.47650045540741742 -0.5 0 -0.48436842240857858 -0.48714093788813112 0 -0.47066899942757451 -0.47576530412887819 0 -0.45872132334957288 -0.49999999999999928 0 -0.45242967983978871 -0.4846708604340636 0 -0.47066899942757451 -0.47576530412887819 0 -0.47650045540741742 -0.5 0 -0.45872132334957288 -0.49999999999999928 0 -0.47066899942757451 -0.47576530412887819 0 -0.45872132334957288 -0.49999999999999928 0 -0.47066899942757451 -0.47576530412887819 0 -0.45242967983978871 -0.4846708604340636 0 -0.45249717469141032 -0.46588444847215849 0 -0.43763952177061649 -0.47770500498713542 0 -0.45242967983978871 -0.4846708604340636 0 -0.45249717469141032 -0.46588444847215849 0 -0.43763952177061649 -0.47770500498713542 0 -0.44291044788006362 -0.49999999999999939 0 -0.45242967983978871 -0.4846708604340636 0 -0.43763952177061649 -0.47770500498713542 0 -0.44291044788006362 -0.49999999999999939 0 -0.45872132334957288 -0.49999999999999928 0 -0.44291044788006362 -0.49999999999999939 0 -0.45242967983978871 -0.4846708604340636 0 -0.44838221886832419 -0.4464230337388379 0 -0.4323685956611692 -0.45541000997427139 0 -0.435988539966085 -0.44148905847597392 0 -0.44838221886832419 -0.4464230337388379 0 -0.44213238819953832 -0.43491600865963681 0 -0.435988539966085 -0.44148905847597392 0 -0.44838221886832419 -0.4464230337388379 0 -0.45249717469141032 -0.46588444847215849 0 -0.45755175660874181 -0.45423607616472811 0 -0.44838221886832419 -0.4464230337388379 0 -0.45249717469141032 -0.46588444847215849 0 -0.4323685956611692 -0.45541000997427139 0 -0.43763952177061649 -0.47770500498713542 0 -0.45249717469141032 -0.46588444847215849 0 -0.4323685956611692 -0.45541000997427139 0 -0.47066899942757451 -0.47576530412887819 0 -0.45249717469141032 -0.46588444847215849 0 -0.4675747862741928 -0.45726336772241771 0 -0.45249717469141032 -0.46588444847215849 0 -0.45755175660874181 -0.45423607616472811 0 -0.4675747862741928 -0.45726336772241771 0 -0.44838221886832419 -0.4464230337388379 0 -0.46897642374787268 -0.44262015471777721 0 -0.45660235518767722 -0.42786105997071933 0 -0.44838221886832419 -0.4464230337388379 0 -0.45755175660874181 -0.45423607616472811 0 -0.46897642374787268 -0.44262015471777721 0 -0.45755175660874181 -0.45423607616472811 0 -0.4675747862741928 -0.45726336772241771 0 -0.46897642374787268 -0.44262015471777721 0 -0.4943900888896422 -0.47349089190363358 0 -0.5 -0.44150235328842258 0 -0.49450059031402238 -0.44698178380727199 0 -0.46897642374787268 -0.44262015471777721 0 -0.48473746643246862 -0.43972512984246093 0 -0.48043585850414389 -0.43127077967876992 0 -0.46897642374787268 -0.44262015471777721 0 -0.4826166755055763 -0.45153060825775743 0 -0.48473746643246862 -0.43972512984246093 0 -0.4675747862741928 -0.45726336772241771 0 -0.46897642374787268 -0.44262015471777721 0 -0.4826166755055763 -0.45153060825775743 0 -0.47066899942757451 -0.47576530412887819 0 -0.4826166755055763 -0.45153060825775743 0 -0.4943900888896422 -0.47349089190363358 0 -0.47066899942757451 -0.47576530412887819 0 -0.4826166755055763 -0.45153060825775743 0 -0.47066899942757451 -0.47576530412887819 0 -0.4675747862741928 -0.45726336772241771 0 -0.4826166755055763 -0.45153060825775743 0 -0.4943900888896422 -0.47349089190363358 0 -0.49450059031402238 -0.44698178380727199 0 -0.4943900888896422 -0.47349089190363358 0 -0.4826166755055763 -0.45153060825775743 0 -0.49450059031402238 -0.44698178380727199 0 -0.4826166755055763 -0.45153060825775743 0 -0.48473746643246862 -0.43972512984246093 0 -0.49450059031402238 -0.44698178380727199 0 -0.5 -0.44150235328842258 0 -0.49461109173840262 -0.42047267571091063 0 -0.5 -0.39656953661894012 0 -0.49450059031402238 -0.44698178380727199 0 -0.49461109173840262 -0.42047267571091063 0 -0.48473746643246862 -0.43972512984246093 0 -0.49461109173840262 -0.42047267571091063 0 -0.48043585850414389 -0.43127077967876992 0 -0.5 -0.44150235328842258 0 -0.49450059031402238 -0.44698178380727199 0 -0.49461109173840262 -0.42047267571091063 0 -0.48473746643246862 -0.43972512984246093 0 -0.49450059031402238 -0.44698178380727199 0 -0.49461109173840262 -0.42047267571091063 0 -0.49461109173840262 -0.42047267571091063 0 -0.4947215931627828 -0.39396356761454909 0 -0.49461109173840262 -0.42047267571091063 0 -0.48393842445605872 -0.40713040098299402 0 -0.4947215931627828 -0.39396356761454909 0 -0.49461109173840262 -0.42047267571091063 0 -0.48393842445605872 -0.40713040098299402 0 -0.47214510592166908 -0.41939033492402211 0 -0.48393842445605872 -0.40713040098299402 0 -0.47214510592166908 -0.41939033492402211 0 -0.47427590700138023 -0.39469502568249409 0 -0.46897642374787268 -0.44262015471777721 0 -0.47214510592166908 -0.41939033492402211 0 -0.48043585850414389 -0.43127077967876992 0 -0.49461109173840262 -0.42047267571091063 0 -0.47214510592166908 -0.41939033492402211 0 -0.48043585850414389 -0.43127077967876992 0 -0.5 -0.39656953661894012 0 -0.4947215931627828 -0.39396356761454909 0 -0.48030453056746109 -0.36861144308094029 0 -0.49461109173840262 -0.42047267571091063 0 -0.5 -0.39656953661894012 0 -0.4947215931627828 -0.39396356761454909 0 -0.48393842445605872 -0.40713040098299402 0 -0.4947215931627828 -0.39396356761454909 0 -0.47427590700138023 -0.39469502568249409 0 -0.47427590700138023 -0.39469502568249409 0 -0.48030453056746109 -0.36861144308094029 0 -0.4947215931627828 -0.39396356761454909 0 -0.47427590700138023 -0.39469502568249409 0 -0.48030453056746109 -0.36861144308094029 0 -0.47427590700138023 -0.39469502568249409 0 -0.46334377193483078 -0.37842983215876019 0 -0.48030453056746109 -0.36861144308094029 0 -0.46334377193483078 -0.37842983215876019 0 -0.45726543839001688 -0.40541672899881109 0 -0.44416021803808919 -0.38243724496113263 0 -0.47427590700138023 -0.39469502568249409 0 -0.46334377193483078 -0.37842983215876019 0 -0.45726543839001688 -0.40541672899881109 0 -0.45726543839001688 -0.40541672899881109 0 -0.43814282409564848 -0.40387353522152758 0 -0.44416021803808919 -0.38243724496113263 0 -0.43814282409564848 -0.40387353522152758 0 -0.44416021803808919 -0.38243724496113263 0 -0.4329908326547659 -0.40007252460533121 0 -0.43814282409564848 -0.40387353522152758 0 -0.44416021803808919 -0.38243724496113263 0 -0.46897642374787268 -0.44262015471777721 0 -0.47214510592166908 -0.41939033492402211 0 -0.45660235518767722 -0.42786105997071933 0 -0.47214510592166908 -0.41939033492402211 0 -0.47427590700138023 -0.39469502568249409 0 -0.45726543839001688 -0.40541672899881109 0 -0.47214510592166908 -0.41939033492402211 0 -0.45726543839001688 -0.40541672899881109 0 -0.45660235518767722 -0.42786105997071933 0 -0.45726543839001688 -0.40541672899881109 0 -0.45660235518767722 -0.42786105997071933 0 -0.44309263043645408 -0.41812298423377797 0 -0.45726543839001688 -0.40541672899881109 0 -0.43814282409564848 -0.40387353522152758 0 -0.44309263043645408 -0.41812298423377797 0 -0.43814282409564848 -0.40387353522152758 0 -0.44309263043645408 -0.41812298423377797 0 -0.43209373842114163 -0.42530092927673752 0 -0.44838221886832419 -0.4464230337388379 0 -0.45660235518767722 -0.42786105997071933 0 -0.44213238819953832 -0.43491600865963681 0 -0.45660235518767722 -0.42786105997071933 0 -0.44213238819953832 -0.43491600865963681 0 -0.43132710435572019 -0.42815377149591122 0 -0.45660235518767722 -0.42786105997071933 0 -0.44309263043645408 -0.41812298423377797 0 -0.43132710435572019 -0.42815377149591122 0 -0.45660235518767722 -0.42786105997071933 0 -0.43132710435572019 -0.42815377149591122 0 -0.44213238819953832 -0.43491600865963681 0 -0.42986244815509678 -0.43337144475258638 0 -0.435988539966085 -0.44148905847597392 0 -0.44213238819953832 -0.43491600865963681 0 -0.42986244815509678 -0.43337144475258638 0 -0.43132710435572019 -0.42815377149591122 0 -0.42986244815509678 -0.43337144475258638 0 -0.43132710435572019 -0.42815377149591122 0 -0.42986244815509678 -0.43337144475258638 0 -0.42494843276815808 -0.42822764260015772 0 -0.42026026496879931 -0.43681168621285732 0 -0.42986244815509678 -0.43337144475258638 0 -0.42494843276815808 -0.42822764260015772 0 -0.43132710435572019 -0.42815377149591122 0 -0.42494843276815808 -0.42822764260015772 0 -0.43209373842114163 -0.42530092927673752 0 -0.42214799869492048 -0.41876725226122891 0 -0.42494843276815808 -0.42822764260015772 0 -0.43209373842114163 -0.42530092927673752 0 -0.42494843276815808 -0.42822764260015772 0 -0.43209373842114163 -0.42530092927673752 0 -0.43132710435572019 -0.42815377149591122 0 -0.42494843276815808 -0.42822764260015772 0 -0.43132710435572019 -0.42815377149591122 0 -0.44309263043645408 -0.41812298423377797 0 -0.43209373842114163 -0.42530092927673752 0 -0.43132710435572019 -0.42815377149591122 0 -0.43209373842114163 -0.42530092927673752 0 -0.43132710435572019 -0.42815377149591122 0 -0.43814282409564848 -0.40387353522152758 0 -0.43209373842114163 -0.42530092927673752 0 -0.43814282409564848 -0.40387353522152758 0 -0.43209373842114163 -0.42530092927673752 0 -0.42736227186559528 -0.41250939947999687 0 -0.43814282409564848 -0.40387353522152758 0 -0.42736227186559528 -0.41250939947999687 0 -0.42798743510346321 -0.40461924019690898 0 -0.42736227186559528 -0.41250939947999687 0 -0.42214799869492048 -0.41876725226122891 0 -0.41643936301280282 -0.409986040443582 0 -0.42736227186559528 -0.41250939947999687 0 -0.41643936301280282 -0.409986040443582 0 -0.42798743510346321 -0.40461924019690898 0 -0.43209373842114163 -0.42530092927673752 0 -0.42736227186559528 -0.41250939947999687 0 -0.42214799869492048 -0.41876725226122891 0 -0.41643936301280282 -0.409986040443582 0 -0.41319678457753078 -0.41966526467231158 0 -0.40068754056194861 -0.4128492080837643 0 -0.41643936301280282 -0.409986040443582 0 -0.40443020735863072 -0.40194112054031811 0 -0.40068754056194861 -0.4128492080837643 0 -0.42214799869492048 -0.41876725226122891 0 -0.41643936301280282 -0.409986040443582 0 -0.41319678457753078 -0.41966526467231158 0 -0.42494843276815808 -0.42822764260015772 0 -0.42026026496879931 -0.43681168621285732 0 -0.40375973713816599 -0.43690652084804732 0 -0.42494843276815808 -0.42822764260015772 0 -0.40375973713816599 -0.43690652084804732 0 -0.42494843276815808 -0.42822764260015772 0 -0.40375973713816599 -0.43690652084804732 0 -0.40176058784982421 -0.42849617997282502 0 -0.42494843276815808 -0.42822764260015772 0 -0.40176058784982421 -0.42849617997282502 0 -0.42494843276815808 -0.42822764260015772 0 -0.41319678457753078 -0.41966526467231158 0 -0.40176058784982421 -0.42849617997282502 0 -0.42494843276815808 -0.42822764260015772 0 -0.42214799869492048 -0.41876725226122891 0 -0.41319678457753078 -0.41966526467231158 0 -0.4329908326547659 -0.40007252460533121 0 -0.41903857325144328 -0.37691094697715488 0 -0.4329908326547659 -0.40007252460533121 0 -0.4179168883199279 -0.39116430956604842 0 -0.41903857325144328 -0.37691094697715488 0 -0.4326994291400702 -0.38209416684564063 0 -0.4329908326547659 -0.40007252460533121 0 -0.41903857325144328 -0.37691094697715488 0 -0.44416021803808919 -0.38243724496113263 0 -0.4326994291400702 -0.38209416684564063 0 -0.4329908326547659 -0.40007252460533121 0 -0.4326994291400702 -0.38209416684564063 0 -0.41903857325144328 -0.37691094697715488 0 -0.43460809261598232 -0.36895595083894339 0 -0.44416021803808919 -0.38243724496113263 0 -0.4326994291400702 -0.38209416684564063 0 -0.43460809261598232 -0.36895595083894339 0 -0.4329908326547659 -0.40007252460533121 0 -0.42169055226689678 -0.40123550737599678 0 -0.4179168883199279 -0.39116430956604842 0 -0.43814282409564848 -0.40387353522152758 0 -0.4329908326547659 -0.40007252460533121 0 -0.42798743510346321 -0.40461924019690898 0 -0.4329908326547659 -0.40007252460533121 0 -0.42798743510346321 -0.40461924019690898 0 -0.42169055226689678 -0.40123550737599678 0 -0.41643936301280282 -0.409986040443582 0 -0.42798743510346321 -0.40461924019690898 0 -0.42169055226689678 -0.40123550737599678 0 -0.40637138740796802 -0.39517449182144659 0 -0.4179168883199279 -0.39116430956604842 0 -0.40139199175968793 -0.38592718468705428 0 -0.41643936301280282 -0.409986040443582 0 -0.42169055226689678 -0.40123550737599678 0 -0.41336967967324528 -0.3999002939494784 0 -0.41643936301280282 -0.409986040443582 0 -0.41336967967324528 -0.3999002939494784 0 -0.40443020735863072 -0.40194112054031811 0 -0.41336967967324528 -0.3999002939494784 0 -0.40637138740796802 -0.39517449182144659 0 -0.40443020735863072 -0.40194112054031811 0 -0.41336967967324528 -0.3999002939494784 0 -0.40637138740796802 -0.39517449182144659 0 -0.4179168883199279 -0.39116430956604842 0 -0.42169055226689678 -0.40123550737599678 0 -0.41336967967324528 -0.3999002939494784 0 -0.4179168883199279 -0.39116430956604842 0 -0.4179168883199279 -0.39116430956604842 0 -0.40139199175968793 -0.38592718468705428 0 -0.4179168883199279 -0.39116430956604842 0 -0.41012997258942652 -0.38146265356513281 0 -0.40139199175968793 -0.38592718468705428 0 -0.4179168883199279 -0.39116430956604842 0 -0.41596140559408717 -0.38148427669336471 0 -0.41903857325144328 -0.37691094697715488 0 -0.4179168883199279 -0.39116430956604842 0 -0.41264357953851821 -0.38144664688815172 0 -0.41596140559408717 -0.38148427669336471 0 -0.4179168883199279 -0.39116430956604842 0 -0.41264357953851821 -0.38144664688815172 0 -0.41012997258942652 -0.38146265356513281 0 -0.41404820471788178 -0.37946069571912022 0 -0.41012997258942652 -0.38146265356513281 0 -0.41264357953851821 -0.38144664688815172 0 -0.41404820471788178 -0.37946069571912022 0 -0.41012997258942652 -0.38146265356513281 0 -0.41404820471788178 -0.37946069571912022 0 -0.41012997258942652 -0.38146265356513281 0 -0.40173768300816198 -0.36643993149899518 0 -0.41264357953851821 -0.38144664688815172 0 -0.41012997258942652 -0.38146265356513281 0 -0.41404820471788178 -0.37946069571912022 0 -0.41903857325144328 -0.37691094697715488 0 -0.41404820471788178 -0.37946069571912022 0 -0.41596140559408717 -0.38148427669336471 0 -0.41903857325144328 -0.37691094697715488 0 -0.41264357953851821 -0.38144664688815172 0 -0.41404820471788178 -0.37946069571912022 0 -0.41596140559408717 -0.38148427669336471 0 -0.41404820471788178 -0.37946069571912022 0 -0.41596140559408717 -0.38148427669336471 0 -0.41012997258942652 -0.38146265356513281 0 -0.39138945824891558 -0.38158199336868193 0 -0.40139199175968793 -0.38592718468705428 0 -0.39138945824891558 -0.38158199336868193 0 -0.40139199175968793 -0.38592718468705428 0 -0.38146018706309692 -0.39611102053173108 0 -0.41012997258942652 -0.38146265356513281 0 -0.39138945824891558 -0.38158199336868193 0 -0.40173768300816198 -0.36643993149899518 0 -0.41012997258942652 -0.38146265356513281 0 -0.39138945824891558 -0.38158199336868193 0 -0.41012997258942652 -0.38146265356513281 0 -0.40139199175968793 -0.38592718468705428 0 -0.39138945824891558 -0.38158199336868193 0 -0.40139199175968793 -0.38592718468705428 0 -0.40139199175968793 -0.38592718468705428 0 -0.39499960735806972 -0.39650442224569948 0 -0.38146018706309692 -0.39611102053173108 0 -0.40139199175968793 -0.38592718468705428 0 -0.38146018706309692 -0.39611102053173108 0 -0.40637138740796802 -0.39517449182144659 0 -0.39499960735806972 -0.39650442224569948 0 -0.40443020735863072 -0.40194112054031811 0 -0.40637138740796802 -0.39517449182144659 0 -0.40139199175968793 -0.38592718468705428 0 -0.39499960735806972 -0.39650442224569948 0 -0.39499960735806972 -0.39650442224569948 0 -0.40443020735863072 -0.40194112054031811 0 -0.39652584119055362 -0.40342912424259242 0 -0.40443020735863072 -0.40194112054031811 0 -0.39652584119055362 -0.40342912424259242 0 -0.40068754056194861 -0.4128492080837643 0 -0.39652584119055362 -0.40342912424259242 0 -0.38735877636819388 -0.40059869056111858 0 -0.38983809416569087 -0.40758335385593009 0 -0.39499960735806972 -0.39650442224569948 0 -0.39652584119055362 -0.40342912424259242 0 -0.38735877636819388 -0.40059869056111858 0 -0.38156916822041892 -0.40603200008561519 0 -0.38178229459812563 -0.40298695858946171 0 -0.38983809416569087 -0.40758335385593009 0 -0.38178229459812563 -0.40298695858946171 0 -0.38012172885428602 -0.39806952235009457 0 -0.38983809416569087 -0.40758335385593009 0 -0.38735877636819388 -0.40059869056111858 0 -0.38012172885428602 -0.39806952235009457 0 -0.38983809416569087 -0.40758335385593009 0 -0.38012172885428602 -0.39806952235009457 0 -0.38983809416569087 -0.40758335385593009 0 -0.38012172885428602 -0.39806952235009457 0 -0.37209094330423159 -0.40089808531996213 0 -0.37629487057870992 -0.40149067916431569 0 -0.38012172885428602 -0.39806952235009457 0 -0.37209094330423159 -0.40089808531996213 0 -0.38156916822041892 -0.40603200008561519 0 -0.38178229459812563 -0.40298695858946171 0 -0.37856432677971441 -0.40327293704996398 0 -0.38156916822041892 -0.40603200008561519 0 -0.37602613074463359 -0.40570926791912437 0 -0.37856432677971441 -0.40327293704996398 0 -0.37602613074463359 -0.40570926791912437 0 -0.37856432677971441 -0.40327293704996398 0 -0.37629487057870992 -0.40149067916431569 0 -0.37856432677971441 -0.40327293704996398 0 -0.37629487057870992 -0.40149067916431569 0 -0.37881815497051818 -0.39997697960570461 0 -0.37629487057870992 -0.40149067916431569 0 -0.37881815497051818 -0.39997697960570461 0 -0.38012172885428602 -0.39806952235009457 0 -0.37881815497051818 -0.39997697960570461 0 -0.38012172885428602 -0.39806952235009457 0 -0.38178229459812563 -0.40298695858946171 0 -0.37881815497051818 -0.39997697960570461 0 -0.38012172885428602 -0.39806952235009457 0 -0.38178229459812563 -0.40298695858946171 0 -0.37856432677971441 -0.40327293704996398 0 -0.37881815497051818 -0.39997697960570461 0 -0.38012172885428602 -0.39806952235009457 0 -0.37610551335983561 -0.39413702328477918 0 -0.37209094330423159 -0.40089808531996213 0 -0.38146018706309692 -0.39611102053173108 0 -0.37610551335983561 -0.39413702328477918 0 -0.38353069879127127 -0.38163203803623119 0 -0.38146018706309692 -0.39611102053173108 0 -0.38012172885428602 -0.39806952235009457 0 -0.37610551335983561 -0.39413702328477918 0 -0.38146018706309692 -0.39611102053173108 0 -0.38012172885428602 -0.39806952235009457 0 -0.38012172885428602 -0.39806952235009457 0 -0.37610551335983561 -0.39413702328477918 0 -0.39499960735806972 -0.39650442224569948 0 -0.38735877636819388 -0.40059869056111858 0 -0.38146018706309692 -0.39611102053173108 0 -0.38735877636819388 -0.40059869056111858 0 -0.38146018706309692 -0.39611102053173108 0 -0.38012172885428602 -0.39806952235009457 0 -0.39138945824891558 -0.38158199336868193 0 -0.38146018706309692 -0.39611102053173108 0 -0.38146018706309692 -0.39611102053173108 0 -0.38353069879127127 -0.38163203803623119 0 -0.38775448495095949 -0.38160514091903242 0 -0.39138945824891558 -0.38158199336868193 0 -0.38146018706309692 -0.39611102053173108 0 -0.38775448495095949 -0.38160514091903242 0 -0.37610551335983561 -0.39413702328477918 0 -0.38353069879127127 -0.38163203803623119 0 -0.38353069879127127 -0.38163203803623119 0 -0.36791003929668897 -0.37531597356073781 0 -0.38353069879127127 -0.38163203803623119 0 -0.37576852049830373 -0.37424143402576782 0 -0.36791003929668897 -0.37531597356073781 0 -0.38353069879127127 -0.38163203803623119 0 -0.38775448495095949 -0.38160514091903242 0 -0.39138945824891558 -0.38158199336868193 0 -0.38775448495095949 -0.38160514091903242 0 -0.39082733033514372 -0.43553780059387093 0 -0.40375973713816599 -0.43690652084804732 0 -0.40176058784982421 -0.42849617997282502 0 -0.41319678457753078 -0.41966526467231158 0 -0.40176058784982421 -0.42849617997282502 0 -0.40068754056194861 -0.4128492080837643 0 -0.40176058784982421 -0.42849617997282502 0 -0.40068754056194861 -0.4128492080837643 0 -0.38796072571873202 -0.41787067674187572 0 -0.40068754056194861 -0.4128492080837643 0 -0.38796072571873202 -0.41787067674187572 0 -0.38983809416569087 -0.40758335385593009 0 -0.39652584119055362 -0.40342912424259242 0 -0.40068754056194861 -0.4128492080837643 0 -0.38983809416569087 -0.40758335385593009 0 -0.38156916822041892 -0.40603200008561519 0 -0.38983809416569087 -0.40758335385593009 0 -0.38249496913699632 -0.41100015469591239 0 -0.38796072571873202 -0.41787067674187572 0 -0.38983809416569087 -0.40758335385593009 0 -0.38249496913699632 -0.41100015469591239 0 -0.38156916822041892 -0.40603200008561519 0 -0.37602613074463359 -0.40570926791912437 0 -0.38249496913699632 -0.41100015469591239 0 -0.38796072571873202 -0.41787067674187572 0 -0.38249496913699632 -0.41100015469591239 0 -0.37441041966644201 -0.41853044649732968 0 -0.38796072571873202 -0.41787067674187572 0 -0.37857274293149029 -0.42876471734549271 0 -0.37441041966644201 -0.41853044649732968 0 -0.39082733033514372 -0.43553780059387093 0 -0.37857274293149029 -0.42876471734549271 0 -0.38257104150817378 -0.44558539909593659 0 -0.40176058784982421 -0.42849617997282502 0 -0.38796072571873202 -0.41787067674187572 0 -0.37857274293149029 -0.42876471734549271 0 -0.40176058784982421 -0.42849617997282502 0 -0.37857274293149029 -0.42876471734549271 0 -0.39082733033514372 -0.43553780059387093 0 -0.40176058784982421 -0.42849617997282502 0 -0.37857274293149029 -0.42876471734549271 0 -0.37857274293149029 -0.42876471734549271 0 -0.38257104150817378 -0.44558539909593659 0 -0.36466736862266619 -0.43929361107495862 0 -0.40375973713816599 -0.43690652084804732 0 -0.38257104150817378 -0.44558539909593659 0 -0.40375973713816599 -0.43690652084804732 0 -0.38257104150817378 -0.44558539909593659 0 -0.39873322217020901 -0.44879301705899238 0 -0.38257104150817378 -0.44558539909593659 0 -0.39873322217020901 -0.44879301705899238 0 -0.39185116602312342 -0.46040899195533008 0 -0.39082733033514372 -0.43553780059387093 0 -0.40375973713816599 -0.43690652084804732 0 -0.38257104150817378 -0.44558539909593659 0 -0.39873322217020901 -0.44879301705899238 0 -0.40884565752670138 -0.44739205870809717 0 -0.40642776429331862 -0.45699343118294727 0 -0.40375973713816599 -0.43690652084804732 0 -0.39873322217020901 -0.44879301705899238 0 -0.40884565752670138 -0.44739205870809717 0 -0.39185116602312342 -0.46040899195533008 0 -0.40182839360969391 -0.46973105278735439 0 -0.40642776429331862 -0.45699343118294727 0 -0.39873322217020901 -0.44879301705899238 0 -0.39185116602312342 -0.46040899195533008 0 -0.40642776429331862 -0.45699343118294727 0 -0.38257104150817378 -0.44558539909593659 0 -0.39185116602312342 -0.46040899195533008 0 -0.3749125057523493 -0.4641870694620962 0 -0.39185116602312342 -0.46040899195533008 0 -0.38739682711329992 -0.47637139398093842 0 -0.3749125057523493 -0.4641870694620962 0 -0.38739682711329992 -0.47637139398093842 0 -0.36650464836053492 -0.47758333459014829 0 -0.3749125057523493 -0.4641870694620962 0 -0.38739682711329992 -0.47637139398093842 0 -0.38649563617076049 -0.5 0 -0.36650464836053492 -0.47758333459014829 0 -0.38649563617076049 -0.5 0 -0.40221786754911548 -0.48468690862955621 0 -0.41470304202541208 -0.5 0 -0.38739682711329992 -0.47637139398093842 0 -0.38649563617076049 -0.5 0 -0.40221786754911548 -0.48468690862955621 0 -0.39185116602312342 -0.46040899195533008 0 -0.38739682711329992 -0.47637139398093842 0 -0.40182839360969391 -0.46973105278735439 0 -0.38739682711329992 -0.47637139398093842 0 -0.40221786754911548 -0.48468690862955621 0 -0.40182839360969391 -0.46973105278735439 0 -0.40221786754911548 -0.48468690862955621 0 -0.40182839360969391 -0.46973105278735439 0 -0.41640034518153801 -0.4710884416934209 0 -0.40221786754911548 -0.48468690862955621 0 -0.41640034518153801 -0.4710884416934209 0 -0.41470304202541208 -0.5 0 -0.43763952177061649 -0.47770500498713542 0 -0.44291044788006362 -0.49999999999999939 0 -0.41470304202541208 -0.5 0 -0.43763952177061649 -0.47770500498713542 0 -0.41640034518153801 -0.4710884416934209 0 -0.41470304202541208 -0.5 0 -0.43763952177061649 -0.47770500498713542 0 -0.41640034518153801 -0.4710884416934209 0 -0.4323685956611692 -0.45541000997427139 0 -0.43763952177061649 -0.47770500498713542 0 -0.4323685956611692 -0.45541000997427139 0 -0.41640034518153801 -0.4710884416934209 0 -0.4323685956611692 -0.45541000997427139 0 -0.41872867018542492 -0.45179192289975101 0 -0.4323685956611692 -0.45541000997427139 0 -0.435988539966085 -0.44148905847597392 0 -0.42615181293618792 -0.44307742131274741 0 -0.42986244815509678 -0.43337144475258638 0 -0.435988539966085 -0.44148905847597392 0 -0.42615181293618792 -0.44307742131274741 0 -0.42986244815509678 -0.43337144475258638 0 -0.42026026496879931 -0.43681168621285732 0 -0.42615181293618792 -0.44307742131274741 0 -0.4323685956611692 -0.45541000997427139 0 -0.42615181293618792 -0.44307742131274741 0 -0.41872867018542492 -0.45179192289975101 0 -0.41872867018542492 -0.45179192289975101 0 -0.41657889384638791 -0.4424754015507481 0 -0.40884565752670138 -0.44739205870809717 0 -0.42026026496879931 -0.43681168621285732 0 -0.40375973713816599 -0.43690652084804732 0 -0.41657889384638791 -0.4424754015507481 0 -0.42615181293618792 -0.44307742131274741 0 -0.41872867018542492 -0.45179192289975101 0 -0.41657889384638791 -0.4424754015507481 0 -0.42026026496879931 -0.43681168621285732 0 -0.42615181293618792 -0.44307742131274741 0 -0.41657889384638791 -0.4424754015507481 0 -0.40375973713816599 -0.43690652084804732 0 -0.41657889384638791 -0.4424754015507481 0 -0.40884565752670138 -0.44739205870809717 0 -0.41872867018542492 -0.45179192289975101 0 -0.40884565752670138 -0.44739205870809717 0 -0.40642776429331862 -0.45699343118294727 0 -0.41640034518153801 -0.4710884416934209 0 -0.41872867018542492 -0.45179192289975101 0 -0.40642776429331862 -0.45699343118294727 0 -0.40182839360969391 -0.46973105278735439 0 -0.41640034518153801 -0.4710884416934209 0 -0.40642776429331862 -0.45699343118294727 0 -0.45211818340539273 -0.26309076008929921 0 -0.44165736388207272 -0.25360003737878889 0 -0.46465652818918263 -0.24483730068029039 0 -0.45211818340539273 -0.26309076008929921 0 -0.44165736388207272 -0.25360003737878889 0 -0.43680511815892142 -0.2660007677910407 0 -0.45211818340539273 -0.26309076008929921 0 -0.43957983862160288 -0.2813442194983079 0 -0.45211818340539273 -0.26309076008929921 0 -0.45386615352933152 -0.26317791563468229 0 -0.44300193479902689 -0.28147468360283379 0 -0.45211818340539273 -0.26309076008929921 0 -0.43957983862160288 -0.2813442194983079 0 -0.44300193479902689 -0.28147468360283379 0 -0.45386615352933152 -0.26317791563468229 0 -0.44300193479902689 -0.28147468360283379 0 -0.45211818340539273 -0.26309076008929921 0 -0.43957983862160288 -0.2813442194983079 0 -0.43680511815892142 -0.2660007677910407 0 -0.46540099386590911 -0.27613459344745273 0 -0.45386615352933152 -0.26317791563468229 0 -0.47789920225856231 -0.2654141115859287 0 -0.46540099386590911 -0.27613459344745273 0 -0.45386615352933152 -0.26317791563468229 0 -0.44300193479902689 -0.28147468360283379 0 -0.45211818340539273 -0.26309076008929921 0 -0.45386615352933152 -0.26317791563468229 0 -0.46465652818918263 -0.24483730068029039 0 -0.45211818340539273 -0.26309076008929921 0 -0.46465652818918263 -0.24483730068029039 0 -0.45386615352933152 -0.26317791563468229 0 -0.46465652818918263 -0.24483730068029039 0 -0.45386615352933152 -0.26317791563468229 0 -0.47789920225856231 -0.2654141115859287 0 -0.46465652818918263 -0.24483730068029039 0 -0.47789920225856231 -0.2654141115859287 0 -0.48570939693172899 -0.24902992718248729 0 -0.46465652818918263 -0.24483730068029039 0 -0.47789920225856231 -0.2654141115859287 0 -0.4909021497975728 -0.26136593096020788 0 -0.48570939693172899 -0.24902992718248729 0 -0.4909021497975728 -0.26136593096020788 0 -0.5 -0.25150281007534703 0 -0.5 -0.27951687499706851 0 -0.4909021497975728 -0.26136593096020788 0 -0.5 -0.25150281007534703 0 -0.48570939693172899 -0.24902992718248729 0 -0.47789920225856231 -0.2654141115859287 0 -0.5 -0.27951687499706851 0 -0.48508449486424082 -0.28732415172015657 0 -0.47789920225856231 -0.2654141115859287 0 -0.4909021497975728 -0.26136593096020788 0 -0.5 -0.27951687499706851 0 -0.46540099386590911 -0.27613459344745273 0 -0.47789920225856231 -0.2654141115859287 0 -0.48508449486424082 -0.28732415172015657 0 -0.46540099386590911 -0.27613459344745273 0 -0.4692524708352519 -0.29304891184013099 0 -0.48508449486424082 -0.28732415172015657 0 -0.4692524708352519 -0.29304891184013099 0 -0.48508449486424082 -0.28732415172015657 0 -0.48342094646859679 -0.29729694551662461 0 -0.5 -0.27951687499706851 0 -0.5 -0.30753093991878988 0 -0.49616219239740023 -0.30000131546641939 0 -0.5 -0.27951687499706851 0 -0.48508449486424082 -0.28732415172015657 0 -0.49616219239740023 -0.30000131546641939 0 -0.48508449486424082 -0.28732415172015657 0 -0.49616219239740023 -0.30000131546641939 0 -0.48342094646859679 -0.29729694551662461 0 -0.49616219239740023 -0.30000131546641939 0 -0.47988752038114357 -0.30743937284698208 0 -0.49124767326547109 -0.32126458797290303 0 -0.49616219239740023 -0.30000131546641939 0 -0.47988752038114357 -0.30743937284698208 0 -0.48342094646859679 -0.29729694551662461 0 -0.49616219239740023 -0.30000131546641939 0 -0.49124767326547109 -0.32126458797290303 0 -0.5 -0.30753093991878988 0 -0.49616219239740023 -0.30000131546641939 0 -0.49124767326547109 -0.32126458797290303 0 -0.4692524708352519 -0.29304891184013099 0 -0.47988752038114357 -0.30743937284698208 0 -0.46289418455034459 -0.31569959279366661 0 -0.4692524708352519 -0.29304891184013099 0 -0.47988752038114357 -0.30743937284698208 0 -0.48342094646859679 -0.29729694551662461 0 -0.4692524708352519 -0.29304891184013099 0 -0.46289418455034459 -0.31569959279366661 0 -0.4692524708352519 -0.29304891184013099 0 -0.45610231338702439 -0.30058860430122147 0 -0.46289418455034459 -0.31569959279366661 0 -0.45610231338702439 -0.30058860430122147 0 -0.44586848524951039 -0.31314063422893113 0 -0.46289418455034459 -0.31569959279366661 0 -0.46540099386590911 -0.27613459344745273 0 -0.45701344915610581 -0.28694014007387803 0 -0.44300193479902689 -0.28147468360283379 0 -0.46540099386590911 -0.27613459344745273 0 -0.4692524708352519 -0.29304891184013099 0 -0.45701344915610581 -0.28694014007387803 0 -0.4692524708352519 -0.29304891184013099 0 -0.45610231338702439 -0.30058860430122147 0 -0.45701344915610581 -0.28694014007387803 0 -0.45610231338702439 -0.30058860430122147 0 -0.44300193479902689 -0.28147468360283379 0 -0.43213771606872631 -0.29977145157098772 0 -0.43957983862160288 -0.2813442194983079 0 -0.44300193479902689 -0.28147468360283379 0 -0.43213771606872631 -0.29977145157098772 0 -0.45610231338702439 -0.30058860430122147 0 -0.45701344915610581 -0.28694014007387803 0 -0.44300193479902689 -0.28147468360283379 0 -0.44300193479902689 -0.28147468360283379 0 -0.43213771606872631 -0.29977145157098772 0 -0.45610231338702439 -0.30058860430122147 0 -0.43213771606872631 -0.29977145157098772 0 -0.45610231338702439 -0.30058860430122147 0 -0.44586848524951039 -0.31314063422893113 0 -0.43213771606872631 -0.29977145157098772 0 -0.44586848524951039 -0.31314063422893113 0 -0.44476508916493912 -0.32800798766852468 0 -0.46289418455034459 -0.31569959279366661 0 -0.44586848524951039 -0.31314063422893113 0 -0.44476508916493912 -0.32800798766852468 0 -0.43268999707831379 -0.32114889215997511 0 -0.44476508916493912 -0.32800798766852468 0 -0.45653589826543722 -0.33835027374720222 0 -0.43854709093312078 -0.34551838447463762 0 -0.44476508916493912 -0.32800798766852468 0 -0.43854709093312078 -0.34551838447463762 0 -0.43403437847741988 -0.33354869747312299 0 -0.45653589826543722 -0.33835027374720222 0 -0.47228809685679413 -0.34052311598912072 0 -0.46825538305703029 -0.35176440759005828 0 -0.45653589826543722 -0.33835027374720222 0 -0.47506093156469842 -0.3287229684348516 0 -0.47228809685679413 -0.34052311598912072 0 -0.44476508916493912 -0.32800798766852468 0 -0.45653589826543722 -0.33835027374720222 0 -0.46289418455034459 -0.31569959279366661 0 -0.45653589826543722 -0.33835027374720222 0 -0.46289418455034459 -0.31569959279366661 0 -0.47506093156469842 -0.3287229684348516 0 -0.45653589826543722 -0.33835027374720222 0 -0.46289418455034459 -0.31569959279366661 0 -0.4772725774404144 -0.31828163051210079 0 -0.49124767326547109 -0.32126458797290303 0 -0.47506093156469842 -0.3287229684348516 0 -0.47988752038114357 -0.30743937284698208 0 -0.46289418455034459 -0.31569959279366661 0 -0.4772725774404144 -0.31828163051210079 0 -0.46289418455034459 -0.31569959279366661 0 -0.4772725774404144 -0.31828163051210079 0 -0.47506093156469842 -0.3287229684348516 0 -0.47988752038114357 -0.30743937284698208 0 -0.4772725774404144 -0.31828163051210079 0 -0.49124767326547109 -0.32126458797290303 0 -0.5 -0.30753093991878988 0 -0.49124767326547109 -0.32126458797290303 0 -0.49999999999999961 -0.33554500484051131 0 -0.49124767326547109 -0.32126458797290303 0 -0.48633315413354011 -0.3425278604793861 0 -0.49124767326547109 -0.32126458797290303 0 -0.49999999999999961 -0.33554500484051131 0 -0.48633315413354011 -0.3425278604793861 0 -0.49999999999999961 -0.33554500484051131 0 -0.48633315413354011 -0.3425278604793861 0 -0.48633315413354011 -0.3425278604793861 0 -0.47506093156469842 -0.3287229684348516 0 -0.47228809685679413 -0.34052311598912072 0 -0.49124767326547109 -0.32126458797290303 0 -0.48633315413354011 -0.3425278604793861 0 -0.47506093156469842 -0.3287229684348516 0 -0.48633315413354011 -0.3425278604793861 0 -0.47228809685679413 -0.34052311598912072 0 -0.46825538305703029 -0.35176440759005828 0 -0.49999999999999961 -0.33554500484051131 0 -0.48633315413354011 -0.3425278604793861 0 -0.48030453056746109 -0.36861144308094029 0 -0.48633315413354011 -0.3425278604793861 0 -0.48030453056746109 -0.36861144308094029 0 -0.46825538305703029 -0.35176440759005828 0 -0.48633315413354011 -0.3425278604793861 0 -0.46825538305703029 -0.35176440759005828 0 -0.48633315413354011 -0.3425278604793861 0 -0.48030453056746109 -0.36861144308094029 0 -0.5 -0.39656953661894012 0 -0.49999999999999961 -0.33554500484051131 0 -0.48030453056746109 -0.36861144308094029 0 -0.46334377193483078 -0.37842983215876019 0 -0.48030453056746109 -0.36861144308094029 0 -0.46825538305703029 -0.35176440759005828 0 -0.46334377193483078 -0.37842983215876019 0 -0.46825538305703029 -0.35176440759005828 0 -0.45017761198052331 -0.36100095470073579 0 -0.45653589826543722 -0.33835027374720222 0 -0.45017761198052331 -0.36100095470073579 0 -0.45653589826543722 -0.33835027374720222 0 -0.46825538305703029 -0.35176440759005828 0 -0.45017761198052331 -0.36100095470073579 0 -0.46825538305703029 -0.35176440759005828 0 -0.45017761198052331 -0.36100095470073579 0 -0.45653589826543722 -0.33835027374720222 0 -0.43854709093312078 -0.34551838447463762 0 -0.45017761198052331 -0.36100095470073579 0 -0.43854709093312078 -0.34551838447463762 0 -0.45017761198052331 -0.36100095470073579 0 -0.43688840964749209 -0.35781554759345557 0 -0.45017761198052331 -0.36100095470073579 0 -0.43460809261598232 -0.36895595083894339 0 -0.43688840964749209 -0.35781554759345557 0 -0.45017761198052331 -0.36100095470073579 0 -0.43460809261598232 -0.36895595083894339 0 -0.44416021803808919 -0.38243724496113263 0 -0.45017761198052331 -0.36100095470073579 0 -0.43460809261598232 -0.36895595083894339 0 -0.44416021803808919 -0.38243724496113263 0 -0.45017761198052331 -0.36100095470073579 0 -0.46334377193483078 -0.37842983215876019 0 -0.44416021803808919 -0.38243724496113263 0 -0.45017761198052331 -0.36100095470073579 0 -0.41903857325144328 -0.37691094697715488 0 -0.43460809261598232 -0.36895595083894339 0 -0.42422084306034402 -0.35578690035950972 0 -0.41903857325144328 -0.37691094697715488 0 -0.43460809261598232 -0.36895595083894339 0 -0.43460809261598232 -0.36895595083894339 0 -0.43688840964749209 -0.35781554759345557 0 -0.42422084306034402 -0.35578690035950972 0 -0.43854709093312078 -0.34551838447463762 0 -0.42422084306034402 -0.35578690035950972 0 -0.42013533673330578 -0.33951952558935461 0 -0.43854709093312078 -0.34551838447463762 0 -0.43688840964749209 -0.35781554759345557 0 -0.42422084306034402 -0.35578690035950972 0 -0.40758067638829881 -0.35789015901873489 0 -0.42013533673330578 -0.33951952558935461 0 -0.42422084306034402 -0.35578690035950972 0 -0.40758067638829881 -0.35789015901873489 0 -0.42013533673330578 -0.33951952558935461 0 -0.40758067638829881 -0.35789015901873489 0 -0.4025685708709531 -0.34956976676792401 0 -0.42013533673330578 -0.33951952558935461 0 -0.41903857325144328 -0.37691094697715488 0 -0.40758067638829881 -0.35789015901873489 0 -0.40173768300816198 -0.36643993149899518 0 -0.41404820471788178 -0.37946069571912022 0 -0.41903857325144328 -0.37691094697715488 0 -0.40173768300816198 -0.36643993149899518 0 -0.41903857325144328 -0.37691094697715488 0 -0.42422084306034402 -0.35578690035950972 0 -0.40758067638829881 -0.35789015901873489 0 -0.41903857325144328 -0.37691094697715488 0 -0.40758067638829881 -0.35789015901873489 0 -0.41404820471788178 -0.37946069571912022 0 -0.40173768300816198 -0.36643993149899518 0 -0.39138945824891558 -0.38158199336868193 0 -0.38775448495095949 -0.38160514091903242 0 -0.39609514899832238 -0.36047185746617882 0 -0.39138945824891558 -0.38158199336868193 0 -0.40173768300816198 -0.36643993149899518 0 -0.39609514899832238 -0.36047185746617882 0 -0.40758067638829881 -0.35789015901873489 0 -0.40173768300816198 -0.36643993149899518 0 -0.40758067638829881 -0.35789015901873489 0 -0.40173768300816198 -0.36643993149899518 0 -0.39609514899832238 -0.36047185746617882 0 -0.40173768300816198 -0.36643993149899518 0 -0.39609514899832238 -0.36047185746617882 0 -0.39138945824891558 -0.38158199336868193 0 -0.40173768300816198 -0.36643993149899518 0 -0.38353069879127127 -0.38163203803623119 0 -0.38775448495095949 -0.38160514091903242 0 -0.39609514899832238 -0.36047185746617882 0 -0.38353069879127127 -0.38163203803623119 0 -0.39609514899832238 -0.36047185746617882 0 -0.37576852049830373 -0.37424143402576782 0 -0.37576852049830373 -0.37424143402576782 0 -0.38980029292032681 -0.3538138263344407 0 -0.39609514899832238 -0.36047185746617882 0 -0.37576852049830373 -0.37424143402576782 0 -0.38980029292032681 -0.3538138263344407 0 -0.38353069879127127 -0.38163203803623119 0 -0.39609514899832238 -0.36047185746617882 0 -0.37576852049830373 -0.37424143402576782 0 -0.38980029292032681 -0.3538138263344407 0 -0.37245563567842283 -0.36342144099550278 0 -0.37501505732771462 -0.35270295609204683 0 -0.38980029292032681 -0.3538138263344407 0 -0.37245563567842283 -0.36342144099550278 0 -0.37501505732771462 -0.35270295609204683 0 -0.38980029292032681 -0.3538138263344407 0 -0.37630104444955431 -0.33953575302191552 0 -0.38980029292032681 -0.3538138263344407 0 -0.3874425906513701 -0.34245666632481359 0 -0.37630104444955431 -0.33953575302191552 0 -0.38980029292032681 -0.3538138263344407 0 -0.37630104444955431 -0.33953575302191552 0 -0.38980029292032681 -0.3538138263344407 0 -0.39796499687501963 -0.34192756105832428 0 -0.3874425906513701 -0.34245666632481359 0 -0.38980029292032681 -0.3538138263344407 0 -0.39796499687501963 -0.34192756105832428 0 -0.38980029292032681 -0.3538138263344407 0 -0.4025685708709531 -0.34956976676792401 0 -0.39796499687501963 -0.34192756105832428 0 -0.39609514899832238 -0.36047185746617882 0 -0.38980029292032681 -0.3538138263344407 0 -0.4025685708709531 -0.34956976676792401 0 -0.39609514899832238 -0.36047185746617882 0 -0.38980029292032681 -0.3538138263344407 0 -0.40758067638829881 -0.35789015901873489 0 -0.4025685708709531 -0.34956976676792401 0 -0.39609514899832238 -0.36047185746617882 0 -0.4025685708709531 -0.34956976676792401 0 -0.40758067638829881 -0.35789015901873489 0 -0.39609514899832238 -0.36047185746617882 0 -0.4025685708709531 -0.34956976676792401 0 -0.4025685708709531 -0.34956976676792401 0 -0.39796499687501963 -0.34192756105832428 0 -0.39796499687501963 -0.34192756105832428 0 -0.38707883306085727 -0.32310268074594539 0 -0.39302444192435521 -0.32665020523696531 0 -0.39796499687501963 -0.34192756105832428 0 -0.41250324535641603 -0.32076261998282041 0 -0.39796499687501963 -0.34192756105832428 0 -0.38707883306085727 -0.32310268074594539 0 -0.39796499687501963 -0.34192756105832428 0 -0.39861901303234393 -0.32526976222302811 0 -0.41250324535641603 -0.32076261998282041 0 -0.4025685708709531 -0.34956976676792401 0 -0.39796499687501963 -0.34192756105832428 0 -0.4173531434698371 -0.32467060916945428 0 -0.39796499687501963 -0.34192756105832428 0 -0.39302444192435521 -0.32665020523696531 0 -0.39861901303234393 -0.32526976222302811 0 -0.39796499687501963 -0.34192756105832428 0 -0.3874425906513701 -0.34245666632481359 0 -0.38570402836057949 -0.33454952488457412 0 -0.39796499687501963 -0.34192756105832428 0 -0.38570402836057949 -0.33454952488457412 0 -0.38707883306085727 -0.32310268074594539 0 -0.3874425906513701 -0.34245666632481359 0 -0.38570402836057949 -0.33454952488457412 0 -0.37630104444955431 -0.33953575302191552 0 -0.38570402836057949 -0.33454952488457412 0 -0.38257566477560778 -0.32750665689071978 0 -0.38707883306085727 -0.32310268074594539 0 -0.38570402836057949 -0.33454952488457412 0 -0.37746168828861648 -0.32880316406910598 0 -0.37630104444955431 -0.33953575302191552 0 -0.38570402836057949 -0.33454952488457412 0 -0.37746168828861648 -0.32880316406910598 0 -0.38257566477560778 -0.32750665689071978 0 -0.38707883306085727 -0.32310268074594539 0 -0.37576395745092178 -0.3050725196501074 0 -0.38707883306085727 -0.32310268074594539 0 -0.37576395745092178 -0.3050725196501074 0 -0.37719713711566749 -0.31197748083789167 0 -0.37972485618422192 -0.31952152903519548 0 -0.38707883306085727 -0.32310268074594539 0 -0.37719713711566749 -0.31197748083789167 0 -0.37972485618422192 -0.31952152903519548 0 -0.37719713711566749 -0.31197748083789167 0 -0.37456534516798468 -0.31943469669369101 0 -0.37972485618422192 -0.31952152903519548 0 -0.38027246529026432 -0.32317389825498388 0 -0.37456534516798468 -0.31943469669369101 0 -0.37746168828861648 -0.32880316406910598 0 -0.38027246529026432 -0.32317389825498388 0 -0.37456534516798468 -0.31943469669369101 0 -0.37746168828861648 -0.32880316406910598 0 -0.38257566477560778 -0.32750665689071978 0 -0.38027246529026432 -0.32317389825498388 0 -0.37972485618422192 -0.31952152903519548 0 -0.38027246529026432 -0.32317389825498388 0 -0.38707883306085727 -0.32310268074594539 0 -0.38257566477560778 -0.32750665689071978 0 -0.38027246529026432 -0.32317389825498388 0 -0.38707883306085727 -0.32310268074594539 0 -0.3895493280880703 -0.32181092315052368 0 -0.38707883306085727 -0.32310268074594539 0 -0.39302444192435521 -0.32665020523696531 0 -0.3895493280880703 -0.32181092315052368 0 -0.38817922209955419 -0.31487003622919818 0 -0.39292420471281692 -0.32089260507692741 0 -0.3895493280880703 -0.32181092315052368 0 -0.3854068594836183 -0.31441721296606712 0 -0.38817922209955419 -0.31487003622919818 0 -0.3895493280880703 -0.32181092315052368 0 -0.38707883306085727 -0.32310268074594539 0 -0.3854068594836183 -0.31441721296606712 0 -0.38817922209955419 -0.31487003622919818 0 -0.39233623022453079 -0.31589900304218349 0 -0.38828454910218052 -0.30906118598004451 0 -0.39233623022453079 -0.31589900304218349 0 -0.39756756003884308 -0.31679974746756201 0 -0.39292420471281692 -0.32089260507692741 0 -0.38817922209955419 -0.31487003622919818 0 -0.39233623022453079 -0.31589900304218349 0 -0.39292420471281692 -0.32089260507692741 0 -0.39233623022453079 -0.31589900304218349 0 -0.39756756003884308 -0.31679974746756201 0 -0.39384318992161488 -0.31092517799495939 0 -0.39756756003884308 -0.31679974746756201 0 -0.39292420471281692 -0.32089260507692741 0 -0.39861901303234393 -0.32526976222302811 0 -0.3895493280880703 -0.32181092315052368 0 -0.39302444192435521 -0.32665020523696531 0 -0.39292420471281692 -0.32089260507692741 0 -0.39302444192435521 -0.32665020523696531 0 -0.39292420471281692 -0.32089260507692741 0 -0.39861901303234393 -0.32526976222302811 0 -0.39756756003884308 -0.31679974746756201 0 -0.39861901303234393 -0.32526976222302811 0 -0.41250324535641603 -0.32076261998282041 0 -0.39756756003884308 -0.31679974746756201 0 -0.41250324535641603 -0.32076261998282041 0 -0.39943253357619768 -0.3092473730742562 0 -0.4173531434698371 -0.32467060916945428 0 -0.41250324535641603 -0.32076261998282041 0 -0.42704149383781292 -0.2995976789073167 0 -0.39796499687501963 -0.34192756105832428 0 -0.4173531434698371 -0.32467060916945428 0 -0.41250324535641603 -0.32076261998282041 0 -0.4025685708709531 -0.34956976676792401 0 -0.4173531434698371 -0.32467060916945428 0 -0.42013533673330578 -0.33951952558935461 0 -0.4025685708709531 -0.34956976676792401 0 -0.4173531434698371 -0.32467060916945428 0 -0.4173531434698371 -0.32467060916945428 0 -0.42013533673330578 -0.33951952558935461 0 -0.43268999707831379 -0.32114889215997511 0 -0.42013533673330578 -0.33951952558935461 0 -0.43268999707831379 -0.32114889215997511 0 -0.42013533673330578 -0.33951952558935461 0 -0.43403437847741988 -0.33354869747312299 0 -0.43268999707831379 -0.32114889215997511 0 -0.43854709093312078 -0.34551838447463762 0 -0.42013533673330578 -0.33951952558935461 0 -0.43403437847741988 -0.33354869747312299 0 -0.44476508916493912 -0.32800798766852468 0 -0.43403437847741988 -0.33354869747312299 0 -0.43268999707831379 -0.32114889215997511 0 -0.4173531434698371 -0.32467060916945428 0 -0.43268999707831379 -0.32114889215997511 0 -0.43213771606872631 -0.29977145157098772 0 -0.44586848524951039 -0.31314063422893113 0 -0.43268999707831379 -0.32114889215997511 0 -0.43213771606872631 -0.29977145157098772 0 -0.4173531434698371 -0.32467060916945428 0 -0.43213771606872631 -0.29977145157098772 0 -0.4173531434698371 -0.32467060916945428 0 -0.42704149383781292 -0.2995976789073167 0 -0.43213771606872631 -0.29977145157098772 0 -0.42704149383781292 -0.2995976789073167 0 -0.43213771606872631 -0.29977145157098772 0 -0.43957983862160288 -0.2813442194983079 0 -0.42704149383781292 -0.2995976789073167 0 -0.41620122749958632 -0.28481054703811581 0 -0.43957983862160288 -0.2813442194983079 0 -0.42704149383781292 -0.2995976789073167 0 -0.43213771606872631 -0.29977145157098772 0 -0.43957983862160288 -0.2813442194983079 0 -0.42704149383781292 -0.2995976789073167 0 -0.42704149383781292 -0.2995976789073167 0 -0.40925521843592683 -0.29219363385722402 0 -0.40193077426190232 -0.29874144532295899 0 -0.42704149383781292 -0.2995976789073167 0 -0.41620122749958632 -0.28481054703811581 0 -0.40925521843592683 -0.29219363385722402 0 -0.41620122749958632 -0.28481054703811581 0 -0.4064106314034665 -0.28786033749410611 0 -0.40925521843592683 -0.29219363385722402 0 -0.41620122749958632 -0.28481054703811581 0 -0.4064106314034665 -0.28786033749410611 0 -0.40459857025975621 -0.28097081354976228 0 -0.42704149383781292 -0.2995976789073167 0 -0.40193077426190232 -0.29874144532295899 0 -0.41250324535641603 -0.32076261998282041 0 -0.42704149383781292 -0.2995976789073167 0 -0.40193077426190232 -0.29874144532295899 0 -0.41250324535641603 -0.32076261998282041 0 -0.42704149383781292 -0.2995976789073167 0 -0.41250324535641603 -0.32076261998282041 0 -0.39943253357619768 -0.3092473730742562 0 -0.40193077426190232 -0.29874144532295899 0 -0.40193077426190232 -0.29874144532295899 0 -0.39397115466413868 -0.30315074537586811 0 -0.37682005468599161 -0.29788521173860111 0 -0.39943253357619768 -0.3092473730742562 0 -0.40193077426190232 -0.29874144532295899 0 -0.39397115466413868 -0.30315074537586811 0 -0.39756756003884308 -0.31679974746756201 0 -0.39943253357619768 -0.3092473730742562 0 -0.39384318992161488 -0.31092517799495939 0 -0.39943253357619768 -0.3092473730742562 0 -0.39515669063330172 -0.30691697672544133 0 -0.39384318992161488 -0.31092517799495939 0 -0.39943253357619768 -0.3092473730742562 0 -0.39397115466413868 -0.30315074537586811 0 -0.39515669063330172 -0.30691697672544133 0 -0.39515669063330172 -0.30691697672544133 0 -0.39384318992161488 -0.31092517799495939 0 -0.39024404857921102 -0.30572650089527997 0 -0.39397115466413868 -0.30315074537586811 0 -0.39515669063330172 -0.30691697672544133 0 -0.39024404857921102 -0.30572650089527997 0 -0.39384318992161488 -0.31092517799495939 0 -0.38828454910218052 -0.30906118598004451 0 -0.39024404857921102 -0.30572650089527997 0 -0.39233623022453079 -0.31589900304218349 0 -0.39384318992161488 -0.31092517799495939 0 -0.38828454910218052 -0.30906118598004451 0 -0.38817922209955419 -0.31487003622919818 0 -0.38828454910218052 -0.30906118598004451 0 -0.37682005468599161 -0.29788521173860111 0 -0.3854068594836183 -0.31441721296606712 0 -0.38817922209955419 -0.31487003622919818 0 -0.37682005468599161 -0.29788521173860111 0 -0.39397115466413868 -0.30315074537586811 0 -0.39024404857921102 -0.30572650089527997 0 -0.37682005468599161 -0.29788521173860111 0 -0.40193077426190232 -0.29874144532295899 0 -0.37682005468599161 -0.29788521173860111 0 -0.38707883306085727 -0.32310268074594539 0 -0.3854068594836183 -0.31441721296606712 0 -0.37682005468599161 -0.29788521173860111 0 -0.38707883306085727 -0.32310268074594539 0 -0.37682005468599161 -0.29788521173860111 0 -0.37576395745092178 -0.3050725196501074 0 -0.38707883306085727 -0.32310268074594539 0 -0.37682005468599161 -0.29788521173860111 0 -0.38828454910218052 -0.30906118598004451 0 -0.39024404857921102 -0.30572650089527997 0 -0.37682005468599161 -0.29788521173860111 0 -0.40193077426190232 -0.29874144532295899 0 -0.37682005468599161 -0.29788521173860111 0 -0.38727793942999461 -0.29143138054805301 0 -0.37682005468599161 -0.29788521173860111 0 -0.37992505739110077 -0.285327891268156 0 -0.37089355010314762 -0.28331705945197572 0 -0.37682005468599161 -0.29788521173860111 0 -0.37992505739110077 -0.285327891268156 0 -0.38727793942999461 -0.29143138054805301 0 -0.38727793942999461 -0.29143138054805301 0 -0.3924898948206727 -0.28599182426682918 0 -0.38684870024465262 -0.28019709009285709 0 -0.37992505739110077 -0.285327891268156 0 -0.38727793942999461 -0.29143138054805301 0 -0.38684870024465262 -0.28019709009285709 0 -0.3924898948206727 -0.28599182426682918 0 -0.39318539860325191 -0.27833553320660309 0 -0.38684870024465262 -0.28019709009285709 0 -0.3924898948206727 -0.28599182426682918 0 -0.39946484360203771 -0.29301209464503369 0 -0.39318539860325191 -0.27833553320660309 0 -0.38727793942999461 -0.29143138054805301 0 -0.3924898948206727 -0.28599182426682918 0 -0.39529086302865168 -0.29229418619571867 0 -0.40193077426190232 -0.29874144532295899 0 -0.38727793942999461 -0.29143138054805301 0 -0.39529086302865168 -0.29229418619571867 0 -0.3924898948206727 -0.28599182426682918 0 -0.39529086302865168 -0.29229418619571867 0 -0.39946484360203771 -0.29301209464503369 0 -0.4064106314034665 -0.28786033749410611 0 -0.40925521843592683 -0.29219363385722402 0 -0.39946484360203771 -0.29301209464503369 0 -0.40925521843592683 -0.29219363385722402 0 -0.40193077426190232 -0.29874144532295899 0 -0.39946484360203771 -0.29301209464503369 0 -0.40193077426190232 -0.29874144532295899 0 -0.39529086302865168 -0.29229418619571867 0 -0.39946484360203771 -0.29301209464503369 0 -0.4064106314034665 -0.28786033749410611 0 -0.39946484360203771 -0.29301209464503369 0 -0.40459857025975621 -0.28097081354976228 0 -0.40459857025975621 -0.28097081354976228 0 -0.39871653422275 -0.26477063034798642 0 -0.40644367116261759 -0.26933550009943341 0 -0.39946484360203771 -0.29301209464503369 0 -0.40459857025975621 -0.28097081354976228 0 -0.39871653422275 -0.26477063034798642 0 -0.39946484360203771 -0.29301209464503369 0 -0.39871653422275 -0.26477063034798642 0 -0.39946484360203771 -0.29301209464503369 0 -0.39318539860325191 -0.27833553320660309 0 -0.39871653422275 -0.26477063034798642 0 -0.39318539860325191 -0.27833553320660309 0 -0.38840702012614647 -0.26770602668030929 0 -0.39871653422275 -0.26477063034798642 0 -0.39318539860325191 -0.27833553320660309 0 -0.38684870024465262 -0.28019709009285709 0 -0.38840702012614647 -0.26770602668030929 0 -0.38684870024465262 -0.28019709009285709 0 -0.38840702012614647 -0.26770602668030929 0 -0.37812768531643998 -0.2740521224023964 0 -0.38840702012614647 -0.26770602668030929 0 -0.37812768531643998 -0.2740521224023964 0 -0.37969836118369482 -0.26041778922000308 0 -0.37992505739110077 -0.285327891268156 0 -0.37812768531643998 -0.2740521224023964 0 -0.37089355010314762 -0.28331705945197572 0 -0.37992505739110077 -0.285327891268156 0 -0.38684870024465262 -0.28019709009285709 0 -0.37812768531643998 -0.2740521224023964 0 -0.37969836118369482 -0.26041778922000308 0 -0.39442967684708991 -0.25208667127465478 0 -0.37872015884544641 -0.2435614714605657 0 -0.37969836118369482 -0.26041778922000308 0 -0.36999160380854529 -0.25160890498862648 0 -0.37872015884544641 -0.2435614714605657 0 -0.38840702012614647 -0.26770602668030929 0 -0.37969836118369482 -0.26041778922000308 0 -0.39442967684708991 -0.25208667127465478 0 -0.37969836118369482 -0.26041778922000308 0 -0.39442967684708991 -0.25208667127465478 0 -0.39442967684708991 -0.25208667127465478 0 -0.39871653422275 -0.26477063034798642 0 -0.39796822484346261 -0.23652916605093899 0 -0.40220594800304021 -0.25293233307518609 0 -0.39871653422275 -0.26477063034798642 0 -0.40644367116261759 -0.26933550009943341 0 -0.40220594800304021 -0.25293233307518609 0 -0.39871653422275 -0.26477063034798642 0 -0.39796822484346261 -0.23652916605093899 0 -0.40220594800304021 -0.25293233307518609 0 -0.40644367116261759 -0.26933550009943341 0 -0.39871653422275 -0.26477063034798642 0 -0.39796822484346261 -0.23652916605093899 0 -0.38840702012614647 -0.26770602668030929 0 -0.39442967684708991 -0.25208667127465478 0 -0.39871653422275 -0.26477063034798642 0 -0.40220594800304021 -0.25293233307518609 0 -0.41459928595597673 -0.25790967448939001 0 -0.40644367116261759 -0.26933550009943341 0 -0.40220594800304021 -0.25293233307518609 0 -0.41459928595597673 -0.25790967448939001 0 -0.41466813127082142 -0.24184035413310251 0 -0.41459928595597673 -0.25790967448939001 0 -0.42775875008346192 -0.25507980811954323 0 -0.41466813127082142 -0.24184035413310251 0 -0.41459928595597673 -0.25790967448939001 0 -0.42191992925994232 -0.27036037701968468 0 -0.42775875008346192 -0.25507980811954323 0 -0.40644367116261759 -0.26933550009943341 0 -0.41206191028808969 -0.27659566112432887 0 -0.42191992925994232 -0.27036037701968468 0 -0.40459857025975621 -0.28097081354976228 0 -0.40644367116261759 -0.26933550009943341 0 -0.41206191028808969 -0.27659566112432887 0 -0.41620122749958632 -0.28481054703811581 0 -0.40459857025975621 -0.28097081354976228 0 -0.41206191028808969 -0.27659566112432887 0 -0.41620122749958632 -0.28481054703811581 0 -0.41206191028808969 -0.27659566112432887 0 -0.42191992925994232 -0.27036037701968468 0 -0.41459928595597673 -0.25790967448939001 0 -0.40644367116261759 -0.26933550009943341 0 -0.42191992925994232 -0.27036037701968468 0 -0.43957983862160288 -0.2813442194983079 0 -0.42191992925994232 -0.27036037701968468 0 -0.43680511815892142 -0.2660007677910407 0 -0.43957983862160288 -0.2813442194983079 0 -0.41620122749958632 -0.28481054703811581 0 -0.42191992925994232 -0.27036037701968468 0 -0.44165736388207272 -0.25360003737878889 0 -0.43680511815892142 -0.2660007677910407 0 -0.42775875008346192 -0.25507980811954323 0 -0.42191992925994232 -0.27036037701968468 0 -0.43680511815892142 -0.2660007677910407 0 -0.42775875008346192 -0.25507980811954323 0 -0.32577683519746242 -0.25897579210934468 0 -0.30798481169360081 -0.26465381523239789 0 -0.31421725341188372 -0.24977587129631751 0 -0.32577683519746242 -0.25897579210934468 0 -0.31511343508082401 -0.27781322935613839 0 -0.33065211668571071 -0.27437360408278932 0 -0.32577683519746242 -0.25897579210934468 0 -0.31511343508082401 -0.27781322935613839 0 -0.30798481169360081 -0.26465381523239789 0 -0.31511343508082401 -0.27781322935613839 0 -0.33065211668571071 -0.27437360408278932 0 -0.32673865940135971 -0.29036850998253821 0 -0.33065211668571071 -0.27437360408278932 0 -0.3425640544848888 -0.26114950363554529 0 -0.3458528524608297 -0.27955870857394483 0 -0.32577683519746242 -0.25897579210934468 0 -0.33065211668571071 -0.27437360408278932 0 -0.3425640544848888 -0.26114950363554529 0 -0.32577683519746242 -0.25897579210934468 0 -0.3425640544848888 -0.26114950363554529 0 -0.34161545739809862 -0.2441761224370865 0 -0.3425640544848888 -0.26114950363554529 0 -0.35707845064694121 -0.24935767075674509 0 -0.34161545739809862 -0.2441761224370865 0 -0.3425640544848888 -0.26114950363554529 0 -0.3649670455202999 -0.26874890716535171 0 -0.35707845064694121 -0.24935767075674509 0 -0.3649670455202999 -0.26874890716535171 0 -0.35707845064694121 -0.24935767075674509 0 -0.37969836118369482 -0.26041778922000308 0 -0.36999160380854529 -0.25160890498862648 0 -0.3649670455202999 -0.26874890716535171 0 -0.36999160380854529 -0.25160890498862648 0 -0.3649670455202999 -0.26874890716535171 0 -0.35707845064694121 -0.24935767075674509 0 -0.37969836118369482 -0.26041778922000308 0 -0.3649670455202999 -0.26874890716535171 0 -0.3649670455202999 -0.26874890716535171 0 -0.3458528524608297 -0.27955870857394483 0 -0.37089355010314762 -0.28331705945197572 0 -0.37812768531643998 -0.2740521224023964 0 -0.3649670455202999 -0.26874890716535171 0 -0.37089355010314762 -0.28331705945197572 0 -0.3649670455202999 -0.26874890716535171 0 -0.37089355010314762 -0.28331705945197572 0 -0.37812768531643998 -0.2740521224023964 0 -0.37969836118369482 -0.26041778922000308 0 -0.3649670455202999 -0.26874890716535171 0 -0.3649670455202999 -0.26874890716535171 0 -0.3458528524608297 -0.27955870857394483 0 -0.3425640544848888 -0.26114950363554529 0 -0.3649670455202999 -0.26874890716535171 0 -0.3458528524608297 -0.27955870857394483 0 -0.3458528524608297 -0.27955870857394483 0 -0.35490209917173382 -0.29713784607450577 0 -0.33298414365747597 -0.29639048041041038 0 -0.3458528524608297 -0.27955870857394483 0 -0.37089355010314762 -0.28331705945197572 0 -0.35490209917173382 -0.29713784607450577 0 -0.35490209917173382 -0.29713784607450577 0 -0.33298414365747597 -0.29639048041041038 0 -0.37682005468599161 -0.29788521173860111 0 -0.37089355010314762 -0.28331705945197572 0 -0.35490209917173382 -0.29713784607450577 0 -0.37682005468599161 -0.29788521173860111 0 -0.37089355010314762 -0.28331705945197572 0 -0.37682005468599161 -0.29788521173860111 0 -0.35490209917173382 -0.29713784607450577 0 -0.37682005468599161 -0.29788521173860111 0 -0.36188894867209143 -0.31041699320339777 0 -0.35490209917173382 -0.29713784607450577 0 -0.37576395745092178 -0.3050725196501074 0 -0.36188894867209143 -0.31041699320339777 0 -0.37031507652163809 -0.31287943285871039 0 -0.37576395745092178 -0.3050725196501074 0 -0.37719713711566749 -0.31197748083789167 0 -0.37031507652163809 -0.31287943285871039 0 -0.37682005468599161 -0.29788521173860111 0 -0.37576395745092178 -0.3050725196501074 0 -0.36188894867209143 -0.31041699320339777 0 -0.36188894867209143 -0.31041699320339777 0 -0.35490209917173382 -0.29713784607450577 0 -0.34709214139205768 -0.31270838654372951 0 -0.35490209917173382 -0.29713784607450577 0 -0.34179204247812539 -0.30372858581904438 0 -0.34709214139205768 -0.31270838654372951 0 -0.35490209917173382 -0.29713784607450577 0 -0.34179204247812539 -0.30372858581904438 0 -0.33298414365747597 -0.29639048041041038 0 -0.33218978569123447 -0.30867763024753198 0 -0.34179204247812539 -0.30372858581904438 0 -0.34709214139205768 -0.31270838654372951 0 -0.33218978569123447 -0.30867763024753198 0 -0.34179204247812539 -0.30372858581904438 0 -0.33298414365747597 -0.29639048041041038 0 -0.33218978569123447 -0.30867763024753198 0 -0.33298414365747597 -0.29639048041041038 0 -0.32551389594434832 -0.29891105756718273 0 -0.3458528524608297 -0.27955870857394483 0 -0.32673865940135971 -0.29036850998253821 0 -0.3458528524608297 -0.27955870857394483 0 -0.33298414365747597 -0.29639048041041038 0 -0.32673865940135971 -0.29036850998253821 0 -0.33065211668571071 -0.27437360408278932 0 -0.3458528524608297 -0.27955870857394483 0 -0.32673865940135971 -0.29036850998253821 0 -0.33298414365747597 -0.29639048041041038 0 -0.32673865940135971 -0.29036850998253821 0 -0.32551389594434832 -0.29891105756718273 0 -0.32673865940135971 -0.29036850998253821 0 -0.31615320843671613 -0.29356321322440693 0 -0.32551389594434832 -0.29891105756718273 0 -0.31511343508082401 -0.27781322935613839 0 -0.32673865940135971 -0.29036850998253821 0 -0.31615320843671613 -0.29356321322440693 0 -0.31615320843671613 -0.29356321322440693 0 -0.31950368253495531 -0.30555545397102613 0 -0.30878428388507118 -0.30170417431472779 0 -0.31950368253495531 -0.30555545397102613 0 -0.3116392313269683 -0.31227800665128408 0 -0.30878428388507118 -0.30170417431472779 0 -0.31950368253495531 -0.30555545397102613 0 -0.32244955285570731 -0.31946983399639112 0 -0.3116392313269683 -0.31227800665128408 0 -0.33218978569123447 -0.30867763024753198 0 -0.31950368253495531 -0.30555545397102613 0 -0.32244955285570731 -0.31946983399639112 0 -0.33218978569123447 -0.30867763024753198 0 -0.31950368253495531 -0.30555545397102613 0 -0.32551389594434832 -0.29891105756718273 0 -0.31615320843671613 -0.29356321322440693 0 -0.31950368253495531 -0.30555545397102613 0 -0.32551389594434832 -0.29891105756718273 0 -0.32244955285570731 -0.31946983399639112 0 -0.30629799224095122 -0.32640742927921629 0 -0.3116392313269683 -0.31227800665128408 0 -0.32244955285570731 -0.31946983399639112 0 -0.32074380139974629 -0.33343701228721029 0 -0.30629799224095122 -0.32640742927921629 0 -0.32244955285570731 -0.31946983399639112 0 -0.32074380139974629 -0.33343701228721029 0 -0.33561670872011118 -0.32538867032004731 0 -0.32074380139974629 -0.33343701228721029 0 -0.33040605641151349 -0.34939015350577979 0 -0.304947043925899 -0.34335287533409059 0 -0.32074380139974629 -0.33343701228721029 0 -0.33267344648675012 -0.33694306544023261 0 -0.33040605641151349 -0.34939015350577979 0 -0.32074380139974629 -0.33343701228721029 0 -0.33267344648675012 -0.33694306544023261 0 -0.33561670872011118 -0.32538867032004731 0 -0.33267344648675012 -0.33694306544023261 0 -0.34392721941562959 -0.33955642564789279 0 -0.33040605641151349 -0.34939015350577979 0 -0.33561670872011118 -0.32538867032004731 0 -0.349287455364583 -0.32600753078393868 0 -0.34392721941562959 -0.33955642564789279 0 -0.33267344648675012 -0.33694306544023261 0 -0.33561670872011118 -0.32538867032004731 0 -0.34392721941562959 -0.33955642564789279 0 -0.33218978569123447 -0.30867763024753198 0 -0.33561670872011118 -0.32538867032004731 0 -0.34709214139205768 -0.31270838654372951 0 -0.33218978569123447 -0.30867763024753198 0 -0.32244955285570731 -0.31946983399639112 0 -0.33561670872011118 -0.32538867032004731 0 -0.33561670872011118 -0.32538867032004731 0 -0.34709214139205768 -0.31270838654372951 0 -0.349287455364583 -0.32600753078393868 0 -0.36188894867209143 -0.31041699320339777 0 -0.349287455364583 -0.32600753078393868 0 -0.36280179597878331 -0.32525767970938912 0 -0.36188894867209143 -0.31041699320339777 0 -0.34709214139205768 -0.31270838654372951 0 -0.349287455364583 -0.32600753078393868 0 -0.36188894867209143 -0.31041699320339777 0 -0.36280179597878331 -0.32525767970938912 0 -0.37031507652163809 -0.31287943285871039 0 -0.37746168828861648 -0.32880316406910598 0 -0.36280179597878331 -0.32525767970938912 0 -0.37456534516798468 -0.31943469669369101 0 -0.36280179597878331 -0.32525767970938912 0 -0.37456534516798468 -0.31943469669369101 0 -0.37031507652163809 -0.31287943285871039 0 -0.37719713711566749 -0.31197748083789167 0 -0.37456534516798468 -0.31943469669369101 0 -0.37031507652163809 -0.31287943285871039 0 -0.37630104444955431 -0.33953575302191552 0 -0.36280179597878331 -0.32525767970938912 0 -0.35900277781907919 -0.33873387737807908 0 -0.37630104444955431 -0.33953575302191552 0 -0.35900277781907919 -0.33873387737807908 0 -0.3662355090989915 -0.348226851570058 0 -0.37746168828861648 -0.32880316406910598 0 -0.37630104444955431 -0.33953575302191552 0 -0.36280179597878331 -0.32525767970938912 0 -0.37630104444955431 -0.33953575302191552 0 -0.36280179597878331 -0.32525767970938912 0 -0.349287455364583 -0.32600753078393868 0 -0.36280179597878331 -0.32525767970938912 0 -0.35900277781907919 -0.33873387737807908 0 -0.349287455364583 -0.32600753078393868 0 -0.35900277781907919 -0.33873387737807908 0 -0.34392721941562959 -0.33955642564789279 0 -0.34392721941562959 -0.33955642564789279 0 -0.34378478126742867 -0.35168705731137051 0 -0.35474622765707731 -0.3530842238088211 0 -0.34378478126742867 -0.35168705731137051 0 -0.35474622765707731 -0.3530842238088211 0 -0.34605962158549469 -0.3647174262829882 0 -0.35474622765707731 -0.3530842238088211 0 -0.34605962158549469 -0.3647174262829882 0 -0.35474622765707731 -0.3530842238088211 0 -0.3645004591251928 -0.35797240650737622 0 -0.3557305472228397 -0.36248105220686111 0 -0.35900277781907919 -0.33873387737807908 0 -0.34392721941562959 -0.33955642564789279 0 -0.35474622765707731 -0.3530842238088211 0 -0.35900277781907919 -0.33873387737807908 0 -0.35474622765707731 -0.3530842238088211 0 -0.3662355090989915 -0.348226851570058 0 -0.35474622765707731 -0.3530842238088211 0 -0.3662355090989915 -0.348226851570058 0 -0.3645004591251928 -0.35797240650737622 0 -0.37501505732771462 -0.35270295609204683 0 -0.3662355090989915 -0.348226851570058 0 -0.3645004591251928 -0.35797240650737622 0 -0.37501505732771462 -0.35270295609204683 0 -0.3645004591251928 -0.35797240650737622 0 -0.37245563567842283 -0.36342144099550278 0 -0.37501505732771462 -0.35270295609204683 0 -0.37630104444955431 -0.33953575302191552 0 -0.3662355090989915 -0.348226851570058 0 -0.35160698284412462 -0.37014915498247181 0 -0.36791003929668897 -0.37531597356073781 0 -0.3617394449023093 -0.36648204945264778 0 -0.35160698284412462 -0.37014915498247181 0 -0.36791003929668897 -0.37531597356073781 0 -0.37245563567842283 -0.36342144099550278 0 -0.3617394449023093 -0.36648204945264778 0 -0.36791003929668897 -0.37531597356073781 0 -0.37576852049830373 -0.37424143402576782 0 -0.37245563567842283 -0.36342144099550278 0 -0.36791003929668897 -0.37531597356073781 0 -0.3645004591251928 -0.35797240650737622 0 -0.3617394449023093 -0.36648204945264778 0 -0.3557305472228397 -0.36248105220686111 0 -0.3645004591251928 -0.35797240650737622 0 -0.37245563567842283 -0.36342144099550278 0 -0.3617394449023093 -0.36648204945264778 0 -0.35474622765707731 -0.3530842238088211 0 -0.3557305472228397 -0.36248105220686111 0 -0.34605962158549469 -0.3647174262829882 0 -0.3617394449023093 -0.36648204945264778 0 -0.35160698284412462 -0.37014915498247181 0 -0.3557305472228397 -0.36248105220686111 0 -0.35160698284412462 -0.37014915498247181 0 -0.3557305472228397 -0.36248105220686111 0 -0.34605962158549469 -0.3647174262829882 0 -0.34605962158549469 -0.3647174262829882 0 -0.34384142010082153 -0.36768806715090302 0 -0.34148886242004811 -0.36564807466747679 0 -0.34605962158549469 -0.3647174262829882 0 -0.34384142010082153 -0.36768806715090302 0 -0.35160698284412462 -0.37014915498247181 0 -0.34384142010082153 -0.36768806715090302 0 -0.3473193197300139 -0.3757558619871843 0 -0.35160698284412462 -0.37014915498247181 0 -0.34384142010082153 -0.36768806715090302 0 -0.35160698284412462 -0.37014915498247181 0 -0.34605962158549469 -0.3647174262829882 0 -0.35160698284412462 -0.37014915498247181 0 -0.34605962158549469 -0.3647174262829882 0 -0.34384142010082153 -0.36768806715090302 0 -0.34384142010082153 -0.36768806715090302 0 -0.3394050004453173 -0.36792428240374231 0 -0.33667947897576161 -0.37727942084292682 0 -0.34384142010082153 -0.36768806715090302 0 -0.33667947897576161 -0.37727942084292682 0 -0.34384142010082153 -0.36768806715090302 0 -0.3473193197300139 -0.3757558619871843 0 -0.33667947897576161 -0.37727942084292682 0 -0.32081326145083022 -0.36031614808850881 0 -0.33667947897576161 -0.37727942084292682 0 -0.3394050004453173 -0.36792428240374231 0 -0.33336643958396978 -0.36601612799497002 0 -0.33667947897576161 -0.37727942084292682 0 -0.33336643958396978 -0.36601612799497002 0 -0.32081326145083022 -0.36031614808850881 0 -0.33667947897576161 -0.37727942084292682 0 -0.33132451367914112 -0.3606866026678322 0 -0.33336643958396978 -0.36601612799497002 0 -0.32081326145083022 -0.36031614808850881 0 -0.33132451367914112 -0.3606866026678322 0 -0.33336643958396978 -0.36601612799497002 0 -0.33697234037925838 -0.36236486777317728 0 -0.34605962158549469 -0.3647174262829882 0 -0.33697234037925838 -0.36236486777317728 0 -0.34148886242004811 -0.36564807466747679 0 -0.3394050004453173 -0.36792428240374231 0 -0.33697234037925838 -0.36236486777317728 0 -0.34148886242004811 -0.36564807466747679 0 -0.3394050004453173 -0.36792428240374231 0 -0.33336643958396978 -0.36601612799497002 0 -0.33697234037925838 -0.36236486777317728 0 -0.34384142010082153 -0.36768806715090302 0 -0.3394050004453173 -0.36792428240374231 0 -0.34148886242004811 -0.36564807466747679 0 -0.34605962158549469 -0.3647174262829882 0 -0.33040605641151349 -0.34939015350577979 0 -0.34378478126742867 -0.35168705731137051 0 -0.34605962158549469 -0.3647174262829882 0 -0.33040605641151349 -0.34939015350577979 0 -0.34605962158549469 -0.3647174262829882 0 -0.33697234037925838 -0.36236486777317728 0 -0.33040605641151349 -0.34939015350577979 0 -0.34392721941562959 -0.33955642564789279 0 -0.34378478126742867 -0.35168705731137051 0 -0.33040605641151349 -0.34939015350577979 0 -0.33132451367914112 -0.3606866026678322 0 -0.33697234037925838 -0.36236486777317728 0 -0.33040605641151349 -0.34939015350577979 0 -0.33040605641151349 -0.34939015350577979 0 -0.32081326145083022 -0.36031614808850881 0 -0.304947043925899 -0.34335287533409059 0 -0.32081326145083022 -0.36031614808850881 0 -0.304947043925899 -0.34335287533409059 0 -0.33132451367914112 -0.3606866026678322 0 -0.33040605641151349 -0.34939015350577979 0 -0.32081326145083022 -0.36031614808850881 0 -0.32440986188565729 -0.37270080156259489 0 -0.32081326145083022 -0.36031614808850881 0 -0.31106328263090982 -0.36800475596674848 0 -0.32440986188565729 -0.37270080156259489 0 -0.32081326145083022 -0.36031614808850881 0 -0.33667947897576161 -0.37727942084292682 0 -0.32440986188565729 -0.37270080156259489 0 -0.31106328263090982 -0.36800475596674848 0 -0.31317375432424149 -0.38208007184035081 0 -0.31106328263090982 -0.36800475596674848 0 -0.30477466129399572 -0.35837215094430408 0 -0.2945929359319488 -0.36760614731534108 0 -0.32081326145083022 -0.36031614808850881 0 -0.31106328263090982 -0.36800475596674848 0 -0.30477466129399572 -0.35837215094430408 0 -0.2945929359319488 -0.36760614731534108 0 -0.31317375432424149 -0.38208007184035081 0 -0.31106328263090982 -0.36800475596674848 0 -0.2945929359319488 -0.36760614731534108 0 -0.31317375432424149 -0.38208007184035081 0 -0.30477466129399572 -0.35837215094430408 0 -0.29245678253039098 -0.35258082801683138 0 -0.2945929359319488 -0.36760614731534108 0 -0.32081326145083022 -0.36031614808850881 0 -0.30477466129399572 -0.35837215094430408 0 -0.304947043925899 -0.34335287533409059 0 -0.30477466129399572 -0.35837215094430408 0 -0.29245678253039098 -0.35258082801683138 0 -0.304947043925899 -0.34335287533409059 0 -0.29245678253039098 -0.35258082801683138 0 -0.27601211753965582 -0.35313222279033191 0 -0.28440521569258082 -0.34149228361744682 0 -0.29245678253039098 -0.35258082801683138 0 -0.2945929359319488 -0.36760614731534108 0 -0.27601211753965582 -0.35313222279033191 0 -0.29245678253039098 -0.35258082801683138 0 -0.28440521569258082 -0.34149228361744682 0 -0.304947043925899 -0.34335287533409059 0 -0.2945929359319488 -0.36760614731534108 0 -0.27987861861344199 -0.36674592141788198 0 -0.27601211753965582 -0.35313222279033191 0 -0.2945929359319488 -0.36760614731534108 0 -0.27601211753965582 -0.35313222279033191 0 -0.2945929359319488 -0.36760614731534108 0 -0.27987861861344199 -0.36674592141788198 0 -0.2808665902171914 -0.38228580422035652 0 -0.26678221966742222 -0.3646399338773868 0 -0.2808665902171914 -0.38228580422035652 0 -0.27987861861344199 -0.36674592141788198 0 -0.26678221966742222 -0.3646399338773868 0 -0.2808665902171914 -0.38228580422035652 0 -0.27987861861344199 -0.36674592141788198 0 -0.26678221966742222 -0.3646399338773868 0 -0.27601211753965582 -0.35313222279033191 0 -0.26678221966742222 -0.3646399338773868 0 -0.25938421221386299 -0.38242260424217978 0 -0.2452998416640946 -0.36477673389921211 0 -0.25269784911765092 -0.34699406353441858 0 -0.27601211753965582 -0.35313222279033191 0 -0.25743129914736268 -0.33865829826532268 0 -0.26678221966742222 -0.3646399338773868 0 -0.25269784911765092 -0.34699406353441858 0 -0.27601211753965582 -0.35313222279033191 0 -0.26678221966742222 -0.3646399338773868 0 -0.25269784911765092 -0.34699406353441858 0 -0.26678221966742222 -0.3646399338773868 0 -0.25269784911765092 -0.34699406353441858 0 -0.2452998416640946 -0.36477673389921211 0 -0.27601211753965582 -0.35313222279033191 0 -0.25743129914736268 -0.33865829826532268 0 -0.27601211753965582 -0.35313222279033191 0 -0.27044436538280059 -0.34111632069956299 0 -0.25743129914736268 -0.33865829826532268 0 -0.27601211753965582 -0.35313222279033191 0 -0.27044436538280059 -0.34111632069956299 0 -0.28440521569258082 -0.34149228361744682 0 -0.27621603835147168 -0.33027839755104138 0 -0.27044436538280059 -0.34111632069956299 0 -0.28440521569258082 -0.34149228361744682 0 -0.27621603835147168 -0.33027839755104138 0 -0.26858322842119509 -0.33433735121453573 0 -0.26421331744216298 -0.32943061110636401 0 -0.27621603835147168 -0.33027839755104138 0 -0.26858322842119509 -0.33433735121453573 0 -0.27044436538280059 -0.34111632069956299 0 -0.26858322842119509 -0.33433735121453573 0 -0.27044436538280059 -0.34111632069956299 0 -0.26348614366539269 -0.33464536090729041 0 -0.25269784911765092 -0.34699406353441858 0 -0.2601150759189611 -0.3291651954159735 0 -0.25269784911765092 -0.34699406353441858 0 -0.2601150759189611 -0.3291651954159735 0 -0.25743129914736268 -0.33865829826532268 0 -0.27044436538280059 -0.34111632069956299 0 -0.26348614366539269 -0.33464536090729041 0 -0.25743129914736268 -0.33865829826532268 0 -0.26348614366539269 -0.33464536090729041 0 -0.2601150759189611 -0.3291651954159735 0 -0.25743129914736268 -0.33865829826532268 0 -0.26858322842119509 -0.33433735121453573 0 -0.26348614366539269 -0.33464536090729041 0 -0.26421331744216298 -0.32943061110636401 0 -0.26348614366539269 -0.33464536090729041 0 -0.26421331744216298 -0.32943061110636401 0 -0.2601150759189611 -0.3291651954159735 0 -0.25993101682886932 -0.31889206187407287 0 -0.25469452373499762 -0.30722313484128749 0 -0.2494260049788683 -0.31746489113439402 0 -0.2601150759189611 -0.3291651954159735 0 -0.25993101682886932 -0.31889206187407287 0 -0.2494260049788683 -0.31746489113439402 0 -0.26421331744216298 -0.32943061110636401 0 -0.2601150759189611 -0.3291651954159735 0 -0.25993101682886932 -0.31889206187407287 0 -0.26421331744216298 -0.32943061110636401 0 -0.25993101682886932 -0.31889206187407287 0 -0.27321460887603632 -0.30942632982525498 0 -0.27621603835147168 -0.33027839755104138 0 -0.28908082640096788 -0.32638960257967248 0 -0.27321460887603632 -0.30942632982525498 0 -0.26421331744216298 -0.32943061110636401 0 -0.27321460887603632 -0.30942632982525498 0 -0.28908082640096788 -0.32638960257967248 0 -0.27321460887603632 -0.30942632982525498 0 -0.27621603835147168 -0.33027839755104138 0 -0.26421331744216298 -0.32943061110636401 0 -0.27321460887603632 -0.30942632982525498 0 -0.28908082640096788 -0.32638960257967248 0 -0.29608772242085762 -0.30837888524759871 0 -0.27321460887603632 -0.30942632982525498 0 -0.28908082640096788 -0.32638960257967248 0 -0.28440521569258082 -0.34149228361744682 0 -0.304947043925899 -0.34335287533409059 0 -0.27621603835147168 -0.33027839755104138 0 -0.28908082640096788 -0.32638960257967248 0 -0.28440521569258082 -0.34149228361744682 0 -0.28908082640096788 -0.32638960257967248 0 -0.304947043925899 -0.34335287533409059 0 -0.32074380139974629 -0.33343701228721029 0 -0.304947043925899 -0.34335287533409059 0 -0.30629799224095122 -0.32640742927921629 0 -0.28908082640096788 -0.32638960257967248 0 -0.304947043925899 -0.34335287533409059 0 -0.30629799224095122 -0.32640742927921629 0 -0.30629799224095122 -0.32640742927921629 0 -0.3116392313269683 -0.31227800665128408 0 -0.29608772242085762 -0.30837888524759871 0 -0.28908082640096788 -0.32638960257967248 0 -0.30629799224095122 -0.32640742927921629 0 -0.29608772242085762 -0.30837888524759871 0 -0.30878428388507118 -0.30170417431472779 0 -0.30257535950331932 -0.29121923704559499 0 -0.29608772242085762 -0.30837888524759871 0 -0.3116392313269683 -0.31227800665128408 0 -0.30878428388507118 -0.30170417431472779 0 -0.29608772242085762 -0.30837888524759871 0 -0.31511343508082401 -0.27781322935613839 0 -0.31615320843671613 -0.29356321322440693 0 -0.30257535950331932 -0.29121923704559499 0 -0.31615320843671613 -0.29356321322440693 0 -0.30878428388507118 -0.30170417431472779 0 -0.30257535950331932 -0.29121923704559499 0 -0.31511343508082401 -0.27781322935613839 0 -0.30257535950331932 -0.29121923704559499 0 -0.30186967514470631 -0.27796386812733742 0 -0.30257535950331932 -0.29121923704559499 0 -0.28167541002104313 -0.29062322282537112 0 -0.29608772242085762 -0.30837888524759871 0 -0.30257535950331932 -0.29121923704559499 0 -0.28167541002104313 -0.29062322282537112 0 -0.30186967514470631 -0.27796386812733742 0 -0.28167541002104313 -0.29062322282537112 0 -0.29608772242085762 -0.30837888524759871 0 -0.27321460887603632 -0.30942632982525498 0 -0.28167541002104313 -0.29062322282537112 0 -0.27321460887603632 -0.30942632982525498 0 -0.28167541002104313 -0.29062322282537112 0 -0.27321460887603632 -0.30942632982525498 0 -0.25754389589834492 -0.29267207960278718 0 -0.27321460887603632 -0.30942632982525498 0 -0.25469452373499762 -0.30722313484128749 0 -0.25754389589834492 -0.29267207960278718 0 -0.27321460887603632 -0.30942632982525498 0 -0.25754389589834492 -0.29267207960278718 0 -0.25469452373499762 -0.30722313484128749 0 -0.25754389589834492 -0.29267207960278718 0 -0.24072416822125611 -0.30184362229434508 0 -0.25993101682886932 -0.31889206187407287 0 -0.27321460887603632 -0.30942632982525498 0 -0.25469452373499762 -0.30722313484128749 0 -0.28167541002104313 -0.29062322282537112 0 -0.25754389589834492 -0.29267207960278718 0 -0.26609549321717318 -0.27038600033383992 0 -0.28167541002104313 -0.29062322282537112 0 -0.26609549321717318 -0.27038600033383992 0 -0.29013621116605032 -0.27182011582548737 0 -0.25754389589834492 -0.29267207960278718 0 -0.26609549321717318 -0.27038600033383992 0 -0.24718685023563691 -0.27875123027958087 0 -0.26609549321717318 -0.27038600033383992 0 -0.2483490975252734 -0.26098873334868322 0 -0.24718685023563691 -0.27875123027958087 0 -0.26609549321717318 -0.27038600033383992 0 -0.2483490975252734 -0.26098873334868322 0 -0.2582168116042447 -0.2439014490639565 0 -0.26609549321717318 -0.27038600033383992 0 -0.28073519909821221 -0.25162370631188929 0 -0.2582168116042447 -0.2439014490639565 0 -0.26609549321717318 -0.27038600033383992 0 -0.28073519909821221 -0.25162370631188929 0 -0.29013621116605032 -0.27182011582548737 0 -0.28073519909821221 -0.25162370631188929 0 -0.29013621116605032 -0.27182011582548737 0 -0.29859701231105729 -0.25301700882560368 0 -0.29013621116605032 -0.27182011582548737 0 -0.29859701231105729 -0.25301700882560368 0 -0.28167541002104313 -0.29062322282537112 0 -0.29013621116605032 -0.27182011582548737 0 -0.28167541002104313 -0.29062322282537112 0 -0.29013621116605032 -0.27182011582548737 0 -0.30186967514470631 -0.27796386812733742 0 -0.29013621116605032 -0.27182011582548737 0 -0.30186967514470631 -0.27796386812733742 0 -0.30798481169360081 -0.26465381523239789 0 -0.31511343508082401 -0.27781322935613839 0 -0.30186967514470631 -0.27796386812733742 0 -0.30798481169360081 -0.26465381523239789 0 -0.29013621116605032 -0.27182011582548737 0 -0.30798481169360081 -0.26465381523239789 0 -0.29859701231105729 -0.25301700882560368 0 -0.30798481169360081 -0.26465381523239789 0 -0.29859701231105729 -0.25301700882560368 0 -0.31421725341188372 -0.24977587129631751 0 -0.33796228302189513 -0.4595255727132167 0 -0.33234589271538922 -0.44480996408757179 0 -0.32640026466812011 -0.46081896178250181 0 -0.33796228302189513 -0.4595255727132167 0 -0.33234589271538922 -0.44480996408757179 0 -0.35319602351827412 -0.45776170704885039 0 -0.33796228302189513 -0.4595255727132167 0 -0.32640026466812011 -0.46081896178250181 0 -0.33318196746883988 -0.47121638454265508 0 -0.33796228302189513 -0.4595255727132167 0 -0.33318196746883988 -0.47121638454265508 0 -0.34642386304625039 -0.46572223054776302 0 -0.33234589271538922 -0.44480996408757179 0 -0.35319602351827412 -0.45776170704885039 0 -0.34417399017822298 -0.44321594322297297 0 -0.33234589271538922 -0.44480996408757179 0 -0.35319602351827412 -0.45776170704885039 0 -0.33234589271538922 -0.44480996408757179 0 -0.34417399017822298 -0.44321594322297297 0 -0.3357600199570368 -0.42926052953436999 0 -0.33234589271538922 -0.44480996408757179 0 -0.3114957619125025 -0.43185822112629579 0 -0.33234589271538922 -0.44480996408757179 0 -0.31256905993156642 -0.45599936109409522 0 -0.3094409967240645 -0.4445248742670016 0 -0.33234589271538922 -0.44480996408757179 0 -0.3114957619125025 -0.43185822112629579 0 -0.3094409967240645 -0.4445248742670016 0 -0.31256905993156642 -0.45599936109409522 0 -0.32640026466812011 -0.46081896178250181 0 -0.31594212020290968 -0.47254352647497072 0 -0.32640026466812011 -0.46081896178250181 0 -0.31594212020290968 -0.47254352647497072 0 -0.33318196746883988 -0.47121638454265508 0 -0.33234589271538922 -0.44480996408757179 0 -0.31256905993156642 -0.45599936109409522 0 -0.32640026466812011 -0.46081896178250181 0 -0.31594212020290968 -0.47254352647497072 0 -0.32571643119753041 -0.48341426386358383 0 -0.33318196746883988 -0.47121638454265508 0 -0.31594212020290968 -0.47254352647497072 0 -0.32571643119753041 -0.48341426386358383 0 -0.3142379471820072 -0.49087834217350051 0 -0.32571643119753041 -0.48341426386358383 0 -0.3142379471820072 -0.49087834217350051 0 -0.33008082446145748 -0.5 0 -0.3142379471820072 -0.49087834217350051 0 -0.33008082446145748 -0.5 0 -0.30187341860680589 -0.5 0 -0.33008082446145748 -0.5 0 -0.33835912005968188 -0.48593346247900621 0 -0.35828823031610901 -0.5 0 -0.32571643119753041 -0.48341426386358383 0 -0.33008082446145748 -0.5 0 -0.33835912005968188 -0.48593346247900621 0 -0.33835912005968188 -0.48593346247900621 0 -0.33318196746883988 -0.47121638454265508 0 -0.35033712925844102 -0.47766396546025452 0 -0.33318196746883988 -0.47121638454265508 0 -0.35033712925844102 -0.47766396546025452 0 -0.34642386304625039 -0.46572223054776302 0 -0.32571643119753041 -0.48341426386358383 0 -0.33835912005968188 -0.48593346247900621 0 -0.33318196746883988 -0.47121638454265508 0 -0.35033712925844102 -0.47766396546025452 0 -0.36650464836053492 -0.47758333459014829 0 -0.36063794808603339 -0.46630538924086617 0 -0.35033712925844102 -0.47766396546025452 0 -0.36063794808603339 -0.46630538924086617 0 -0.34642386304625039 -0.46572223054776302 0 -0.33835912005968188 -0.48593346247900621 0 -0.35033712925844102 -0.47766396546025452 0 -0.35828823031610901 -0.5 0 -0.35033712925844102 -0.47766396546025452 0 -0.35828823031610901 -0.5 0 -0.36650464836053492 -0.47758333459014829 0 -0.38649563617076049 -0.5 0 -0.35828823031610901 -0.5 0 -0.36650464836053492 -0.47758333459014829 0 -0.36650464836053492 -0.47758333459014829 0 -0.3749125057523493 -0.4641870694620962 0 -0.36063794808603339 -0.46630538924086617 0 -0.38257104150817378 -0.44558539909593659 0 -0.3749125057523493 -0.4641870694620962 0 -0.36138234587818158 -0.45426427734382602 0 -0.3749125057523493 -0.4641870694620962 0 -0.36138234587818158 -0.45426427734382602 0 -0.36063794808603339 -0.46630538924086617 0 -0.36063794808603339 -0.46630538924086617 0 -0.35319602351827412 -0.45776170704885039 0 -0.34642386304625039 -0.46572223054776302 0 -0.36138234587818158 -0.45426427734382602 0 -0.35319602351827412 -0.45776170704885039 0 -0.35413130606104948 -0.44909707738868448 0 -0.36138234587818158 -0.45426427734382602 0 -0.36063794808603339 -0.46630538924086617 0 -0.35319602351827412 -0.45776170704885039 0 -0.33796228302189513 -0.4595255727132167 0 -0.35319602351827412 -0.45776170704885039 0 -0.34642386304625039 -0.46572223054776302 0 -0.34917789899954887 -0.43960621791601218 0 -0.34417399017822298 -0.44321594322297297 0 -0.3478317041277888 -0.43428891422125909 0 -0.34417399017822298 -0.44321594322297297 0 -0.35413130606104948 -0.44909707738868448 0 -0.35160182111049931 -0.44318126090920129 0 -0.34917789899954887 -0.43960621791601218 0 -0.34417399017822298 -0.44321594322297297 0 -0.35160182111049931 -0.44318126090920129 0 -0.34917789899954887 -0.43960621791601218 0 -0.35160182111049931 -0.44318126090920129 0 -0.35310408058168441 -0.43773875331061518 0 -0.35319602351827412 -0.45776170704885039 0 -0.34417399017822298 -0.44321594322297297 0 -0.35413130606104948 -0.44909707738868448 0 -0.36138234587818158 -0.45426427734382602 0 -0.35413130606104948 -0.44909707738868448 0 -0.3593008871480341 -0.44528990622411457 0 -0.35413130606104948 -0.44909707738868448 0 -0.35597289875446148 -0.442541016596669 0 -0.3593008871480341 -0.44528990622411457 0 -0.35597289875446148 -0.442541016596669 0 -0.3593008871480341 -0.44528990622411457 0 -0.35811375488379049 -0.43887755417772267 0 -0.35413130606104948 -0.44909707738868448 0 -0.35597289875446148 -0.442541016596669 0 -0.35160182111049931 -0.44318126090920129 0 -0.35597289875446148 -0.442541016596669 0 -0.35160182111049931 -0.44318126090920129 0 -0.35310408058168441 -0.43773875331061518 0 -0.35597289875446148 -0.442541016596669 0 -0.35310408058168441 -0.43773875331061518 0 -0.35811375488379049 -0.43887755417772267 0 -0.3593008871480341 -0.44528990622411457 0 -0.35811375488379049 -0.43887755417772267 0 -0.36466736862266619 -0.43929361107495862 0 -0.38257104150817378 -0.44558539909593659 0 -0.36138234587818158 -0.45426427734382602 0 -0.36466736862266619 -0.43929361107495862 0 -0.38257104150817378 -0.44558539909593659 0 -0.36138234587818158 -0.45426427734382602 0 -0.36138234587818158 -0.45426427734382602 0 -0.3593008871480341 -0.44528990622411457 0 -0.36466736862266619 -0.43929361107495862 0 -0.37857274293149029 -0.42876471734549271 0 -0.37441041966644201 -0.41853044649732968 0 -0.35538489801315631 -0.42903325471815951 0 -0.37857274293149029 -0.42876471734549271 0 -0.36466736862266619 -0.43929361107495862 0 -0.35538489801315631 -0.42903325471815951 0 -0.37857274293149029 -0.42876471734549271 0 -0.35538489801315631 -0.42903325471815951 0 -0.35811375488379049 -0.43887755417772267 0 -0.36466736862266619 -0.43929361107495862 0 -0.35620302754573391 -0.43383251126704991 0 -0.34839752669874718 -0.41300385642212029 0 -0.37209094330423159 -0.40089808531996213 0 -0.37441041966644201 -0.41853044649732968 0 -0.36549953895739912 -0.41199887396496521 0 -0.35538489801315631 -0.42903325471815951 0 -0.38249496913699632 -0.41100015469591239 0 -0.36549953895739912 -0.41199887396496521 0 -0.37602613074463359 -0.40570926791912437 0 -0.38249496913699632 -0.41100015469591239 0 -0.36549953895739912 -0.41199887396496521 0 -0.38249496913699632 -0.41100015469591239 0 -0.37441041966644201 -0.41853044649732968 0 -0.36549953895739912 -0.41199887396496521 0 -0.36549953895739912 -0.41199887396496521 0 -0.35538489801315631 -0.42903325471815951 0 -0.36549953895739912 -0.41199887396496521 0 -0.34839752669874718 -0.41300385642212029 0 -0.37209094330423159 -0.40089808531996213 0 -0.36549953895739912 -0.41199887396496521 0 -0.37209094330423159 -0.40089808531996213 0 -0.36549953895739912 -0.41199887396496521 0 -0.34839752669874718 -0.41300385642212029 0 -0.35538489801315631 -0.42903325471815951 0 -0.36549953895739912 -0.41199887396496521 0 -0.34839752669874718 -0.41300385642212029 0 -0.34839752669874718 -0.41300385642212029 0 -0.35538489801315631 -0.42903325471815951 0 -0.3357600199570368 -0.42926052953436999 0 -0.3478317041277888 -0.43428891422125909 0 -0.35538489801315631 -0.42903325471815951 0 -0.3357600199570368 -0.42926052953436999 0 -0.35538489801315631 -0.42903325471815951 0 -0.3357600199570368 -0.42926052953436999 0 -0.34917789899954887 -0.43960621791601218 0 -0.35310408058168441 -0.43773875331061518 0 -0.3478317041277888 -0.43428891422125909 0 -0.35310408058168441 -0.43773875331061518 0 -0.3478317041277888 -0.43428891422125909 0 -0.35306161513742162 -0.43384008959340059 0 -0.3478317041277888 -0.43428891422125909 0 -0.35306161513742162 -0.43384008959340059 0 -0.35538489801315631 -0.42903325471815951 0 -0.36466736862266619 -0.43929361107495862 0 -0.35620302754573391 -0.43383251126704991 0 -0.35538489801315631 -0.42903325471815951 0 -0.35306161513742162 -0.43384008959340059 0 -0.35620302754573391 -0.43383251126704991 0 -0.35538489801315631 -0.42903325471815951 0 -0.35310408058168441 -0.43773875331061518 0 -0.35306161513742162 -0.43384008959340059 0 -0.35620302754573391 -0.43383251126704991 0 -0.35310408058168441 -0.43773875331061518 0 -0.35811375488379049 -0.43887755417772267 0 -0.35620302754573391 -0.43383251126704991 0 -0.38353069879127127 -0.38163203803623119 0 -0.36346481754360999 -0.38175981779097429 0 -0.36791003929668897 -0.37531597356073781 0 -0.38353069879127127 -0.38163203803623119 0 -0.36346481754360999 -0.38175981779097429 0 -0.35160698284412462 -0.37014915498247181 0 -0.36346481754360999 -0.38175981779097429 0 -0.36791003929668897 -0.37531597356073781 0 -0.37610551335983561 -0.39413702328477918 0 -0.38353069879127127 -0.38163203803623119 0 -0.36346481754360999 -0.38175981779097429 0 -0.37610551335983561 -0.39413702328477918 0 -0.36346481754360999 -0.38175981779097429 0 -0.37610551335983561 -0.39413702328477918 0 -0.36346481754360999 -0.38175981779097429 0 -0.36560529781313122 -0.39247463880062672 0 -0.36346481754360999 -0.38175981779097429 0 -0.36560529781313122 -0.39247463880062672 0 -0.35703052239811178 -0.39769881565512172 0 -0.36560529781313122 -0.39247463880062672 0 -0.37209094330423159 -0.40089808531996213 0 -0.35703052239811178 -0.39769881565512172 0 -0.37610551335983561 -0.39413702328477918 0 -0.36560529781313122 -0.39247463880062672 0 -0.37209094330423159 -0.40089808531996213 0 -0.37610551335983561 -0.39413702328477918 0 -0.37209094330423159 -0.40089808531996213 0 -0.37602613074463359 -0.40570926791912437 0 -0.36549953895739912 -0.41199887396496521 0 -0.37209094330423159 -0.40089808531996213 0 -0.37602613074463359 -0.40570926791912437 0 -0.37629487057870992 -0.40149067916431569 0 -0.37209094330423159 -0.40089808531996213 0 -0.34839752669874718 -0.41300385642212029 0 -0.37209094330423159 -0.40089808531996213 0 -0.35703052239811178 -0.39769881565512172 0 -0.34839752669874718 -0.41300385642212029 0 -0.3475034212371978 -0.3977809036938752 0 -0.34022546423947331 -0.40183860272453797 0 -0.34839752669874718 -0.41300385642212029 0 -0.3475034212371978 -0.3977809036938752 0 -0.35703052239811178 -0.39769881565512172 0 -0.3475034212371978 -0.3977809036938752 0 -0.35703052239811178 -0.39769881565512172 0 -0.34623045780510991 -0.38749079344634257 0 -0.3475034212371978 -0.3977809036938752 0 -0.34623045780510991 -0.38749079344634257 0 -0.34159335278245839 -0.39476168625962771 0 -0.36346481754360999 -0.38175981779097429 0 -0.35703052239811178 -0.39769881565512172 0 -0.34623045780510991 -0.38749079344634257 0 -0.36346481754360999 -0.38175981779097429 0 -0.3473193197300139 -0.3757558619871843 0 -0.34100389918575219 -0.38190284916864559 0 -0.35160698284412462 -0.37014915498247181 0 -0.36346481754360999 -0.38175981779097429 0 -0.3473193197300139 -0.3757558619871843 0 -0.36346481754360999 -0.38175981779097429 0 -0.34100389918575219 -0.38190284916864559 0 -0.36346481754360999 -0.38175981779097429 0 -0.34623045780510991 -0.38749079344634257 0 -0.34100389918575219 -0.38190284916864559 0 -0.35160698284412462 -0.37014915498247181 0 -0.36346481754360999 -0.38175981779097429 0 -0.32440986188565729 -0.37270080156259489 0 -0.33318997219566882 -0.38195260834254191 0 -0.33667947897576161 -0.37727942084292682 0 -0.33318997219566882 -0.38195260834254191 0 -0.33667947897576161 -0.37727942084292682 0 -0.33318997219566882 -0.38195260834254191 0 -0.33667947897576161 -0.37727942084292682 0 -0.34100389918575219 -0.38190284916864559 0 -0.33318997219566882 -0.38195260834254191 0 -0.34100389918575219 -0.38190284916864559 0 -0.3473193197300139 -0.3757558619871843 0 -0.33667947897576161 -0.37727942084292682 0 -0.34100389918575219 -0.38190284916864559 0 -0.33667947897576161 -0.37727942084292682 0 -0.34100389918575219 -0.38190284916864559 0 -0.34623045780510991 -0.38749079344634257 0 -0.34100389918575219 -0.38190284916864559 0 -0.33841102596855821 -0.38947760426078792 0 -0.34623045780510991 -0.38749079344634257 0 -0.33841102596855821 -0.38947760426078792 0 -0.34159335278245839 -0.39476168625962771 0 -0.33318997219566882 -0.38195260834254191 0 -0.34100389918575219 -0.38190284916864559 0 -0.33841102596855821 -0.38947760426078792 0 -0.34623045780510991 -0.38749079344634257 0 -0.34100389918575219 -0.38190284916864559 0 -0.33318997219566882 -0.38195260834254191 0 -0.33841102596855821 -0.38947760426078792 0 -0.33274337939295218 -0.39158473010557698 0 -0.33318997219566882 -0.38195260834254191 0 -0.32576874152179608 -0.39189120557203078 0 -0.33318997219566882 -0.38195260834254191 0 -0.33274337939295218 -0.39158473010557698 0 -0.32576874152179608 -0.39189120557203078 0 -0.32912841244855839 -0.39450829284968242 0 -0.33559639466195301 -0.39722052717259471 0 -0.32788006366677641 -0.40250098545199881 0 -0.32912841244855839 -0.39450829284968242 0 -0.33274337939295218 -0.39158473010557698 0 -0.32576874152179608 -0.39189120557203078 0 -0.32912841244855839 -0.39450829284968242 0 -0.33559639466195301 -0.39722052717259471 0 -0.33274337939295218 -0.39158473010557698 0 -0.33841102596855821 -0.38947760426078792 0 -0.33559639466195301 -0.39722052717259471 0 -0.33274337939295218 -0.39158473010557698 0 -0.33841102596855821 -0.38947760426078792 0 -0.33559639466195301 -0.39722052717259471 0 -0.34159335278245839 -0.39476168625962771 0 -0.3475034212371978 -0.3977809036938752 0 -0.34159335278245839 -0.39476168625962771 0 -0.34022546423947331 -0.40183860272453797 0 -0.33559639466195301 -0.39722052717259471 0 -0.34159335278245839 -0.39476168625962771 0 -0.34022546423947331 -0.40183860272453797 0 -0.33559639466195301 -0.39722052717259471 0 -0.34022546423947331 -0.40183860272453797 0 -0.32788006366677641 -0.40250098545199881 0 -0.34022546423947331 -0.40183860272453797 0 -0.32788006366677641 -0.40250098545199881 0 -0.32831963194254171 -0.41418371360508938 0 -0.32788006366677641 -0.40250098545199881 0 -0.32576874152179608 -0.39189120557203078 0 -0.3082417371863363 -0.41536357078805991 0 -0.32576874152179608 -0.39189120557203078 0 -0.3082417371863363 -0.41536357078805991 0 -0.31067345205079122 -0.40297304657430971 0 -0.32576874152179608 -0.39189120557203078 0 -0.3082417371863363 -0.41536357078805991 0 -0.32576874152179608 -0.39189120557203078 0 -0.31035600328023122 -0.39454309529492188 0 -0.31067345205079122 -0.40297304657430971 0 -0.32912841244855839 -0.39450829284968242 0 -0.32788006366677641 -0.40250098545199881 0 -0.32576874152179608 -0.39189120557203078 0 -0.32912841244855839 -0.39450829284968242 0 -0.32576874152179608 -0.39189120557203078 0 -0.33318997219566882 -0.38195260834254191 0 -0.31317375432424149 -0.38208007184035081 0 -0.32440986188565729 -0.37270080156259489 0 -0.33318997219566882 -0.38195260834254191 0 -0.31317375432424149 -0.38208007184035081 0 -0.33318997219566882 -0.38195260834254191 0 -0.32576874152179608 -0.39189120557203078 0 -0.31317375432424149 -0.38208007184035081 0 -0.32576874152179608 -0.39189120557203078 0 -0.31317375432424149 -0.38208007184035081 0 -0.31035600328023122 -0.39454309529492188 0 -0.32576874152179608 -0.39189120557203078 0 -0.31317375432424149 -0.38208007184035081 0 -0.34417399017822298 -0.44321594322297297 0 -0.3478317041277888 -0.43428891422125909 0 -0.3357600199570368 -0.42926052953436999 0 -0.34839752669874718 -0.41300385642212029 0 -0.34022546423947331 -0.40183860272453797 0 -0.32831963194254171 -0.41418371360508938 0 -0.34839752669874718 -0.41300385642212029 0 -0.33226633429983238 -0.42124583038635088 0 -0.34839752669874718 -0.41300385642212029 0 -0.3357600199570368 -0.42926052953436999 0 -0.33226633429983238 -0.42124583038635088 0 -0.34839752669874718 -0.41300385642212029 0 -0.32831963194254171 -0.41418371360508938 0 -0.33226633429983238 -0.42124583038635088 0 -0.34839752669874718 -0.41300385642212029 0 -0.32831963194254171 -0.41418371360508938 0 -0.32831963194254171 -0.41418371360508938 0 -0.33226633429983238 -0.42124583038635088 0 -0.32271744639311822 -0.42156188657798022 0 -0.32788006366677641 -0.40250098545199881 0 -0.32831963194254171 -0.41418371360508938 0 -0.3082417371863363 -0.41536357078805991 0 -0.32831963194254171 -0.41418371360508938 0 -0.3142906732686378 -0.42168422233663161 0 -0.3082417371863363 -0.41536357078805991 0 -0.32831963194254171 -0.41418371360508938 0 -0.3082417371863363 -0.41536357078805991 0 -0.32831963194254171 -0.41418371360508938 0 -0.32271744639311822 -0.42156188657798022 0 -0.3142906732686378 -0.42168422233663161 0 -0.33234589271538922 -0.44480996408757179 0 -0.31613514190091718 -0.42948780435058093 0 -0.3114957619125025 -0.43185822112629579 0 -0.33234589271538922 -0.44480996408757179 0 -0.3357600199570368 -0.42926052953436999 0 -0.31613514190091718 -0.42948780435058093 0 -0.3142906732686378 -0.42168422233663161 0 -0.31613514190091718 -0.42948780435058093 0 -0.30783454039896002 -0.42958393323736038 0 -0.32271744639311822 -0.42156188657798022 0 -0.3142906732686378 -0.42168422233663161 0 -0.31613514190091718 -0.42948780435058093 0 -0.3357600199570368 -0.42926052953436999 0 -0.31613514190091718 -0.42948780435058093 0 -0.33226633429983238 -0.42124583038635088 0 -0.32271744639311822 -0.42156188657798022 0 -0.31613514190091718 -0.42948780435058093 0 -0.3357600199570368 -0.42926052953436999 0 -0.33226633429983238 -0.42124583038635088 0 -0.31613514190091718 -0.42948780435058093 0 -0.33226633429983238 -0.42124583038635088 0 -0.31613514190091718 -0.42948780435058093 0 -0.31613514190091718 -0.42948780435058093 0 -0.3114957619125025 -0.43185822112629579 0 -0.3114957619125025 -0.43185822112629579 0 -0.30783454039896002 -0.42958393323736038 0 -0.29634270858520939 -0.43960043062412468 0 -0.31613514190091718 -0.42948780435058093 0 -0.3114957619125025 -0.43185822112629579 0 -0.30783454039896002 -0.42958393323736038 0 -0.30331343782522491 -0.42196360581309772 0 -0.30783454039896002 -0.42958393323736038 0 -0.29157272882734891 -0.41634310820889481 0 -0.3114957619125025 -0.43185822112629579 0 -0.30783454039896002 -0.42958393323736038 0 -0.3114957619125025 -0.43185822112629579 0 -0.29634270858520939 -0.43960043062412468 0 -0.31613514190091718 -0.42948780435058093 0 -0.30783454039896002 -0.42958393323736038 0 -0.3142906732686378 -0.42168422233663161 0 -0.30331343782522491 -0.42196360581309772 0 -0.30783454039896002 -0.42958393323736038 0 -0.3142906732686378 -0.42168422233663161 0 -0.30331343782522491 -0.42196360581309772 0 -0.3082417371863363 -0.41536357078805991 0 -0.3082417371863363 -0.41536357078805991 0 -0.29157272882734891 -0.41634310820889481 0 -0.30331343782522491 -0.42196360581309772 0 -0.3082417371863363 -0.41536357078805991 0 -0.29157272882734891 -0.41634310820889481 0 -0.3082417371863363 -0.41536357078805991 0 -0.30512179815010648 -0.41267440077236472 0 -0.29157272882734891 -0.41634310820889481 0 -0.30331343782522491 -0.42196360581309772 0 -0.3082417371863363 -0.41536357078805991 0 -0.3082417371863363 -0.41536357078805991 0 -0.30512179815010648 -0.41267440077236472 0 -0.31067345205079122 -0.40297304657430971 0 -0.30512179815010648 -0.41267440077236472 0 -0.29157272882734891 -0.41634310820889481 0 -0.29482814950023328 -0.40830219942147938 0 -0.30783454039896002 -0.42958393323736038 0 -0.29157272882734891 -0.41634310820889481 0 -0.28412874470879912 -0.41485830032050902 0 -0.28962387683982849 -0.40671118620829788 0 -0.28412874470879912 -0.41485830032050902 0 -0.27887794756246431 -0.39894882893499961 0 -0.29157272882734891 -0.41634310820889481 0 -0.28962387683982849 -0.40671118620829788 0 -0.29482814950023328 -0.40830219942147938 0 -0.29157272882734891 -0.41634310820889481 0 -0.28962387683982849 -0.40671118620829788 0 -0.28412874470879912 -0.41485830032050902 0 -0.30783454039896002 -0.42958393323736038 0 -0.28525385456372598 -0.42984543912842699 0 -0.30783454039896002 -0.42958393323736038 0 -0.28412874470879912 -0.41485830032050902 0 -0.28525385456372598 -0.42984543912842699 0 -0.30783454039896002 -0.42958393323736038 0 -0.28525385456372598 -0.42984543912842699 0 -0.29634270858520939 -0.43960043062412468 0 -0.30783454039896002 -0.42958393323736038 0 -0.28412874470879912 -0.41485830032050902 0 -0.2945929359319488 -0.36760614731534108 0 -0.31317375432424149 -0.38208007184035081 0 -0.29702017227071648 -0.3821829380303548 0 -0.31317375432424149 -0.38208007184035081 0 -0.29702017227071648 -0.3821829380303548 0 -0.30212301116225498 -0.3917042965809297 0 -0.31317375432424149 -0.38208007184035081 0 -0.29702017227071648 -0.3821829380303548 0 -0.31317375432424149 -0.38208007184035081 0 -0.30212301116225498 -0.3917042965809297 0 -0.31035600328023122 -0.39454309529492188 0 -0.29702017227071648 -0.3821829380303548 0 -0.30212301116225498 -0.3917042965809297 0 -0.29299419418364941 -0.39748010249636018 0 -0.30212301116225498 -0.3917042965809297 0 -0.3038789801154857 -0.40039296044417289 0 -0.29299419418364941 -0.39748010249636018 0 -0.30212301116225498 -0.3917042965809297 0 -0.31035600328023122 -0.39454309529492188 0 -0.3038789801154857 -0.40039296044417289 0 -0.31035600328023122 -0.39454309529492188 0 -0.31067345205079122 -0.40297304657430971 0 -0.3038789801154857 -0.40039296044417289 0 -0.30512179815010648 -0.41267440077236472 0 -0.31067345205079122 -0.40297304657430971 0 -0.3038789801154857 -0.40039296044417289 0 -0.30512179815010648 -0.41267440077236472 0 -0.29482814950023328 -0.40830219942147938 0 -0.29299419418364941 -0.39748010249636018 0 -0.30512179815010648 -0.41267440077236472 0 -0.3038789801154857 -0.40039296044417289 0 -0.29299419418364941 -0.39748010249636018 0 -0.30512179815010648 -0.41267440077236472 0 -0.29299419418364941 -0.39748010249636018 0 -0.29299419418364941 -0.39748010249636018 0 -0.2808665902171914 -0.38228580422035652 0 -0.27887794756246431 -0.39894882893499961 0 -0.28962387683982849 -0.40671118620829788 0 -0.29482814950023328 -0.40830219942147938 0 -0.29299419418364941 -0.39748010249636018 0 -0.28962387683982849 -0.40671118620829788 0 -0.29299419418364941 -0.39748010249636018 0 -0.27887794756246431 -0.39894882893499961 0 -0.2945929359319488 -0.36760614731534108 0 -0.29702017227071648 -0.3821829380303548 0 -0.2808665902171914 -0.38228580422035652 0 -0.29702017227071648 -0.3821829380303548 0 -0.29299419418364941 -0.39748010249636018 0 -0.2808665902171914 -0.38228580422035652 0 -0.29702017227071648 -0.3821829380303548 0 -0.2808665902171914 -0.38228580422035652 0 -0.29299419418364941 -0.39748010249636018 0 -0.2808665902171914 -0.38228580422035652 0 -0.2808665902171914 -0.38228580422035652 0 -0.25938421221386299 -0.38242260424217978 0 -0.2808665902171914 -0.38228580422035652 0 -0.26988792475303891 -0.39094747620029929 0 -0.25938421221386299 -0.38242260424217978 0 -0.26678221966742222 -0.3646399338773868 0 -0.2808665902171914 -0.38228580422035652 0 -0.25938421221386299 -0.38242260424217978 0 -0.2808665902171914 -0.38228580422035652 0 -0.26988792475303891 -0.39094747620029929 0 -0.27887794756246431 -0.39894882893499961 0 -0.26988792475303891 -0.39094747620029929 0 -0.27887794756246431 -0.39894882893499961 0 -0.26042294901863672 -0.40013266740365983 0 -0.28412874470879912 -0.41485830032050902 0 -0.27887794756246431 -0.39894882893499961 0 -0.26042294901863672 -0.40013266740365983 0 -0.26988792475303891 -0.39094747620029929 0 -0.26042294901863672 -0.40013266740365983 0 -0.25938421221386299 -0.38242260424217978 0 -0.26042294901863672 -0.40013266740365983 0 -0.25613810139819221 -0.41434132836670989 0 -0.2431093376423632 -0.40266188506415568 0 -0.26042294901863672 -0.40013266740365983 0 -0.25938421221386299 -0.38242260424217978 0 -0.23671715332847421 -0.38540703448681102 0 -0.28525385456372598 -0.42984543912842699 0 -0.26866387832805422 -0.43084198424433162 0 -0.28118965525791628 -0.44734264012195318 0 -0.28525385456372598 -0.42984543912842699 0 -0.26866387832805422 -0.43084198424433162 0 -0.27009367185483962 -0.41675208124042978 0 -0.28412874470879912 -0.41485830032050902 0 -0.28525385456372598 -0.42984543912842699 0 -0.27009367185483962 -0.41675208124042978 0 -0.28412874470879912 -0.41485830032050902 0 -0.26042294901863672 -0.40013266740365983 0 -0.28412874470879912 -0.41485830032050902 0 -0.26042294901863672 -0.40013266740365983 0 -0.27009367185483962 -0.41675208124042978 0 -0.26866387832805422 -0.43084198424433162 0 -0.27009367185483962 -0.41675208124042978 0 -0.25613810139819221 -0.41434132836670989 0 -0.25613810139819221 -0.41434132836670989 0 -0.25359928648481211 -0.43037401697981981 0 -0.24230037244337599 -0.4175018590364884 0 -0.26042294901863672 -0.40013266740365983 0 -0.27009367185483962 -0.41675208124042978 0 -0.25613810139819221 -0.41434132836670989 0 -0.26866387832805422 -0.43084198424433162 0 -0.25613810139819221 -0.41434132836670989 0 -0.26866387832805422 -0.43084198424433162 0 -0.25613810139819221 -0.41434132836670989 0 -0.25359928648481211 -0.43037401697981981 0 -0.26866387832805422 -0.43084198424433162 0 -0.25359928648481211 -0.43037401697981981 0 -0.2656706707878026 -0.4425776952979022 0 -0.25359928648481211 -0.43037401697981981 0 -0.25354060653463212 -0.44613406553729051 0 -0.2656706707878026 -0.4425776952979022 0 -0.25359928648481211 -0.43037401697981981 0 -0.25354060653463212 -0.44613406553729051 0 -0.2438451496940687 -0.43907002470141299 0 -0.25354060653463212 -0.44613406553729051 0 -0.26694214283005818 -0.45462217802476412 0 -0.2656706707878026 -0.4425776952979022 0 -0.25354060653463212 -0.44613406553729051 0 -0.25269463040220203 -0.46190171592757828 0 -0.26694214283005818 -0.45462217802476412 0 -0.25269463040220203 -0.46190171592757828 0 -0.26694214283005818 -0.45462217802476412 0 -0.27127733714919139 -0.47586075624730118 0 -0.25269463040220203 -0.46190171592757828 0 -0.26694214283005818 -0.45462217802476412 0 -0.26694214283005818 -0.45462217802476412 0 -0.28051910777735523 -0.46464962051151848 0 -0.27127733714919139 -0.47586075624730118 0 -0.26694214283005818 -0.45462217802476412 0 -0.28051910777735523 -0.46464962051151848 0 -0.28118965525791628 -0.44734264012195318 0 -0.26866387832805422 -0.43084198424433162 0 -0.2656706707878026 -0.4425776952979022 0 -0.28118965525791628 -0.44734264012195318 0 -0.26866387832805422 -0.43084198424433162 0 -0.28118965525791628 -0.44734264012195318 0 -0.26694214283005818 -0.45462217802476412 0 -0.2656706707878026 -0.4425776952979022 0 -0.28118965525791628 -0.44734264012195318 0 -0.26694214283005818 -0.45462217802476412 0 -0.28118965525791628 -0.44734264012195318 0 -0.28525385456372598 -0.42984543912842699 0 -0.28118965525791628 -0.44734264012195318 0 -0.29634270858520939 -0.43960043062412468 0 -0.28118965525791628 -0.44734264012195318 0 -0.29634270858520939 -0.43960043062412468 0 -0.28118965525791628 -0.44734264012195318 0 -0.29634270858520939 -0.43960043062412468 0 -0.29945124434374348 -0.45131555945098001 0 -0.28118965525791628 -0.44734264012195318 0 -0.2977138012199616 -0.4691104911477269 0 -0.28118965525791628 -0.44734264012195318 0 -0.29945124434374348 -0.45131555945098001 0 -0.2977138012199616 -0.4691104911477269 0 -0.28051910777735523 -0.46464962051151848 0 -0.28118965525791628 -0.44734264012195318 0 -0.2977138012199616 -0.4691104911477269 0 -0.31256905993156642 -0.45599936109409522 0 -0.29945124434374348 -0.45131555945098001 0 -0.2977138012199616 -0.4691104911477269 0 -0.31256905993156642 -0.45599936109409522 0 -0.31594212020290968 -0.47254352647497072 0 -0.2977138012199616 -0.4691104911477269 0 -0.31256905993156642 -0.45599936109409522 0 -0.3094409967240645 -0.4445248742670016 0 -0.29945124434374348 -0.45131555945098001 0 -0.3114957619125025 -0.43185822112629579 0 -0.29634270858520939 -0.43960043062412468 0 -0.3094409967240645 -0.4445248742670016 0 -0.29634270858520939 -0.43960043062412468 0 -0.3094409967240645 -0.4445248742670016 0 -0.29945124434374348 -0.45131555945098001 0 -0.3142379471820072 -0.49087834217350051 0 -0.29783156266692112 -0.48522413338081982 0 -0.30187341860680589 -0.5 0 -0.3142379471820072 -0.49087834217350051 0 -0.29783156266692112 -0.48522413338081982 0 -0.2977138012199616 -0.4691104911477269 0 -0.31594212020290968 -0.47254352647497072 0 -0.3142379471820072 -0.49087834217350051 0 -0.2977138012199616 -0.4691104911477269 0 -0.3142379471820072 -0.49087834217350051 0 -0.2977138012199616 -0.4691104911477269 0 -0.28051910777735523 -0.46464962051151848 0 -0.2977138012199616 -0.4691104911477269 0 -0.28547260242964922 -0.47631203701584812 0 -0.29783156266692112 -0.48522413338081982 0 -0.2977138012199616 -0.4691104911477269 0 -0.28547260242964922 -0.47631203701584812 0 -0.28547260242964922 -0.47631203701584812 0 -0.28986004389618147 -0.48981979656702318 0 -0.27127733714919139 -0.47586075624730118 0 -0.29783156266692112 -0.48522413338081982 0 -0.28547260242964922 -0.47631203701584812 0 -0.28986004389618147 -0.48981979656702318 0 -0.30187341860680589 -0.5 0 -0.28986004389618147 -0.48981979656702318 0 -0.2736660127521543 -0.5 0 -0.29783156266692112 -0.48522413338081982 0 -0.30187341860680589 -0.5 0 -0.28986004389618147 -0.48981979656702318 0 -0.28986004389618147 -0.48981979656702318 0 -0.2736660127521543 -0.5 0 -0.27127733714919139 -0.47586075624730118 0 -0.2736660127521543 -0.5 0 -0.27127733714919139 -0.47586075624730118 0 -0.25894985238314572 -0.48237709588318323 0 -0.28986004389618147 -0.48981979656702318 0 -0.27127733714919139 -0.47586075624730118 0 -0.28051910777735523 -0.46464962051151848 0 -0.28547260242964922 -0.47631203701584812 0 -0.27127733714919139 -0.47586075624730118 0 -0.25269463040220203 -0.46190171592757828 0 -0.25894985238314572 -0.48237709588318323 0 -0.2452663440960669 -0.48013845744446582 0 -0.25269463040220203 -0.46190171592757828 0 -0.27127733714919139 -0.47586075624730118 0 -0.25269463040220203 -0.46190171592757828 0 -0.27127733714919139 -0.47586075624730118 0 -0.25894985238314572 -0.48237709588318323 0 -0.2736660127521543 -0.5 0 -0.25894985238314572 -0.48237709588318323 0 -0.2518449375161152 -0.49398454979657291 0 -0.2736660127521543 -0.5 0 -0.2518449375161152 -0.49398454979657291 0 -0.24545860689750271 -0.5 0 -0.25894985238314572 -0.48237709588318323 0 -0.2518449375161152 -0.49398454979657291 0 -0.2452663440960669 -0.48013845744446582 0 -0.2518449375161152 -0.49398454979657291 0 -0.2307928657777267 -0.48891641965364391 0 -0.2518449375161152 -0.49398454979657291 0 -0.2452663440960669 -0.48013845744446582 0 -0.2307928657777267 -0.48891641965364391 0 -0.2518449375161152 -0.49398454979657291 0 -0.24545860689750271 -0.5 0 -0.2307928657777267 -0.48891641965364391 0 -0.2452663440960669 -0.48013845744446582 0 -0.23121771222076951 -0.4728750027191454 0 -0.2307928657777267 -0.48891641965364391 0 -0.25269463040220203 -0.46190171592757828 0 -0.2452663440960669 -0.48013845744446582 0 -0.23121771222076951 -0.4728750027191454 0 -0.23121771222076951 -0.4728750027191454 0 -0.2307928657777267 -0.48891641965364391 0 -0.20974079403933829 -0.48384828951071468 0 -0.23121771222076951 -0.4728750027191454 0 -0.2159840481136181 -0.46956363033528908 0 -0.20974079403933829 -0.48384828951071468 0 -0.23121771222076951 -0.4728750027191454 0 -0.20974079403933829 -0.48384828951071468 0 -0.24545860689750271 -0.5 0 -0.2307928657777267 -0.48891641965364391 0 -0.21725120104285109 -0.5 0 -0.2307928657777267 -0.48891641965364391 0 -0.20974079403933829 -0.48384828951071468 0 -0.2307928657777267 -0.48891641965364391 0 -0.21725120104285109 -0.5 0 -0.20974079403933829 -0.48384828951071468 0 -0.25354060653463212 -0.44613406553729051 0 -0.25269463040220203 -0.46190171592757828 0 -0.23721599773282709 -0.450274407782012 0 -0.25354060653463212 -0.44613406553729051 0 -0.2438451496940687 -0.43907002470141299 0 -0.23721599773282709 -0.450274407782012 0 -0.2438451496940687 -0.43907002470141299 0 -0.23721599773282709 -0.450274407782012 0 -0.2347235744381061 -0.43699032632131868 0 -0.25269463040220203 -0.46190171592757828 0 -0.23721599773282709 -0.450274407782012 0 -0.23097902662785419 -0.46071537305467791 0 -0.25269463040220203 -0.46190171592757828 0 -0.23121771222076951 -0.4728750027191454 0 -0.23097902662785419 -0.46071537305467791 0 -0.25269463040220203 -0.46190171592757828 0 -0.23121771222076951 -0.4728750027191454 0 -0.25269463040220203 -0.46190171592757828 0 -0.23721599773282709 -0.450274407782012 0 -0.23097902662785419 -0.46071537305467791 0 -0.22320557245757189 -0.45136192584780271 0 -0.2159840481136181 -0.46956363033528908 0 -0.23121771222076951 -0.4728750027191454 0 -0.23097902662785419 -0.46071537305467791 0 -0.2159840481136181 -0.46956363033528908 0 -0.23721599773282709 -0.450274407782012 0 -0.23097902662785419 -0.46071537305467791 0 -0.22320557245757189 -0.45136192584780271 0 -0.22320557245757189 -0.45136192584780271 0 -0.22173736506345271 -0.43864709963644488 0 -0.21698213822720461 -0.43284430329106749 0 -0.22320557245757189 -0.45136192584780271 0 -0.21698213822720461 -0.43284430329106749 0 -0.23721599773282709 -0.450274407782012 0 -0.22320557245757189 -0.45136192584780271 0 -0.22173736506345271 -0.43864709963644488 0 -0.23721599773282709 -0.450274407782012 0 -0.22173736506345271 -0.43864709963644488 0 -0.23721599773282709 -0.450274407782012 0 -0.22173736506345271 -0.43864709963644488 0 -0.2347235744381061 -0.43699032632131868 0 -0.22320557245757189 -0.45136192584780271 0 -0.20700894554624619 -0.45681697418164519 0 -0.21698213822720461 -0.43284430329106749 0 -0.20700894554624619 -0.45681697418164519 0 -0.19303707249135671 -0.43059430015364047 0 -0.21698213822720461 -0.43284430329106749 0 -0.20700894554624619 -0.45681697418164519 0 -0.21698213822720461 -0.43284430329106749 0 -0.22320557245757189 -0.45136192584780271 0 -0.20700894554624619 -0.45681697418164519 0 -0.2159840481136181 -0.46956363033528908 0 -0.20700894554624619 -0.45681697418164519 0 -0.19703575286528649 -0.48078964507222238 0 -0.18502875603026461 -0.46494473610867582 0 -0.20700894554624619 -0.45681697418164519 0 -0.18502875603026461 -0.46494473610867582 0 -0.18271469687031749 -0.44845454828740711 0 -0.20700894554624619 -0.45681697418164519 0 -0.18271469687031749 -0.44845454828740711 0 -0.19303707249135671 -0.43059430015364047 0 -0.21725120104285109 -0.5 0 -0.20974079403933829 -0.48384828951071468 0 -0.19199021277984149 -0.49291766423347888 0 -0.20700894554624619 -0.45681697418164519 0 -0.2159840481136181 -0.46956363033528908 0 -0.19703575286528649 -0.48078964507222238 0 -0.2159840481136181 -0.46956363033528908 0 -0.20974079403933829 -0.48384828951071468 0 -0.19703575286528649 -0.48078964507222238 0 -0.20974079403933829 -0.48384828951071468 0 -0.19703575286528649 -0.48078964507222238 0 -0.20700894554624619 -0.45681697418164519 0 -0.19703575286528649 -0.48078964507222238 0 -0.21725120104285109 -0.5 0 -0.19199021277984149 -0.49291766423347888 0 -0.18904379518819939 -0.49999999999999578 0 -0.20974079403933829 -0.48384828951071468 0 -0.19703575286528649 -0.48078964507222238 0 -0.19199021277984149 -0.49291766423347888 0 -0.20974079403933829 -0.48384828951071468 0 -0.19199021277984149 -0.49291766423347888 0 -0.19703575286528649 -0.48078964507222238 0 -0.19199021277984149 -0.49291766423347888 0 -0.1806501400470899 -0.48733198327772198 0 -0.19703575286528649 -0.48078964507222238 0 -0.19199021277984149 -0.49291766423347888 0 -0.19199021277984149 -0.49291766423347888 0 -0.18904379518819939 -0.49999999999999578 0 -0.19199021277984149 -0.49291766423347888 0 -0.17812866439603481 -0.49999999999999267 0 -0.19199021277984149 -0.49291766423347888 0 -0.18904379518819939 -0.49999999999999578 0 -0.17812866439603481 -0.49999999999999267 0 -0.19199021277984149 -0.49291766423347888 0 -0.1806501400470899 -0.48733198327772198 0 -0.17812866439603481 -0.49999999999999267 0 -0.1806501400470899 -0.48733198327772198 0 -0.17812866439603481 -0.49999999999999267 0 -0.16526627315450881 -0.48681942287300078 0 -0.17812866439603481 -0.49999999999999267 0 -0.16526627315450881 -0.48681942287300078 0 -0.15384562597277671 -0.5 0 -0.16526627315450881 -0.48681942287300078 0 -0.15867829181438209 -0.47351517086903511 0 -0.14808882950896779 -0.48760950596642599 0 -0.16526627315450881 -0.48681942287300078 0 -0.15867829181438209 -0.47351517086903511 0 -0.17205258504960549 -0.47477513270279981 0 -0.15867829181438209 -0.47351517086903511 0 -0.17205258504960549 -0.47477513270279981 0 -0.1689107827671488 -0.46150338438528649 0 -0.19703575286528649 -0.48078964507222238 0 -0.17205258504960549 -0.47477513270279981 0 -0.19703575286528649 -0.48078964507222238 0 -0.17205258504960549 -0.47477513270279981 0 -0.18502875603026461 -0.46494473610867582 0 -0.19703575286528649 -0.48078964507222238 0 -0.1806501400470899 -0.48733198327772198 0 -0.17205258504960549 -0.47477513270279981 0 -0.1806501400470899 -0.48733198327772198 0 -0.16526627315450881 -0.48681942287300078 0 -0.17205258504960549 -0.47477513270279981 0 -0.17205258504960549 -0.47477513270279981 0 -0.18502875603026461 -0.46494473610867582 0 -0.1689107827671488 -0.46150338438528649 0 -0.18502875603026461 -0.46494473610867582 0 -0.18271469687031749 -0.44845454828740711 0 -0.1689107827671488 -0.46150338438528649 0 -0.18271469687031749 -0.44845454828740711 0 -0.16138963394859521 -0.44868252298987232 0 -0.1689107827671488 -0.46150338438528649 0 -0.18271469687031749 -0.44845454828740711 0 -0.16138963394859521 -0.44868252298987232 0 -0.16224644553901921 -0.42839564420087312 0 -0.16138963394859521 -0.44868252298987232 0 -0.1689107827671488 -0.46150338438528649 0 -0.15360073288972831 -0.45864819535392959 0 -0.15867829181438209 -0.47351517086903511 0 -0.1689107827671488 -0.46150338438528649 0 -0.15360073288972831 -0.45864819535392959 0 -0.15867829181438209 -0.47351517086903511 0 -0.14088984691242101 -0.46372891927135518 0 -0.15360073288972831 -0.45864819535392959 0 -0.14088984691242101 -0.46372891927135518 0 -0.15360073288972831 -0.45864819535392959 0 -0.14071409195337639 -0.4434269833400809 0 -0.16138963394859521 -0.44868252298987232 0 -0.15360073288972831 -0.45864819535392959 0 -0.14071409195337639 -0.4434269833400809 0 -0.16138963394859521 -0.44868252298987232 0 -0.14071409195337639 -0.4434269833400809 0 -0.16224644553901921 -0.42839564420087312 0 -0.14071409195337639 -0.4434269833400809 0 -0.11918173836773351 -0.45845832247928869 0 -0.14071409195337639 -0.4434269833400809 0 -0.11918173836773351 -0.45845832247928869 0 -0.1184149235461696 -0.43970471758753887 0 -0.14088984691242101 -0.46372891927135518 0 -0.14071409195337639 -0.4434269833400809 0 -0.11918173836773351 -0.45845832247928869 0 -0.14088984691242101 -0.46372891927135518 0 -0.1272556728232932 -0.47013049556587211 0 -0.11918173836773351 -0.45845832247928869 0 -0.13278436477725561 -0.4823434472460234 0 -0.1272556728232932 -0.47013049556587211 0 -0.1161667412357628 -0.47599129326682099 0 -0.14088984691242101 -0.46372891927135518 0 -0.13278436477725561 -0.4823434472460234 0 -0.1272556728232932 -0.47013049556587211 0 -0.13278436477725561 -0.4823434472460234 0 -0.12956258754951869 -0.5 0 -0.14808882950896779 -0.48760950596642599 0 -0.12956258754951869 -0.5 0 -0.15384562597277671 -0.5 0 -0.14808882950896779 -0.48760950596642599 0 -0.16526627315450881 -0.48681942287300078 0 -0.15384562597277671 -0.5 0 -0.14808882950896779 -0.48760950596642599 0 -0.15867829181438209 -0.47351517086903511 0 -0.14088984691242101 -0.46372891927135518 0 -0.13278436477725561 -0.4823434472460234 0 -0.15867829181438209 -0.47351517086903511 0 -0.13278436477725561 -0.4823434472460234 0 -0.14808882950896779 -0.48760950596642599 0 -0.15867829181438209 -0.47351517086903511 0 -0.13278436477725561 -0.4823434472460234 0 -0.15300746566076209 -0.38310001254620968 0 -0.12942966304821441 -0.38325015625522552 0 -0.14208280055258729 -0.40634727148710198 0 -0.15300746566076209 -0.38310001254620968 0 -0.14208280055258729 -0.40634727148710198 0 -0.1624749046322673 -0.40200193298372783 0 -0.15300746566076209 -0.38310001254620968 0 -0.12942966304821441 -0.38325015625522552 0 -0.15300746566076209 -0.38310001254620968 0 -0.12942966304821441 -0.38325015625522552 0 -0.13644034466196819 -0.36544341997203661 0 -0.12942966304821441 -0.38325015625522552 0 -0.14208280055258729 -0.40634727148710198 0 -0.1246151037146196 -0.40215144471962733 0 -0.13370262722300191 -0.42485153358840111 0 -0.14208280055258729 -0.40634727148710198 0 -0.1246151037146196 -0.40215144471962733 0 -0.14071409195337639 -0.4434269833400809 0 -0.13370262722300191 -0.42485153358840111 0 -0.1184149235461696 -0.43970471758753887 0 -0.14071409195337639 -0.4434269833400809 0 -0.13370262722300191 -0.42485153358840111 0 -0.16224644553901921 -0.42839564420087312 0 -0.14071409195337639 -0.4434269833400809 0 -0.16224644553901921 -0.42839564420087312 0 -0.14208280055258729 -0.40634727148710198 0 -0.16224644553901921 -0.42839564420087312 0 -0.1624749046322673 -0.40200193298372783 0 -0.13370262722300191 -0.42485153358840111 0 -0.14208280055258729 -0.40634727148710198 0 -0.16224644553901921 -0.42839564420087312 0 -0.16224644553901921 -0.42839564420087312 0 -0.180697604208819 -0.40923231675122879 0 -0.1624749046322673 -0.40200193298372783 0 -0.18271469687031749 -0.44845454828740711 0 -0.16224644553901921 -0.42839564420087312 0 -0.19303707249135671 -0.43059430015364047 0 -0.16224644553901921 -0.42839564420087312 0 -0.180697604208819 -0.40923231675122879 0 -0.19303707249135671 -0.43059430015364047 0 -0.180697604208819 -0.40923231675122879 0 -0.1624749046322673 -0.40200193298372783 0 -0.17658526827330981 -0.3829498688371939 0 -0.180697604208819 -0.40923231675122879 0 -0.17658526827330981 -0.3829498688371939 0 -0.19000778267581911 -0.39514046875386671 0 -0.15300746566076209 -0.38310001254620968 0 -0.1624749046322673 -0.40200193298372783 0 -0.17658526827330981 -0.3829498688371939 0 -0.15300746566076209 -0.38310001254620968 0 -0.17658526827330981 -0.3829498688371939 0 -0.17658526827330981 -0.3829498688371939 0 -0.20016307088585741 -0.38279972512817662 0 -0.19000778267581911 -0.39514046875386671 0 -0.17658526827330981 -0.3829498688371939 0 -0.20016307088585741 -0.38279972512817662 0 -0.20016307088585741 -0.38279972512817662 0 -0.19000778267581911 -0.39514046875386671 0 -0.2085726045565329 -0.4078220142096215 0 -0.180697604208819 -0.40923231675122879 0 -0.19000778267581911 -0.39514046875386671 0 -0.2085726045565329 -0.4078220142096215 0 -0.20016307088585741 -0.38279972512817662 0 -0.2085726045565329 -0.4078220142096215 0 -0.20016307088585741 -0.38279972512817662 0 -0.2161772785324636 -0.38269774647594651 0 -0.2085726045565329 -0.4078220142096215 0 -0.2161772785324636 -0.38269774647594651 0 -0.2085726045565329 -0.4078220142096215 0 -0.22410163367487609 -0.3935296463770066 0 -0.20016307088585741 -0.38279972512817662 0 -0.2161772785324636 -0.38269774647594651 0 -0.20016307088585741 -0.38279972512817662 0 -0.2161772785324636 -0.38269774647594651 0 -0.2146411550785581 -0.37365584976636601 0 -0.2161772785324636 -0.38269774647594651 0 -0.22424182443051541 -0.37765757455433779 0 -0.2146411550785581 -0.37365584976636601 0 -0.180697604208819 -0.40923231675122879 0 -0.19303707249135671 -0.43059430015364047 0 -0.2085726045565329 -0.4078220142096215 0 -0.2085726045565329 -0.4078220142096215 0 -0.21698213822720461 -0.43284430329106749 0 -0.2268496457778397 -0.40912566888893942 0 -0.2085726045565329 -0.4078220142096215 0 -0.21698213822720461 -0.43284430329106749 0 -0.19303707249135671 -0.43059430015364047 0 -0.2085726045565329 -0.4078220142096215 0 -0.21698213822720461 -0.43284430329106749 0 -0.21698213822720461 -0.43284430329106749 0 -0.22992583861702739 -0.42769779631454868 0 -0.2268496457778397 -0.40912566888893942 0 -0.22173736506345271 -0.43864709963644488 0 -0.22992583861702739 -0.42769779631454868 0 -0.2347235744381061 -0.43699032632131868 0 -0.22173736506345271 -0.43864709963644488 0 -0.21698213822720461 -0.43284430329106749 0 -0.22992583861702739 -0.42769779631454868 0 -0.22992583861702739 -0.42769779631454868 0 -0.2268496457778397 -0.40912566888893942 0 -0.24230037244337599 -0.4175018590364884 0 -0.21698213822720461 -0.43284430329106749 0 -0.2268496457778397 -0.40912566888893942 0 -0.2268496457778397 -0.40912566888893942 0 -0.24230037244337599 -0.4175018590364884 0 -0.2431093376423632 -0.40266188506415568 0 -0.25613810139819221 -0.41434132836670989 0 -0.24230037244337599 -0.4175018590364884 0 -0.2431093376423632 -0.40266188506415568 0 -0.22992583861702739 -0.42769779631454868 0 -0.24230037244337599 -0.4175018590364884 0 -0.24089352108315501 -0.42926230317217479 0 -0.25359928648481211 -0.43037401697981981 0 -0.24230037244337599 -0.4175018590364884 0 -0.24089352108315501 -0.42926230317217479 0 -0.25359928648481211 -0.43037401697981981 0 -0.2438451496940687 -0.43907002470141299 0 -0.24089352108315501 -0.42926230317217479 0 -0.22992583861702739 -0.42769779631454868 0 -0.24089352108315501 -0.42926230317217479 0 -0.2347235744381061 -0.43699032632131868 0 -0.2438451496940687 -0.43907002470141299 0 -0.24089352108315501 -0.42926230317217479 0 -0.2347235744381061 -0.43699032632131868 0 -0.2161772785324636 -0.38269774647594651 0 -0.23219148617906979 -0.38259576782371391 0 -0.22424182443051541 -0.37765757455433779 0 -0.2161772785324636 -0.38269774647594651 0 -0.23219148617906979 -0.38259576782371391 0 -0.22410163367487609 -0.3935296463770066 0 -0.2161772785324636 -0.38269774647594651 0 -0.23219148617906979 -0.38259576782371391 0 -0.23219148617906979 -0.38259576782371391 0 -0.22410163367487609 -0.3935296463770066 0 -0.23671715332847421 -0.38540703448681102 0 -0.23219148617906979 -0.38259576782371391 0 -0.22424182443051541 -0.37765757455433779 0 -0.23334431644894679 -0.37067442711117121 0 -0.23219148617906979 -0.38259576782371391 0 -0.22424182443051541 -0.37765757455433779 0 -0.2268496457778397 -0.40912566888893942 0 -0.23671715332847421 -0.38540703448681102 0 -0.2268496457778397 -0.40912566888893942 0 -0.22410163367487609 -0.3935296463770066 0 -0.23671715332847421 -0.38540703448681102 0 -0.2085726045565329 -0.4078220142096215 0 -0.2268496457778397 -0.40912566888893942 0 -0.22410163367487609 -0.3935296463770066 0 -0.2268496457778397 -0.40912566888893942 0 -0.2431093376423632 -0.40266188506415568 0 -0.23671715332847421 -0.38540703448681102 0 -0.26042294901863672 -0.40013266740365983 0 -0.2431093376423632 -0.40266188506415568 0 -0.23671715332847421 -0.38540703448681102 0 -0.26042294901863672 -0.40013266740365983 0 -0.23671715332847421 -0.38540703448681102 0 -0.25938421221386299 -0.38242260424217978 0 -0.23671715332847421 -0.38540703448681102 0 -0.23790183421053479 -0.38255940426400398 0 -0.25938421221386299 -0.38242260424217978 0 -0.23790183421053479 -0.38255940426400398 0 -0.25938421221386299 -0.38242260424217978 0 -0.23790183421053479 -0.38255940426400398 0 -0.2452998416640946 -0.36477673389921211 0 -0.23219148617906979 -0.38259576782371391 0 -0.23671715332847421 -0.38540703448681102 0 -0.23790183421053479 -0.38255940426400398 0 -0.23219148617906979 -0.38259576782371391 0 -0.23671715332847421 -0.38540703448681102 0 -0.23671715332847421 -0.38540703448681102 0 -0.23790183421053479 -0.38255940426400398 0 -0.23219148617906979 -0.38259576782371391 0 -0.23790183421053479 -0.38255940426400398 0 -0.23334431644894679 -0.37067442711117121 0 -0.23219148617906979 -0.38259576782371391 0 -0.23790183421053479 -0.38255940426400398 0 -0.2452998416640946 -0.36477673389921211 0 -0.23334431644894679 -0.37067442711117121 0 -0.236612272716479 -0.35196393625907768 0 -0.23790183421053479 -0.38255940426400398 0 -0.2452998416640946 -0.36477673389921211 0 -0.23790183421053479 -0.38255940426400398 0 -0.2452998416640946 -0.36477673389921211 0 -0.23334431644894679 -0.37067442711117121 0 -0.22424182443051541 -0.37765757455433779 0 -0.23334431644894679 -0.37067442711117121 0 -0.2233560944082246 -0.363712965125564 0 -0.23334431644894679 -0.37067442711117121 0 -0.2233560944082246 -0.363712965125564 0 -0.236612272716479 -0.35196393625907768 0 -0.22424182443051541 -0.37765757455433779 0 -0.2233560944082246 -0.363712965125564 0 -0.2146411550785581 -0.37365584976636601 0 -0.2233560944082246 -0.363712965125564 0 -0.22090871978274521 -0.34750939462453567 0 -0.236612272716479 -0.35196393625907768 0 -0.25269784911765092 -0.34699406353441858 0 -0.2452998416640946 -0.36477673389921211 0 -0.25269784911765092 -0.34699406353441858 0 -0.2452998416640946 -0.36477673389921211 0 -0.236612272716479 -0.35196393625907768 0 -0.25269784911765092 -0.34699406353441858 0 -0.2601150759189611 -0.3291651954159735 0 -0.2357068878863986 -0.32570661601735368 0 -0.25269784911765092 -0.34699406353441858 0 -0.236612272716479 -0.35196393625907768 0 -0.2357068878863986 -0.32570661601735368 0 -0.25269784911765092 -0.34699406353441858 0 -0.2357068878863986 -0.32570661601735368 0 -0.2601150759189611 -0.3291651954159735 0 -0.2357068878863986 -0.32570661601735368 0 -0.2494260049788683 -0.31746489113439402 0 -0.2357068878863986 -0.32570661601735368 0 -0.2494260049788683 -0.31746489113439402 0 -0.24072416822125611 -0.30184362229434508 0 -0.2357068878863986 -0.32570661601735368 0 -0.2119173650848751 -0.32804843985645959 0 -0.21871592665514519 -0.30441916850028972 0 -0.2357068878863986 -0.32570661601735368 0 -0.21871592665514519 -0.30441916850028972 0 -0.22090871978274521 -0.34750939462453567 0 -0.236612272716479 -0.35196393625907768 0 -0.2357068878863986 -0.32570661601735368 0 -0.22090871978274521 -0.34750939462453567 0 -0.2357068878863986 -0.32570661601735368 0 -0.2119173650848751 -0.32804843985645959 0 -0.22090871978274521 -0.34750939462453567 0 -0.2119173650848751 -0.32804843985645959 0 -0.20038300345158319 -0.34252625431289602 0 -0.2119173650848751 -0.32804843985645959 0 -0.19064882261902269 -0.32209845877770238 0 -0.21871592665514519 -0.30441916850028972 0 -0.2119173650848751 -0.32804843985645959 0 -0.19064882261902269 -0.32209845877770238 0 -0.20038300345158319 -0.34252625431289602 0 -0.19064882261902269 -0.32209845877770238 0 -0.20038300345158319 -0.34252625431289602 0 -0.1786038551756757 -0.34069824763179102 0 -0.20038300345158319 -0.34252625431289602 0 -0.19095175091145111 -0.35539174743908392 0 -0.20926750713572939 -0.36141123754780358 0 -0.20038300345158319 -0.34252625431289602 0 -0.19095175091145111 -0.35539174743908392 0 -0.1786038551756757 -0.34069824763179102 0 -0.20016307088585741 -0.38279972512817662 0 -0.19095175091145111 -0.35539174743908392 0 -0.20926750713572939 -0.36141123754780358 0 -0.17658526827330981 -0.3829498688371939 0 -0.20016307088585741 -0.38279972512817662 0 -0.19095175091145111 -0.35539174743908392 0 -0.20016307088585741 -0.38279972512817662 0 -0.19095175091145111 -0.35539174743908392 0 -0.20016307088585741 -0.38279972512817662 0 -0.20926750713572939 -0.36141123754780358 0 -0.2146411550785581 -0.37365584976636601 0 -0.2233560944082246 -0.363712965125564 0 -0.20926750713572939 -0.36141123754780358 0 -0.2146411550785581 -0.37365584976636601 0 -0.2233560944082246 -0.363712965125564 0 -0.22090871978274521 -0.34750939462453567 0 -0.20926750713572939 -0.36141123754780358 0 -0.22090871978274521 -0.34750939462453567 0 -0.20038300345158319 -0.34252625431289602 0 -0.20926750713572939 -0.36141123754780358 0 -0.23269942211958819 -0.26632599736311829 0 -0.2113475615474098 -0.26183595308539898 0 -0.22937054978906041 -0.24331512362502869 0 -0.2483490975252734 -0.26098873334868322 0 -0.23269942211958819 -0.26632599736311829 0 -0.22937054978906041 -0.24331512362502869 0 -0.2483490975252734 -0.26098873334868322 0 -0.24718685023563691 -0.27875123027958087 0 -0.23269942211958819 -0.26632599736311829 0 -0.24718685023563691 -0.27875123027958087 0 -0.23269942211958819 -0.26632599736311829 0 -0.22621925119092889 -0.28512311723799683 0 -0.23269942211958819 -0.26632599736311829 0 -0.22621925119092889 -0.28512311723799683 0 -0.2113475615474098 -0.26183595308539898 0 -0.24718685023563691 -0.27875123027958087 0 -0.22621925119092889 -0.28512311723799683 0 -0.24072416822125611 -0.30184362229434508 0 -0.25754389589834492 -0.29267207960278718 0 -0.24718685023563691 -0.27875123027958087 0 -0.24072416822125611 -0.30184362229434508 0 -0.25469452373499762 -0.30722313484128749 0 -0.2494260049788683 -0.31746489113439402 0 -0.24072416822125611 -0.30184362229434508 0 -0.22621925119092889 -0.28512311723799683 0 -0.24072416822125611 -0.30184362229434508 0 -0.21871592665514519 -0.30441916850028972 0 -0.2357068878863986 -0.32570661601735368 0 -0.24072416822125611 -0.30184362229434508 0 -0.21871592665514519 -0.30441916850028972 0 -0.21871592665514519 -0.30441916850028972 0 -0.20172496542389179 -0.28313172098322592 0 -0.18547182867621881 -0.29890397395307688 0 -0.19064882261902269 -0.32209845877770238 0 -0.21871592665514519 -0.30441916850028972 0 -0.18547182867621881 -0.29890397395307688 0 -0.20172496542389179 -0.28313172098322592 0 -0.17865973542483601 -0.28159672660659713 0 -0.18547182867621881 -0.29890397395307688 0 -0.22621925119092889 -0.28512311723799683 0 -0.21871592665514519 -0.30441916850028972 0 -0.20172496542389179 -0.28313172098322592 0 -0.21871592665514519 -0.30441916850028972 0 -0.20172496542389179 -0.28313172098322592 0 -0.22621925119092889 -0.28512311723799683 0 -0.20172496542389179 -0.28313172098322592 0 -0.2113475615474098 -0.26183595308539898 0 -0.20172496542389179 -0.28313172098322592 0 -0.2113475615474098 -0.26183595308539898 0 -0.18473400419263841 -0.26184427346616201 0 -0.20172496542389179 -0.28313172098322592 0 -0.18473400419263841 -0.26184427346616201 0 -0.20172496542389179 -0.28313172098322592 0 -0.18473400419263841 -0.26184427346616201 0 -0.17865973542483601 -0.28159672660659713 0 -0.2113475615474098 -0.26183595308539898 0 -0.18473400419263841 -0.26184427346616201 0 -0.1994177047143332 -0.2432145052078287 0 -0.18473400419263841 -0.26184427346616201 0 -0.15229660666407671 -0.25401824511238591 0 -0.16774304296138501 -0.24055682594909811 0 -0.18473400419263841 -0.26184427346616201 0 -0.1593348892574955 -0.27433293932196051 0 -0.15229660666407671 -0.25401824511238591 0 -0.18473400419263841 -0.26184427346616201 0 -0.16774304296138501 -0.24055682594909811 0 -0.18473400419263841 -0.26184427346616201 0 -0.1593348892574955 -0.27433293932196051 0 -0.17865973542483601 -0.28159672660659713 0 -0.1593348892574955 -0.27433293932196051 0 -0.17865973542483601 -0.28159672660659713 0 -0.1628273235241636 -0.29929742573166879 0 -0.17865973542483601 -0.28159672660659713 0 -0.18547182867621881 -0.29890397395307688 0 -0.1628273235241636 -0.29929742573166879 0 -0.18547182867621881 -0.29890397395307688 0 -0.1628273235241636 -0.29929742573166879 0 -0.16388410446163609 -0.32460269768425593 0 -0.1628273235241636 -0.29929742573166879 0 -0.13242221189995379 -0.30543756500551722 0 -0.16388410446163609 -0.32460269768425593 0 -0.13242221189995379 -0.30543756500551722 0 -0.14127367617284931 -0.28459822767558379 0 -0.1188334035936548 -0.28113848219864679 0 -0.1628273235241636 -0.29929742573166879 0 -0.13242221189995379 -0.30543756500551722 0 -0.14127367617284931 -0.28459822767558379 0 -0.1593348892574955 -0.27433293932196051 0 -0.1628273235241636 -0.29929742573166879 0 -0.14127367617284931 -0.28459822767558379 0 -0.1593348892574955 -0.27433293932196051 0 -0.14127367617284931 -0.28459822767558379 0 -0.132950552588979 -0.26278472612012599 0 -0.14127367617284931 -0.28459822767558379 0 -0.132950552588979 -0.26278472612012599 0 -0.1188334035936548 -0.28113848219864679 0 -0.132950552588979 -0.26278472612012599 0 -0.1192340303868117 -0.24478318800158869 0 -0.13450504990001219 -0.2438564190910647 0 -0.132950552588979 -0.26278472612012599 0 -0.15229660666407671 -0.25401824511238591 0 -0.13450504990001219 -0.2438564190910647 0 -0.1593348892574955 -0.27433293932196051 0 -0.132950552588979 -0.26278472612012599 0 -0.15229660666407671 -0.25401824511238591 0 -0.15300746566076209 -0.38310001254620968 0 -0.17658526827330981 -0.3829498688371939 0 -0.16187875486605491 -0.35541355732776547 0 -0.17658526827330981 -0.3829498688371939 0 -0.19095175091145111 -0.35539174743908392 0 -0.16187875486605491 -0.35541355732776547 0 -0.19095175091145111 -0.35539174743908392 0 -0.16187875486605491 -0.35541355732776547 0 -0.1786038551756757 -0.34069824763179102 0 -0.19064882261902269 -0.32209845877770238 0 -0.1786038551756757 -0.34069824763179102 0 -0.16388410446163609 -0.32460269768425593 0 -0.19064882261902269 -0.32209845877770238 0 -0.18547182867621881 -0.29890397395307688 0 -0.16388410446163609 -0.32460269768425593 0 -0.16187875486605491 -0.35541355732776547 0 -0.1786038551756757 -0.34069824763179102 0 -0.16388410446163609 -0.32460269768425593 0 -0.13242221189995379 -0.30543756500551722 0 -0.16388410446163609 -0.32460269768425593 0 -0.13821757510299509 -0.3384513750534191 0 -0.13242221189995379 -0.30543756500551722 0 -0.13821757510299509 -0.3384513750534191 0 -0.1101747460075988 -0.32953608121607292 0 -0.16187875486605491 -0.35541355732776547 0 -0.16388410446163609 -0.32460269768425593 0 -0.13821757510299509 -0.3384513750534191 0 -0.13821757510299509 -0.3384513750534191 0 -0.13644034466196819 -0.36544341997203661 0 -0.1196241940514999 -0.3542658853942362 0 -0.16187875486605491 -0.35541355732776547 0 -0.13821757510299509 -0.3384513750534191 0 -0.13644034466196819 -0.36544341997203661 0 -0.15300746566076209 -0.38310001254620968 0 -0.16187875486605491 -0.35541355732776547 0 -0.13644034466196819 -0.36544341997203661 0 -0.12942966304821441 -0.38325015625522552 0 -0.13644034466196819 -0.36544341997203661 0 -0.1177797586078463 -0.37381446098417098 0 -0.13644034466196819 -0.36544341997203661 0 -0.1177797586078463 -0.37381446098417098 0 -0.1196241940514999 -0.3542658853942362 0 -0.1177797586078463 -0.37381446098417098 0 -0.10407214500130089 -0.36661499140206938 0 -0.1196241940514999 -0.3542658853942362 0 -0.1177797586078463 -0.37381446098417098 0 -0.10407214500130089 -0.36661499140206938 0 -0.1034929330021967 -0.38313049756236911 0 -0.10407214500130089 -0.36661499140206938 0 -0.092143069441117886 -0.37288061806212591 0 -0.1034929330021967 -0.38313049756236911 0 -0.10407214500130089 -0.36661499140206938 0 -0.092143069441117886 -0.37288061806212591 0 -0.090292011953311629 -0.3597231114641114 0 -0.10407214500130089 -0.36661499140206938 0 -0.10297576120334009 -0.35054559799579871 0 -0.1196241940514999 -0.3542658853942362 0 -0.10297576120334009 -0.35054559799579871 0 -0.091874738774876785 -0.34065851114568052 0 -0.090292011953311629 -0.3597231114641114 0 -0.10407214500130089 -0.36661499140206938 0 -0.10297576120334009 -0.35054559799579871 0 -0.090292011953311629 -0.3597231114641114 0 -0.10297576120334009 -0.35054559799579871 0 -0.1196241940514999 -0.3542658853942362 0 -0.1101747460075988 -0.32953608121607292 0 -0.13821757510299509 -0.3384513750534191 0 -0.1196241940514999 -0.3542658853942362 0 -0.1101747460075988 -0.32953608121607292 0 -0.1101747460075988 -0.32953608121607292 0 -0.085227450549862166 -0.32028838060126541 0 -0.10233633129899709 -0.29788694174330338 0 -0.1101747460075988 -0.32953608121607292 0 -0.091874738774876785 -0.34065851114568052 0 -0.085227450549862166 -0.32028838060126541 0 -0.10297576120334009 -0.35054559799579871 0 -0.1101747460075988 -0.32953608121607292 0 -0.091874738774876785 -0.34065851114568052 0 -0.091874738774876785 -0.34065851114568052 0 -0.085227450549862166 -0.32028838060126541 0 -0.076063335717399538 -0.33750887212749098 0 -0.085227450549862166 -0.32028838060126541 0 -0.063011241542060503 -0.32804507108198161 0 -0.072947339386401744 -0.29815403057856332 0 -0.063011241542060503 -0.32804507108198161 0 -0.076063335717399538 -0.33750887212749098 0 -0.056103847272524453 -0.34401699257208418 0 -0.085227450549862166 -0.32028838060126541 0 -0.063011241542060503 -0.32804507108198161 0 -0.076063335717399538 -0.33750887212749098 0 -0.076063335717399538 -0.33750887212749098 0 -0.071250752086046532 -0.35335887697158019 0 -0.056103847272524453 -0.34401699257208418 0 -0.071250752086046532 -0.35335887697158019 0 -0.076899216694667677 -0.36865863427987439 0 -0.059008804616476777 -0.3736816009534113 0 -0.071250752086046532 -0.35335887697158019 0 -0.076899216694667677 -0.36865863427987439 0 -0.090292011953311629 -0.3597231114641114 0 -0.076899216694667677 -0.36865863427987439 0 -0.092143069441117886 -0.37288061806212591 0 -0.090292011953311629 -0.3597231114641114 0 -0.091874738774876785 -0.34065851114568052 0 -0.071250752086046532 -0.35335887697158019 0 -0.090292011953311629 -0.3597231114641114 0 -0.091874738774876785 -0.34065851114568052 0 -0.076063335717399538 -0.33750887212749098 0 -0.071250752086046532 -0.35335887697158019 0 -0.10928029933534041 -0.25911330461652088 0 -0.093765691765433312 -0.25258281812082478 0 -0.1064059993424292 -0.23999004584722569 0 -0.10928029933534041 -0.25911330461652088 0 -0.093765691765433312 -0.25258281812082478 0 -0.091378819945462819 -0.27405960529517892 0 -0.132950552588979 -0.26278472612012599 0 -0.10928029933534041 -0.25911330461652088 0 -0.1192340303868117 -0.24478318800158869 0 -0.132950552588979 -0.26278472612012599 0 -0.10928029933534041 -0.25911330461652088 0 -0.1188334035936548 -0.28113848219864679 0 -0.10928029933534041 -0.25911330461652088 0 -0.1188334035936548 -0.28113848219864679 0 -0.091378819945462819 -0.27405960529517892 0 -0.13242221189995379 -0.30543756500551722 0 -0.1101747460075988 -0.32953608121607292 0 -0.10233633129899709 -0.29788694174330338 0 -0.1188334035936548 -0.28113848219864679 0 -0.10233633129899709 -0.29788694174330338 0 -0.091378819945462819 -0.27405960529517892 0 -0.13242221189995379 -0.30543756500551722 0 -0.1188334035936548 -0.28113848219864679 0 -0.10233633129899709 -0.29788694174330338 0 -0.085227450549862166 -0.32028838060126541 0 -0.10233633129899709 -0.29788694174330338 0 -0.072947339386401744 -0.29815403057856332 0 -0.10233633129899709 -0.29788694174330338 0 -0.072947339386401744 -0.29815403057856332 0 -0.072947339386401744 -0.29815403057856332 0 -0.068721828444096633 -0.2698787542887045 0 -0.051386271478722378 -0.27925540101153468 0 -0.10233633129899709 -0.29788694174330338 0 -0.072947339386401744 -0.29815403057856332 0 -0.091378819945462819 -0.27405960529517892 0 -0.091378819945462819 -0.27405960529517892 0 -0.068721828444096633 -0.2698787542887045 0 -0.079465288233698042 -0.25846821731041458 0 -0.072947339386401744 -0.29815403057856332 0 -0.091378819945462819 -0.27405960529517892 0 -0.068721828444096633 -0.2698787542887045 0 -0.068721828444096633 -0.2698787542887045 0 -0.065421878849430556 -0.25167039592025259 0 -0.079465288233698042 -0.25846821731041458 0 -0.093765691765433312 -0.25258281812082478 0 -0.091378819945462819 -0.27405960529517892 0 -0.079465288233698042 -0.25846821731041458 0 -0.093765691765433312 -0.25258281812082478 0 -0.079465288233698042 -0.25846821731041458 0 -0.078278243085297239 -0.23951664672932549 0 -0.036856198389287782 -0.25899730250271491 0 -0.027326811110253871 -0.25121816526868662 0 -0.040785035177160277 -0.24958968680164759 0 -0.036856198389287782 -0.25899730250271491 0 -0.03708476385319625 -0.2699613192856723 0 -0.027769846617742091 -0.26444130564156609 0 -0.036856198389287782 -0.25899730250271491 0 -0.051314535188086402 -0.25977603551600209 0 -0.03708476385319625 -0.2699613192856723 0 -0.036856198389287782 -0.25899730250271491 0 -0.051314535188086402 -0.25977603551600209 0 -0.040785035177160277 -0.24958968680164759 0 -0.051314535188086402 -0.25977603551600209 0 -0.052406799216804557 -0.24459198769464191 0 -0.040785035177160277 -0.24958968680164759 0 -0.068721828444096633 -0.2698787542887045 0 -0.065421878849430556 -0.25167039592025259 0 -0.051314535188086402 -0.25977603551600209 0 -0.065421878849430556 -0.25167039592025259 0 -0.051314535188086402 -0.25977603551600209 0 -0.052406799216804557 -0.24459198769464191 0 -0.068721828444096633 -0.2698787542887045 0 -0.051314535188086402 -0.25977603551600209 0 -0.051386271478722378 -0.27925540101153468 0 -0.051386271478722378 -0.27925540101153468 0 -0.03708476385319625 -0.2699613192856723 0 -0.030508603843899348 -0.2838920637904252 0 -0.051314535188086402 -0.25977603551600209 0 -0.051386271478722378 -0.27925540101153468 0 -0.03708476385319625 -0.2699613192856723 0 -0.051386271478722378 -0.27925540101153468 0 -0.043558347473806387 -0.2984211194138231 0 -0.030508603843899348 -0.2838920637904252 0 -0.072947339386401744 -0.29815403057856332 0 -0.051386271478722378 -0.27925540101153468 0 -0.043558347473806387 -0.2984211194138231 0 -0.072947339386401744 -0.29815403057856332 0 -0.043558347473806387 -0.2984211194138231 0 -0.072947339386401744 -0.29815403057856332 0 -0.043558347473806387 -0.2984211194138231 0 -0.051420852876661483 -0.31380047181538612 0 -0.043558347473806387 -0.2984211194138231 0 -0.051420852876661483 -0.31380047181538612 0 -0.030582351458593698 -0.31403506648659951 0 -0.014169355561211039 -0.29868820824908299 0 -0.030582351458593698 -0.31403506648659951 0 -0.0093546214437348063 -0.3154421594820554 0 -0.043558347473806387 -0.2984211194138231 0 -0.014169355561211039 -0.29868820824908299 0 -0.030582351458593698 -0.31403506648659951 0 -0.043558347473806387 -0.2984211194138231 0 -0.014169355561211039 -0.29868820824908299 0 -0.014169355561211039 -0.29868820824908299 0 -0.0093546214437348063 -0.3154421594820554 0 0.0025702240157044749 -0.30194718224499639 0 -0.014169355561211039 -0.29868820824908299 0 0.0025702240157044749 -0.30194718224499639 0 0.001953977901653102 -0.28749824366549498 0 -0.014169355561211039 -0.29868820824908299 0 -0.01355692824822796 -0.28271954505438091 0 0.001953977901653102 -0.28749824366549498 0 -0.01355692824822796 -0.28271954505438091 0 -0.002131649244152236 -0.27375645946249172 0 0.001953977901653102 -0.28749824366549498 0 -0.014169355561211039 -0.29868820824908299 0 -0.01355692824822796 -0.28271954505438091 0 -0.030508603843899348 -0.2838920637904252 0 -0.043558347473806387 -0.2984211194138231 0 -0.014169355561211039 -0.29868820824908299 0 -0.030508603843899348 -0.2838920637904252 0 -0.01355692824822796 -0.28271954505438091 0 -0.030508603843899348 -0.2838920637904252 0 -0.0232959564482321 -0.27430678972805739 0 -0.03708476385319625 -0.2699613192856723 0 -0.030508603843899348 -0.2838920637904252 0 -0.0232959564482321 -0.27430678972805739 0 -0.03708476385319625 -0.2699613192856723 0 -0.0232959564482321 -0.27430678972805739 0 -0.027769846617742091 -0.26444130564156609 0 -0.0232959564482321 -0.27430678972805739 0 -0.01453475649827142 -0.26699160201657218 0 -0.027769846617742091 -0.26444130564156609 0 -0.0232959564482321 -0.27430678972805739 0 -0.01264771782334753 -0.27382178896806042 0 -0.01453475649827142 -0.26699160201657218 0 -0.01355692824822796 -0.28271954505438091 0 -0.0232959564482321 -0.27430678972805739 0 -0.01264771782334753 -0.27382178896806042 0 -0.01355692824822796 -0.28271954505438091 0 -0.01264771782334753 -0.27382178896806042 0 -0.002131649244152236 -0.27375645946249172 0 -0.002131649244152236 -0.27375645946249172 0 -0.0028944004114581372 -0.26277522582270341 0 0.0049597396345670026 -0.26452376434945218 0 -0.002131649244152236 -0.27375645946249172 0 -0.0081433199175628083 -0.26887389345264789 0 -0.0028944004114581372 -0.26277522582270341 0 -0.01264771782334753 -0.27382178896806042 0 -0.002131649244152236 -0.27375645946249172 0 -0.0081433199175628083 -0.26887389345264789 0 -0.01264771782334753 -0.27382178896806042 0 -0.0081433199175628083 -0.26887389345264789 0 -0.01453475649827142 -0.26699160201657218 0 -0.0081433199175628083 -0.26887389345264789 0 -0.01453475649827142 -0.26699160201657218 0 -0.012379740604400009 -0.25371681360357518 0 -0.0081433199175628083 -0.26887389345264789 0 -0.012379740604400009 -0.25371681360357518 0 -0.0081433199175628083 -0.26887389345264789 0 -0.0050603712554523096 -0.25502580822232418 0 -0.012379740604400009 -0.25371681360357518 0 -0.0081433199175628083 -0.26887389345264789 0 -0.0028944004114581372 -0.26277522582270341 0 -0.0050603712554523096 -0.25502580822232418 0 -0.0028944004114581372 -0.26277522582270341 0 -0.0050603712554523096 -0.25502580822232418 0 0.0049597396345670026 -0.26452376434945218 0 -0.0050603712554523096 -0.25502580822232418 0 -0.012379740604400009 -0.25371681360357518 0 -0.01487672558591642 -0.24478309253466149 0 -0.01453475649827142 -0.26699160201657218 0 -0.027326811110253871 -0.25121816526868662 0 -0.01453475649827142 -0.26699160201657218 0 -0.027769846617742091 -0.26444130564156609 0 -0.027326811110253871 -0.25121816526868662 0 -0.01453475649827142 -0.26699160201657218 0 -0.012379740604400009 -0.25371681360357518 0 -0.027326811110253871 -0.25121816526868662 0 -0.036856198389287782 -0.25899730250271491 0 -0.027769846617742091 -0.26444130564156609 0 -0.027326811110253871 -0.25121816526868662 0 -0.039399855887372083 -0.348894598899534 0 -0.034096369460313788 -0.36339656310703322 0 -0.051971925864546728 -0.35666972650072859 0 -0.039399855887372083 -0.348894598899534 0 -0.034096369460313788 -0.36339656310703322 0 -0.026210886027733249 -0.34369915139989571 0 -0.039399855887372083 -0.348894598899534 0 -0.034096369460313788 -0.36339656310703322 0 -0.034096369460313788 -0.36339656310703322 0 -0.059008804616476777 -0.3736816009534113 0 -0.034096369460313788 -0.36339656310703322 0 -0.059008804616476777 -0.3736816009534113 0 -0.054792379857709787 -0.38521108099946061 0 -0.071250752086046532 -0.35335887697158019 0 -0.059008804616476777 -0.3736816009534113 0 -0.051971925864546728 -0.35666972650072859 0 -0.034096369460313788 -0.36339656310703322 0 -0.059008804616476777 -0.3736816009534113 0 -0.051971925864546728 -0.35666972650072859 0 -0.039399855887372083 -0.348894598899534 0 -0.056103847272524453 -0.34401699257208418 0 -0.051971925864546728 -0.35666972650072859 0 -0.071250752086046532 -0.35335887697158019 0 -0.056103847272524453 -0.34401699257208418 0 -0.051971925864546728 -0.35666972650072859 0 -0.063011241542060503 -0.32804507108198161 0 -0.056103847272524453 -0.34401699257208418 0 -0.04119870814000013 -0.33100814093665459 0 -0.063011241542060503 -0.32804507108198161 0 -0.072947339386401744 -0.29815403057856332 0 -0.051420852876661483 -0.31380047181538612 0 -0.063011241542060503 -0.32804507108198161 0 -0.051420852876661483 -0.31380047181538612 0 -0.04119870814000013 -0.33100814093665459 0 -0.04119870814000013 -0.33100814093665459 0 -0.030582351458593698 -0.31403506648659951 0 -0.022582582343139011 -0.32698802181857289 0 -0.051420852876661483 -0.31380047181538612 0 -0.04119870814000013 -0.33100814093665459 0 -0.030582351458593698 -0.31403506648659951 0 -0.039399855887372083 -0.348894598899534 0 -0.04119870814000013 -0.33100814093665459 0 -0.026210886027733249 -0.34369915139989571 0 -0.039399855887372083 -0.348894598899534 0 -0.056103847272524453 -0.34401699257208418 0 -0.04119870814000013 -0.33100814093665459 0 -0.04119870814000013 -0.33100814093665459 0 -0.026210886027733249 -0.34369915139989571 0 -0.022582582343139011 -0.32698802181857289 0 -0.026210886027733249 -0.34369915139989571 0 -0.022582582343139011 -0.32698802181857289 0 -0.008605873932596356 -0.33624452634938418 0 -0.030582351458593698 -0.31403506648659951 0 -0.022582582343139011 -0.32698802181857289 0 -0.0093546214437348063 -0.3154421594820554 0 -0.022582582343139011 -0.32698802181857289 0 -0.0093546214437348063 -0.3154421594820554 0 -0.008605873932596356 -0.33624452634938418 0 -0.0093546214437348063 -0.3154421594820554 0 -0.008605873932596356 -0.33624452634938418 0 0.0035141492887302548 -0.32519051246028208 0 -0.0019921573348008 -0.35014241775074068 0 -0.018044263397557131 -0.35676949042888739 0 -0.0042332821090469977 -0.36931681778231101 0 -0.0019921573348008 -0.35014241775074068 0 -0.018044263397557131 -0.35676949042888739 0 -0.008605873932596356 -0.33624452634938418 0 -0.0019921573348008 -0.35014241775074068 0 -0.018044263397557131 -0.35676949042888739 0 -0.026210886027733249 -0.34369915139989571 0 -0.008605873932596356 -0.33624452634938418 0 -0.018044263397557131 -0.35676949042888739 0 -0.034096369460313788 -0.36339656310703322 0 -0.026210886027733249 -0.34369915139989571 0 -0.018044263397557131 -0.35676949042888739 0 -0.034096369460313788 -0.36339656310703322 0 -0.018044263397557131 -0.35676949042888739 0 -0.034096369460313788 -0.36339656310703322 0 -0.018686911073243041 -0.37245057318461761 0 -0.025663519942779139 -0.38645552319913151 0 -0.034096369460313788 -0.36339656310703322 0 -0.025663519942779139 -0.38645552319913151 0 -0.034096369460313788 -0.36339656310703322 0 -0.018044263397557131 -0.35676949042888739 0 -0.018686911073243041 -0.37245057318461761 0 -0.018044263397557131 -0.35676949042888739 0 -0.018686911073243041 -0.37245057318461761 0 -0.0042332821090469977 -0.36931681778231101 0 -0.0042332821090469977 -0.36931681778231101 0 -0.0014384839491562609 -0.38294108750953337 0 -0.01293018069981793 -0.38699951650140929 0 -0.018686911073243041 -0.37245057318461761 0 -0.0042332821090469977 -0.36931681778231101 0 -0.01293018069981793 -0.38699951650140929 0 -0.0014384839491562609 -0.38294108750953337 0 -0.01063129593948554 -0.39508981091663592 0 0.011472045166716269 -0.38952867199447438 0 -0.0014384839491562609 -0.38294108750953337 0 -0.01293018069981793 -0.38699951650140929 0 -0.01063129593948554 -0.39508981091663592 0 -0.01063129593948554 -0.39508981091663592 0 -0.0091670491733258502 -0.407137417147723 0 0.011472045166716269 -0.38952867199447438 0 -0.01063129593948554 -0.39508981091663592 0 -0.018873559194732051 -0.4050221338792524 0 -0.0091670491733258502 -0.407137417147723 0 -0.018873559194732051 -0.4050221338792524 0 -0.02836285586948685 -0.40056267234101323 0 -0.025663519942779139 -0.38645552319913151 0 -0.018873559194732051 -0.4050221338792524 0 -0.025663519942779139 -0.38645552319913151 0 -0.01063129593948554 -0.39508981091663592 0 -0.018873559194732051 -0.4050221338792524 0 -0.025663519942779139 -0.38645552319913151 0 -0.018873559194732051 -0.4050221338792524 0 -0.02836285586948685 -0.40056267234101323 0 -0.030977517198131951 -0.41001184184548872 0 -0.018686911073243041 -0.37245057318461761 0 -0.01293018069981793 -0.38699951650140929 0 -0.025663519942779139 -0.38645552319913151 0 -0.01293018069981793 -0.38699951650140929 0 -0.01063129593948554 -0.39508981091663592 0 -0.025663519942779139 -0.38645552319913151 0 -0.01293018069981793 -0.38699951650140929 0 -0.025663519942779139 -0.38645552319913151 0 -0.025663519942779139 -0.38645552319913151 0 -0.054792379857709787 -0.38521108099946061 0 -0.034096369460313788 -0.36339656310703322 0 -0.025663519942779139 -0.38645552319913151 0 -0.054792379857709787 -0.38521108099946061 0 -0.025663519942779139 -0.38645552319913151 0 -0.040378871001035203 -0.4023619242499753 0 -0.054792379857709787 -0.38521108099946061 0 -0.02836285586948685 -0.40056267234101323 0 -0.025663519942779139 -0.38645552319913151 0 -0.040378871001035203 -0.4023619242499753 0 -0.02836285586948685 -0.40056267234101323 0 -0.040378871001035203 -0.4023619242499753 0 -0.030977517198131951 -0.41001184184548872 0 -0.054792379857709787 -0.38521108099946061 0 -0.059825167014939118 -0.40722915412089022 0 -0.072775681732521871 -0.39584784537067902 0 -0.040378871001035203 -0.4023619242499753 0 -0.054792379857709787 -0.38521108099946061 0 -0.059825167014939118 -0.40722915412089022 0 -0.042229656958243142 -0.42347410177567479 0 -0.050515785400197619 -0.44529677996352279 0 -0.072027503688391378 -0.4304363902392051 0 -0.040378871001035203 -0.4023619242499753 0 -0.059825167014939118 -0.40722915412089022 0 -0.042229656958243142 -0.42347410177567479 0 -0.059825167014939118 -0.40722915412089022 0 -0.042229656958243142 -0.42347410177567479 0 -0.072027503688391378 -0.4304363902392051 0 -0.040378871001035203 -0.4023619242499753 0 -0.042229656958243142 -0.42347410177567479 0 -0.030977517198131951 -0.41001184184548872 0 -0.042229656958243142 -0.42347410177567479 0 -0.030977517198131951 -0.41001184184548872 0 -0.025042642967162548 -0.41863837698152778 0 -0.042229656958243142 -0.42347410177567479 0 -0.02466563579619491 -0.43258924065094212 0 -0.036391946892689743 -0.43794750258320281 0 -0.042229656958243142 -0.42347410177567479 0 -0.036391946892689743 -0.43794750258320281 0 -0.050515785400197619 -0.44529677996352279 0 -0.042229656958243142 -0.42347410177567479 0 -0.02466563579619491 -0.43258924065094212 0 -0.025042642967162548 -0.41863837698152778 0 -0.02466563579619491 -0.43258924065094212 0 -0.01208359844668536 -0.42358874455937362 0 -0.01135633175650611 -0.44080857306714882 0 -0.02466563579619491 -0.43258924065094212 0 -0.025042642967162548 -0.41863837698152778 0 -0.01208359844668536 -0.42358874455937362 0 -0.018873559194732051 -0.4050221338792524 0 -0.025042642967162548 -0.41863837698152778 0 -0.01208359844668536 -0.42358874455937362 0 -0.018873559194732051 -0.4050221338792524 0 -0.030977517198131951 -0.41001184184548872 0 -0.025042642967162548 -0.41863837698152778 0 -0.0091670491733258502 -0.407137417147723 0 -0.01208359844668536 -0.42358874455937362 0 0.0037810136158822729 -0.41791708709875131 0 -0.018873559194732051 -0.4050221338792524 0 -0.01208359844668536 -0.42358874455937362 0 -0.018873559194732051 -0.4050221338792524 0 -0.0091670491733258502 -0.407137417147723 0 -0.01208359844668536 -0.42358874455937362 0 -0.0091670491733258502 -0.407137417147723 0 0.005108664055598287 -0.40528738143041459 0 0.0037810136158822729 -0.41791708709875131 0 -0.01208359844668536 -0.42358874455937362 0 -0.01135633175650611 -0.44080857306714882 0 0.00079488181500260609 -0.42987501851034571 0 -0.01208359844668536 -0.42358874455937362 0 0.0037810136158822729 -0.41791708709875131 0 0.00079488181500260609 -0.42987501851034571 0 -0.01135633175650611 -0.44080857306714882 0 -0.0057475739345891896 -0.4549207533069245 0 -0.026821380350943221 -0.45052187300253432 0 -0.01135633175650611 -0.44080857306714882 0 -0.0057475739345891896 -0.4549207533069245 0 0.0068165806591294316 -0.44348526320397952 0 -0.01135633175650611 -0.44080857306714882 0 0.00079488181500260609 -0.42987501851034571 0 0.0068165806591294316 -0.44348526320397952 0 -0.0057475739345891896 -0.4549207533069245 0 -0.01053281578453142 -0.47284051234843588 0 0.013156077559905371 -0.46694754491252372 0 -0.0057475739345891896 -0.4549207533069245 0 -0.026821380350943221 -0.45052187300253432 0 -0.01053281578453142 -0.47284051234843588 0 -0.026821380350943221 -0.45052187300253432 0 -0.01053281578453142 -0.47284051234843588 0 -0.034221709128968207 -0.47873347978434821 0 -0.02466563579619491 -0.43258924065094212 0 -0.026821380350943221 -0.45052187300253432 0 -0.036391946892689743 -0.43794750258320281 0 -0.02466563579619491 -0.43258924065094212 0 -0.01135633175650611 -0.44080857306714882 0 -0.026821380350943221 -0.45052187300253432 0 -0.01053281578453142 -0.47284051234843588 0 -0.021528721160628209 -0.5 0 0.0082051736105589468 -0.5 0 -0.01053281578453142 -0.47284051234843588 0 -0.034221709128968207 -0.47873347978434821 0 -0.01053281578453142 -0.47284051234843588 0 -0.021528721160628209 -0.5 0 -0.034221709128968207 -0.47873347978434821 0 -0.021528721160628209 -0.5 0 -0.034221709128968207 -0.47873347978434821 0 -0.051262615931815303 -0.5 0 -0.059523740010860512 -0.4805696461841214 0 -0.046928985533113317 -0.46386793679958732 0 -0.064864185923778739 -0.46315270411222448 0 -0.034221709128968207 -0.47873347978434821 0 -0.059523740010860512 -0.4805696461841214 0 -0.046928985533113317 -0.46386793679958732 0 -0.034221709128968207 -0.47873347978434821 0 -0.059523740010860512 -0.4805696461841214 0 -0.051262615931815303 -0.5 0 -0.026821380350943221 -0.45052187300253432 0 -0.036391946892689743 -0.43794750258320281 0 -0.050515785400197619 -0.44529677996352279 0 -0.026821380350943221 -0.45052187300253432 0 -0.034221709128968207 -0.47873347978434821 0 -0.046928985533113317 -0.46386793679958732 0 -0.026821380350943221 -0.45052187300253432 0 -0.046928985533113317 -0.46386793679958732 0 -0.050515785400197619 -0.44529677996352279 0 -0.046928985533113317 -0.46386793679958732 0 -0.050515785400197619 -0.44529677996352279 0 -0.064864185923778739 -0.46315270411222448 0 -0.050515785400197619 -0.44529677996352279 0 -0.067207280617084753 -0.44732106669938188 0 -0.064864185923778739 -0.46315270411222448 0 -0.050515785400197619 -0.44529677996352279 0 -0.067207280617084753 -0.44732106669938188 0 -0.072027503688391378 -0.4304363902392051 0 -0.067207280617084753 -0.44732106669938188 0 -0.082815891533118816 -0.45534181676778152 0 -0.072027503688391378 -0.4304363902392051 0 -0.067207280617084753 -0.44732106669938188 0 -0.064864185923778739 -0.46315270411222448 0 -0.082815891533118816 -0.45534181676778152 0 -0.064864185923778739 -0.46315270411222448 0 -0.082815891533118816 -0.45534181676778152 0 -0.078868432844485067 -0.47766375640856817 0 -0.082815891533118816 -0.45534181676778152 0 -0.098405376953540707 -0.43777035074814158 0 -0.072027503688391378 -0.4304363902392051 0 -0.059523740010860512 -0.4805696461841214 0 -0.078868432844485067 -0.47766375640856817 0 -0.080996510703002414 -0.50000000000000011 0 -0.059523740010860512 -0.4805696461841214 0 -0.051262615931815303 -0.5 0 -0.080996510703002414 -0.50000000000000011 0 -0.059523740010860512 -0.4805696461841214 0 -0.064864185923778739 -0.46315270411222448 0 -0.078868432844485067 -0.47766375640856817 0 -0.082815891533118816 -0.45534181676778152 0 -0.078868432844485067 -0.47766375640856817 0 -0.097649384782090676 -0.47348966161849648 0 -0.078868432844485067 -0.47766375640856817 0 -0.091101191517426794 -0.4855812854125191 0 -0.097649384782090676 -0.47348966161849648 0 -0.080996510703002414 -0.50000000000000011 0 -0.091101191517426794 -0.4855812854125191 0 -0.106890437740129 -0.49117172362301192 0 -0.078868432844485067 -0.47766375640856817 0 -0.080996510703002414 -0.50000000000000011 0 -0.091101191517426794 -0.4855812854125191 0 -0.080996510703002414 -0.50000000000000011 0 -0.106890437740129 -0.49117172362301192 0 -0.080996510703002414 -0.50000000000000011 0 -0.1052795491262605 -0.5 0 -0.106890437740129 -0.49117172362301192 0 -0.091101191517426794 -0.4855812854125191 0 -0.106890437740129 -0.49117172362301192 0 -0.097649384782090676 -0.47348966161849648 0 -0.106890437740129 -0.49117172362301192 0 -0.097649384782090676 -0.47348966161849648 0 -0.1161667412357628 -0.47599129326682099 0 -0.097649384782090676 -0.47348966161849648 0 -0.1161667412357628 -0.47599129326682099 0 -0.11918173836773351 -0.45845832247928869 0 -0.13278436477725561 -0.4823434472460234 0 -0.106890437740129 -0.49117172362301192 0 -0.1161667412357628 -0.47599129326682099 0 -0.13278436477725561 -0.4823434472460234 0 -0.12956258754951869 -0.5 0 -0.106890437740129 -0.49117172362301192 0 -0.12956258754951869 -0.5 0 -0.1052795491262605 -0.5 0 -0.106890437740129 -0.49117172362301192 0 -0.13278436477725561 -0.4823434472460234 0 -0.106890437740129 -0.49117172362301192 0 -0.098405376953540707 -0.43777035074814158 0 -0.1032934630365307 -0.45295297384024952 0 -0.1184149235461696 -0.43970471758753887 0 -0.082815891533118816 -0.45534181676778152 0 -0.098405376953540707 -0.43777035074814158 0 -0.1032934630365307 -0.45295297384024952 0 -0.082815891533118816 -0.45534181676778152 0 -0.097649384782090676 -0.47348966161849648 0 -0.1032934630365307 -0.45295297384024952 0 -0.097649384782090676 -0.47348966161849648 0 -0.11918173836773351 -0.45845832247928869 0 -0.097649384782090676 -0.47348966161849648 0 -0.1032934630365307 -0.45295297384024952 0 -0.11918173836773351 -0.45845832247928869 0 -0.1272556728232932 -0.47013049556587211 0 -0.1161667412357628 -0.47599129326682099 0 -0.11918173836773351 -0.45845832247928869 0 -0.1032934630365307 -0.45295297384024952 0 -0.11918173836773351 -0.45845832247928869 0 -0.1184149235461696 -0.43970471758753887 0 -0.13370262722300191 -0.42485153358840111 0 -0.1184149235461696 -0.43970471758753887 0 -0.116306788879599 -0.41668109890019722 0 -0.098405376953540707 -0.43777035074814158 0 -0.1184149235461696 -0.43970471758753887 0 -0.116306788879599 -0.41668109890019722 0 -0.098405376953540707 -0.43777035074814158 0 -0.097023176649951706 -0.41709708103231641 0 -0.116306788879599 -0.41668109890019722 0 -0.097023176649951706 -0.41709708103231641 0 -0.116306788879599 -0.41668109890019722 0 -0.1080069522975812 -0.4033851446609884 0 -0.097023176649951706 -0.41709708103231641 0 -0.1080069522975812 -0.4033851446609884 0 -0.093849536080233595 -0.40171885712620059 0 -0.116306788879599 -0.41668109890019722 0 -0.1246151037146196 -0.40215144471962733 0 -0.1080069522975812 -0.4033851446609884 0 -0.13370262722300191 -0.42485153358840111 0 -0.116306788879599 -0.41668109890019722 0 -0.1246151037146196 -0.40215144471962733 0 -0.12942966304821441 -0.38325015625522552 0 -0.1246151037146196 -0.40215144471962733 0 -0.11435095473318441 -0.38971939249289739 0 -0.1246151037146196 -0.40215144471962733 0 -0.11435095473318441 -0.38971939249289739 0 -0.1080069522975812 -0.4033851446609884 0 -0.12942966304821441 -0.38325015625522552 0 -0.1177797586078463 -0.37381446098417098 0 -0.11435095473318441 -0.38971939249289739 0 -0.1177797586078463 -0.37381446098417098 0 -0.11435095473318441 -0.38971939249289739 0 -0.1034929330021967 -0.38313049756236911 0 -0.1034929330021967 -0.38313049756236911 0 -0.09434009405236482 -0.38826803727453157 0 -0.083921239772640238 -0.38396663879978871 0 -0.11435095473318441 -0.38971939249289739 0 -0.1034929330021967 -0.38313049756236911 0 -0.1028080940331122 -0.39324438582339738 0 -0.1034929330021967 -0.38313049756236911 0 -0.09434009405236482 -0.38826803727453157 0 -0.1028080940331122 -0.39324438582339738 0 -0.11435095473318441 -0.38971939249289739 0 -0.1080069522975812 -0.4033851446609884 0 -0.1028080940331122 -0.39324438582339738 0 -0.09434009405236482 -0.38826803727453157 0 -0.1028080940331122 -0.39324438582339738 0 -0.093849536080233595 -0.40171885712620059 0 -0.1080069522975812 -0.4033851446609884 0 -0.1028080940331122 -0.39324438582339738 0 -0.093849536080233595 -0.40171885712620059 0 -0.093849536080233595 -0.40171885712620059 0 -0.084931705096709012 -0.39557720875243713 0 -0.079771973845784508 -0.40808466519098552 0 -0.09434009405236482 -0.38826803727453157 0 -0.093849536080233595 -0.40171885712620059 0 -0.084931705096709012 -0.39557720875243713 0 -0.084931705096709012 -0.39557720875243713 0 -0.083921239772640238 -0.38396663879978871 0 -0.072775681732521871 -0.39584784537067902 0 -0.084931705096709012 -0.39557720875243713 0 -0.072775681732521871 -0.39584784537067902 0 -0.079771973845784508 -0.40808466519098552 0 -0.1034929330021967 -0.38313049756236911 0 -0.083921239772640238 -0.38396663879978871 0 -0.092143069441117886 -0.37288061806212591 0 -0.1034929330021967 -0.38313049756236911 0 -0.083921239772640238 -0.38396663879978871 0 -0.09434009405236482 -0.38826803727453157 0 -0.083921239772640238 -0.38396663879978871 0 -0.09434009405236482 -0.38826803727453157 0 -0.084931705096709012 -0.39557720875243713 0 -0.083921239772640238 -0.38396663879978871 0 -0.076899216694667677 -0.36865863427987439 0 -0.092143069441117886 -0.37288061806212591 0 -0.083921239772640238 -0.38396663879978871 0 -0.076899216694667677 -0.36865863427987439 0 -0.059008804616476777 -0.3736816009534113 0 -0.083921239772640238 -0.38396663879978871 0 -0.059008804616476777 -0.3736816009534113 0 -0.054792379857709787 -0.38521108099946061 0 -0.083921239772640238 -0.38396663879978871 0 -0.054792379857709787 -0.38521108099946061 0 -0.083921239772640238 -0.38396663879978871 0 -0.054792379857709787 -0.38521108099946061 0 -0.083921239772640238 -0.38396663879978871 0 -0.072775681732521871 -0.39584784537067902 0 -0.059008804616476777 -0.3736816009534113 0 -0.083921239772640238 -0.38396663879978871 0 -0.059825167014939118 -0.40722915412089022 0 -0.072775681732521871 -0.39584784537067902 0 -0.079771973845784508 -0.40808466519098552 0 -0.059825167014939118 -0.40722915412089022 0 -0.072027503688391378 -0.4304363902392051 0 -0.079771973845784508 -0.40808466519098552 0 -0.098405376953540707 -0.43777035074814158 0 -0.097023176649951706 -0.41709708103231641 0 -0.072027503688391378 -0.4304363902392051 0 -0.097023176649951706 -0.41709708103231641 0 -0.072027503688391378 -0.4304363902392051 0 -0.079771973845784508 -0.40808466519098552 0 -0.097023176649951706 -0.41709708103231641 0 -0.093849536080233595 -0.40171885712620059 0 -0.079771973845784508 -0.40808466519098552 0 -0.080332479827855185 -0.089132189148723034 0 -0.087659787804267197 -0.1053579589647711 0 -0.098653139325870498 -0.078072759780639212 0 -0.080332479827855185 -0.089132189148723034 0 -0.08392236851191634 -0.073343044769479643 0 -0.098653139325870498 -0.078072759780639212 0 -0.087659787804267197 -0.1053579589647711 0 -0.098653139325870498 -0.078072759780639212 0 -0.093078549589984544 -0.062615985124124363 0 -0.08392236851191634 -0.073343044769479643 0 -0.074194079442307964 -0.055813170303027348 0 -0.093078549589984544 -0.062615985124124363 0 -0.08392236851191634 -0.073343044769479643 0 -0.098653139325870498 -0.078072759780639212 0 -0.069502852475768331 -0.077808897141633637 0 -0.074194079442307964 -0.055813170303027348 0 -0.056896828677456698 -0.064957726782933892 0 -0.08392236851191634 -0.073343044769479643 0 -0.069502852475768331 -0.077808897141633637 0 -0.074194079442307964 -0.055813170303027348 0 -0.069502852475768331 -0.077808897141633637 0 -0.074194079442307964 -0.055813170303027348 0 -0.080332479827855185 -0.089132189148723034 0 -0.08392236851191634 -0.073343044769479643 0 -0.069502852475768331 -0.077808897141633637 0 -0.080332479827855185 -0.089132189148723034 0 -0.069502852475768331 -0.077808897141633637 0 -0.064978262980951509 -0.095744309556548293 0 -0.069502852475768331 -0.077808897141633637 0 -0.064978262980951509 -0.095744309556548293 0 -0.053466751150831528 -0.085728027791416223 0 -0.064978262980951509 -0.095744309556548293 0 -0.069413139924847295 -0.1120169614824971 0 -0.055973796613101583 -0.11154457769597879 0 -0.064978262980951509 -0.095744309556548293 0 -0.075595917634480286 -0.1005628547881349 0 -0.069413139924847295 -0.1120169614824971 0 -0.075595917634480286 -0.1005628547881349 0 -0.069413139924847295 -0.1120169614824971 0 -0.087659787804267197 -0.1053579589647711 0 -0.080332479827855185 -0.089132189148723034 0 -0.064978262980951509 -0.095744309556548293 0 -0.075595917634480286 -0.1005628547881349 0 -0.069413139924847295 -0.1120169614824971 0 -0.072499038737136423 -0.12336773177227039 0 -0.087659787804267197 -0.1053579589647711 0 -0.063965210873385206 -0.121372291062271 0 -0.069413139924847295 -0.1120169614824971 0 -0.072499038737136423 -0.12336773177227039 0 -0.063965210873385206 -0.121372291062271 0 -0.069413139924847295 -0.1120169614824971 0 -0.055973796613101583 -0.11154457769597879 0 -0.093729858762440374 -0.11631984424608149 0 -0.087659787804267197 -0.1053579589647711 0 -0.076666436282660663 -0.13264315814890179 0 -0.087659787804267197 -0.1053579589647711 0 -0.076666436282660663 -0.13264315814890179 0 -0.072499038737136423 -0.12336773177227039 0 -0.087659787804267197 -0.1053579589647711 0 -0.076666436282660663 -0.13264315814890179 0 -0.093729858762440374 -0.11631984424608149 0 -0.076666436282660663 -0.13264315814890179 0 -0.096101065320712109 -0.1258911452360538 0 -0.080332479827855185 -0.089132189148723034 0 -0.075595917634480286 -0.1005628547881349 0 -0.087659787804267197 -0.1053579589647711 0 -0.087659787804267197 -0.1053579589647711 0 -0.1004265812101162 -0.1089643198262948 0 -0.1006655882856296 -0.09175432640411825 0 -0.1004265812101162 -0.1089643198262948 0 -0.11487650466180439 -0.1160490357388697 0 -0.1006655882856296 -0.09175432640411825 0 -0.11487650466180439 -0.1160490357388697 0 -0.1117238545323833 -0.101270295352793 0 -0.1006655882856296 -0.09175432640411825 0 -0.11487650466180439 -0.1160490357388697 0 -0.1006655882856296 -0.09175432640411825 0 -0.10451846741591179 -0.1170766955469076 0 -0.11649007265168369 -0.1188075605425003 0 -0.096101065320712109 -0.1258911452360538 0 -0.11649007265168369 -0.1188075605425003 0 -0.096101065320712109 -0.1258911452360538 0 -0.093729858762440374 -0.11631984424608149 0 -0.10451846741591179 -0.1170766955469076 0 -0.096101065320712109 -0.1258911452360538 0 -0.093729858762440374 -0.11631984424608149 0 -0.087659787804267197 -0.1053579589647711 0 -0.1004265812101162 -0.1089643198262948 0 -0.093729858762440374 -0.11631984424608149 0 -0.1004265812101162 -0.1089643198262948 0 -0.10451846741591179 -0.1170766955469076 0 -0.1004265812101162 -0.1089643198262948 0 -0.10451846741591179 -0.1170766955469076 0 -0.11487650466180439 -0.1160490357388697 0 -0.10451846741591179 -0.1170766955469076 0 -0.11649007265168369 -0.1188075605425003 0 -0.11487650466180439 -0.1160490357388697 0 -0.11649007265168369 -0.1188075605425003 0 -0.11487650466180439 -0.1160490357388697 0 -0.11649007265168369 -0.1188075605425003 0 -0.11487650466180439 -0.1160490357388697 0 -0.12599987765418549 -0.11550364740632391 0 -0.11487650466180439 -0.1160490357388697 0 -0.12182531397588869 -0.1044134543712442 0 -0.12599987765418549 -0.11550364740632391 0 -0.11649007265168369 -0.1188075605425003 0 -0.12599987765418549 -0.11550364740632391 0 -0.11649007265168369 -0.1188075605425003 0 -0.12599987765418549 -0.11550364740632391 0 -0.1252704192176744 -0.1172440966648565 0 -0.11487650466180439 -0.1160490357388697 0 -0.1117238545323833 -0.101270295352793 0 -0.12182531397588869 -0.1044134543712442 0 -0.11487650466180439 -0.1160490357388697 0 -0.1117238545323833 -0.101270295352793 0 -0.1117238545323833 -0.101270295352793 0 -0.12182531397588869 -0.1044134543712442 0 -0.12067370026095731 -0.092005587950159118 0 -0.1117238545323833 -0.101270295352793 0 -0.12067370026095731 -0.092005587950159118 0 -0.1096737611153919 -0.085603154438093937 0 -0.12067370026095731 -0.092005587950159118 0 -0.1179915177927765 -0.081714148456293267 0 -0.12737817104852411 -0.080741270387750683 0 -0.1179915177927765 -0.081714148456293267 0 -0.1096737611153919 -0.085603154438093937 0 -0.1121838893690176 -0.075324773267663084 0 -0.12067370026095731 -0.092005587950159118 0 -0.1179915177927765 -0.081714148456293267 0 -0.1096737611153919 -0.085603154438093937 0 -0.087659787804267197 -0.1053579589647711 0 -0.1006655882856296 -0.09175432640411825 0 -0.098653139325870498 -0.078072759780639212 0 -0.1117238545323833 -0.101270295352793 0 -0.1096737611153919 -0.085603154438093937 0 -0.1006655882856296 -0.09175432640411825 0 -0.1096737611153919 -0.085603154438093937 0 -0.098653139325870498 -0.078072759780639212 0 -0.1121838893690176 -0.075324773267663084 0 -0.1096737611153919 -0.085603154438093937 0 -0.1006655882856296 -0.09175432640411825 0 -0.098653139325870498 -0.078072759780639212 0 -0.093078549589984544 -0.062615985124124363 0 -0.098653139325870498 -0.078072759780639212 0 -0.10811729135418539 -0.065091756711675844 0 -0.098653139325870498 -0.078072759780639212 0 -0.10811729135418539 -0.065091756711675844 0 -0.1121838893690176 -0.075324773267663084 0 -0.10811729135418539 -0.065091756711675844 0 -0.1121838893690176 -0.075324773267663084 0 -0.1232756904161693 -0.070411489051666373 0 -0.1179915177927765 -0.081714148456293267 0 -0.1121838893690176 -0.075324773267663084 0 -0.1232756904161693 -0.070411489051666373 0 -0.1179915177927765 -0.081714148456293267 0 -0.1232756904161693 -0.070411489051666373 0 -0.12737817104852411 -0.080741270387750683 0 -0.10811729135418539 -0.065091756711675844 0 -0.1232756904161693 -0.070411489051666373 0 -0.12131955324210091 -0.059181462630683621 0 -0.12131955324210091 -0.059181462630683621 0 -0.1197314047957487 -0.044466417495601512 0 -0.1050545945384474 -0.053665832172193451 0 -0.10811729135418539 -0.065091756711675844 0 -0.12131955324210091 -0.059181462630683621 0 -0.1050545945384474 -0.053665832172193451 0 -0.12131955324210091 -0.059181462630683621 0 -0.1197314047957487 -0.044466417495601512 0 -0.1315211872564446 -0.050314657740016588 0 -0.1197314047957487 -0.044466417495601512 0 -0.1068389650378473 -0.041887213400145028 0 -0.1185057960264221 -0.028529017004706999 0 -0.1197314047957487 -0.044466417495601512 0 -0.1185057960264221 -0.028529017004706999 0 -0.13361245343545181 -0.030305793086055629 0 -0.1197314047957487 -0.044466417495601512 0 -0.1068389650378473 -0.041887213400145028 0 -0.1050545945384474 -0.053665832172193451 0 -0.1068389650378473 -0.041887213400145028 0 -0.093783258566811134 -0.025165556691727101 0 -0.092485611966423034 -0.037114626304880938 0 -0.1068389650378473 -0.041887213400145028 0 -0.090434917852185284 -0.047588291663230448 0 -0.092485611966423034 -0.037114626304880938 0 -0.093078549589984544 -0.062615985124124363 0 -0.1050545945384474 -0.053665832172193451 0 -0.090434917852185284 -0.047588291663230448 0 -0.1068389650378473 -0.041887213400145028 0 -0.1050545945384474 -0.053665832172193451 0 -0.090434917852185284 -0.047588291663230448 0 -0.093078549589984544 -0.062615985124124363 0 -0.10811729135418539 -0.065091756711675844 0 -0.1050545945384474 -0.053665832172193451 0 -0.1236122261121546 -0.0078425818954372464 0 -0.10868121072477301 -0.016513669919031759 0 -0.1099986790197032 0.001632030897992919 0 -0.1236122261121546 -0.0078425818954372464 0 -0.10868121072477301 -0.016513669919031759 0 -0.1068389650378473 -0.041887213400145028 0 -0.1185057960264221 -0.028529017004706999 0 -0.10868121072477301 -0.016513669919031759 0 -0.1236122261121546 -0.0078425818954372464 0 -0.1185057960264221 -0.028529017004706999 0 -0.10868121072477301 -0.016513669919031759 0 -0.1068389650378473 -0.041887213400145028 0 -0.104837062895502 -0.02019526763349536 0 -0.10868121072477301 -0.016513669919031759 0 -0.1068389650378473 -0.041887213400145028 0 -0.10868121072477301 -0.016513669919031759 0 -0.1068389650378473 -0.041887213400145028 0 -0.093783258566811134 -0.025165556691727101 0 -0.104837062895502 -0.02019526763349536 0 -0.093783258566811134 -0.025165556691727101 0 -0.10868121072477301 -0.016513669919031759 0 -0.093783258566811134 -0.025165556691727101 0 -0.10868121072477301 -0.016513669919031759 0 -0.095747033840698895 -0.01524308727968717 0 -0.093783258566811134 -0.025165556691727101 0 -0.104837062895502 -0.02019526763349536 0 -0.10868121072477301 -0.016513669919031759 0 -0.104837062895502 -0.02019526763349536 0 -0.10868121072477301 -0.016513669919031759 0 -0.10868121072477301 -0.016513669919031759 0 -0.1099986790197032 0.001632030897992919 0 -0.10868121072477301 -0.016513669919031759 0 -0.097318817554363779 -0.0057286893867275063 0 -0.1099986790197032 0.001632030897992919 0 -0.10868121072477301 -0.016513669919031759 0 -0.095747033840698895 -0.01524308727968717 0 -0.097318817554363779 -0.0057286893867275063 0 -0.097318817554363779 -0.0057286893867275063 0 -0.083204848516847923 -0.01356443312126232 0 -0.087524390624848222 0.006688577221896419 0 -0.083204848516847923 -0.01356443312126232 0 -0.087524390624848222 0.006688577221896419 0 -0.083204848516847923 -0.01356443312126232 0 -0.065966226425225663 -0.0060274066981548767 0 -0.087524390624848222 0.006688577221896419 0 -0.095747033840698895 -0.01524308727968717 0 -0.097318817554363779 -0.0057286893867275063 0 -0.083204848516847923 -0.01356443312126232 0 -0.083204848516847923 -0.01356443312126232 0 -0.07434952191593272 -0.025061702399879319 0 -0.078885306408848499 -0.033817443464421199 0 -0.093783258566811134 -0.025165556691727101 0 -0.083204848516847923 -0.01356443312126232 0 -0.078885306408848499 -0.033817443464421199 0 -0.083204848516847923 -0.01356443312126232 0 -0.078885306408848499 -0.033817443464421199 0 -0.093783258566811134 -0.025165556691727101 0 -0.095747033840698895 -0.01524308727968717 0 -0.083204848516847923 -0.01356443312126232 0 -0.093783258566811134 -0.025165556691727101 0 -0.078885306408848499 -0.033817443464421199 0 -0.07434952191593272 -0.025061702399879319 0 -0.065966226425225663 -0.0060274066981548767 0 -0.069170669720302794 -0.035546986895945307 0 -0.065966226425225663 -0.0060274066981548767 0 -0.069170669720302794 -0.035546986895945307 0 -0.060499849025326763 -0.027113091598361162 0 -0.065966226425225663 -0.0060274066981548767 0 -0.069170669720302794 -0.035546986895945307 0 -0.083204848516847923 -0.01356443312126232 0 -0.07434952191593272 -0.025061702399879319 0 -0.065966226425225663 -0.0060274066981548767 0 -0.093078549589984544 -0.062615985124124363 0 -0.090434917852185284 -0.047588291663230448 0 -0.074194079442307964 -0.055813170303027348 0 -0.090434917852185284 -0.047588291663230448 0 -0.078885306408848499 -0.033817443464421199 0 -0.074194079442307964 -0.055813170303027348 0 -0.090434917852185284 -0.047588291663230448 0 -0.092485611966423034 -0.037114626304880938 0 -0.078885306408848499 -0.033817443464421199 0 -0.093783258566811134 -0.025165556691727101 0 -0.092485611966423034 -0.037114626304880938 0 -0.078885306408848499 -0.033817443464421199 0 -0.078885306408848499 -0.033817443464421199 0 -0.074194079442307964 -0.055813170303027348 0 -0.070330568719734213 -0.04601515277555971 0 -0.074520558508438778 -0.036352241819612927 0 -0.069170669720302794 -0.035546986895945307 0 -0.078885306408848499 -0.033817443464421199 0 -0.070330568719734213 -0.04601515277555971 0 -0.074194079442307964 -0.055813170303027348 0 -0.078885306408848499 -0.033817443464421199 0 -0.070330568719734213 -0.04601515277555971 0 -0.074520558508438778 -0.036352241819612927 0 -0.07434952191593272 -0.025061702399879319 0 -0.074520558508438778 -0.036352241819612927 0 -0.069170669720302794 -0.035546986895945307 0 -0.07434952191593272 -0.025061702399879319 0 -0.078885306408848499 -0.033817443464421199 0 -0.074520558508438778 -0.036352241819612927 0 -0.078885306408848499 -0.033817443464421199 0 -0.074520558508438778 -0.036352241819612927 0 -0.069170669720302794 -0.035546986895945307 0 -0.063362765034716981 -0.039125320738808887 0 -0.060499849025326763 -0.027113091598361162 0 -0.070330568719734213 -0.04601515277555971 0 -0.069170669720302794 -0.035546986895945307 0 -0.063362765034716981 -0.039125320738808887 0 -0.070330568719734213 -0.04601515277555971 0 -0.063362765034716981 -0.039125320738808887 0 -0.059858302453952031 -0.048952151576379901 0 -0.070330568719734213 -0.04601515277555971 0 -0.074194079442307964 -0.055813170303027348 0 -0.059858302453952031 -0.048952151576379901 0 -0.074194079442307964 -0.055813170303027348 0 -0.059858302453952031 -0.048952151576379901 0 -0.056896828677456698 -0.064957726782933892 0 -0.059858302453952031 -0.048952151576379901 0 -0.044923942794737923 -0.054691691027005551 0 -0.056896828677456698 -0.064957726782933892 0 -0.059858302453952031 -0.048952151576379901 0 -0.049734296148808359 -0.042485020192698987 0 -0.044923942794737923 -0.054691691027005551 0 -0.059858302453952031 -0.048952151576379901 0 -0.056954435254269083 -0.037999220847798339 0 -0.049734296148808359 -0.042485020192698987 0 -0.063362765034716981 -0.039125320738808887 0 -0.059858302453952031 -0.048952151576379901 0 -0.056954435254269083 -0.037999220847798339 0 -0.063362765034716981 -0.039125320738808887 0 -0.056954435254269083 -0.037999220847798339 0 -0.060499849025326763 -0.027113091598361162 0 -0.056954435254269083 -0.037999220847798339 0 -0.047200384798774982 -0.033276672805742737 0 -0.049734296148808359 -0.042485020192698987 0 -0.056954435254269083 -0.037999220847798339 0 -0.047200384798774982 -0.033276672805742737 0 -0.052646608023139009 -0.028133593701314161 0 -0.049734296148808359 -0.042485020192698987 0 -0.038309454021287423 -0.037485304465473157 0 -0.044923942794737923 -0.054691691027005551 0 -0.047200384798774982 -0.033276672805742737 0 -0.038309454021287423 -0.037485304465473157 0 -0.041340635405623813 -0.023634308371219701 0 -0.047200384798774982 -0.033276672805742737 0 -0.049734296148808359 -0.042485020192698987 0 -0.038309454021287423 -0.037485304465473157 0 -0.038309454021287423 -0.037485304465473157 0 -0.03208775864781041 -0.029071100487059381 0 -0.02346135141751398 -0.035355058972579741 0 -0.038309454021287423 -0.037485304465473157 0 -0.044923942794737923 -0.054691691027005551 0 -0.02964595896144296 -0.052602220053598318 0 -0.044923942794737923 -0.054691691027005551 0 -0.02964595896144296 -0.052602220053598318 0 -0.02933827121860667 -0.069671405985324328 0 -0.065966226425225663 -0.0060274066981548767 0 -0.052851520708108592 -0.013709279578128279 0 -0.060499849025326763 -0.027113091598361162 0 -0.065966226425225663 -0.0060274066981548767 0 -0.052851520708108592 -0.013709279578128279 0 -0.041285176168578859 0.002941795093874656 0 -0.052851520708108592 -0.013709279578128279 0 -0.052646608023139009 -0.028133593701314161 0 -0.041340635405623813 -0.023634308371219701 0 -0.052851520708108592 -0.013709279578128279 0 -0.060499849025326763 -0.027113091598361162 0 -0.052646608023139009 -0.028133593701314161 0 -0.056954435254269083 -0.037999220847798339 0 -0.060499849025326763 -0.027113091598361162 0 -0.052646608023139009 -0.028133593701314161 0 -0.047200384798774982 -0.033276672805742737 0 -0.052646608023139009 -0.028133593701314161 0 -0.041340635405623813 -0.023634308371219701 0 -0.041340635405623813 -0.023634308371219701 0 -0.03208775864781041 -0.029071100487059381 0 -0.025239593746816429 -0.019809730138964948 0 -0.041340635405623813 -0.023634308371219701 0 -0.035761471768298317 -0.01187809368403442 0 -0.025239593746816429 -0.019809730138964948 0 -0.052851520708108592 -0.013709279578128279 0 -0.041340635405623813 -0.023634308371219701 0 -0.035761471768298317 -0.01187809368403442 0 -0.038309454021287423 -0.037485304465473157 0 -0.041340635405623813 -0.023634308371219701 0 -0.03208775864781041 -0.029071100487059381 0 -0.052851520708108592 -0.013709279578128279 0 -0.035761471768298317 -0.01187809368403442 0 -0.041285176168578859 0.002941795093874656 0 -0.035761471768298317 -0.01187809368403442 0 -0.018090432812363919 -0.0051789454257338127 0 -0.041285176168578859 0.002941795093874656 0 -0.035761471768298317 -0.01187809368403442 0 -0.018090432812363919 -0.0051789454257338127 0 -0.025239593746816429 -0.019809730138964948 0 -0.018090432812363919 -0.0051789454257338127 0 -0.025239593746816429 -0.019809730138964948 0 -0.013061188317162169 -0.01291647294893521 0 -0.025239593746816429 -0.019809730138964948 0 -0.011210459174411659 -0.020702551241823321 0 -0.013061188317162169 -0.01291647294893521 0 -0.03208775864781041 -0.029071100487059381 0 -0.025239593746816429 -0.019809730138964948 0 -0.02346135141751398 -0.035355058972579741 0 -0.025239593746816429 -0.019809730138964948 0 -0.011210459174411659 -0.020702551241823321 0 -0.02346135141751398 -0.035355058972579741 0 -0.011210459174411659 -0.020702551241823321 0 -0.02346135141751398 -0.035355058972579741 0 -0.003476286599935095 -0.036271506326322138 0 -0.011210459174411659 -0.020702551241823321 0 -0.003476286599935095 -0.036271506326322138 0 0.0014199230119024339 -0.021574900853890581 0 -0.011210459174411659 -0.020702551241823321 0 0.0006213327713558641 -0.0089396406014967747 0 0.0014199230119024339 -0.021574900853890581 0 -0.001488115343110989 -0.0087397640735148233 0 -0.01693898921702304 0.0117618500821222 0 0.002394805847480138 -0.0071764921779012506 0 -0.018090432812363919 -0.0051789454257338127 0 -0.001488115343110989 -0.0087397640735148233 0 -0.01693898921702304 0.0117618500821222 0 -0.018090432812363919 -0.0051789454257338127 0 -0.013061188317162169 -0.01291647294893521 0 -0.001488115343110989 -0.0087397640735148233 0 -0.011210459174411659 -0.020702551241823321 0 -0.013061188317162169 -0.01291647294893521 0 -0.001488115343110989 -0.0087397640735148233 0 -0.011210459174411659 -0.020702551241823321 0 -0.001488115343110989 -0.0087397640735148233 0 0.0006213327713558641 -0.0089396406014967747 0 -0.011210459174411659 -0.020702551241823321 0 0.0006213327713558641 -0.0089396406014967747 0 -0.001488115343110989 -0.0087397640735148233 0 0.0006213327713558641 -0.0089396406014967747 0 -0.02964595896144296 -0.052602220053598318 0 -0.01526094355706222 -0.064007872731860899 0 -0.02933827121860667 -0.069671405985324328 0 -0.02964595896144296 -0.052602220053598318 0 -0.01441383554066036 -0.048546622235137428 0 -0.01526094355706222 -0.064007872731860899 0 -0.02964595896144296 -0.052602220053598318 0 -0.02346135141751398 -0.035355058972579741 0 -0.01441383554066036 -0.048546622235137428 0 -0.038309454021287423 -0.037485304465473157 0 -0.02964595896144296 -0.052602220053598318 0 -0.02346135141751398 -0.035355058972579741 0 -0.003476286599935095 -0.036271506326322138 0 -0.00022463716734756899 -0.054496453091326037 0 -0.01441383554066036 -0.048546622235137428 0 -0.02346135141751398 -0.035355058972579741 0 -0.003476286599935095 -0.036271506326322138 0 -0.01441383554066036 -0.048546622235137428 0 -0.00022463716734756899 -0.054496453091326037 0 -0.01441383554066036 -0.048546622235137428 0 -0.01526094355706222 -0.064007872731860899 0 -0.00022463716734756899 -0.054496453091326037 0 -0.01526094355706222 -0.064007872731860899 0 0.003886405537072308 -0.074985287574065307 0 -0.01526094355706222 -0.064007872731860899 0 -0.020242120847587721 -0.083511357097035596 0 0.003886405537072308 -0.074985287574065307 0 -0.0041979068999104599 -0.092692987180200151 0 -0.020242120847587721 -0.083511357097035596 0 0.003886405537072308 -0.074985287574065307 0 -0.020242120847587721 -0.083511357097035596 0 -0.037149979327061843 -0.086545702414286968 0 -0.027814197350204149 -0.1002222595639333 0 -0.020242120847587721 -0.083511357097035596 0 -0.02933827121860667 -0.069671405985324328 0 -0.037149979327061843 -0.086545702414286968 0 -0.0041979068999104599 -0.092692987180200151 0 -0.020242120847587721 -0.083511357097035596 0 -0.027814197350204149 -0.1002222595639333 0 -0.01526094355706222 -0.064007872731860899 0 -0.020242120847587721 -0.083511357097035596 0 -0.02933827121860667 -0.069671405985324328 0 -0.044923942794737923 -0.054691691027005551 0 -0.02933827121860667 -0.069671405985324328 0 -0.043795121567553899 -0.073512069705660321 0 -0.02933827121860667 -0.069671405985324328 0 -0.043795121567553899 -0.073512069705660321 0 -0.037149979327061843 -0.086545702414286968 0 -0.043795121567553899 -0.073512069705660321 0 -0.037149979327061843 -0.086545702414286968 0 -0.053466751150831528 -0.085728027791416223 0 -0.037149979327061843 -0.086545702414286968 0 -0.053466751150831528 -0.085728027791416223 0 -0.046895924631556341 -0.099640457450003272 0 -0.064978262980951509 -0.095744309556548293 0 -0.053466751150831528 -0.085728027791416223 0 -0.046895924631556341 -0.099640457450003272 0 -0.069502852475768331 -0.077808897141633637 0 -0.053466751150831528 -0.085728027791416223 0 -0.056896828677456698 -0.064957726782933892 0 -0.043795121567553899 -0.073512069705660321 0 -0.053466751150831528 -0.085728027791416223 0 -0.056896828677456698 -0.064957726782933892 0 -0.044923942794737923 -0.054691691027005551 0 -0.043795121567553899 -0.073512069705660321 0 -0.056896828677456698 -0.064957726782933892 0 -0.055973796613101583 -0.11154457769597879 0 -0.041972484009239593 -0.11125691353498 0 -0.051469099840166933 -0.12560748285855791 0 -0.063965210873385206 -0.121372291062271 0 -0.055973796613101583 -0.11154457769597879 0 -0.051469099840166933 -0.12560748285855791 0 -0.064978262980951509 -0.095744309556548293 0 -0.055973796613101583 -0.11154457769597879 0 -0.046895924631556341 -0.099640457450003272 0 -0.055973796613101583 -0.11154457769597879 0 -0.046895924631556341 -0.099640457450003272 0 -0.041972484009239593 -0.11125691353498 0 -0.046895924631556341 -0.099640457450003272 0 -0.041972484009239593 -0.11125691353498 0 -0.027814197350204149 -0.1002222595639333 0 -0.037149979327061843 -0.086545702414286968 0 -0.046895924631556341 -0.099640457450003272 0 -0.027814197350204149 -0.1002222595639333 0 -0.027958050649480481 -0.11798595469309241 0 -0.051469099840166933 -0.12560748285855791 0 -0.041972484009239593 -0.11125691353498 0 -0.027958050649480481 -0.11798595469309241 0 -0.051469099840166933 -0.12560748285855791 0 -0.041972484009239593 -0.11125691353498 0 -0.027958050649480481 -0.11798595469309241 0 -0.027814197350204149 -0.1002222595639333 0 -0.027958050649480481 -0.11798595469309241 0 -0.051469099840166933 -0.12560748285855791 0 -0.035009396245865847 -0.13138946507283039 0 -0.027958050649480481 -0.11798595469309241 0 -0.027814197350204149 -0.1002222595639333 0 -0.004447001458793981 -0.1103644265276268 0 -0.027958050649480481 -0.11798595469309241 0 -0.004447001458793981 -0.1103644265276268 0 -0.0041979068999104599 -0.092692987180200151 0 -0.027814197350204149 -0.1002222595639333 0 -0.004447001458793981 -0.1103644265276268 0 -0.027958050649480481 -0.11798595469309241 0 -0.004447001458793981 -0.1103644265276268 0 -0.0095835093286126792 -0.13067357323387099 0 -0.0095835093286126792 -0.13067357323387099 0 -0.02380622872257708 -0.13863305153198521 0 -0.011420010772425999 -0.14358906931216731 0 -0.0095835093286126792 -0.13067357323387099 0 -0.02380622872257708 -0.13863305153198521 0 -0.035009396245865847 -0.13138946507283039 0 -0.0095835093286126792 -0.13067357323387099 0 -0.035009396245865847 -0.13138946507283039 0 -0.027958050649480481 -0.11798595469309241 0 -0.0095835093286126792 -0.13067357323387099 0 -0.035009396245865847 -0.13138946507283039 0 -0.02380622872257708 -0.13863305153198521 0 -0.02156928320199206 -0.15178510772423359 0 -0.048274716116422638 -0.14250705937413011 0 -0.02380622872257708 -0.13863305153198521 0 -0.02156928320199206 -0.15178510772423359 0 -0.011420010772425999 -0.14358906931216731 0 -0.02156928320199206 -0.15178510772423359 0 0.0051361497124387812 -0.16106315607433669 0 0.00014451492137988051 -0.1496259991592768 0 -0.0095835093286126792 -0.13067357323387099 0 -0.011420010772425999 -0.14358906931216731 0 0.00014451492137988051 -0.1496259991592768 0 -0.02156928320199206 -0.15178510772423359 0 -0.011420010772425999 -0.14358906931216731 0 0.00014451492137988051 -0.1496259991592768 0 -0.011473423231508561 -0.16625464439919799 0 -0.001198061652550745 -0.17280609881212911 0 0.0051361497124387812 -0.16106315607433669 0 -0.011473423231508561 -0.16625464439919799 0 0.0051361497124387812 -0.16106315607433669 0 -0.02156928320199206 -0.15178510772423359 0 -0.011473423231508561 -0.16625464439919799 0 0.0051361497124387812 -0.16106315607433669 0 -0.02156928320199206 -0.15178510772423359 0 0.0051361497124387812 -0.16106315607433669 0 -0.011473423231508561 -0.16625464439919799 0 -0.011684220618858611 -0.1828185141711022 0 -0.001198061652550745 -0.17280609881212911 0 -0.011684220618858611 -0.1828185141711022 0 -0.001198061652550745 -0.17280609881212911 0 0.0039750345954989988 -0.18651425943902311 0 -0.011684220618858611 -0.1828185141711022 0 -0.028082996175455729 -0.1714461327240597 0 -0.02834353692262364 -0.19660149069868879 0 -0.011473423231508561 -0.16625464439919799 0 -0.011684220618858611 -0.1828185141711022 0 -0.028082996175455729 -0.1714461327240597 0 -0.028082996175455729 -0.1714461327240597 0 -0.035076942590977253 -0.17251068978070239 0 -0.02834353692262364 -0.19660149069868879 0 -0.011473423231508561 -0.16625464439919799 0 -0.028082996175455729 -0.1714461327240597 0 -0.011473423231508561 -0.16625464439919799 0 -0.022251169661310358 -0.16246870980996381 0 -0.028082996175455729 -0.1714461327240597 0 -0.02156928320199206 -0.15178510772423359 0 -0.011473423231508561 -0.16625464439919799 0 -0.022251169661310358 -0.16246870980996381 0 -0.022251169661310358 -0.16246870980996381 0 -0.028082996175455729 -0.1714461327240597 0 -0.031809345178707003 -0.1640816166355436 0 -0.02156928320199206 -0.15178510772423359 0 -0.022251169661310358 -0.16246870980996381 0 -0.031809345178707003 -0.1640816166355436 0 -0.02156928320199206 -0.15178510772423359 0 -0.031809345178707003 -0.1640816166355436 0 -0.040578875443760723 -0.15702635465982459 0 -0.031809345178707003 -0.1640816166355436 0 -0.043296803998745907 -0.16925270511447771 0 -0.040578875443760723 -0.15702635465982459 0 -0.031809345178707003 -0.1640816166355436 0 -0.043296803998745907 -0.16925270511447771 0 -0.035076942590977253 -0.17251068978070239 0 -0.028082996175455729 -0.1714461327240597 0 -0.031809345178707003 -0.1640816166355436 0 -0.035076942590977253 -0.17251068978070239 0 -0.043296803998745907 -0.16925270511447771 0 -0.040578875443760723 -0.15702635465982459 0 -0.04778301199147586 -0.16221110159835439 0 -0.035076942590977253 -0.17251068978070239 0 -0.045101912546314182 -0.17781348514508699 0 -0.045384173352602211 -0.1896086705553881 0 -0.035076942590977253 -0.17251068978070239 0 -0.02834353692262364 -0.19660149069868879 0 -0.035076942590977253 -0.17251068978070239 0 -0.02834353692262364 -0.19660149069868879 0 -0.045384173352602211 -0.1896086705553881 0 -0.043296803998745907 -0.16925270511447771 0 -0.035076942590977253 -0.17251068978070239 0 -0.045101912546314182 -0.17781348514508699 0 -0.043296803998745907 -0.16925270511447771 0 -0.045101912546314182 -0.17781348514508699 0 -0.050116399936897628 -0.17439367801967379 0 -0.053826302631423108 -0.18719098183538219 0 -0.0513777658433901 -0.18144884671813011 0 -0.045384173352602211 -0.1896086705553881 0 -0.045101912546314182 -0.17781348514508699 0 -0.0513777658433901 -0.18144884671813011 0 -0.045384173352602211 -0.1896086705553881 0 -0.053826302631423108 -0.18719098183538219 0 -0.0513777658433901 -0.18144884671813011 0 -0.05724186851000123 -0.18306086139846869 0 -0.050116399936897628 -0.17439367801967379 0 -0.056462731779267583 -0.17707926816758701 0 -0.053733136905861317 -0.1679726515631198 0 -0.0513777658433901 -0.18144884671813011 0 -0.050116399936897628 -0.17439367801967379 0 -0.056462731779267583 -0.17707926816758701 0 -0.045101912546314182 -0.17781348514508699 0 -0.0513777658433901 -0.18144884671813011 0 -0.050116399936897628 -0.17439367801967379 0 -0.061772453938110018 -0.1722676601875073 0 -0.056462731779267583 -0.17707926816758701 0 -0.064464826801710964 -0.18158017590305259 0 -0.061772453938110018 -0.1722676601875073 0 -0.056462731779267583 -0.17707926816758701 0 -0.053733136905861317 -0.1679726515631198 0 -0.056462731779267583 -0.17707926816758701 0 -0.05724186851000123 -0.18306086139846869 0 -0.064464826801710964 -0.18158017590305259 0 -0.0513777658433901 -0.18144884671813011 0 -0.056462731779267583 -0.17707926816758701 0 -0.05724186851000123 -0.18306086139846869 0 -0.05724186851000123 -0.18306086139846869 0 -0.060077715494214402 -0.1880050343681916 0 -0.064464826801710964 -0.18158017590305259 0 -0.053826302631423108 -0.18719098183538219 0 -0.05724186851000123 -0.18306086139846869 0 -0.060077715494214402 -0.1880050343681916 0 -0.04778301199147586 -0.16221110159835439 0 -0.053733136905861317 -0.1679726515631198 0 -0.054318116428342743 -0.1550095253668563 0 -0.040578875443760723 -0.15702635465982459 0 -0.04778301199147586 -0.16221110159835439 0 -0.054318116428342743 -0.1550095253668563 0 -0.043296803998745907 -0.16925270511447771 0 -0.04778301199147586 -0.16221110159835439 0 -0.053733136905861317 -0.1679726515631198 0 -0.043296803998745907 -0.16925270511447771 0 -0.050116399936897628 -0.17439367801967379 0 -0.053733136905861317 -0.1679726515631198 0 -0.061772453938110018 -0.1722676601875073 0 -0.053733136905861317 -0.1679726515631198 0 -0.064150653413557149 -0.1630994165534029 0 -0.053733136905861317 -0.1679726515631198 0 -0.054318116428342743 -0.1550095253668563 0 -0.064150653413557149 -0.1630994165534029 0 -0.054318116428342743 -0.1550095253668563 0 -0.06193597557114254 -0.14487761168208729 0 -0.07017092070895159 -0.14876485096333639 0 -0.040578875443760723 -0.15702635465982459 0 -0.054318116428342743 -0.1550095253668563 0 -0.048274716116422638 -0.14250705937413011 0 -0.054318116428342743 -0.1550095253668563 0 -0.048274716116422638 -0.14250705937413011 0 -0.06193597557114254 -0.14487761168208729 0 -0.048274716116422638 -0.14250705937413011 0 -0.06193597557114254 -0.14487761168208729 0 -0.074980149030852788 -0.13322901102402521 0 -0.048274716116422638 -0.14250705937413011 0 -0.074980149030852788 -0.13322901102402521 0 -0.048274716116422638 -0.14250705937413011 0 -0.060435283163119087 -0.13210535691178979 0 -0.035009396245865847 -0.13138946507283039 0 -0.060435283163119087 -0.13210535691178979 0 -0.051469099840166933 -0.12560748285855791 0 -0.035009396245865847 -0.13138946507283039 0 -0.060435283163119087 -0.13210535691178979 0 -0.051469099840166933 -0.12560748285855791 0 -0.074980149030852788 -0.13322901102402521 0 -0.048274716116422638 -0.14250705937413011 0 -0.060435283163119087 -0.13210535691178979 0 -0.074980149030852788 -0.13322901102402521 0 -0.060435283163119087 -0.13210535691178979 0 -0.035009396245865847 -0.13138946507283039 0 -0.02380622872257708 -0.13863305153198521 0 -0.048274716116422638 -0.14250705937413011 0 -0.035009396245865847 -0.13138946507283039 0 -0.02156928320199206 -0.15178510772423359 0 -0.048274716116422638 -0.14250705937413011 0 -0.02156928320199206 -0.15178510772423359 0 -0.040578875443760723 -0.15702635465982459 0 -0.048274716116422638 -0.14250705937413011 0 -0.012379740604400009 -0.25371681360357518 0 -0.01487672558591642 -0.24478309253466149 0 -0.032983601381048028 -0.2367885997845538 0 -0.012379740604400009 -0.25371681360357518 0 -0.032983601381048028 -0.2367885997845538 0 -0.012379740604400009 -0.25371681360357518 0 -0.027326811110253871 -0.25121816526868662 0 -0.032983601381048028 -0.2367885997845538 0 -0.012379740604400009 -0.25371681360357518 0 -0.01487672558591642 -0.24478309253466149 0 -0.0050603712554523096 -0.25502580822232418 0 -0.01487672558591642 -0.24478309253466149 0 -0.0012779613340340411 -0.24176494305706761 0 -0.01487672558591642 -0.24478309253466149 0 -0.0012779613340340411 -0.24176494305706761 0 -0.0098443816872556354 -0.23359128343904409 0 -0.01487672558591642 -0.24478309253466149 0 -0.0098443816872556354 -0.23359128343904409 0 -0.02161013125427003 -0.22069229161667511 0 -0.0098443816872556354 -0.23359128343904409 0 -0.0016127085748020571 -0.22712480654777251 0 -0.02161013125427003 -0.22069229161667511 0 -0.0012779613340340411 -0.24176494305706761 0 -0.0098443816872556354 -0.23359128343904409 0 -0.0016127085748020571 -0.22712480654777251 0 -0.02161013125427003 -0.22069229161667511 0 -0.037749047324124332 -0.2222456785719269 0 -0.032983601381048028 -0.2367885997845538 0 -0.01487672558591642 -0.24478309253466149 0 -0.02161013125427003 -0.22069229161667511 0 -0.01487672558591642 -0.24478309253466149 0 -0.02161013125427003 -0.22069229161667511 0 -0.032983601381048028 -0.2367885997845538 0 -0.02161013125427003 -0.22069229161667511 0 -0.0048422933519348798 -0.20657909219758999 0 -0.02834353692262364 -0.19660149069868879 0 -0.02161013125427003 -0.22069229161667511 0 -0.02834353692262364 -0.19660149069868879 0 -0.04042466355054887 -0.21142906939722611 0 -0.02161013125427003 -0.22069229161667511 0 -0.02834353692262364 -0.19660149069868879 0 -0.0016127085748020571 -0.22712480654777251 0 -0.02161013125427003 -0.22069229161667511 0 -0.0048422933519348798 -0.20657909219758999 0 -0.011684220618858611 -0.1828185141711022 0 -0.0048422933519348798 -0.20657909219758999 0 -0.02834353692262364 -0.19660149069868879 0 -0.011684220618858611 -0.1828185141711022 0 -0.0048422933519348798 -0.20657909219758999 0 0.0039750345954989988 -0.18651425943902311 0 -0.02834353692262364 -0.19660149069868879 0 -0.045384173352602211 -0.1896086705553881 0 -0.048680880466514129 -0.20143667782743011 0 -0.045384173352602211 -0.1896086705553881 0 -0.054600152190027743 -0.1938329285883432 0 -0.048680880466514129 -0.20143667782743011 0 -0.053826302631423108 -0.18719098183538219 0 -0.045384173352602211 -0.1896086705553881 0 -0.054600152190027743 -0.1938329285883432 0 -0.053826302631423108 -0.18719098183538219 0 -0.054600152190027743 -0.1938329285883432 0 -0.060077715494214402 -0.1880050343681916 0 -0.054600152190027743 -0.1938329285883432 0 -0.062207823669324508 -0.19415899925277841 0 -0.060077715494214402 -0.1880050343681916 0 -0.05727161150443684 -0.20059064904333551 0 -0.063912376375580449 -0.2061057797213553 0 -0.063099371948942468 -0.19895763039768499 0 -0.062207823669324508 -0.19415899925277841 0 -0.05727161150443684 -0.20059064904333551 0 -0.063099371948942468 -0.19895763039768499 0 -0.054600152190027743 -0.1938329285883432 0 -0.062207823669324508 -0.19415899925277841 0 -0.05727161150443684 -0.20059064904333551 0 -0.054600152190027743 -0.1938329285883432 0 -0.05727161150443684 -0.20059064904333551 0 -0.048680880466514129 -0.20143667782743011 0 -0.05727161150443684 -0.20059064904333551 0 -0.048680880466514129 -0.20143667782743011 0 -0.053253465001542127 -0.20792698589572001 0 -0.052910920334218993 -0.21967129177291539 0 -0.069612749235620427 -0.2166114240769427 0 -0.064663204576268285 -0.2095762323379651 0 -0.048680880466514129 -0.20143667782743011 0 -0.053253465001542127 -0.20792698589572001 0 -0.04042466355054887 -0.21142906939722611 0 -0.05727161150443684 -0.20059064904333551 0 -0.053253465001542127 -0.20792698589572001 0 -0.063912376375580449 -0.2061057797213553 0 -0.053253465001542127 -0.20792698589572001 0 -0.052910920334218993 -0.21967129177291539 0 -0.063912376375580449 -0.2061057797213553 0 -0.052910920334218993 -0.21967129177291539 0 -0.064663204576268285 -0.2095762323379651 0 -0.052910920334218993 -0.21967129177291539 0 -0.063912376375580449 -0.2061057797213553 0 -0.064663204576268285 -0.2095762323379651 0 -0.052910920334218993 -0.21967129177291539 0 -0.063912376375580449 -0.2061057797213553 0 -0.053253465001542127 -0.20792698589572001 0 -0.04042466355054887 -0.21142906939722611 0 -0.052910920334218993 -0.21967129177291539 0 -0.02834353692262364 -0.19660149069868879 0 -0.048680880466514129 -0.20143667782743011 0 -0.04042466355054887 -0.21142906939722611 0 -0.02161013125427003 -0.22069229161667511 0 -0.04042466355054887 -0.21142906939722611 0 -0.037749047324124332 -0.2222456785719269 0 -0.04042466355054887 -0.21142906939722611 0 -0.037749047324124332 -0.2222456785719269 0 -0.052910920334218993 -0.21967129177291539 0 -0.037749047324124332 -0.2222456785719269 0 -0.052910920334218993 -0.21967129177291539 0 -0.032983601381048028 -0.2367885997845538 0 -0.052910920334218993 -0.21967129177291539 0 -0.032983601381048028 -0.2367885997845538 0 -0.052910920334218993 -0.21967129177291539 0 -0.032983601381048028 -0.2367885997845538 0 -0.040118865722236351 -0.23544472852080089 0 -0.052910920334218993 -0.21967129177291539 0 -0.040118865722236351 -0.23544472852080089 0 -0.052910920334218993 -0.21967129177291539 0 -0.054603171266369793 -0.23243375726732241 0 -0.069083472660325121 -0.22748117926656231 0 -0.052910920334218993 -0.21967129177291539 0 -0.054603171266369793 -0.23243375726732241 0 -0.040118865722236351 -0.23544472852080089 0 -0.054603171266369793 -0.23243375726732241 0 -0.062344578928600528 -0.23779073398242739 0 -0.069083472660325121 -0.22748117926656231 0 -0.054603171266369793 -0.23243375726732241 0 -0.052406799216804557 -0.24459198769464191 0 -0.040118865722236351 -0.23544472852080089 0 -0.054603171266369793 -0.23243375726732241 0 -0.062344578928600528 -0.23779073398242739 0 -0.052406799216804557 -0.24459198769464191 0 -0.065421878849430556 -0.25167039592025259 0 -0.062344578928600528 -0.23779073398242739 0 -0.052406799216804557 -0.24459198769464191 0 -0.027326811110253871 -0.25121816526868662 0 -0.040785035177160277 -0.24958968680164759 0 -0.040118865722236351 -0.23544472852080089 0 -0.027326811110253871 -0.25121816526868662 0 -0.032983601381048028 -0.2367885997845538 0 -0.040118865722236351 -0.23544472852080089 0 -0.027326811110253871 -0.25121816526868662 0 -0.040118865722236351 -0.23544472852080089 0 -0.052406799216804557 -0.24459198769464191 0 -0.040785035177160277 -0.24958968680164759 0 -0.040118865722236351 -0.23544472852080089 0 -0.078278243085297239 -0.23951664672932549 0 -0.086153706899138552 -0.22983104630755541 0 -0.09423246880553815 -0.23787512664900909 0 -0.093765691765433312 -0.25258281812082478 0 -0.078278243085297239 -0.23951664672932549 0 -0.09423246880553815 -0.23787512664900909 0 -0.062344578928600528 -0.23779073398242739 0 -0.078278243085297239 -0.23951664672932549 0 -0.069083472660325121 -0.22748117926656231 0 -0.065421878849430556 -0.25167039592025259 0 -0.062344578928600528 -0.23779073398242739 0 -0.078278243085297239 -0.23951664672932549 0 -0.065421878849430556 -0.25167039592025259 0 -0.079465288233698042 -0.25846821731041458 0 -0.078278243085297239 -0.23951664672932549 0 -0.052910920334218993 -0.21967129177291539 0 -0.069083472660325121 -0.22748117926656231 0 -0.069612749235620427 -0.2166114240769427 0 -0.078278243085297239 -0.23951664672932549 0 -0.069083472660325121 -0.22748117926656231 0 -0.086153706899138552 -0.22983104630755541 0 -0.069083472660325121 -0.22748117926656231 0 -0.082890498454507591 -0.21890744373665691 0 -0.069612749235620427 -0.2166114240769427 0 -0.082890498454507591 -0.21890744373665691 0 -0.086153706899138552 -0.22983104630755541 0 -0.098908818798469189 -0.22405916704643611 0 -0.082890498454507591 -0.21890744373665691 0 -0.092414465742116453 -0.21356058677725129 0 -0.098908818798469189 -0.22405916704643611 0 -0.069083472660325121 -0.22748117926656231 0 -0.082890498454507591 -0.21890744373665691 0 -0.086153706899138552 -0.22983104630755541 0 -0.086153706899138552 -0.22983104630755541 0 -0.098908818798469189 -0.22405916704643611 0 -0.09423246880553815 -0.23787512664900909 0 -0.082890498454507591 -0.21890744373665691 0 -0.092414465742116453 -0.21356058677725129 0 -0.085039292724931326 -0.20636870672523311 0 -0.092414465742116453 -0.21356058677725129 0 -0.085039292724931326 -0.20636870672523311 0 -0.094924882140715844 -0.2023400251814354 0 -0.085039292724931326 -0.20636870672523311 0 -0.076791362556699633 -0.2103212049296195 0 -0.076415488818317417 -0.19948117290301459 0 -0.082890498454507591 -0.21890744373665691 0 -0.085039292724931326 -0.20636870672523311 0 -0.076791362556699633 -0.2103212049296195 0 -0.082890498454507591 -0.21890744373665691 0 -0.069612749235620427 -0.2166114240769427 0 -0.076791362556699633 -0.2103212049296195 0 -0.069612749235620427 -0.2166114240769427 0 -0.07187070129672643 -0.20899750856188551 0 -0.076791362556699633 -0.2103212049296195 0 -0.069612749235620427 -0.2166114240769427 0 -0.064663204576268285 -0.2095762323379651 0 -0.07187070129672643 -0.20899750856188551 0 -0.063912376375580449 -0.2061057797213553 0 -0.064663204576268285 -0.2095762323379651 0 -0.076415488818317417 -0.19948117290301459 0 -0.064663204576268285 -0.2095762323379651 0 -0.07187070129672643 -0.20899750856188551 0 -0.076415488818317417 -0.19948117290301459 0 -0.07187070129672643 -0.20899750856188551 0 -0.076791362556699633 -0.2103212049296195 0 -0.076415488818317417 -0.19948117290301459 0 -0.064663204576268285 -0.2095762323379651 0 -0.076415488818317417 -0.19948117290301459 0 -0.063912376375580449 -0.2061057797213553 0 -0.076415488818317417 -0.19948117290301459 0 -0.074913832416942036 -0.19254026766979529 0 -0.063912376375580449 -0.2061057797213553 0 -0.074913832416942036 -0.19254026766979529 0 -0.063912376375580449 -0.2061057797213553 0 -0.067162409966087119 -0.19576756974744089 0 -0.074913832416942036 -0.19254026766979529 0 -0.063912376375580449 -0.2061057797213553 0 -0.067162409966087119 -0.19576756974744089 0 -0.063099371948942468 -0.19895763039768499 0 -0.062207823669324508 -0.19415899925277841 0 -0.067162409966087119 -0.19576756974744089 0 -0.063099371948942468 -0.19895763039768499 0 -0.062207823669324508 -0.19415899925277841 0 -0.060077715494214402 -0.1880050343681916 0 -0.067992112858964282 -0.18866012404393079 0 -0.062207823669324508 -0.19415899925277841 0 -0.067162409966087119 -0.19576756974744089 0 -0.067992112858964282 -0.18866012404393079 0 -0.067162409966087119 -0.19576756974744089 0 -0.067992112858964282 -0.18866012404393079 0 -0.074913832416942036 -0.19254026766979529 0 -0.067992112858964282 -0.18866012404393079 0 -0.074913832416942036 -0.19254026766979529 0 -0.075495957942860306 -0.18151306003065079 0 -0.076415488818317417 -0.19948117290301459 0 -0.074913832416942036 -0.19254026766979529 0 -0.086799058637230975 -0.19360180682342101 0 -0.074913832416942036 -0.19254026766979529 0 -0.086799058637230975 -0.19360180682342101 0 -0.081197999186964104 -0.18678207382066461 0 -0.085039292724931326 -0.20636870672523311 0 -0.076415488818317417 -0.19948117290301459 0 -0.086799058637230975 -0.19360180682342101 0 -0.085039292724931326 -0.20636870672523311 0 -0.086799058637230975 -0.19360180682342101 0 -0.094924882140715844 -0.2023400251814354 0 -0.086799058637230975 -0.19360180682342101 0 -0.095726771505572558 -0.1875603531079979 0 -0.094924882140715844 -0.2023400251814354 0 -0.094924882140715844 -0.2023400251814354 0 -0.111160472432858 -0.1885386204747187 0 -0.094924882140715844 -0.2023400251814354 0 -0.111160472432858 -0.1885386204747187 0 -0.1114495577303883 -0.20340811176391119 0 -0.095726771505572558 -0.1875603531079979 0 -0.094924882140715844 -0.2023400251814354 0 -0.111160472432858 -0.1885386204747187 0 -0.111160472432858 -0.1885386204747187 0 -0.1221143178041114 -0.19234248283227301 0 -0.1210277983726237 -0.20080419496638871 0 -0.1221143178041114 -0.19234248283227301 0 -0.1210277983726237 -0.20080419496638871 0 -0.1287375196768317 -0.1989974444917289 0 -0.111160472432858 -0.1885386204747187 0 -0.1210277983726237 -0.20080419496638871 0 -0.1114495577303883 -0.20340811176391119 0 -0.1210277983726237 -0.20080419496638871 0 -0.1114495577303883 -0.20340811176391119 0 -0.1178360582138414 -0.2087755546500478 0 -0.1114495577303883 -0.20340811176391119 0 -0.1178360582138414 -0.2087755546500478 0 -0.1085815399970629 -0.214445376318082 0 -0.1210277983726237 -0.20080419496638871 0 -0.1178360582138414 -0.2087755546500478 0 -0.1261734044947341 -0.20832382066201691 0 -0.1178360582138414 -0.2087755546500478 0 -0.121947990474398 -0.21689626953984009 0 -0.1261734044947341 -0.20832382066201691 0 -0.1178360582138414 -0.2087755546500478 0 -0.121947990474398 -0.21689626953984009 0 -0.1085815399970629 -0.214445376318082 0 -0.092414465742116453 -0.21356058677725129 0 -0.094924882140715844 -0.2023400251814354 0 -0.1085815399970629 -0.214445376318082 0 -0.092414465742116453 -0.21356058677725129 0 -0.1085815399970629 -0.214445376318082 0 -0.098908818798469189 -0.22405916704643611 0 -0.094924882140715844 -0.2023400251814354 0 -0.1114495577303883 -0.20340811176391119 0 -0.1085815399970629 -0.214445376318082 0 -0.098908818798469189 -0.22405916704643611 0 -0.1146679177639674 -0.22763479024990699 0 -0.1064059993424292 -0.23999004584722569 0 -0.098908818798469189 -0.22405916704643611 0 -0.1064059993424292 -0.23999004584722569 0 -0.09423246880553815 -0.23787512664900909 0 -0.1085815399970629 -0.214445376318082 0 -0.098908818798469189 -0.22405916704643611 0 -0.1146679177639674 -0.22763479024990699 0 -0.1146679177639674 -0.22763479024990699 0 -0.1192340303868117 -0.24478318800158869 0 -0.13163987617815839 -0.22779776194380719 0 -0.121947990474398 -0.21689626953984009 0 -0.1085815399970629 -0.214445376318082 0 -0.1146679177639674 -0.22763479024990699 0 -0.121947990474398 -0.21689626953984009 0 -0.1146679177639674 -0.22763479024990699 0 -0.13163987617815839 -0.22779776194380719 0 -0.10928029933534041 -0.25911330461652088 0 -0.1192340303868117 -0.24478318800158869 0 -0.1064059993424292 -0.23999004584722569 0 -0.1146679177639674 -0.22763479024990699 0 -0.1192340303868117 -0.24478318800158869 0 -0.1064059993424292 -0.23999004584722569 0 -0.093765691765433312 -0.25258281812082478 0 -0.1064059993424292 -0.23999004584722569 0 -0.09423246880553815 -0.23787512664900909 0 -0.087025139202339175 -0.14924119698846519 0 -0.093760481790990557 -0.16258763704399551 0 -0.10010201785652401 -0.1437821866573995 0 -0.087025139202339175 -0.14924119698846519 0 -0.083645274202728603 -0.1360379667205176 0 -0.10010201785652401 -0.1437821866573995 0 -0.078981128367974607 -0.14447571604620801 0 -0.087025139202339175 -0.14924119698846519 0 -0.083645274202728603 -0.1360379667205176 0 -0.078981128367974607 -0.14447571604620801 0 -0.087025139202339175 -0.14924119698846519 0 -0.078636793793478016 -0.15932247847420561 0 -0.083645274202728603 -0.1360379667205176 0 -0.10010201785652401 -0.1437821866573995 0 -0.096101065320712109 -0.1258911452360538 0 -0.076666436282660663 -0.13264315814890179 0 -0.096101065320712109 -0.1258911452360538 0 -0.083645274202728603 -0.1360379667205176 0 -0.076666436282660663 -0.13264315814890179 0 -0.096101065320712109 -0.1258911452360538 0 -0.078981128367974607 -0.14447571604620801 0 -0.083645274202728603 -0.1360379667205176 0 -0.074980149030852788 -0.13322901102402521 0 -0.083645274202728603 -0.1360379667205176 0 -0.074980149030852788 -0.13322901102402521 0 -0.076666436282660663 -0.13264315814890179 0 -0.083645274202728603 -0.1360379667205176 0 -0.074980149030852788 -0.13322901102402521 0 -0.063965210873385206 -0.121372291062271 0 -0.051469099840166933 -0.12560748285855791 0 -0.074980149030852788 -0.13322901102402521 0 -0.051469099840166933 -0.12560748285855791 0 -0.074980149030852788 -0.13322901102402521 0 -0.074980149030852788 -0.13322901102402521 0 -0.076666436282660663 -0.13264315814890179 0 -0.072499038737136423 -0.12336773177227039 0 -0.074980149030852788 -0.13322901102402521 0 -0.076666436282660663 -0.13264315814890179 0 -0.063965210873385206 -0.121372291062271 0 -0.072499038737136423 -0.12336773177227039 0 -0.074980149030852788 -0.13322901102402521 0 -0.054318116428342743 -0.1550095253668563 0 -0.07017092070895159 -0.14876485096333639 0 -0.064150653413557149 -0.1630994165534029 0 -0.06193597557114254 -0.14487761168208729 0 -0.074980149030852788 -0.13322901102402521 0 -0.07017092070895159 -0.14876485096333639 0 -0.078981128367974607 -0.14447571604620801 0 -0.074980149030852788 -0.13322901102402521 0 -0.07017092070895159 -0.14876485096333639 0 -0.074980149030852788 -0.13322901102402521 0 -0.07017092070895159 -0.14876485096333639 0 -0.078981128367974607 -0.14447571604620801 0 -0.07017092070895159 -0.14876485096333639 0 -0.078636793793478016 -0.15932247847420561 0 -0.061772453938110018 -0.1722676601875073 0 -0.064150653413557149 -0.1630994165534029 0 -0.070050920790153071 -0.171606788750374 0 -0.064150653413557149 -0.1630994165534029 0 -0.070050920790153071 -0.171606788750374 0 -0.078636793793478016 -0.15932247847420561 0 -0.070050920790153071 -0.171606788750374 0 -0.079209040401629252 -0.1719092953843511 0 -0.078636793793478016 -0.15932247847420561 0 -0.07017092070895159 -0.14876485096333639 0 -0.064150653413557149 -0.1630994165534029 0 -0.078636793793478016 -0.15932247847420561 0 -0.060077715494214402 -0.1880050343681916 0 -0.067992112858964282 -0.18866012404393079 0 -0.064464826801710964 -0.18158017590305259 0 -0.067992112858964282 -0.18866012404393079 0 -0.064464826801710964 -0.18158017590305259 0 -0.075495957942860306 -0.18151306003065079 0 -0.061772453938110018 -0.1722676601875073 0 -0.070050920790153071 -0.171606788750374 0 -0.064464826801710964 -0.18158017590305259 0 -0.070050920790153071 -0.171606788750374 0 -0.064464826801710964 -0.18158017590305259 0 -0.075495957942860306 -0.18151306003065079 0 -0.070050920790153071 -0.171606788750374 0 -0.075495957942860306 -0.18151306003065079 0 -0.079209040401629252 -0.1719092953843511 0 -0.074913832416942036 -0.19254026766979529 0 -0.075495957942860306 -0.18151306003065079 0 -0.081197999186964104 -0.18678207382066461 0 -0.08758314775082314 -0.17947316075879149 0 -0.093760481790990557 -0.16258763704399551 0 -0.099296370832405903 -0.1778108956523228 0 -0.075495957942860306 -0.18151306003065079 0 -0.081197999186964104 -0.18678207382066461 0 -0.08758314775082314 -0.17947316075879149 0 -0.086799058637230975 -0.19360180682342101 0 -0.081197999186964104 -0.18678207382066461 0 -0.08758314775082314 -0.17947316075879149 0 -0.075495957942860306 -0.18151306003065079 0 -0.079209040401629252 -0.1719092953843511 0 -0.08758314775082314 -0.17947316075879149 0 -0.086799058637230975 -0.19360180682342101 0 -0.095726771505572558 -0.1875603531079979 0 -0.08758314775082314 -0.17947316075879149 0 -0.079209040401629252 -0.1719092953843511 0 -0.08758314775082314 -0.17947316075879149 0 -0.093760481790990557 -0.16258763704399551 0 -0.079209040401629252 -0.1719092953843511 0 -0.078636793793478016 -0.15932247847420561 0 -0.093760481790990557 -0.16258763704399551 0 -0.087025139202339175 -0.14924119698846519 0 -0.078636793793478016 -0.15932247847420561 0 -0.093760481790990557 -0.16258763704399551 0 -0.093760481790990557 -0.16258763704399551 0 -0.10825098068178519 -0.1708947068761103 0 -0.099296370832405903 -0.1778108956523228 0 -0.093760481790990557 -0.16258763704399551 0 -0.10825098068178519 -0.1708947068761103 0 -0.1079275826681496 -0.15587426481125419 0 -0.111160472432858 -0.1885386204747187 0 -0.10825098068178519 -0.1708947068761103 0 -0.099296370832405903 -0.1778108956523228 0 -0.095726771505572558 -0.1875603531079979 0 -0.08758314775082314 -0.17947316075879149 0 -0.099296370832405903 -0.1778108956523228 0 -0.095726771505572558 -0.1875603531079979 0 -0.111160472432858 -0.1885386204747187 0 -0.099296370832405903 -0.1778108956523228 0 -0.111160472432858 -0.1885386204747187 0 -0.12739606272500029 -0.17473721576800191 0 -0.111160472432858 -0.1885386204747187 0 -0.1221143178041114 -0.19234248283227301 0 -0.12739606272500029 -0.17473721576800191 0 -0.111160472432858 -0.1885386204747187 0 -0.10825098068178519 -0.1708947068761103 0 -0.12739606272500029 -0.17473721576800191 0 -0.1214658785418825 -0.14693817404560541 0 -0.12739606272500029 -0.17473721576800191 0 -0.1214658785418825 -0.14693817404560541 0 -0.1079275826681496 -0.15587426481125419 0 -0.12739606272500029 -0.17473721576800191 0 -0.10825098068178519 -0.1708947068761103 0 -0.1079275826681496 -0.15587426481125419 0 -0.12739606272500029 -0.17473721576800191 0 -0.1214658785418825 -0.14693817404560541 0 -0.10010201785652401 -0.1437821866573995 0 -0.10830116401947081 -0.1339376595655668 0 -0.1214658785418825 -0.14693817404560541 0 -0.10010201785652401 -0.1437821866573995 0 -0.1079275826681496 -0.15587426481125419 0 -0.093760481790990557 -0.16258763704399551 0 -0.10010201785652401 -0.1437821866573995 0 -0.1079275826681496 -0.15587426481125419 0 -0.10010201785652401 -0.1437821866573995 0 -0.10830116401947081 -0.1339376595655668 0 -0.096101065320712109 -0.1258911452360538 0 -0.11649007265168369 -0.1188075605425003 0 -0.10830116401947081 -0.1339376595655668 0 -0.096101065320712109 -0.1258911452360538 0 -0.11649007265168369 -0.1188075605425003 0 -0.12922628187284879 -0.14058113888636839 0 -0.1252704192176744 -0.1172440966648565 0 -0.11649007265168369 -0.1188075605425003 0 -0.12922628187284879 -0.14058113888636839 0 -0.11649007265168369 -0.1188075605425003 0 -0.1214658785418825 -0.14693817404560541 0 -0.11649007265168369 -0.1188075605425003 0 -0.1214658785418825 -0.14693817404560541 0 -0.10830116401947081 -0.1339376595655668 0 -0.11649007265168369 -0.1188075605425003 0 -0.1214658785418825 -0.14693817404560541 0 -0.12922628187284879 -0.14058113888636839 0 -0.12922628187284879 -0.14058113888636839 0 -0.1355018371655794 -0.1265678790332187 0 -0.1252704192176744 -0.1172440966648565 0 -0.12922628187284879 -0.14058113888636839 0 -0.1355018371655794 -0.1265678790332187 0 -0.14553009116939669 -0.13537661130197329 0 -0.1355018371655794 -0.1265678790332187 0 -0.14553009116939669 -0.13537661130197329 0 -0.14420813470266419 -0.11805716313719079 0 -0.14553009116939669 -0.13537661130197329 0 -0.15056350488257919 -0.15504324471534639 0 -0.1628079644011253 -0.13038477387159439 0 -0.14553009116939669 -0.13537661130197329 0 -0.1628079644011253 -0.13038477387159439 0 -0.14420813470266419 -0.11805716313719079 0 -0.12922628187284879 -0.14058113888636839 0 -0.14553009116939669 -0.13537661130197329 0 -0.15056350488257919 -0.15504324471534639 0 -0.12922628187284879 -0.14058113888636839 0 -0.15056350488257919 -0.15504324471534639 0 -0.14196249109401421 -0.16235471723023651 0 -0.1214658785418825 -0.14693817404560541 0 -0.12922628187284879 -0.14058113888636839 0 -0.14196249109401421 -0.16235471723023651 0 -0.12922628187284879 -0.14058113888636839 0 -0.14196249109401421 -0.16235471723023651 0 -0.1214658785418825 -0.14693817404560541 0 -0.12739606272500029 -0.17473721576800191 0 -0.14196249109401421 -0.16235471723023651 0 -0.12739606272500029 -0.17473721576800191 0 -0.14196249109401421 -0.16235471723023651 0 -0.14465078136409831 -0.16695056657522339 0 -0.12739606272500029 -0.17473721576800191 0 -0.14196249109401421 -0.16235471723023651 0 -0.14465078136409831 -0.16695056657522339 0 -0.1314192587983791 -0.19359683159909061 0 -0.12739606272500029 -0.17473721576800191 0 -0.14465078136409831 -0.16695056657522339 0 -0.1314192587983791 -0.19359683159909061 0 -0.12739606272500029 -0.17473721576800191 0 -0.1314192587983791 -0.19359683159909061 0 -0.1221143178041114 -0.19234248283227301 0 -0.12739606272500029 -0.17473721576800191 0 -0.1314192587983791 -0.19359683159909061 0 -0.1506253399441001 -0.18191391990730801 0 -0.14704446987800041 -0.17104277042357799 0 -0.1314192587983791 -0.19359683159909061 0 -0.14704446987800041 -0.17104277042357799 0 -0.14465078136409831 -0.16695056657522339 0 -0.1314192587983791 -0.19359683159909061 0 -0.1506253399441001 -0.18191391990730801 0 -0.14704446987800041 -0.17104277042357799 0 -0.15648019532635571 -0.17138255085024329 0 -0.1506253399441001 -0.18191391990730801 0 -0.16533888001856381 -0.18602690419207779 0 -0.1512090652639769 -0.1911736867042346 0 -0.15056350488257919 -0.15504324471534639 0 -0.14196249109401421 -0.16235471723023651 0 -0.15056350488257919 -0.15504324471534639 0 -0.14196249109401421 -0.16235471723023651 0 -0.14465078136409831 -0.16695056657522339 0 -0.15056350488257919 -0.15504324471534639 0 -0.14465078136409831 -0.16695056657522339 0 -0.14196249109401421 -0.16235471723023651 0 -0.14465078136409831 -0.16695056657522339 0 -0.14704446987800041 -0.17104277042357799 0 -0.14465078136409831 -0.16695056657522339 0 -0.14704446987800041 -0.17104277042357799 0 -0.14465078136409831 -0.16695056657522339 0 -0.15229814259742869 -0.1644326064251338 0 -0.14704446987800041 -0.17104277042357799 0 -0.15229814259742869 -0.1644326064251338 0 -0.15648019532635571 -0.17138255085024329 0 -0.15056350488257919 -0.15504324471534639 0 -0.14465078136409831 -0.16695056657522339 0 -0.15229814259742869 -0.1644326064251338 0 -0.15056350488257919 -0.15504324471534639 0 -0.15229814259742869 -0.1644326064251338 0 -0.16275176153611051 -0.15774389956127821 0 -0.16275176153611051 -0.15774389956127821 0 -0.15648019532635571 -0.17138255085024329 0 -0.17757024440875549 -0.16111115580157981 0 -0.15229814259742869 -0.1644326064251338 0 -0.16275176153611051 -0.15774389956127821 0 -0.15648019532635571 -0.17138255085024329 0 -0.15648019532635571 -0.17138255085024329 0 -0.18421608521209271 -0.17558962027652111 0 -0.15648019532635571 -0.17138255085024329 0 -0.16533888001856381 -0.18602690419207779 0 -0.18421608521209271 -0.17558962027652111 0 -0.1506253399441001 -0.18191391990730801 0 -0.15648019532635571 -0.17138255085024329 0 -0.16533888001856381 -0.18602690419207779 0 -0.16533888001856381 -0.18602690419207779 0 -0.18421608521209271 -0.17558962027652111 0 -0.1786295148813212 -0.19556646452315241 0 -0.15648019532635571 -0.17138255085024329 0 -0.18421608521209271 -0.17558962027652111 0 -0.17757024440875549 -0.16111115580157981 0 -0.18421608521209271 -0.17558962027652111 0 -0.17757024440875549 -0.16111115580157981 0 -0.1979143625406167 -0.1642252661741595 0 -0.17521357040146851 -0.14833135074901779 0 -0.18000311622314791 -0.13001748444371289 0 -0.188845491435889 -0.14939424719825839 0 -0.17757024440875549 -0.16111115580157981 0 -0.17521357040146851 -0.14833135074901779 0 -0.188845491435889 -0.14939424719825839 0 -0.18000311622314791 -0.13001748444371289 0 -0.1628079644011253 -0.13038477387159439 0 -0.18027610093587751 -0.1196181089702751 0 -0.17521357040146851 -0.14833135074901779 0 -0.18000311622314791 -0.13001748444371289 0 -0.16528331055286391 -0.14253036457953011 0 -0.18000311622314791 -0.13001748444371289 0 -0.16528331055286391 -0.14253036457953011 0 -0.18000311622314791 -0.13001748444371289 0 -0.1628079644011253 -0.13038477387159439 0 -0.16528331055286391 -0.14253036457953011 0 -0.15056350488257919 -0.15504324471534639 0 -0.1628079644011253 -0.13038477387159439 0 -0.15056350488257919 -0.15504324471534639 0 -0.1628079644011253 -0.13038477387159439 0 -0.16528331055286391 -0.14253036457953011 0 -0.15056350488257919 -0.15504324471534639 0 -0.16275176153611051 -0.15774389956127821 0 -0.16528331055286391 -0.14253036457953011 0 -0.15056350488257919 -0.15504324471534639 0 -0.16528331055286391 -0.14253036457953011 0 -0.16275176153611051 -0.15774389956127821 0 -0.17521357040146851 -0.14833135074901779 0 -0.16528331055286391 -0.14253036457953011 0 -0.16275176153611051 -0.15774389956127821 0 -0.17757024440875549 -0.16111115580157981 0 -0.17521357040146851 -0.14833135074901779 0 -0.15229660666407671 -0.25401824511238591 0 -0.14920126421366381 -0.23878179657915319 0 -0.13450504990001219 -0.2438564190910647 0 -0.1192340303868117 -0.24478318800158869 0 -0.13450504990001219 -0.2438564190910647 0 -0.13163987617815839 -0.22779776194380719 0 -0.14920126421366381 -0.23878179657915319 0 -0.13450504990001219 -0.2438564190910647 0 -0.13163987617815839 -0.22779776194380719 0 -0.121947990474398 -0.21689626953984009 0 -0.13163987617815839 -0.22779776194380719 0 -0.12955498125585521 -0.21362166548107719 0 -0.13163987617815839 -0.22779776194380719 0 -0.14668655776667011 -0.2223990925877565 0 -0.13817373448855541 -0.2139466733801943 0 -0.14920126421366381 -0.23878179657915319 0 -0.13163987617815839 -0.22779776194380719 0 -0.14668655776667011 -0.2223990925877565 0 -0.14920126421366381 -0.23878179657915319 0 -0.14668655776667011 -0.2223990925877565 0 -0.1666111544691056 -0.22171119925505031 0 -0.14668655776667011 -0.2223990925877565 0 -0.14920765704353961 -0.2069242839694774 0 -0.1666111544691056 -0.22171119925505031 0 -0.14920765704353961 -0.2069242839694774 0 -0.13817373448855541 -0.2139466733801943 0 -0.13929463799343569 -0.2052160077695602 0 -0.14920765704353961 -0.2069242839694774 0 -0.13929463799343569 -0.2052160077695602 0 -0.1420465959208794 -0.1984943042809322 0 -0.14668655776667011 -0.2223990925877565 0 -0.14920765704353961 -0.2069242839694774 0 -0.13817373448855541 -0.2139466733801943 0 -0.13163987617815839 -0.22779776194380719 0 -0.13817373448855541 -0.2139466733801943 0 -0.12955498125585521 -0.21362166548107719 0 -0.13817373448855541 -0.2139466733801943 0 -0.12955498125585521 -0.21362166548107719 0 -0.1326745573724277 -0.20747677911892251 0 -0.121947990474398 -0.21689626953984009 0 -0.12955498125585521 -0.21362166548107719 0 -0.1261734044947341 -0.20832382066201691 0 -0.1210277983726237 -0.20080419496638871 0 -0.12833971984693959 -0.20340181913978941 0 -0.1261734044947341 -0.20832382066201691 0 -0.12955498125585521 -0.21362166548107719 0 -0.1261734044947341 -0.20832382066201691 0 -0.1326745573724277 -0.20747677911892251 0 -0.12833971984693959 -0.20340181913978941 0 -0.1261734044947341 -0.20832382066201691 0 -0.1326745573724277 -0.20747677911892251 0 -0.12833971984693959 -0.20340181913978941 0 -0.1326745573724277 -0.20747677911892251 0 -0.13308531931808101 -0.2014068564598902 0 -0.13817373448855541 -0.2139466733801943 0 -0.1326745573724277 -0.20747677911892251 0 -0.13929463799343569 -0.2052160077695602 0 -0.1326745573724277 -0.20747677911892251 0 -0.13929463799343569 -0.2052160077695602 0 -0.13308531931808101 -0.2014068564598902 0 -0.13929463799343569 -0.2052160077695602 0 -0.13308531931808101 -0.2014068564598902 0 -0.1420465959208794 -0.1984943042809322 0 -0.13308531931808101 -0.2014068564598902 0 -0.1314192587983791 -0.19359683159909061 0 -0.1420465959208794 -0.1984943042809322 0 -0.12833971984693959 -0.20340181913978941 0 -0.13308531931808101 -0.2014068564598902 0 -0.1287375196768317 -0.1989974444917289 0 -0.13308531931808101 -0.2014068564598902 0 -0.1287375196768317 -0.1989974444917289 0 -0.1314192587983791 -0.19359683159909061 0 -0.13308531931808101 -0.2014068564598902 0 -0.1314192587983791 -0.19359683159909061 0 -0.1287375196768317 -0.1989974444917289 0 -0.1314192587983791 -0.19359683159909061 0 -0.1210277983726237 -0.20080419496638871 0 -0.12833971984693959 -0.20340181913978941 0 -0.1287375196768317 -0.1989974444917289 0 -0.1221143178041114 -0.19234248283227301 0 -0.1287375196768317 -0.1989974444917289 0 -0.1314192587983791 -0.19359683159909061 0 -0.1314192587983791 -0.19359683159909061 0 -0.1420465959208794 -0.1984943042809322 0 -0.1512090652639769 -0.1911736867042346 0 -0.14920765704353961 -0.2069242839694774 0 -0.1512090652639769 -0.1911736867042346 0 -0.16613147043060339 -0.2018841564818957 0 -0.14920765704353961 -0.2069242839694774 0 -0.1420465959208794 -0.1984943042809322 0 -0.1512090652639769 -0.1911736867042346 0 -0.1506253399441001 -0.18191391990730801 0 -0.1314192587983791 -0.19359683159909061 0 -0.1512090652639769 -0.1911736867042346 0 -0.16533888001856381 -0.18602690419207779 0 -0.1512090652639769 -0.1911736867042346 0 -0.16613147043060339 -0.2018841564818957 0 -0.16533888001856381 -0.18602690419207779 0 -0.16613147043060339 -0.2018841564818957 0 -0.1786295148813212 -0.19556646452315241 0 -0.1786295148813212 -0.19556646452315241 0 -0.17958500981378461 -0.2107334264309661 0 -0.1981990761364697 -0.20254736480388241 0 -0.18421608521209271 -0.17558962027652111 0 -0.1786295148813212 -0.19556646452315241 0 -0.1981990761364697 -0.20254736480388241 0 -0.16613147043060339 -0.2018841564818957 0 -0.1786295148813212 -0.19556646452315241 0 -0.17958500981378461 -0.2107334264309661 0 -0.17958500981378461 -0.2107334264309661 0 -0.1666111544691056 -0.22171119925505031 0 -0.19116993277822331 -0.22279453133759641 0 -0.16613147043060339 -0.2018841564818957 0 -0.17958500981378461 -0.2107334264309661 0 -0.1666111544691056 -0.22171119925505031 0 -0.14920765704353961 -0.2069242839694774 0 -0.16613147043060339 -0.2018841564818957 0 -0.1666111544691056 -0.22171119925505031 0 -0.16774304296138501 -0.24055682594909811 0 -0.1994177047143332 -0.2432145052078287 0 -0.19116993277822331 -0.22279453133759641 0 -0.18473400419263841 -0.26184427346616201 0 -0.16774304296138501 -0.24055682594909811 0 -0.1994177047143332 -0.2432145052078287 0 -0.14920126421366381 -0.23878179657915319 0 -0.1666111544691056 -0.22171119925505031 0 -0.16774304296138501 -0.24055682594909811 0 -0.1666111544691056 -0.22171119925505031 0 -0.16774304296138501 -0.24055682594909811 0 -0.19116993277822331 -0.22279453133759641 0 -0.15229660666407671 -0.25401824511238591 0 -0.14920126421366381 -0.23878179657915319 0 -0.16774304296138501 -0.24055682594909811 0 -0.1994177047143332 -0.2432145052078287 0 -0.21214113701728249 -0.228940323783688 0 -0.22937054978906041 -0.24331512362502869 0 -0.2113475615474098 -0.26183595308539898 0 -0.1994177047143332 -0.2432145052078287 0 -0.22937054978906041 -0.24331512362502869 0 -0.1994177047143332 -0.2432145052078287 0 -0.19116993277822331 -0.22279453133759641 0 -0.21214113701728249 -0.228940323783688 0 -0.19116993277822331 -0.22279453133759641 0 -0.21214113701728249 -0.228940323783688 0 -0.21151629669390881 -0.21291663877559669 0 -0.21214113701728249 -0.228940323783688 0 -0.21151629669390881 -0.21291663877559669 0 -0.2275824975951227 -0.2207461827585098 0 -0.21151629669390881 -0.21291663877559669 0 -0.1981990761364697 -0.20254736480388241 0 -0.21430725265311781 -0.19815896184605211 0 -0.21151629669390881 -0.21291663877559669 0 -0.21430725265311781 -0.19815896184605211 0 -0.22569788398323701 -0.20431246812385209 0 -0.19116993277822331 -0.22279453133759641 0 -0.21151629669390881 -0.21291663877559669 0 -0.1981990761364697 -0.20254736480388241 0 -0.17958500981378461 -0.2107334264309661 0 -0.19116993277822331 -0.22279453133759641 0 -0.1981990761364697 -0.20254736480388241 0 -0.21430725265311781 -0.19815896184605211 0 -0.2251169230399053 -0.19244957551320049 0 -0.21195197509782959 -0.17979668970279891 0 -0.1981990761364697 -0.20254736480388241 0 -0.21430725265311781 -0.19815896184605211 0 -0.21195197509782959 -0.17979668970279891 0 -0.21430725265311781 -0.19815896184605211 0 -0.2251169230399053 -0.19244957551320049 0 -0.22569788398323701 -0.20431246812385209 0 -0.2251169230399053 -0.19244957551320049 0 -0.23600322778131949 -0.19814692121484651 0 -0.22569788398323701 -0.20431246812385209 0 -0.2251169230399053 -0.19244957551320049 0 -0.23600322778131949 -0.19814692121484651 0 -0.23968786498356659 -0.18400375912907671 0 -0.23600322778131949 -0.19814692121484651 0 -0.23968786498356659 -0.18400375912907671 0 -0.25047429362874257 -0.200219847641955 0 -0.23600322778131949 -0.19814692121484651 0 -0.23949462900920199 -0.21027573078813011 0 -0.25047429362874257 -0.200219847641955 0 -0.23949462900920199 -0.21027573078813011 0 -0.25247744799357308 -0.21261594090752481 0 -0.25047429362874257 -0.200219847641955 0 -0.23949462900920199 -0.21027573078813011 0 -0.24510877540263959 -0.22548599802342939 0 -0.25247744799357308 -0.21261594090752481 0 -0.23949462900920199 -0.21027573078813011 0 -0.22569788398323701 -0.20431246812385209 0 -0.2275824975951227 -0.2207461827585098 0 -0.21151629669390881 -0.21291663877559669 0 -0.22569788398323701 -0.20431246812385209 0 -0.2275824975951227 -0.2207461827585098 0 -0.23600322778131949 -0.19814692121484651 0 -0.23949462900920199 -0.21027573078813011 0 -0.22569788398323701 -0.20431246812385209 0 -0.21214113701728249 -0.228940323783688 0 -0.2275824975951227 -0.2207461827585098 0 -0.22937054978906041 -0.24331512362502869 0 -0.2275824975951227 -0.2207461827585098 0 -0.24510877540263959 -0.22548599802342939 0 -0.22937054978906041 -0.24331512362502869 0 -0.23949462900920199 -0.21027573078813011 0 -0.2275824975951227 -0.2207461827585098 0 -0.24510877540263959 -0.22548599802342939 0 -0.24510877540263959 -0.22548599802342939 0 -0.22937054978906041 -0.24331512362502869 0 -0.2582168116042447 -0.2439014490639565 0 -0.2483490975252734 -0.26098873334868322 0 -0.22937054978906041 -0.24331512362502869 0 -0.2582168116042447 -0.2439014490639565 0 -0.2067502249108786 -0.1536135545564879 0 -0.21547877813771771 -0.14332314171572449 0 -0.20152593766547949 -0.13633519349348669 0 -0.2067502249108786 -0.1536135545564879 0 -0.21547877813771771 -0.14332314171572449 0 -0.22184111984059729 -0.15282479907953789 0 -0.21547877813771771 -0.14332314171572449 0 -0.21860961385214961 -0.13100792014620721 0 -0.20152593766547949 -0.13633519349348669 0 -0.21860961385214961 -0.13100792014620721 0 -0.20152593766547949 -0.13633519349348669 0 -0.2099810947540583 -0.12129541974841899 0 -0.18000311622314791 -0.13001748444371289 0 -0.20152593766547949 -0.13633519349348669 0 -0.19534617212360411 -0.121013351703841 0 -0.18000311622314791 -0.13001748444371289 0 -0.20152593766547949 -0.13633519349348669 0 -0.188845491435889 -0.14939424719825839 0 -0.20152593766547949 -0.13633519349348669 0 -0.2099810947540583 -0.12129541974841899 0 -0.19534617212360411 -0.121013351703841 0 -0.2067502249108786 -0.1536135545564879 0 -0.188845491435889 -0.14939424719825839 0 -0.1979143625406167 -0.1642252661741595 0 -0.2067502249108786 -0.1536135545564879 0 -0.20152593766547949 -0.13633519349348669 0 -0.188845491435889 -0.14939424719825839 0 -0.17757024440875549 -0.16111115580157981 0 -0.188845491435889 -0.14939424719825839 0 -0.1979143625406167 -0.1642252661741595 0 -0.18421608521209271 -0.17558962027652111 0 -0.1981990761364697 -0.20254736480388241 0 -0.21195197509782959 -0.17979668970279891 0 -0.18421608521209271 -0.17558962027652111 0 -0.21195197509782959 -0.17979668970279891 0 -0.18421608521209271 -0.17558962027652111 0 -0.1979143625406167 -0.1642252661741595 0 -0.21195197509782959 -0.17979668970279891 0 -0.1979143625406167 -0.1642252661741595 0 -0.21195197509782959 -0.17979668970279891 0 -0.2165382263276793 -0.1649867273485818 0 -0.2067502249108786 -0.1536135545564879 0 -0.1979143625406167 -0.1642252661741595 0 -0.2165382263276793 -0.1649867273485818 0 -0.2067502249108786 -0.1536135545564879 0 -0.2165382263276793 -0.1649867273485818 0 -0.22184111984059729 -0.15282479907953789 0 -0.2165382263276793 -0.1649867273485818 0 -0.2313091397970973 -0.16435086132264101 0 -0.233842168872713 -0.17694121357944129 0 -0.2165382263276793 -0.1649867273485818 0 -0.2313091397970973 -0.16435086132264101 0 -0.22184111984059729 -0.15282479907953789 0 -0.21195197509782959 -0.17979668970279891 0 -0.233842168872713 -0.17694121357944129 0 -0.23968786498356659 -0.18400375912907671 0 -0.2251169230399053 -0.19244957551320049 0 -0.21195197509782959 -0.17979668970279891 0 -0.23968786498356659 -0.18400375912907671 0 -0.21195197509782959 -0.17979668970279891 0 -0.2165382263276793 -0.1649867273485818 0 -0.233842168872713 -0.17694121357944129 0 -0.21195197509782959 -0.17979668970279891 0 -0.23968786498356659 -0.18400375912907671 0 -0.233842168872713 -0.17694121357944129 0 -0.25982868842644607 -0.17021686968691641 0 -0.233842168872713 -0.17694121357944129 0 -0.23968786498356659 -0.18400375912907671 0 -0.25982868842644607 -0.17021686968691641 0 -0.2313091397970973 -0.16435086132264101 0 -0.24566481473353391 -0.1652464025747532 0 -0.25343568279415951 -0.15224923159364789 0 -0.233842168872713 -0.17694121357944129 0 -0.24566481473353391 -0.1652464025747532 0 -0.25982868842644607 -0.17021686968691641 0 -0.2313091397970973 -0.16435086132264101 0 -0.25343568279415951 -0.15224923159364789 0 -0.2313091397970973 -0.16435086132264101 0 -0.233842168872713 -0.17694121357944129 0 -0.24566481473353391 -0.1652464025747532 0 -0.2313091397970973 -0.16435086132264101 0 -0.23261035815430561 -0.14322336329666011 0 -0.25343568279415951 -0.15224923159364789 0 -0.23261035815430561 -0.14322336329666011 0 -0.2478381125959237 -0.13014188093155071 0 -0.25343568279415951 -0.15224923159364789 0 -0.21547877813771771 -0.14332314171572449 0 -0.23261035815430561 -0.14322336329666011 0 -0.22184111984059729 -0.15282479907953789 0 -0.2313091397970973 -0.16435086132264101 0 -0.23261035815430561 -0.14322336329666011 0 -0.22184111984059729 -0.15282479907953789 0 -0.21547877813771771 -0.14332314171572449 0 -0.21860961385214961 -0.13100792014620721 0 -0.23261035815430561 -0.14322336329666011 0 -0.21860961385214961 -0.13100792014620721 0 -0.23261035815430561 -0.14322336329666011 0 -0.23267318929165751 -0.1266142136656879 0 -0.23261035815430561 -0.14322336329666011 0 -0.23267318929165751 -0.1266142136656879 0 -0.2478381125959237 -0.13014188093155071 0 -0.2478381125959237 -0.13014188093155071 0 -0.2401350799320488 -0.1157431384930437 0 -0.25439292330372432 -0.11161035632906929 0 -0.23267318929165751 -0.1266142136656879 0 -0.2478381125959237 -0.13014188093155071 0 -0.2401350799320488 -0.1157431384930437 0 -0.2401350799320488 -0.1157431384930437 0 -0.2438502060585381 -0.1028583717612334 0 -0.25439292330372432 -0.11161035632906929 0 -0.2438502060585381 -0.1028583717612334 0 -0.2453315870002564 -0.095437246693633959 0 -0.2525882024947626 -0.098821099717938107 0 -0.2453315870002564 -0.095437246693633959 0 -0.25144169010332901 -0.091633326375329338 0 -0.2525882024947626 -0.098821099717938107 0 -0.2438502060585381 -0.1028583717612334 0 -0.2453315870002564 -0.095437246693633959 0 -0.23922762562760841 -0.098169318759804947 0 -0.23922762562760841 -0.098169318759804947 0 -0.23518849288928181 -0.10695649013526939 0 -0.23134854976794339 -0.097632931289006297 0 -0.2453315870002564 -0.095437246693633959 0 -0.23922762562760841 -0.098169318759804947 0 -0.2404192924220224 -0.087961553919881613 0 -0.23922762562760841 -0.098169318759804947 0 -0.23134854976794339 -0.097632931289006297 0 -0.2404192924220224 -0.087961553919881613 0 -0.2438502060585381 -0.1028583717612334 0 -0.23922762562760841 -0.098169318759804947 0 -0.23518849288928181 -0.10695649013526939 0 -0.2401350799320488 -0.1157431384930437 0 -0.2438502060585381 -0.1028583717612334 0 -0.23518849288928181 -0.10695649013526939 0 -0.23518849288928181 -0.10695649013526939 0 -0.23134854976794339 -0.097632931289006297 0 -0.22417278192385959 -0.11295476546097789 0 -0.23134854976794339 -0.097632931289006297 0 -0.22417278192385959 -0.11295476546097789 0 -0.2186303362545719 -0.093883136955868224 0 -0.2401350799320488 -0.1157431384930437 0 -0.23518849288928181 -0.10695649013526939 0 -0.22417278192385959 -0.11295476546097789 0 -0.21860961385214961 -0.13100792014620721 0 -0.23267318929165751 -0.1266142136656879 0 -0.22417278192385959 -0.11295476546097789 0 -0.23267318929165751 -0.1266142136656879 0 -0.2401350799320488 -0.1157431384930437 0 -0.22417278192385959 -0.11295476546097789 0 -0.24388885687392389 -0.071688150345257468 0 -0.2338744138803254 -0.062312468216533988 0 -0.2476323682116322 -0.061520987214930753 0 -0.24388885687392389 -0.071688150345257468 0 -0.2476323682116322 -0.061520987214930753 0 -0.2529882333064245 -0.070973901803662365 0 -0.24388885687392389 -0.071688150345257468 0 -0.24682403554985069 -0.077092069586417622 0 -0.2529882333064245 -0.070973901803662365 0 -0.24388885687392389 -0.071688150345257468 0 -0.24682403554985069 -0.077092069586417622 0 -0.23610695818539329 -0.077097104601848404 0 -0.24388885687392389 -0.071688150345257468 0 -0.23610695818539329 -0.077097104601848404 0 -0.2338744138803254 -0.062312468216533988 0 -0.2404192924220224 -0.087961553919881613 0 -0.23434786935979859 -0.086445608359767251 0 -0.25855249999409979 -0.079349971077516485 0 -0.23434786935979859 -0.086445608359767251 0 -0.25855249999409979 -0.079349971077516485 0 -0.24682403554985069 -0.077092069586417622 0 -0.23434786935979859 -0.086445608359767251 0 -0.25855249999409979 -0.079349971077516485 0 -0.24682403554985069 -0.077092069586417622 0 -0.23610695818539329 -0.077097104601848404 0 -0.23434786935979859 -0.086445608359767251 0 -0.2404192924220224 -0.087961553919881613 0 -0.25356789490128989 -0.088072195653340249 0 -0.25144169010332901 -0.091633326375329338 0 -0.2453315870002564 -0.095437246693633959 0 -0.2404192924220224 -0.087961553919881613 0 -0.25144169010332901 -0.091633326375329338 0 -0.23134854976794339 -0.097632931289006297 0 -0.2404192924220224 -0.087961553919881613 0 -0.2186303362545719 -0.093883136955868224 0 -0.23434786935979859 -0.086445608359767251 0 -0.21819510633345421 -0.084818126690887299 0 -0.2186303362545719 -0.093883136955868224 0 -0.23434786935979859 -0.086445608359767251 0 -0.22784347827361409 -0.07844521728239337 0 -0.21819510633345421 -0.084818126690887299 0 -0.2404192924220224 -0.087961553919881613 0 -0.2186303362545719 -0.093883136955868224 0 -0.2404192924220224 -0.087961553919881613 0 -0.23434786935979859 -0.086445608359767251 0 -0.2186303362545719 -0.093883136955868224 0 -0.23610695818539329 -0.077097104601848404 0 -0.23434786935979859 -0.086445608359767251 0 -0.22784347827361409 -0.07844521728239337 0 -0.22561928727888081 -0.069226289525945936 0 -0.21465014164525181 -0.057056120614390499 0 -0.2338744138803254 -0.062312468216533988 0 -0.23610695818539329 -0.077097104601848404 0 -0.22784347827361409 -0.07844521728239337 0 -0.22561928727888081 -0.069226289525945936 0 -0.22784347827361409 -0.07844521728239337 0 -0.22561928727888081 -0.069226289525945936 0 -0.21562144440981909 -0.071220536914563426 0 -0.23610695818539329 -0.077097104601848404 0 -0.22561928727888081 -0.069226289525945936 0 -0.2338744138803254 -0.062312468216533988 0 -0.20283299924243431 -0.077387366601351398 0 -0.20047874574939811 -0.054521575326106748 0 -0.21465014164525181 -0.057056120614390499 0 -0.22784347827361409 -0.07844521728239337 0 -0.20283299924243431 -0.077387366601351398 0 -0.21562144440981909 -0.071220536914563426 0 -0.20283299924243431 -0.077387366601351398 0 -0.21465014164525181 -0.057056120614390499 0 -0.22784347827361409 -0.07844521728239337 0 -0.21562144440981909 -0.071220536914563426 0 -0.20283299924243431 -0.077387366601351398 0 -0.20283299924243431 -0.077387366601351398 0 -0.21465014164525181 -0.057056120614390499 0 -0.22561928727888081 -0.069226289525945936 0 -0.21562144440981909 -0.071220536914563426 0 -0.21465014164525181 -0.057056120614390499 0 -0.22784347827361409 -0.07844521728239337 0 -0.21819510633345421 -0.084818126690887299 0 -0.20283299924243431 -0.077387366601351398 0 -0.21819510633345421 -0.084818126690887299 0 -0.20732084853685229 -0.087929304255056254 0 -0.20283299924243431 -0.077387366601351398 0 -0.21819510633345421 -0.084818126690887299 0 -0.20732084853685229 -0.087929304255056254 0 -0.2186303362545719 -0.093883136955868224 0 -0.19866559760639321 -0.08455732909318063 0 -0.19684138008712149 -0.099804719991854848 0 -0.1822294403993594 -0.091272888294312293 0 -0.19866559760639321 -0.08455732909318063 0 -0.18940645687904581 -0.076819473560781115 0 -0.1822294403993594 -0.091272888294312293 0 -0.20732084853685229 -0.087929304255056254 0 -0.19866559760639321 -0.08455732909318063 0 -0.19684138008712149 -0.099804719991854848 0 -0.20732084853685229 -0.087929304255056254 0 -0.19866559760639321 -0.08455732909318063 0 -0.20283299924243431 -0.077387366601351398 0 -0.19866559760639321 -0.08455732909318063 0 -0.20283299924243431 -0.077387366601351398 0 -0.18940645687904581 -0.076819473560781115 0 -0.19866559760639321 -0.08455732909318063 0 -0.20283299924243431 -0.077387366601351398 0 -0.20283299924243431 -0.077387366601351398 0 -0.18940645687904581 -0.076819473560781115 0 -0.20047874574939811 -0.054521575326106748 0 -0.18940645687904581 -0.076819473560781115 0 -0.18709502764393729 -0.061773717592220383 0 -0.20047874574939811 -0.054521575326106748 0 -0.18940645687904581 -0.076819473560781115 0 -0.20047874574939811 -0.054521575326106748 0 -0.20283299924243431 -0.077387366601351398 0 -0.18940645687904581 -0.076819473560781115 0 -0.22417278192385959 -0.11295476546097789 0 -0.2099810947540583 -0.12129541974841899 0 -0.20756026250284701 -0.1093706759350784 0 -0.21860961385214961 -0.13100792014620721 0 -0.22417278192385959 -0.11295476546097789 0 -0.2099810947540583 -0.12129541974841899 0 -0.2099810947540583 -0.12129541974841899 0 -0.20756026250284701 -0.1093706759350784 0 -0.19534617212360411 -0.121013351703841 0 -0.2186303362545719 -0.093883136955868224 0 -0.19684138008712149 -0.099804719991854848 0 -0.20732084853685229 -0.087929304255056254 0 -0.2186303362545719 -0.093883136955868224 0 -0.19684138008712149 -0.099804719991854848 0 -0.2186303362545719 -0.093883136955868224 0 -0.20756026250284701 -0.1093706759350784 0 -0.19684138008712149 -0.099804719991854848 0 -0.22417278192385959 -0.11295476546097789 0 -0.2186303362545719 -0.093883136955868224 0 -0.20756026250284701 -0.1093706759350784 0 -0.20756026250284701 -0.1093706759350784 0 -0.19684138008712149 -0.099804719991854848 0 -0.18817082801183779 -0.1109486318043842 0 -0.20756026250284701 -0.1093706759350784 0 -0.18817082801183779 -0.1109486318043842 0 -0.19534617212360411 -0.121013351703841 0 -0.18817082801183779 -0.1109486318043842 0 -0.19534617212360411 -0.121013351703841 0 -0.18027610093587751 -0.1196181089702751 0 -0.18000311622314791 -0.13001748444371289 0 -0.19534617212360411 -0.121013351703841 0 -0.18027610093587751 -0.1196181089702751 0 -0.1628079644011253 -0.13038477387159439 0 -0.18027610093587751 -0.1196181089702751 0 -0.17505242391967141 -0.10572630302784269 0 -0.18817082801183779 -0.1109486318043842 0 -0.18027610093587751 -0.1196181089702751 0 -0.17505242391967141 -0.10572630302784269 0 -0.1628079644011253 -0.13038477387159439 0 -0.16568054242800659 -0.1082732985805344 0 -0.17505242391967141 -0.10572630302784269 0 -0.1628079644011253 -0.13038477387159439 0 -0.16568054242800659 -0.1082732985805344 0 -0.1559183975343586 -0.1153029742025357 0 -0.1628079644011253 -0.13038477387159439 0 -0.17505242391967141 -0.10572630302784269 0 -0.15766897324155929 -0.10201766098942321 0 -0.16769957127680751 -0.09718714727553697 0 -0.15631644193457139 -0.088857398989056272 0 -0.15766897324155929 -0.10201766098942321 0 -0.16568054242800659 -0.1082732985805344 0 -0.16769957127680751 -0.09718714727553697 0 -0.15766897324155929 -0.10201766098942321 0 -0.16568054242800659 -0.1082732985805344 0 -0.1559183975343586 -0.1153029742025357 0 -0.16568054242800659 -0.1082732985805344 0 -0.16769957127680751 -0.09718714727553697 0 -0.17505242391967141 -0.10572630302784269 0 -0.16568054242800659 -0.1082732985805344 0 -0.17505242391967141 -0.10572630302784269 0 -0.19684138008712149 -0.099804719991854848 0 -0.18817082801183779 -0.1109486318043842 0 -0.17505242391967141 -0.10572630302784269 0 -0.19684138008712149 -0.099804719991854848 0 -0.17505242391967141 -0.10572630302784269 0 -0.16769957127680751 -0.09718714727553697 0 -0.17505242391967141 -0.10572630302784269 0 -0.1822294403993594 -0.091272888294312293 0 -0.19684138008712149 -0.099804719991854848 0 -0.17505242391967141 -0.10572630302784269 0 -0.1822294403993594 -0.091272888294312293 0 -0.17505242391967141 -0.10572630302784269 0 -0.1822294403993594 -0.091272888294312293 0 -0.16769957127680751 -0.09718714727553697 0 -0.1822294403993594 -0.091272888294312293 0 -0.16622085479676199 -0.075838808419480111 0 -0.18940645687904581 -0.076819473560781115 0 -0.1822294403993594 -0.091272888294312293 0 -0.16622085479676199 -0.075838808419480111 0 -0.18940645687904581 -0.076819473560781115 0 -0.1822294403993594 -0.091272888294312293 0 -0.18940645687904581 -0.076819473560781115 0 -0.16622085479676199 -0.075838808419480111 0 -0.18940645687904581 -0.076819473560781115 0 -0.17672291357829811 -0.064990721505459842 0 -0.16622085479676199 -0.075838808419480111 0 -0.18940645687904581 -0.076819473560781115 0 -0.17672291357829811 -0.064990721505459842 0 -0.18709502764393729 -0.061773717592220383 0 -0.17672291357829811 -0.064990721505459842 0 -0.16622085479676199 -0.075838808419480111 0 -0.16458020880549121 -0.059492387506912943 0 -0.16622085479676199 -0.075838808419480111 0 -0.15646239569026699 -0.065906604111614212 0 -0.16458020880549121 -0.059492387506912943 0 -0.16769957127680751 -0.09718714727553697 0 -0.16622085479676199 -0.075838808419480111 0 -0.15631644193457139 -0.088857398989056272 0 -0.15631644193457139 -0.088857398989056272 0 -0.14677991412428701 -0.093732051016317916 0 -0.1430352527144782 -0.074858143278179051 0 -0.16622085479676199 -0.075838808419480111 0 -0.15631644193457139 -0.088857398989056272 0 -0.1430352527144782 -0.074858143278179051 0 -0.14677991412428701 -0.093732051016317916 0 -0.1430352527144782 -0.074858143278179051 0 -0.13451756518433111 -0.095180895342251215 0 -0.1430352527144782 -0.074858143278179051 0 -0.1411001381629465 -0.060647222888288201 0 -0.15201326644433669 -0.053437077241884359 0 -0.16622085479676199 -0.075838808419480111 0 -0.15646239569026699 -0.065906604111614212 0 -0.1430352527144782 -0.074858143278179051 0 -0.16622085479676199 -0.075838808419480111 0 -0.1430352527144782 -0.074858143278179051 0 -0.1430352527144782 -0.074858143278179051 0 -0.15201326644433669 -0.053437077241884359 0 -0.15646239569026699 -0.065906604111614212 0 -0.1430352527144782 -0.074858143278179051 0 -0.15201326644433669 -0.053437077241884359 0 -0.13708859775349791 -0.067653843581906681 0 -0.130794656111274 -0.068530613083725267 0 -0.13379805028672059 -0.060142641530726633 0 -0.1430352527144782 -0.074858143278179051 0 -0.13708859775349791 -0.067653843581906681 0 -0.1411001381629465 -0.060647222888288201 0 -0.13708859775349791 -0.067653843581906681 0 -0.13379805028672059 -0.060142641530726633 0 -0.1411001381629465 -0.060647222888288201 0 -0.13708859775349791 -0.067653843581906681 0 -0.13568082893985359 -0.07454707837658528 0 -0.130794656111274 -0.068530613083725267 0 -0.1430352527144782 -0.074858143278179051 0 -0.13708859775349791 -0.067653843581906681 0 -0.13568082893985359 -0.07454707837658528 0 -0.1430352527144782 -0.074858143278179051 0 -0.13568082893985359 -0.07454707837658528 0 -0.1232756904161693 -0.070411489051666373 0 -0.130794656111274 -0.068530613083725267 0 -0.12737817104852411 -0.080741270387750683 0 -0.13568082893985359 -0.07454707837658528 0 -0.130794656111274 -0.068530613083725267 0 -0.12737817104852411 -0.080741270387750683 0 -0.12131955324210091 -0.059181462630683621 0 -0.130794656111274 -0.068530613083725267 0 -0.13379805028672059 -0.060142641530726633 0 -0.1232756904161693 -0.070411489051666373 0 -0.12131955324210091 -0.059181462630683621 0 -0.130794656111274 -0.068530613083725267 0 -0.13568082893985359 -0.07454707837658528 0 -0.12737817104852411 -0.080741270387750683 0 -0.13451756518433111 -0.095180895342251215 0 -0.1430352527144782 -0.074858143278179051 0 -0.13568082893985359 -0.07454707837658528 0 -0.13451756518433111 -0.095180895342251215 0 -0.1430352527144782 -0.074858143278179051 0 -0.13451756518433111 -0.095180895342251215 0 -0.12067370026095731 -0.092005587950159118 0 -0.12737817104852411 -0.080741270387750683 0 -0.13451756518433111 -0.095180895342251215 0 -0.13451756518433111 -0.095180895342251215 0 -0.12599987765418549 -0.11550364740632391 0 -0.13451756518433111 -0.095180895342251215 0 -0.139855014945965 -0.1081270544919556 0 -0.13238394533585049 -0.1132856834133564 0 -0.13451756518433111 -0.095180895342251215 0 -0.12599987765418549 -0.11550364740632391 0 -0.13238394533585049 -0.1132856834133564 0 -0.12182531397588869 -0.1044134543712442 0 -0.13451756518433111 -0.095180895342251215 0 -0.12599987765418549 -0.11550364740632391 0 -0.12182531397588869 -0.1044134543712442 0 -0.12067370026095731 -0.092005587950159118 0 -0.13451756518433111 -0.095180895342251215 0 -0.12599987765418549 -0.11550364740632391 0 -0.1252704192176744 -0.1172440966648565 0 -0.13114171751694609 -0.1183715484722116 0 -0.12599987765418549 -0.11550364740632391 0 -0.1252704192176744 -0.1172440966648565 0 -0.12599987765418549 -0.11550364740632391 0 -0.13238394533585049 -0.1132856834133564 0 -0.12599987765418549 -0.11550364740632391 0 -0.13238394533585049 -0.1132856834133564 0 -0.13114171751694609 -0.1183715484722116 0 -0.1355018371655794 -0.1265678790332187 0 -0.1252704192176744 -0.1172440966648565 0 -0.13114171751694609 -0.1183715484722116 0 -0.1355018371655794 -0.1265678790332187 0 -0.13114171751694609 -0.1183715484722116 0 -0.14420813470266419 -0.11805716313719079 0 -0.139855014945965 -0.1081270544919556 0 -0.13238394533585049 -0.1132856834133564 0 -0.14420813470266419 -0.11805716313719079 0 -0.13238394533585049 -0.1132856834133564 0 -0.13114171751694609 -0.1183715484722116 0 -0.14420813470266419 -0.11805716313719079 0 -0.139855014945965 -0.1081270544919556 0 -0.14420813470266419 -0.11805716313719079 0 -0.1483104145610141 -0.1059844760750239 0 -0.1628079644011253 -0.13038477387159439 0 -0.14420813470266419 -0.11805716313719079 0 -0.1559183975343586 -0.1153029742025357 0 -0.14420813470266419 -0.11805716313719079 0 -0.1559183975343586 -0.1153029742025357 0 -0.1483104145610141 -0.1059844760750239 0 -0.15766897324155929 -0.10201766098942321 0 -0.1559183975343586 -0.1153029742025357 0 -0.1483104145610141 -0.1059844760750239 0 -0.15766897324155929 -0.10201766098942321 0 -0.15631644193457139 -0.088857398989056272 0 -0.14677991412428701 -0.093732051016317916 0 -0.15766897324155929 -0.10201766098942321 0 -0.14677991412428701 -0.093732051016317916 0 -0.1483104145610141 -0.1059844760750239 0 -0.14677991412428701 -0.093732051016317916 0 -0.13451756518433111 -0.095180895342251215 0 -0.1483104145610141 -0.1059844760750239 0 -0.13451756518433111 -0.095180895342251215 0 -0.139855014945965 -0.1081270544919556 0 -0.1483104145610141 -0.1059844760750239 0 -0.1452248522035206 -0.0135074852317284 0 -0.13361245343545181 -0.030305793086055629 0 -0.1484749629479134 -0.038477035386196637 0 -0.1452248522035206 -0.0135074852317284 0 -0.1484749629479134 -0.038477035386196637 0 -0.16099128017419639 -0.03201601120559007 0 -0.1452248522035206 -0.0135074852317284 0 -0.1660829110182864 -0.0110115892886907 0 -0.1564869492866878 -0.00059129627401754796 0 -0.1452248522035206 -0.0135074852317284 0 -0.1564869492866878 -0.00059129627401754796 0 -0.1433170204333889 0.0042533116210359059 0 -0.1452248522035206 -0.0135074852317284 0 -0.13137048688310951 -0.003337023478303953 0 -0.1433170204333889 0.0042533116210359059 0 -0.1236122261121546 -0.0078425818954372464 0 -0.1452248522035206 -0.0135074852317284 0 -0.13137048688310951 -0.003337023478303953 0 -0.1236122261121546 -0.0078425818954372464 0 -0.13137048688310951 -0.003337023478303953 0 -0.1236122261121546 -0.0078425818954372464 0 -0.13361245343545181 -0.030305793086055629 0 -0.1236122261121546 -0.0078425818954372464 0 -0.1185057960264221 -0.028529017004706999 0 -0.13361245343545181 -0.030305793086055629 0 -0.1236122261121546 -0.0078425818954372464 0 -0.1452248522035206 -0.0135074852317284 0 -0.13361245343545181 -0.030305793086055629 0 -0.13361245343545181 -0.030305793086055629 0 -0.14346563865851419 -0.05243870800993642 0 -0.1197314047957487 -0.044466417495601512 0 -0.13361245343545181 -0.030305793086055629 0 -0.1315211872564446 -0.050314657740016588 0 -0.13361245343545181 -0.030305793086055629 0 -0.1315211872564446 -0.050314657740016588 0 -0.14346563865851419 -0.05243870800993642 0 -0.12131955324210091 -0.059181462630683621 0 -0.1315211872564446 -0.050314657740016588 0 -0.13379805028672059 -0.060142641530726633 0 -0.1315211872564446 -0.050314657740016588 0 -0.1374712535911565 -0.055885807542241962 0 -0.14346563865851419 -0.05243870800993642 0 -0.1315211872564446 -0.050314657740016588 0 -0.1374712535911565 -0.055885807542241962 0 -0.13379805028672059 -0.060142641530726633 0 -0.1374712535911565 -0.055885807542241962 0 -0.13379805028672059 -0.060142641530726633 0 -0.1411001381629465 -0.060647222888288201 0 -0.1411001381629465 -0.060647222888288201 0 -0.14346563865851419 -0.05243870800993642 0 -0.15201326644433669 -0.053437077241884359 0 -0.1374712535911565 -0.055885807542241962 0 -0.1411001381629465 -0.060647222888288201 0 -0.14346563865851419 -0.05243870800993642 0 -0.14346563865851419 -0.05243870800993642 0 -0.15201326644433669 -0.053437077241884359 0 -0.1484749629479134 -0.038477035386196637 0 -0.15201326644433669 -0.053437077241884359 0 -0.1484749629479134 -0.038477035386196637 0 -0.16099128017419639 -0.03201601120559007 0 -0.13361245343545181 -0.030305793086055629 0 -0.14346563865851419 -0.05243870800993642 0 -0.1484749629479134 -0.038477035386196637 0 -0.15201326644433669 -0.053437077241884359 0 -0.16099128017419639 -0.03201601120559007 0 -0.15201326644433669 -0.053437077241884359 0 -0.16099128017419639 -0.03201601120559007 0 -0.16622336588392531 -0.046665464390732471 0 -0.16099128017419639 -0.03201601120559007 0 -0.17705927752236811 -0.038294319471390781 0 -0.1772337338696203 -0.023645926918309929 0 -0.16099128017419639 -0.03201601120559007 0 -0.16622336588392531 -0.046665464390732471 0 -0.17705927752236811 -0.038294319471390781 0 -0.15646239569026699 -0.065906604111614212 0 -0.15201326644433669 -0.053437077241884359 0 -0.16458020880549121 -0.059492387506912943 0 -0.15201326644433669 -0.053437077241884359 0 -0.16622336588392531 -0.046665464390732471 0 -0.16458020880549121 -0.059492387506912943 0 -0.16622336588392531 -0.046665464390732471 0 -0.16458020880549121 -0.059492387506912943 0 -0.17631201976625371 -0.05102922044790497 0 -0.17672291357829811 -0.064990721505459842 0 -0.16458020880549121 -0.059492387506912943 0 -0.17631201976625371 -0.05102922044790497 0 -0.17631201976625371 -0.05102922044790497 0 -0.18709502764393729 -0.061773717592220383 0 -0.18868425509965489 -0.047684834797198213 0 -0.17672291357829811 -0.064990721505459842 0 -0.17631201976625371 -0.05102922044790497 0 -0.18709502764393729 -0.061773717592220383 0 -0.16622336588392531 -0.046665464390732471 0 -0.17631201976625371 -0.05102922044790497 0 -0.17705927752236811 -0.038294319471390781 0 -0.17631201976625371 -0.05102922044790497 0 -0.17705927752236811 -0.038294319471390781 0 -0.18868425509965489 -0.047684834797198213 0 -0.17705927752236811 -0.038294319471390781 0 -0.18868425509965489 -0.047684834797198213 0 -0.19198493650835269 -0.034148616047928453 0 -0.17705927752236811 -0.038294319471390781 0 -0.1772337338696203 -0.023645926918309929 0 -0.19198493650835269 -0.034148616047928453 0 -0.1772337338696203 -0.023645926918309929 0 -0.18418091461086311 -0.0067458590849352237 0 -0.19781487964127609 -0.018046172764705552 0 -0.16099128017419639 -0.03201601120559007 0 -0.1772337338696203 -0.023645926918309929 0 -0.1660829110182864 -0.0110115892886907 0 -0.1452248522035206 -0.0135074852317284 0 -0.16099128017419639 -0.03201601120559007 0 -0.1660829110182864 -0.0110115892886907 0 -0.1660829110182864 -0.0110115892886907 0 -0.1564869492866878 -0.00059129627401754796 0 -0.17208342559322409 0.0058404778805985873 0 -0.1660829110182864 -0.0110115892886907 0 -0.18418091461086311 -0.0067458590849352237 0 -0.17208342559322409 0.0058404778805985873 0 -0.1772337338696203 -0.023645926918309929 0 -0.1660829110182864 -0.0110115892886907 0 -0.18418091461086311 -0.0067458590849352237 0 -0.18418091461086311 -0.0067458590849352237 0 -0.2008908429601583 -0.001101000049535744 0 -0.19781487964127609 -0.018046172764705552 0 -0.19781487964127609 -0.018046172764705552 0 -0.19198493650835269 -0.034148616047928453 0 -0.21155103461974961 -0.032223677091432062 0 -0.1772337338696203 -0.023645926918309929 0 -0.19781487964127609 -0.018046172764705552 0 -0.19198493650835269 -0.034148616047928453 0 -0.19781487964127609 -0.018046172764705552 0 -0.21155103461974961 -0.032223677091432062 0 -0.21882158577424271 -0.0103131571922281 0 -0.2008908429601583 -0.001101000049535744 0 -0.19781487964127609 -0.018046172764705552 0 -0.21882158577424271 -0.0103131571922281 0 -0.18709502764393729 -0.061773717592220383 0 -0.18868425509965489 -0.047684834797198213 0 -0.20047874574939811 -0.054521575326106748 0 -0.18868425509965489 -0.047684834797198213 0 -0.20047874574939811 -0.054521575326106748 0 -0.19817474299428881 -0.04214467581566636 0 -0.19817474299428881 -0.04214467581566636 0 -0.19198493650835269 -0.034148616047928453 0 -0.21155103461974961 -0.032223677091432062 0 -0.18868425509965489 -0.047684834797198213 0 -0.19817474299428881 -0.04214467581566636 0 -0.19198493650835269 -0.034148616047928453 0 -0.20047874574939811 -0.054521575326106748 0 -0.21155103461974961 -0.032223677091432062 0 -0.20047874574939811 -0.054521575326106748 0 -0.19817474299428881 -0.04214467581566636 0 -0.21155103461974961 -0.032223677091432062 0 -0.21155103461974961 -0.032223677091432062 0 -0.21465014164525181 -0.057056120614390499 0 -0.22646728404806721 -0.036724874627428489 0 -0.20047874574939811 -0.054521575326106748 0 -0.21155103461974961 -0.032223677091432062 0 -0.21465014164525181 -0.057056120614390499 0 -0.21465014164525181 -0.057056120614390499 0 -0.2338744138803254 -0.062312468216533988 0 -0.22646728404806721 -0.036724874627428489 0 -0.2338744138803254 -0.062312468216533988 0 -0.22646728404806721 -0.036724874627428489 0 -0.21465014164525181 -0.057056120614390499 0 -0.22646728404806721 -0.036724874627428489 0 -0.22646728404806721 -0.036724874627428489 0 -0.2401414722927224 -0.032241302373577058 0 -0.24278742868549399 -0.046838078323859687 0 -0.2401414722927224 -0.032241302373577058 0 -0.25378175816230958 -0.02436733484642779 0 -0.25219715932032732 -0.038265850071314 0 -0.2401414722927224 -0.032241302373577058 0 -0.24278742868549399 -0.046838078323859687 0 -0.25219715932032732 -0.038265850071314 0 -0.2338744138803254 -0.062312468216533988 0 -0.22646728404806721 -0.036724874627428489 0 -0.24278742868549399 -0.046838078323859687 0 -0.24278742868549399 -0.046838078323859687 0 -0.2476323682116322 -0.061520987214930753 0 -0.25620744044593469 -0.049667056832747067 0 -0.2338744138803254 -0.062312468216533988 0 -0.24278742868549399 -0.046838078323859687 0 -0.2476323682116322 -0.061520987214930753 0 -0.21882158577424271 -0.0103131571922281 0 -0.2374946151573453 -0.01775248911154621 0 -0.23546354233931949 0.0078270751002715265 0 -0.22646728404806721 -0.036724874627428489 0 -0.2374946151573453 -0.01775248911154621 0 -0.21155103461974961 -0.032223677091432062 0 -0.22646728404806721 -0.036724874627428489 0 -0.21882158577424271 -0.0103131571922281 0 -0.22646728404806721 -0.036724874627428489 0 -0.21882158577424271 -0.0103131571922281 0 -0.22646728404806721 -0.036724874627428489 0 -0.21882158577424271 -0.0103131571922281 0 -0.2374946151573453 -0.01775248911154621 0 -0.2374946151573453 -0.01775248911154621 0 -0.25227296286688322 -0.0076793426536460041 0 -0.25378175816230958 -0.02436733484642779 0 -0.2401414722927224 -0.032241302373577058 0 -0.2374946151573453 -0.01775248911154621 0 -0.25378175816230958 -0.02436733484642779 0 -0.22646728404806721 -0.036724874627428489 0 -0.2401414722927224 -0.032241302373577058 0 -0.2374946151573453 -0.01775248911154621 0 -0.2374946151573453 -0.01775248911154621 0 -0.25227296286688322 -0.0076793426536460041 0 -0.23546354233931949 0.0078270751002715265 0 -0.25227296286688322 -0.0076793426536460041 0 -0.27504786807920711 -0.016522946018952021 0 -0.26249405175029211 0.007662734938978108 0 -0.25227296286688322 -0.0076793426536460041 0 -0.25378175816230958 -0.02436733484642779 0 -0.27504786807920711 -0.016522946018952021 0 -0.25378175816230958 -0.02436733484642779 0 -0.27504786807920711 -0.016522946018952021 0 -0.26471526887818231 -0.03538659961621915 0 -0.27504786807920711 -0.016522946018952021 0 -0.27907013255445939 -0.03491531901183742 0 -0.26471526887818231 -0.03538659961621915 0 -0.27504786807920711 -0.016522946018952021 0 -0.26249405175029211 0.007662734938978108 0 -0.29088909275279012 0.0052797473078289572 0 -0.27504786807920711 -0.016522946018952021 0 -0.29710775469227729 -0.014596668466157351 0 -0.29088909275279012 0.0052797473078289572 0 -0.27504786807920711 -0.016522946018952021 0 -0.29121836233921761 -0.027938763998333869 0 -0.27907013255445939 -0.03491531901183742 0 -0.27504786807920711 -0.016522946018952021 0 -0.29121836233921761 -0.027938763998333869 0 -0.29710775469227729 -0.014596668466157351 0 -0.29710775469227729 -0.014596668466157351 0 -0.31759413704845219 -0.011310857140017521 0 -0.31311363369768291 -0.03310849193739672 0 -0.29121836233921761 -0.027938763998333869 0 -0.29710775469227729 -0.014596668466157351 0 -0.31311363369768291 -0.03310849193739672 0 -0.29710775469227729 -0.014596668466157351 0 -0.30518798685158838 -0.0020929360932298849 0 -0.29088909275279012 0.0052797473078289572 0 -0.29710775469227729 -0.014596668466157351 0 -0.30518798685158838 -0.0020929360932298849 0 -0.31759413704845219 -0.011310857140017521 0 -0.3114594072847322 -0.049306726894047262 0 -0.29175242267246138 -0.04055039455732605 0 -0.29253753360804391 -0.057483018047446738 0 -0.3114594072847322 -0.049306726894047262 0 -0.29253753360804391 -0.057483018047446738 0 -0.30696176126270219 -0.065158696513015008 0 -0.3114594072847322 -0.049306726894047262 0 -0.29175242267246138 -0.04055039455732605 0 -0.31311363369768291 -0.03310849193739672 0 -0.29175242267246138 -0.04055039455732605 0 -0.31311363369768291 -0.03310849193739672 0 -0.3114594072847322 -0.049306726894047262 0 -0.29175242267246138 -0.04055039455732605 0 -0.29121836233921761 -0.027938763998333869 0 -0.29175242267246138 -0.04055039455732605 0 -0.31311363369768291 -0.03310849193739672 0 -0.29175242267246138 -0.04055039455732605 0 -0.27907013255445939 -0.03491531901183742 0 -0.29121836233921761 -0.027938763998333869 0 -0.29175242267246138 -0.04055039455732605 0 -0.27907013255445939 -0.03491531901183742 0 -0.29175242267246138 -0.04055039455732605 0 -0.29253753360804391 -0.057483018047446738 0 -0.27994708571901822 -0.057980160189140359 0 -0.27994708571901822 -0.057980160189140359 0 -0.26824156593179532 -0.048741199197032549 0 -0.26874039246249382 -0.069271675174266092 0 -0.29175242267246138 -0.04055039455732605 0 -0.27994708571901822 -0.057980160189140359 0 -0.26824156593179532 -0.048741199197032549 0 -0.29175242267246138 -0.04055039455732605 0 -0.26824156593179532 -0.048741199197032549 0 -0.27907013255445939 -0.03491531901183742 0 -0.29175242267246138 -0.04055039455732605 0 -0.26824156593179532 -0.048741199197032549 0 -0.26824156593179532 -0.048741199197032549 0 -0.27907013255445939 -0.03491531901183742 0 -0.26471526887818231 -0.03538659961621915 0 -0.26824156593179532 -0.048741199197032549 0 -0.26471526887818231 -0.03538659961621915 0 -0.25620744044593469 -0.049667056832747067 0 -0.24278742868549399 -0.046838078323859687 0 -0.25219715932032732 -0.038265850071314 0 -0.25620744044593469 -0.049667056832747067 0 -0.26471526887818231 -0.03538659961621915 0 -0.25219715932032732 -0.038265850071314 0 -0.25620744044593469 -0.049667056832747067 0 -0.25378175816230958 -0.02436733484642779 0 -0.26471526887818231 -0.03538659961621915 0 -0.25219715932032732 -0.038265850071314 0 -0.26824156593179532 -0.048741199197032549 0 -0.25818533518880471 -0.062204128102381351 0 -0.26874039246249382 -0.069271675174266092 0 -0.26824156593179532 -0.048741199197032549 0 -0.25818533518880471 -0.062204128102381351 0 -0.25620744044593469 -0.049667056832747067 0 -0.2476323682116322 -0.061520987214930753 0 -0.25818533518880471 -0.062204128102381351 0 -0.25620744044593469 -0.049667056832747067 0 -0.2476323682116322 -0.061520987214930753 0 -0.25818533518880471 -0.062204128102381351 0 -0.2529882333064245 -0.070973901803662365 0 -0.25818533518880471 -0.062204128102381351 0 -0.25865454608389071 -0.0715458776642144 0 -0.2529882333064245 -0.070973901803662365 0 -0.25818533518880471 -0.062204128102381351 0 -0.25865454608389071 -0.0715458776642144 0 -0.26874039246249382 -0.069271675174266092 0 -0.25865454608389071 -0.0715458776642144 0 -0.25855249999409979 -0.079349971077516485 0 -0.26874039246249382 -0.069271675174266092 0 -0.24682403554985069 -0.077092069586417622 0 -0.25425482873356642 -0.074740455032952721 0 -0.25855249999409979 -0.079349971077516485 0 -0.25865454608389071 -0.0715458776642144 0 -0.25425482873356642 -0.074740455032952721 0 -0.25855249999409979 -0.079349971077516485 0 -0.25865454608389071 -0.0715458776642144 0 -0.25425482873356642 -0.074740455032952721 0 -0.2529882333064245 -0.070973901803662365 0 -0.24682403554985069 -0.077092069586417622 0 -0.25425482873356642 -0.074740455032952721 0 -0.2529882333064245 -0.070973901803662365 0 -0.2404192924220224 -0.087961553919881613 0 -0.25356789490128989 -0.088072195653340249 0 -0.26220824858947278 -0.082039970883894989 0 -0.2404192924220224 -0.087961553919881613 0 -0.26220824858947278 -0.082039970883894989 0 -0.2404192924220224 -0.087961553919881613 0 -0.26220824858947278 -0.082039970883894989 0 -0.25855249999409979 -0.079349971077516485 0 -0.25356789490128989 -0.088072195653340249 0 -0.25144169010332901 -0.091633326375329338 0 -0.26020234849033591 -0.090653931434255125 0 -0.25144169010332901 -0.091633326375329338 0 -0.26020234849033591 -0.090653931434255125 0 -0.2525882024947626 -0.098821099717938107 0 -0.26020234849033591 -0.090653931434255125 0 -0.26220824858947278 -0.082039970883894989 0 -0.26803774644364831 -0.088990216861234941 0 -0.26020234849033591 -0.090653931434255125 0 -0.26803774644364831 -0.088990216861234941 0 -0.26237563885443332 -0.099092169843888092 0 -0.25356789490128989 -0.088072195653340249 0 -0.26020234849033591 -0.090653931434255125 0 -0.26220824858947278 -0.082039970883894989 0 -0.26220824858947278 -0.082039970883894989 0 -0.25855249999409979 -0.079349971077516485 0 -0.27123440961567508 -0.082288547260032208 0 -0.27123440961567508 -0.082288547260032208 0 -0.26803774644364831 -0.088990216861234941 0 -0.28416808666832472 -0.090876464884104322 0 -0.26220824858947278 -0.082039970883894989 0 -0.27123440961567508 -0.082288547260032208 0 -0.26803774644364831 -0.088990216861234941 0 -0.27123440961567508 -0.082288547260032208 0 -0.28275713062840102 -0.072254333795265746 0 -0.28416808666832472 -0.090876464884104322 0 -0.26803774644364831 -0.088990216861234941 0 -0.26237563885443332 -0.099092169843888092 0 -0.28416808666832472 -0.090876464884104322 0 -0.25855249999409979 -0.079349971077516485 0 -0.28275713062840102 -0.072254333795265746 0 -0.25855249999409979 -0.079349971077516485 0 -0.26874039246249382 -0.069271675174266092 0 -0.28275713062840102 -0.072254333795265746 0 -0.25855249999409979 -0.079349971077516485 0 -0.27123440961567508 -0.082288547260032208 0 -0.28275713062840102 -0.072254333795265746 0 -0.27994708571901822 -0.057980160189140359 0 -0.26874039246249382 -0.069271675174266092 0 -0.28275713062840102 -0.072254333795265746 0 -0.2478381125959237 -0.13014188093155071 0 -0.26471173226585809 -0.1241277151614352 0 -0.25439292330372432 -0.11161035632906929 0 -0.26471173226585809 -0.1241277151614352 0 -0.25439292330372432 -0.11161035632906929 0 -0.26925149092450551 -0.1104881183943958 0 -0.25439292330372432 -0.11161035632906929 0 -0.26237563885443332 -0.099092169843888092 0 -0.26925149092450551 -0.1104881183943958 0 -0.25439292330372432 -0.11161035632906929 0 -0.2525882024947626 -0.098821099717938107 0 -0.26237563885443332 -0.099092169843888092 0 -0.2438502060585381 -0.1028583717612334 0 -0.25439292330372432 -0.11161035632906929 0 -0.2525882024947626 -0.098821099717938107 0 -0.26020234849033591 -0.090653931434255125 0 -0.2525882024947626 -0.098821099717938107 0 -0.26237563885443332 -0.099092169843888092 0 -0.26237563885443332 -0.099092169843888092 0 -0.26925149092450551 -0.1104881183943958 0 -0.28416808666832472 -0.090876464884104322 0 -0.26237563885443332 -0.099092169843888092 0 -0.28416808666832472 -0.090876464884104322 0 -0.26925149092450551 -0.1104881183943958 0 -0.28362018306611941 -0.1149768545032684 0 -0.28416808666832472 -0.090876464884104322 0 -0.26471173226585809 -0.1241277151614352 0 -0.26925149092450551 -0.1104881183943958 0 -0.28362018306611941 -0.1149768545032684 0 -0.28362018306611941 -0.1149768545032684 0 -0.30012398023346848 -0.099943372585857088 0 -0.29756340944960558 -0.1135198660677226 0 -0.28362018306611941 -0.1149768545032684 0 -0.29756340944960558 -0.1135198660677226 0 -0.29768876878828382 -0.12804597213566191 0 -0.28362018306611941 -0.1149768545032684 0 -0.30012398023346848 -0.099943372585857088 0 -0.28416808666832472 -0.090876464884104322 0 -0.30012398023346848 -0.099943372585857088 0 -0.30783691459248808 -0.106447779092323 0 -0.31567959952596442 -0.097557764174788134 0 -0.30012398023346848 -0.099943372585857088 0 -0.30783691459248808 -0.106447779092323 0 -0.29756340944960558 -0.1135198660677226 0 -0.31981531178534578 -0.1159443424066684 0 -0.31168640084693722 -0.1309238984722621 0 -0.29768876878828382 -0.12804597213566191 0 -0.31097561465500489 -0.1146061177684144 0 -0.31981531178534578 -0.1159443424066684 0 -0.29768876878828382 -0.12804597213566191 0 -0.31981531178534578 -0.1159443424066684 0 -0.29768876878828382 -0.12804597213566191 0 -0.30783691459248808 -0.106447779092323 0 -0.29756340944960558 -0.1135198660677226 0 -0.31097561465500489 -0.1146061177684144 0 -0.30783691459248808 -0.106447779092323 0 -0.31097561465500489 -0.1146061177684144 0 -0.31588048179209449 -0.1075745667651056 0 -0.29756340944960558 -0.1135198660677226 0 -0.31097561465500489 -0.1146061177684144 0 -0.29768876878828382 -0.12804597213566191 0 -0.29253753360804391 -0.057483018047446738 0 -0.28275713062840102 -0.072254333795265746 0 -0.30696176126270219 -0.065158696513015008 0 -0.28275713062840102 -0.072254333795265746 0 -0.30696176126270219 -0.065158696513015008 0 -0.29253753360804391 -0.057483018047446738 0 -0.27994708571901822 -0.057980160189140359 0 -0.28275713062840102 -0.072254333795265746 0 -0.28275713062840102 -0.072254333795265746 0 -0.28416808666832472 -0.090876464884104322 0 -0.30596053448221622 -0.082660759924320565 0 -0.30012398023346848 -0.099943372585857088 0 -0.28416808666832472 -0.090876464884104322 0 -0.30596053448221622 -0.082660759924320565 0 -0.28416808666832472 -0.090876464884104322 0 -0.30596053448221622 -0.082660759924320565 0 -0.30012398023346848 -0.099943372585857088 0 -0.30596053448221622 -0.082660759924320565 0 -0.31567959952596442 -0.097557764174788134 0 -0.28275713062840102 -0.072254333795265746 0 -0.30596053448221622 -0.082660759924320565 0 -0.30696176126270219 -0.065158696513015008 0 -0.30696176126270219 -0.065158696513015008 0 -0.32775298229610761 -0.074445054964536822 0 -0.33116639189700398 -0.058063059230765962 0 -0.30596053448221622 -0.082660759924320565 0 -0.30696176126270219 -0.065158696513015008 0 -0.32775298229610761 -0.074445054964536822 0 -0.30596053448221622 -0.082660759924320565 0 -0.32775298229610761 -0.074445054964536822 0 -0.30596053448221622 -0.082660759924320565 0 -0.32775298229610761 -0.074445054964536822 0 -0.32362127966136711 -0.087321124884110049 0 -0.30596053448221622 -0.082660759924320565 0 -0.32362127966136711 -0.087321124884110049 0 -0.31567959952596442 -0.097557764174788134 0 -0.32362127966136711 -0.087321124884110049 0 -0.31567959952596442 -0.097557764174788134 0 -0.33099901797333198 -0.096034161481027461 0 -0.32775298229610761 -0.074445054964536822 0 -0.32362127966136711 -0.087321124884110049 0 -0.33771426402921512 -0.08590788387587725 0 -0.32775298229610761 -0.074445054964536822 0 -0.33771426402921512 -0.08590788387587725 0 -0.3410929925936918 -0.075329856076351967 0 -0.32362127966136711 -0.087321124884110049 0 -0.33771426402921512 -0.08590788387587725 0 -0.33099901797333198 -0.096034161481027461 0 -0.33771426402921512 -0.08590788387587725 0 -0.34583111956259749 -0.098435285946989581 0 -0.34764631593145701 -0.084003956848892683 0 -0.33771426402921512 -0.08590788387587725 0 -0.33099901797333198 -0.096034161481027461 0 -0.34583111956259749 -0.098435285946989581 0 -0.33771426402921512 -0.08590788387587725 0 -0.3410929925936918 -0.075329856076351967 0 -0.34764631593145701 -0.084003956848892683 0 -0.32775298229610761 -0.074445054964536822 0 -0.34954543010999922 -0.066229350004753773 0 -0.32775298229610761 -0.074445054964536822 0 -0.34954543010999922 -0.066229350004753773 0 -0.33116639189700398 -0.058063059230765962 0 -0.32775298229610761 -0.074445054964536822 0 -0.3410929925936918 -0.075329856076351967 0 -0.34954543010999922 -0.066229350004753773 0 -0.31981531178534578 -0.1159443424066684 0 -0.33811662782018509 -0.1187149432167614 0 -0.32501708124079648 -0.13103464252731351 0 -0.31097561465500489 -0.1146061177684144 0 -0.31981531178534578 -0.1159443424066684 0 -0.31588048179209449 -0.1075745667651056 0 -0.31097561465500489 -0.1146061177684144 0 -0.31981531178534578 -0.1159443424066684 0 -0.31981531178534578 -0.1159443424066684 0 -0.32413251233690038 -0.10459203082738 0 -0.33754729440195652 -0.1062462215562652 0 -0.31981531178534578 -0.1159443424066684 0 -0.32413251233690038 -0.10459203082738 0 -0.31588048179209449 -0.1075745667651056 0 -0.32413251233690038 -0.10459203082738 0 -0.31588048179209449 -0.1075745667651056 0 -0.31567959952596442 -0.097557764174788134 0 -0.30783691459248808 -0.106447779092323 0 -0.31588048179209449 -0.1075745667651056 0 -0.31567959952596442 -0.097557764174788134 0 -0.32413251233690038 -0.10459203082738 0 -0.31567959952596442 -0.097557764174788134 0 -0.33099901797333198 -0.096034161481027461 0 -0.33754729440195652 -0.1062462215562652 0 -0.33811662782018509 -0.1187149432167614 0 -0.34583111956259749 -0.098435285946989581 0 -0.33099901797333198 -0.096034161481027461 0 -0.33754729440195652 -0.1062462215562652 0 -0.34583111956259749 -0.098435285946989581 0 -0.32413251233690038 -0.10459203082738 0 -0.33099901797333198 -0.096034161481027461 0 -0.33754729440195652 -0.1062462215562652 0 -0.31981531178534578 -0.1159443424066684 0 -0.33754729440195652 -0.1062462215562652 0 -0.31981531178534578 -0.1159443424066684 0 -0.33754729440195652 -0.1062462215562652 0 -0.33811662782018509 -0.1187149432167614 0 -0.31981531178534578 -0.1159443424066684 0 -0.33811662782018509 -0.1187149432167614 0 -0.33811662782018509 -0.1187149432167614 0 -0.32501708124079648 -0.13103464252731351 0 -0.33811662782018509 -0.1187149432167614 0 -0.35957868311145441 -0.098530575294378642 0 -0.36560935282136869 -0.1228770136391782 0 -0.33811662782018509 -0.1187149432167614 0 -0.36560935282136869 -0.1228770136391782 0 -0.33811662782018509 -0.1187149432167614 0 -0.35957868311145441 -0.098530575294378642 0 -0.33811662782018509 -0.1187149432167614 0 -0.34583111956259749 -0.098435285946989581 0 -0.35957868311145441 -0.098530575294378642 0 -0.37338072534044958 -0.1015395423542827 0 -0.35957868311145441 -0.098530575294378642 0 -0.36560935282136869 -0.1228770136391782 0 -0.37338072534044958 -0.1015395423542827 0 -0.35957868311145441 -0.098530575294378642 0 -0.3750868287242039 -0.083945666598845156 0 -0.35957868311145441 -0.098530575294378642 0 -0.36560935282136869 -0.1228770136391782 0 -0.37338072534044958 -0.1015395423542827 0 -0.36560935282136869 -0.1228770136391782 0 -0.38088751658449588 -0.11177605152490321 0 -0.35337645997328532 -0.073491557988243944 0 -0.34954543010999922 -0.066229350004753773 0 -0.36110028685175177 -0.071363477205066639 0 -0.34954543010999922 -0.066229350004753773 0 -0.36113753062154968 -0.061859153573384271 0 -0.35391811348297447 -0.060268720819388867 0 -0.34954543010999922 -0.066229350004753773 0 -0.36113753062154968 -0.061859153573384271 0 -0.34954543010999922 -0.066229350004753773 0 -0.36110028685175177 -0.071363477205066639 0 -0.36113753062154968 -0.061859153573384271 0 -0.34954543010999922 -0.066229350004753773 0 -0.36110028685175177 -0.071363477205066639 0 -0.3410929925936918 -0.075329856076351967 0 -0.34954543010999922 -0.066229350004753773 0 -0.34762887643352081 -0.074048264607039227 0 -0.3410929925936918 -0.075329856076351967 0 -0.34762887643352081 -0.074048264607039227 0 -0.34764631593145701 -0.084003956848892683 0 -0.35337645997328532 -0.073491557988243944 0 -0.34762887643352081 -0.074048264607039227 0 -0.34764631593145701 -0.084003956848892683 0 -0.35337645997328532 -0.073491557988243944 0 -0.34954543010999922 -0.066229350004753773 0 -0.34762887643352081 -0.074048264607039227 0 -0.35957868311145441 -0.098530575294378642 0 -0.35337645997328532 -0.073491557988243944 0 -0.34764631593145701 -0.084003956848892683 0 -0.35957868311145441 -0.098530575294378642 0 -0.35337645997328532 -0.073491557988243944 0 -0.34583111956259749 -0.098435285946989581 0 -0.35957868311145441 -0.098530575294378642 0 -0.34764631593145701 -0.084003956848892683 0 -0.35957868311145441 -0.098530575294378642 0 -0.36565466293458038 -0.077117114018749447 0 -0.3750868287242039 -0.083945666598845156 0 -0.35957868311145441 -0.098530575294378642 0 -0.35337645997328532 -0.073491557988243944 0 -0.36565466293458038 -0.077117114018749447 0 -0.35957868311145441 -0.098530575294378642 0 -0.3750868287242039 -0.083945666598845156 0 -0.36565466293458038 -0.077117114018749447 0 -0.37683012181080239 -0.068733301298065499 0 -0.3750868287242039 -0.083945666598845156 0 -0.36565466293458038 -0.077117114018749447 0 -0.36795559713598469 -0.066638105727896774 0 -0.37683012181080239 -0.068733301298065499 0 -0.36565466293458038 -0.077117114018749447 0 -0.36110028685175177 -0.071363477205066639 0 -0.36795559713598469 -0.066638105727896774 0 -0.35337645997328532 -0.073491557988243944 0 -0.36565466293458038 -0.077117114018749447 0 -0.36110028685175177 -0.071363477205066639 0 -0.36110028685175177 -0.071363477205066639 0 -0.36795559713598469 -0.066638105727896774 0 -0.36113753062154968 -0.061859153573384271 0 -0.36795559713598469 -0.066638105727896774 0 -0.37470589733927712 -0.0545527271000322 0 -0.37683012181080239 -0.068733301298065499 0 -0.35650250053147359 -0.050635726844241939 0 -0.37707154236451451 -0.044605869900925722 0 -0.37470589733927712 -0.0545527271000322 0 -0.35650250053147359 -0.050635726844241939 0 -0.36795559713598469 -0.066638105727896774 0 -0.37470589733927712 -0.0545527271000322 0 -0.36113753062154968 -0.061859153573384271 0 -0.37470589733927712 -0.0545527271000322 0 -0.35650250053147359 -0.050635726844241939 0 -0.37707154236451451 -0.044605869900925722 0 -0.37470589733927712 -0.0545527271000322 0 -0.35970252298352262 -0.056514655867325403 0 -0.35650250053147359 -0.050635726844241939 0 -0.37470589733927712 -0.0545527271000322 0 -0.35970252298352262 -0.056514655867325403 0 -0.36113753062154968 -0.061859153573384271 0 -0.35391811348297447 -0.060268720819388867 0 -0.35527395769833642 -0.05300159300784036 0 -0.33116639189700398 -0.058063059230765962 0 -0.35527395769833642 -0.05300159300784036 0 -0.35507992259877907 -0.051052758492802497 0 -0.33116639189700398 -0.058063059230765962 0 -0.34954543010999922 -0.066229350004753773 0 -0.35391811348297447 -0.060268720819388867 0 -0.33116639189700398 -0.058063059230765962 0 -0.35970252298352262 -0.056514655867325403 0 -0.36113753062154968 -0.061859153573384271 0 -0.35391811348297447 -0.060268720819388867 0 -0.35970252298352262 -0.056514655867325403 0 -0.35391811348297447 -0.060268720819388867 0 -0.35527395769833642 -0.05300159300784036 0 -0.35650250053147359 -0.050635726844241939 0 -0.35507992259877907 -0.051052758492802497 0 -0.3484308880043866 -0.044087332347355908 0 -0.35970252298352262 -0.056514655867325403 0 -0.35650250053147359 -0.050635726844241939 0 -0.35527395769833642 -0.05300159300784036 0 -0.35650250053147359 -0.050635726844241939 0 -0.35527395769833642 -0.05300159300784036 0 -0.35650250053147359 -0.050635726844241939 0 -0.35527395769833642 -0.05300159300784036 0 -0.35507992259877907 -0.051052758492802497 0 -0.35650250053147359 -0.050635726844241939 0 -0.35507992259877907 -0.051052758492802497 0 -0.35507992259877907 -0.051052758492802497 0 -0.33978397050626657 -0.048324977944356091 0 -0.35507992259877907 -0.051052758492802497 0 -0.3484308880043866 -0.044087332347355908 0 -0.33978397050626657 -0.048324977944356091 0 -0.35650250053147359 -0.050635726844241939 0 -0.3501214739100334 -0.034607419809747728 0 -0.3484308880043866 -0.044087332347355908 0 -0.35650250053147359 -0.050635726844241939 0 -0.3501214739100334 -0.034607419809747728 0 -0.36684988365240911 -0.03070925546092473 0 -0.3501214739100334 -0.034607419809747728 0 -0.3484308880043866 -0.044087332347355908 0 -0.33506880487583801 -0.038565334792038719 0 -0.35650250053147359 -0.050635726844241939 0 -0.36684988365240911 -0.03070925546092473 0 -0.37707154236451451 -0.044605869900925722 0 -0.35650250053147359 -0.050635726844241939 0 -0.36684988365240911 -0.03070925546092473 0 -0.36684988365240911 -0.03070925546092473 0 -0.37719726677334758 -0.010782784077609161 0 -0.36684988365240911 -0.03070925546092473 0 -0.35583605574812599 -0.018224686697538489 0 -0.37719726677334758 -0.010782784077609161 0 -0.35583605574812599 -0.018224686697538489 0 -0.37719726677334758 -0.010782784077609161 0 -0.37145675818362223 0.001704133189072726 0 -0.35583605574812599 -0.018224686697538489 0 -0.37719726677334758 -0.010782784077609161 0 -0.35583605574812599 -0.018224686697538489 0 -0.35182631000740072 0.0068229147672093007 0 -0.37145675818362223 0.001704133189072726 0 -0.35583605574812599 -0.018224686697538489 0 -0.33449922093445961 -0.0040818700918973123 0 -0.35182631000740072 0.0068229147672093007 0 -0.3501214739100334 -0.034607419809747728 0 -0.35583605574812599 -0.018224686697538489 0 -0.33447484472290451 -0.025666589317467611 0 -0.3501214739100334 -0.034607419809747728 0 -0.36684988365240911 -0.03070925546092473 0 -0.35583605574812599 -0.018224686697538489 0 -0.35583605574812599 -0.018224686697538489 0 -0.33447484472290451 -0.025666589317467611 0 -0.35583605574812599 -0.018224686697538489 0 -0.33447484472290451 -0.025666589317467611 0 -0.33449922093445961 -0.0040818700918973123 0 -0.33447484472290451 -0.025666589317467611 0 -0.33449922093445961 -0.0040818700918973123 0 -0.31759413704845219 -0.011310857140017521 0 -0.33449922093445961 -0.0040818700918973123 0 -0.31759413704845219 -0.011310857140017521 0 -0.32049615199215492 0.0045280339304297253 0 -0.30518798685158838 -0.0020929360932298849 0 -0.31759413704845219 -0.011310857140017521 0 -0.32049615199215492 0.0045280339304297253 0 -0.33447484472290451 -0.025666589317467611 0 -0.31759413704845219 -0.011310857140017521 0 -0.31311363369768291 -0.03310849193739672 0 -0.33447484472290451 -0.025666589317467611 0 -0.31311363369768291 -0.03310849193739672 0 -0.3114594072847322 -0.049306726894047262 0 -0.31311363369768291 -0.03310849193739672 0 -0.32448801841375452 -0.045597197395908257 0 -0.33447484472290451 -0.025666589317467611 0 -0.31311363369768291 -0.03310849193739672 0 -0.33506880487583801 -0.038565334792038719 0 -0.31311363369768291 -0.03310849193739672 0 -0.32448801841375452 -0.045597197395908257 0 -0.33506880487583801 -0.038565334792038719 0 -0.3114594072847322 -0.049306726894047262 0 -0.32448801841375452 -0.045597197395908257 0 -0.33116639189700398 -0.058063059230765962 0 -0.30696176126270219 -0.065158696513015008 0 -0.33116639189700398 -0.058063059230765962 0 -0.3114594072847322 -0.049306726894047262 0 -0.33116639189700398 -0.058063059230765962 0 -0.3114594072847322 -0.049306726894047262 0 -0.30696176126270219 -0.065158696513015008 0 -0.33116639189700398 -0.058063059230765962 0 -0.32448801841375452 -0.045597197395908257 0 -0.33116639189700398 -0.058063059230765962 0 -0.33978397050626657 -0.048324977944356091 0 -0.34954543010999922 -0.066229350004753773 0 -0.33116639189700398 -0.058063059230765962 0 -0.35507992259877907 -0.051052758492802497 0 -0.33116639189700398 -0.058063059230765962 0 -0.33978397050626657 -0.048324977944356091 0 -0.35507992259877907 -0.051052758492802497 0 -0.33116639189700398 -0.058063059230765962 0 -0.32448801841375452 -0.045597197395908257 0 -0.33978397050626657 -0.048324977944356091 0 -0.3501214739100334 -0.034607419809747728 0 -0.33447484472290451 -0.025666589317467611 0 -0.33506880487583801 -0.038565334792038719 0 -0.3484308880043866 -0.044087332347355908 0 -0.33978397050626657 -0.048324977944356091 0 -0.33506880487583801 -0.038565334792038719 0 -0.32448801841375452 -0.045597197395908257 0 -0.33978397050626657 -0.048324977944356091 0 -0.33506880487583801 -0.038565334792038719 0 -0.29859701231105729 -0.25301700882560368 0 -0.3071375446623259 -0.2335196387236223 0 -0.31421725341188372 -0.24977587129631751 0 -0.29859701231105729 -0.25301700882560368 0 -0.3071375446623259 -0.2335196387236223 0 -0.29138670340076089 -0.23873921836977791 0 -0.3071375446623259 -0.2335196387236223 0 -0.29268109579257923 -0.22411955864172181 0 -0.3060605016315725 -0.21226103782782971 0 -0.3071375446623259 -0.2335196387236223 0 -0.3060605016315725 -0.21226103782782971 0 -0.32042736925848198 -0.22641527486886631 0 -0.3071375446623259 -0.2335196387236223 0 -0.29268109579257923 -0.22411955864172181 0 -0.29138670340076089 -0.23873921836977791 0 -0.29268109579257923 -0.22411955864172181 0 -0.27778266513963018 -0.23141617934605249 0 -0.2809246376312578 -0.20830770343947971 0 -0.29268109579257923 -0.22411955864172181 0 -0.29138670340076089 -0.23873921836977791 0 -0.27778266513963018 -0.23141617934605249 0 -0.28073519909821221 -0.25162370631188929 0 -0.29138670340076089 -0.23873921836977791 0 -0.27778266513963018 -0.23141617934605249 0 -0.28073519909821221 -0.25162370631188929 0 -0.29859701231105729 -0.25301700882560368 0 -0.29138670340076089 -0.23873921836977791 0 -0.28073519909821221 -0.25162370631188929 0 -0.2582168116042447 -0.2439014490639565 0 -0.27778266513963018 -0.23141617934605249 0 -0.24510877540263959 -0.22548599802342939 0 -0.2582168116042447 -0.2439014490639565 0 -0.26321090898949828 -0.22136191750140799 0 -0.24510877540263959 -0.22548599802342939 0 -0.26321090898949828 -0.22136191750140799 0 -0.25247744799357308 -0.21261594090752481 0 -0.26321090898949828 -0.22136191750140799 0 -0.27778266513963018 -0.23141617934605249 0 -0.2809246376312578 -0.20830770343947971 0 -0.2582168116042447 -0.2439014490639565 0 -0.26321090898949828 -0.22136191750140799 0 -0.27778266513963018 -0.23141617934605249 0 -0.26321090898949828 -0.22136191750140799 0 -0.2809246376312578 -0.20830770343947971 0 -0.26409863293778341 -0.20573621058270139 0 -0.26321090898949828 -0.22136191750140799 0 -0.26409863293778341 -0.20573621058270139 0 -0.25247744799357308 -0.21261594090752481 0 -0.26409863293778341 -0.20573621058270139 0 -0.25247744799357308 -0.21261594090752481 0 -0.25047429362874257 -0.200219847641955 0 -0.26409863293778341 -0.20573621058270139 0 -0.25047429362874257 -0.200219847641955 0 -0.26742375486930359 -0.1882108285553544 0 -0.25047429362874257 -0.200219847641955 0 -0.26742375486930359 -0.1882108285553544 0 -0.23968786498356659 -0.18400375912907671 0 -0.25047429362874257 -0.200219847641955 0 -0.26742375486930359 -0.1882108285553544 0 -0.2809246376312578 -0.20830770343947971 0 -0.26742375486930359 -0.1882108285553544 0 -0.29199909585561379 -0.19193849570898799 0 -0.26742375486930359 -0.1882108285553544 0 -0.29199909585561379 -0.19193849570898799 0 -0.2809246376312578 -0.20830770343947971 0 -0.26409863293778341 -0.20573621058270139 0 -0.26742375486930359 -0.1882108285553544 0 -0.2809246376312578 -0.20830770343947971 0 -0.3060605016315725 -0.21226103782782971 0 -0.2809246376312578 -0.20830770343947971 0 -0.29199909585561379 -0.19193849570898799 0 -0.3060605016315725 -0.21226103782782971 0 -0.29268109579257923 -0.22411955864172181 0 -0.2809246376312578 -0.20830770343947971 0 -0.3060605016315725 -0.21226103782782971 0 -0.29199909585561379 -0.19193849570898799 0 -0.3060605016315725 -0.21226103782782971 0 -0.3165744368419241 -0.19566616286262159 0 -0.29199909585561379 -0.19193849570898799 0 -0.3165744368419241 -0.19566616286262159 0 -0.29199909585561379 -0.19193849570898799 0 -0.29938476110462459 -0.18143496863655581 0 -0.3165744368419241 -0.19566616286262159 0 -0.29938476110462459 -0.18143496863655581 0 -0.31036357984341878 -0.17729064654437279 0 -0.3165744368419241 -0.19566616286262159 0 -0.29938476110462459 -0.18143496863655581 0 -0.30228981993539911 -0.17082195765291869 0 -0.28961274120160779 -0.1724895052286107 0 -0.29938476110462459 -0.18143496863655581 0 -0.31036357984341878 -0.17729064654437279 0 -0.30228981993539911 -0.17082195765291869 0 -0.31036357984341878 -0.17729064654437279 0 -0.31099079812705838 -0.16810657065420029 0 -0.30228981993539911 -0.17082195765291869 0 -0.31099079812705838 -0.16810657065420029 0 -0.31180172753391222 -0.15676818190186689 0 -0.30228981993539911 -0.17082195765291869 0 -0.31180172753391222 -0.15676818190186689 0 -0.28961274120160779 -0.1724895052286107 0 -0.31180172753391222 -0.15676818190186689 0 -0.28581520798017918 -0.16349252579439161 0 -0.31180172753391222 -0.15676818190186689 0 -0.28581520798017918 -0.16349252579439161 0 -0.30248732557626462 -0.14891872701938649 0 -0.31180172753391222 -0.15676818190186689 0 -0.30228981993539911 -0.17082195765291869 0 -0.28961274120160779 -0.1724895052286107 0 -0.31180172753391222 -0.15676818190186689 0 -0.28581520798017918 -0.16349252579439161 0 -0.28961274120160779 -0.1724895052286107 0 -0.28581520798017918 -0.16349252579439161 0 -0.28961274120160779 -0.1724895052286107 0 -0.27455339795200551 -0.17354596063111 0 -0.29199909585561379 -0.19193849570898799 0 -0.29938476110462459 -0.18143496863655581 0 -0.28961274120160779 -0.1724895052286107 0 -0.26742375486930359 -0.1882108285553544 0 -0.29199909585561379 -0.19193849570898799 0 -0.28961274120160779 -0.1724895052286107 0 -0.26742375486930359 -0.1882108285553544 0 -0.28961274120160779 -0.1724895052286107 0 -0.26742375486930359 -0.1882108285553544 0 -0.28961274120160779 -0.1724895052286107 0 -0.27455339795200551 -0.17354596063111 0 -0.26742375486930359 -0.1882108285553544 0 -0.27455339795200551 -0.17354596063111 0 -0.25982868842644607 -0.17021686968691641 0 -0.23968786498356659 -0.18400375912907671 0 -0.26742375486930359 -0.1882108285553544 0 -0.23968786498356659 -0.18400375912907671 0 -0.26742375486930359 -0.1882108285553544 0 -0.25982868842644607 -0.17021686968691641 0 -0.25982868842644607 -0.17021686968691641 0 -0.27013136078807137 -0.15645680560504849 0 -0.25343568279415951 -0.15224923159364789 0 -0.24566481473353391 -0.1652464025747532 0 -0.25982868842644607 -0.17021686968691641 0 -0.25343568279415951 -0.15224923159364789 0 -0.28581520798017918 -0.16349252579439161 0 -0.25982868842644607 -0.17021686968691641 0 -0.27013136078807137 -0.15645680560504849 0 -0.28581520798017918 -0.16349252579439161 0 -0.27455339795200551 -0.17354596063111 0 -0.25982868842644607 -0.17021686968691641 0 -0.28581520798017918 -0.16349252579439161 0 -0.27013136078807137 -0.15645680560504849 0 -0.281048741890911 -0.15139895950123519 0 -0.28581520798017918 -0.16349252579439161 0 -0.25982868842644607 -0.17021686968691641 0 -0.27013136078807137 -0.15645680560504849 0 -0.281048741890911 -0.15139895950123519 0 -0.27556222579122169 -0.14014760186465491 0 -0.27013136078807137 -0.15645680560504849 0 -0.25343568279415951 -0.15224923159364789 0 -0.27556222579122169 -0.14014760186465491 0 -0.25343568279415951 -0.15224923159364789 0 -0.26038693836179072 -0.13666660738782219 0 -0.27556222579122169 -0.14014760186465491 0 -0.25343568279415951 -0.15224923159364789 0 -0.27556222579122169 -0.14014760186465491 0 -0.2478381125959237 -0.13014188093155071 0 -0.26471173226585809 -0.1241277151614352 0 -0.26038693836179072 -0.13666660738782219 0 -0.2478381125959237 -0.13014188093155071 0 -0.25343568279415951 -0.15224923159364789 0 -0.26038693836179072 -0.13666660738782219 0 -0.26471173226585809 -0.1241277151614352 0 -0.28362018306611941 -0.1149768545032684 0 -0.27556222579122169 -0.14014760186465491 0 -0.26471173226585809 -0.1241277151614352 0 -0.26038693836179072 -0.13666660738782219 0 -0.27556222579122169 -0.14014760186465491 0 -0.27556222579122169 -0.14014760186465491 0 -0.29268617300417199 -0.1454989047408457 0 -0.29768876878828382 -0.12804597213566191 0 -0.28362018306611941 -0.1149768545032684 0 -0.27556222579122169 -0.14014760186465491 0 -0.29768876878828382 -0.12804597213566191 0 -0.27556222579122169 -0.14014760186465491 0 -0.29768876878828382 -0.12804597213566191 0 -0.28581520798017918 -0.16349252579439161 0 -0.29268617300417199 -0.1454989047408457 0 -0.30248732557626462 -0.14891872701938649 0 -0.28581520798017918 -0.16349252579439161 0 -0.281048741890911 -0.15139895950123519 0 -0.29268617300417199 -0.1454989047408457 0 -0.281048741890911 -0.15139895950123519 0 -0.27556222579122169 -0.14014760186465491 0 -0.29268617300417199 -0.1454989047408457 0 -0.29268617300417199 -0.1454989047408457 0 -0.30248732557626462 -0.14891872701938649 0 -0.30370630156068762 -0.1389224563049837 0 -0.31180172753391222 -0.15676818190186689 0 -0.30248732557626462 -0.14891872701938649 0 -0.31398283958777989 -0.14122477915676221 0 -0.30248732557626462 -0.14891872701938649 0 -0.30370630156068762 -0.1389224563049837 0 -0.31398283958777989 -0.14122477915676221 0 -0.29268617300417199 -0.1454989047408457 0 -0.29768876878828382 -0.12804597213566191 0 -0.30370630156068762 -0.1389224563049837 0 -0.31168640084693722 -0.1309238984722621 0 -0.30370630156068762 -0.1389224563049837 0 -0.31398283958777989 -0.14122477915676221 0 -0.31168640084693722 -0.1309238984722621 0 -0.29768876878828382 -0.12804597213566191 0 -0.30370630156068762 -0.1389224563049837 0 -0.32501708124079648 -0.13103464252731351 0 -0.31398283958777989 -0.14122477915676221 0 -0.32769326224381667 -0.1455087240973956 0 -0.31981531178534578 -0.1159443424066684 0 -0.31168640084693722 -0.1309238984722621 0 -0.32501708124079648 -0.13103464252731351 0 -0.31168640084693722 -0.1309238984722621 0 -0.32501708124079648 -0.13103464252731351 0 -0.31398283958777989 -0.14122477915676221 0 -0.31180172753391222 -0.15676818190186689 0 -0.32298463198440808 -0.15387446252221321 0 -0.32769326224381667 -0.1455087240973956 0 -0.31180172753391222 -0.15676818190186689 0 -0.32769326224381667 -0.1455087240973956 0 -0.31180172753391222 -0.15676818190186689 0 -0.31398283958777989 -0.14122477915676221 0 -0.32769326224381667 -0.1455087240973956 0 -0.31180172753391222 -0.15676818190186689 0 -0.32298463198440808 -0.15387446252221321 0 -0.32298463198440808 -0.15387446252221321 0 -0.33102430582003672 -0.15284086827415069 0 -0.32912678435276249 -0.16184097596254959 0 -0.32298463198440808 -0.15387446252221321 0 -0.32769326224381667 -0.1455087240973956 0 -0.33102430582003672 -0.15284086827415069 0 -0.32769326224381667 -0.1455087240973956 0 -0.33779330298695009 -0.14738175250870711 0 -0.34358479695372102 -0.13424926629292419 0 -0.32769326224381667 -0.1455087240973956 0 -0.33102430582003672 -0.15284086827415069 0 -0.33779330298695009 -0.14738175250870711 0 -0.33779330298695009 -0.14738175250870711 0 -0.34838845348846031 -0.14833884467229949 0 -0.33902784532518498 -0.15634369213364299 0 -0.33102430582003672 -0.15284086827415069 0 -0.33779330298695009 -0.14738175250870711 0 -0.33902784532518498 -0.15634369213364299 0 -0.33779330298695009 -0.14738175250870711 0 -0.34358479695372102 -0.13424926629292419 0 -0.34838845348846031 -0.14833884467229949 0 -0.32501708124079648 -0.13103464252731351 0 -0.32769326224381667 -0.1455087240973956 0 -0.34358479695372102 -0.13424926629292419 0 -0.33811662782018509 -0.1187149432167614 0 -0.32501708124079648 -0.13103464252731351 0 -0.34358479695372102 -0.13424926629292419 0 -0.32769326224381667 -0.1455087240973956 0 -0.34358479695372102 -0.13424926629292419 0 -0.33811662782018509 -0.1187149432167614 0 -0.36560935282136869 -0.1228770136391782 0 -0.34358479695372102 -0.13424926629292419 0 -0.36560935282136869 -0.1228770136391782 0 -0.34358479695372102 -0.13424926629292419 0 -0.35789225520722451 -0.13996819740399649 0 -0.36560935282136869 -0.1228770136391782 0 -0.37179133304014322 -0.14783430818272611 0 -0.38404989885292651 -0.1400792958384918 0 -0.36560935282136869 -0.1228770136391782 0 -0.37179133304014322 -0.14783430818272611 0 -0.36560935282136869 -0.1228770136391782 0 -0.35789225520722451 -0.13996819740399649 0 -0.37179133304014322 -0.14783430818272611 0 -0.35789225520722451 -0.13996819740399649 0 -0.37179133304014322 -0.14783430818272611 0 -0.35884313601860912 -0.15417852746750099 0 -0.35884313601860912 -0.15417852746750099 0 -0.34838845348846031 -0.14833884467229949 0 -0.34888414490412811 -0.1629439357986564 0 -0.35789225520722451 -0.13996819740399649 0 -0.35884313601860912 -0.15417852746750099 0 -0.34838845348846031 -0.14833884467229949 0 -0.34358479695372102 -0.13424926629292419 0 -0.35789225520722451 -0.13996819740399649 0 -0.34838845348846031 -0.14833884467229949 0 -0.34838845348846031 -0.14833884467229949 0 -0.34888414490412811 -0.1629439357986564 0 -0.33902784532518498 -0.15634369213364299 0 -0.34888414490412811 -0.1629439357986564 0 -0.34454825898434782 -0.17720191583282571 0 -0.33836769259919219 -0.1670464993373886 0 -0.34888414490412811 -0.1629439357986564 0 -0.35381843126239348 -0.1726746577785957 0 -0.34454825898434782 -0.17720191583282571 0 -0.34888414490412811 -0.1629439357986564 0 -0.36338268495294579 -0.16800377969191779 0 -0.35381843126239348 -0.1726746577785957 0 -0.35884313601860912 -0.15417852746750099 0 -0.34888414490412811 -0.1629439357986564 0 -0.36338268495294579 -0.16800377969191779 0 -0.37179133304014322 -0.14783430818272611 0 -0.37797331325891809 -0.17279160272627381 0 -0.37179133304014322 -0.14783430818272611 0 -0.35884313601860912 -0.15417852746750099 0 -0.36338268495294579 -0.16800377969191779 0 -0.37179133304014322 -0.14783430818272611 0 -0.36338268495294579 -0.16800377969191779 0 -0.37797331325891809 -0.17279160272627381 0 -0.36338268495294579 -0.16800377969191779 0 -0.37192204740575269 -0.18508240213403099 0 -0.3584586362081526 -0.18254899979098321 0 -0.36338268495294579 -0.16800377969191779 0 -0.37192204740575269 -0.18508240213403099 0 -0.37797331325891809 -0.17279160272627381 0 -0.36338268495294579 -0.16800377969191779 0 -0.3584586362081526 -0.18254899979098321 0 -0.35381843126239348 -0.1726746577785957 0 -0.3584586362081526 -0.18254899979098321 0 -0.35381843126239348 -0.1726746577785957 0 -0.34454825898434782 -0.17720191583282571 0 -0.3584586362081526 -0.18254899979098321 0 -0.34454825898434782 -0.17720191583282571 0 -0.34833703943659811 -0.1887712121410032 0 -0.34454825898434782 -0.17720191583282571 0 -0.33350934598544107 -0.1865060965460745 0 -0.34833703943659811 -0.1887712121410032 0 -0.33350934598544107 -0.1865060965460745 0 -0.33087698944707578 -0.17469400287398781 0 -0.32216648346267268 -0.18034048106893991 0 -0.34454825898434782 -0.17720191583282571 0 -0.33087698944707578 -0.17469400287398781 0 -0.33836769259919219 -0.1670464993373886 0 -0.34454825898434782 -0.17720191583282571 0 -0.33350934598544107 -0.1865060965460745 0 -0.33087698944707578 -0.17469400287398781 0 -0.34888414490412811 -0.1629439357986564 0 -0.33836769259919219 -0.1670464993373886 0 -0.33902784532518498 -0.15634369213364299 0 -0.33102430582003672 -0.15284086827415069 0 -0.33902784532518498 -0.15634369213364299 0 -0.32912678435276249 -0.16184097596254959 0 -0.33836769259919219 -0.1670464993373886 0 -0.33902784532518498 -0.15634369213364299 0 -0.32912678435276249 -0.16184097596254959 0 -0.33087698944707578 -0.17469400287398781 0 -0.33836769259919219 -0.1670464993373886 0 -0.32912678435276249 -0.16184097596254959 0 -0.33087698944707578 -0.17469400287398781 0 -0.32912678435276249 -0.16184097596254959 0 -0.31950806519550368 -0.16754549651764289 0 -0.32298463198440808 -0.15387446252221321 0 -0.32912678435276249 -0.16184097596254959 0 -0.31950806519550368 -0.16754549651764289 0 -0.31180172753391222 -0.15676818190186689 0 -0.32298463198440808 -0.15387446252221321 0 -0.31950806519550368 -0.16754549651764289 0 -0.31099079812705838 -0.16810657065420029 0 -0.31180172753391222 -0.15676818190186689 0 -0.31950806519550368 -0.16754549651764289 0 -0.31036357984341878 -0.17729064654437279 0 -0.31099079812705838 -0.16810657065420029 0 -0.31950806519550368 -0.16754549651764289 0 -0.31036357984341878 -0.17729064654437279 0 -0.31950806519550368 -0.16754549651764289 0 -0.32216648346267268 -0.18034048106893991 0 -0.31036357984341878 -0.17729064654437279 0 -0.32216648346267268 -0.18034048106893991 0 -0.3165744368419241 -0.19566616286262159 0 -0.33087698944707578 -0.17469400287398781 0 -0.31950806519550368 -0.16754549651764289 0 -0.32216648346267268 -0.18034048106893991 0 -0.33350934598544107 -0.1865060965460745 0 -0.32216648346267268 -0.18034048106893991 0 -0.3165744368419241 -0.19566616286262159 0 -0.3060605016315725 -0.21226103782782971 0 -0.33119636563188709 -0.2162143722161797 0 -0.32042736925848198 -0.22641527486886631 0 -0.3060605016315725 -0.21226103782782971 0 -0.33119636563188709 -0.2162143722161797 0 -0.3060605016315725 -0.21226103782782971 0 -0.3165744368419241 -0.19566616286262159 0 -0.33119636563188709 -0.2162143722161797 0 -0.33119636563188709 -0.2162143722161797 0 -0.34114977782823441 -0.19939383001625499 0 -0.35633222963220179 -0.22016770660452969 0 -0.3165744368419241 -0.19566616286262159 0 -0.33119636563188709 -0.2162143722161797 0 -0.34114977782823441 -0.19939383001625499 0 -0.3165744368419241 -0.19566616286262159 0 -0.34114977782823441 -0.19939383001625499 0 -0.33350934598544107 -0.1865060965460745 0 -0.3165744368419241 -0.19566616286262159 0 -0.34114977782823441 -0.19939383001625499 0 -0.33350934598544107 -0.1865060965460745 0 -0.34114977782823441 -0.19939383001625499 0 -0.34833703943659811 -0.1887712121410032 0 -0.34114977782823441 -0.19939383001625499 0 -0.36572511881454461 -0.20312149716988859 0 -0.34114977782823441 -0.19939383001625499 0 -0.34833703943659811 -0.1887712121410032 0 -0.36572511881454461 -0.20312149716988859 0 -0.3584586362081526 -0.18254899979098321 0 -0.34833703943659811 -0.1887712121410032 0 -0.36572511881454461 -0.20312149716988859 0 -0.37192204740575269 -0.18508240213403099 0 -0.3584586362081526 -0.18254899979098321 0 -0.36572511881454461 -0.20312149716988859 0 -0.37192204740575269 -0.18508240213403099 0 -0.36572511881454461 -0.20312149716988859 0 -0.37832751345100762 -0.19569708509895661 0 -0.36572511881454461 -0.20312149716988859 0 -0.35633222963220179 -0.22016770660452969 0 -0.37671868671049757 -0.21209106954761561 0 -0.33119636563188709 -0.2162143722161797 0 -0.35633222963220179 -0.22016770660452969 0 -0.34114977782823441 -0.19939383001625499 0 -0.36572511881454461 -0.20312149716988859 0 -0.35633222963220179 -0.22016770660452969 0 -0.34918985577357953 -0.22996643434813971 0 -0.35633222963220179 -0.22016770660452969 0 -0.3644368395520925 -0.23786219595255659 0 -0.33119636563188709 -0.2162143722161797 0 -0.34918985577357953 -0.22996643434813971 0 -0.35633222963220179 -0.22016770660452969 0 -0.35633222963220179 -0.22016770660452969 0 -0.38146809363251649 -0.22412104099287969 0 -0.35633222963220179 -0.22016770660452969 0 -0.37359243883566862 -0.23215909975287299 0 -0.3644368395520925 -0.23786219595255659 0 -0.35633222963220179 -0.22016770660452969 0 -0.37359243883566862 -0.23215909975287299 0 -0.38146809363251649 -0.22412104099287969 0 -0.35633222963220179 -0.22016770660452969 0 -0.38146809363251649 -0.22412104099287969 0 -0.37671868671049757 -0.21209106954761561 0 -0.36999160380854529 -0.25160890498862648 0 -0.3644368395520925 -0.23786219595255659 0 -0.37872015884544641 -0.2435614714605657 0 -0.37359243883566862 -0.23215909975287299 0 -0.3644368395520925 -0.23786219595255659 0 -0.37872015884544641 -0.2435614714605657 0 -0.36999160380854529 -0.25160890498862648 0 -0.3644368395520925 -0.23786219595255659 0 -0.35707845064694121 -0.24935767075674509 0 -0.34918985577357953 -0.22996643434813971 0 -0.3644368395520925 -0.23786219595255659 0 -0.35707845064694121 -0.24935767075674509 0 -0.34918985577357953 -0.22996643434813971 0 -0.35707845064694121 -0.24935767075674509 0 -0.34918985577357953 -0.22996643434813971 0 -0.35707845064694121 -0.24935767075674509 0 -0.34161545739809862 -0.2441761224370865 0 -0.32577683519746242 -0.25897579210934468 0 -0.34161545739809862 -0.2441761224370865 0 -0.32489287339017531 -0.23961736858555491 0 -0.34918985577357953 -0.22996643434813971 0 -0.34161545739809862 -0.2441761224370865 0 -0.33284956097644908 -0.23046395699114461 0 -0.34161545739809862 -0.2441761224370865 0 -0.33284956097644908 -0.23046395699114461 0 -0.32489287339017531 -0.23961736858555491 0 -0.33119636563188709 -0.2162143722161797 0 -0.34918985577357953 -0.22996643434813971 0 -0.33284956097644908 -0.23046395699114461 0 -0.33119636563188709 -0.2162143722161797 0 -0.33284956097644908 -0.23046395699114461 0 -0.32042736925848198 -0.22641527486886631 0 -0.3071375446623259 -0.2335196387236223 0 -0.32042736925848198 -0.22641527486886631 0 -0.32489287339017531 -0.23961736858555491 0 -0.33284956097644908 -0.23046395699114461 0 -0.32042736925848198 -0.22641527486886631 0 -0.32489287339017531 -0.23961736858555491 0 -0.3071375446623259 -0.2335196387236223 0 -0.31421725341188372 -0.24977587129631751 0 -0.32489287339017531 -0.23961736858555491 0 -0.32577683519746242 -0.25897579210934468 0 -0.31421725341188372 -0.24977587129631751 0 -0.32489287339017531 -0.23961736858555491 0 -0.429193077912078 -0.24092705066174019 0 -0.42560539866416353 -0.22692866047589191 0 -0.44336769959532257 -0.23972790925379969 0 -0.429193077912078 -0.24092705066174019 0 -0.42560539866416353 -0.22692866047589191 0 -0.41466813127082142 -0.24184035413310251 0 -0.42775875008346192 -0.25507980811954323 0 -0.429193077912078 -0.24092705066174019 0 -0.41466813127082142 -0.24184035413310251 0 -0.44165736388207272 -0.25360003737878889 0 -0.42775875008346192 -0.25507980811954323 0 -0.429193077912078 -0.24092705066174019 0 -0.42560539866416353 -0.22692866047589191 0 -0.43795718746300122 -0.2140778908121922 0 -0.44658841198271632 -0.22637890077404829 0 -0.42560539866416353 -0.22692866047589191 0 -0.41054768849444062 -0.2248275857939297 0 -0.41466813127082142 -0.24184035413310251 0 -0.42560539866416353 -0.22692866047589191 0 -0.41054768849444062 -0.2248275857939297 0 -0.41728712034711612 -0.21094258822191489 0 -0.42560539866416353 -0.22692866047589191 0 -0.41728712034711612 -0.21094258822191489 0 -0.41054768849444062 -0.2248275857939297 0 -0.41466813127082142 -0.24184035413310251 0 -0.39796822484346261 -0.23652916605093899 0 -0.40220594800304021 -0.25293233307518609 0 -0.39796822484346261 -0.23652916605093899 0 -0.39442967684708991 -0.25208667127465478 0 -0.39796822484346261 -0.23652916605093899 0 -0.38700487251608578 -0.2350830837538336 0 -0.40220594800304021 -0.25293233307518609 0 -0.41466813127082142 -0.24184035413310251 0 -0.39796822484346261 -0.23652916605093899 0 -0.39442967684708991 -0.25208667127465478 0 -0.38700487251608578 -0.2350830837538336 0 -0.37872015884544641 -0.2435614714605657 0 -0.37359243883566862 -0.23215909975287299 0 -0.38700487251608578 -0.2350830837538336 0 -0.37872015884544641 -0.2435614714605657 0 -0.37359243883566862 -0.23215909975287299 0 -0.38700487251608578 -0.2350830837538336 0 -0.38146809363251649 -0.22412104099287969 0 -0.38700487251608578 -0.2350830837538336 0 -0.38146809363251649 -0.22412104099287969 0 -0.39413434232215888 -0.2216891651872302 0 -0.38146809363251649 -0.22412104099287969 0 -0.39413434232215888 -0.2216891651872302 0 -0.38565539561650702 -0.2161876100128117 0 -0.41054768849444062 -0.2248275857939297 0 -0.39796822484346261 -0.23652916605093899 0 -0.39720956734663881 -0.20789716008779879 0 -0.39796822484346261 -0.23652916605093899 0 -0.39413434232215888 -0.2216891651872302 0 -0.39720956734663881 -0.20789716008779879 0 -0.39796822484346261 -0.23652916605093899 0 -0.39720956734663881 -0.20789716008779879 0 -0.39796822484346261 -0.23652916605093899 0 -0.38700487251608578 -0.2350830837538336 0 -0.39413434232215888 -0.2216891651872302 0 -0.39796822484346261 -0.23652916605093899 0 -0.39413434232215888 -0.2216891651872302 0 -0.39720956734663881 -0.20789716008779879 0 -0.40277518483810348 -0.20053664405661509 0 -0.41728712034711612 -0.21094258822191489 0 -0.39720956734663881 -0.20789716008779879 0 -0.39030045980085482 -0.20684916432352149 0 -0.39413434232215888 -0.2216891651872302 0 -0.39720956734663881 -0.20789716008779879 0 -0.39030045980085482 -0.20684916432352149 0 -0.39413434232215888 -0.2216891651872302 0 -0.39030045980085482 -0.20684916432352149 0 -0.36572511881454461 -0.20312149716988859 0 -0.39030045980085482 -0.20684916432352149 0 -0.39413434232215888 -0.2216891651872302 0 -0.38565539561650702 -0.2161876100128117 0 -0.39030045980085482 -0.20684916432352149 0 -0.38565539561650702 -0.2161876100128117 0 -0.39030045980085482 -0.20684916432352149 0 -0.37671868671049757 -0.21209106954761561 0 -0.36572511881454461 -0.20312149716988859 0 -0.39030045980085482 -0.20684916432352149 0 -0.37671868671049757 -0.21209106954761561 0 -0.38146809363251649 -0.22412104099287969 0 -0.38565539561650702 -0.2161876100128117 0 -0.37671868671049757 -0.21209106954761561 0 -0.39030045980085482 -0.20684916432352149 0 -0.38536242778287788 -0.1877352767683855 0 -0.39030045980085482 -0.20684916432352149 0 -0.37832751345100762 -0.19569708509895661 0 -0.38536242778287788 -0.1877352767683855 0 -0.36572511881454461 -0.20312149716988859 0 -0.39030045980085482 -0.20684916432352149 0 -0.37832751345100762 -0.19569708509895661 0 -0.37192204740575269 -0.18508240213403099 0 -0.37832751345100762 -0.19569708509895661 0 -0.38536242778287788 -0.1877352767683855 0 -0.39030045980085482 -0.20684916432352149 0 -0.38536242778287788 -0.1877352767683855 0 -0.39682758983152833 -0.1934811917008569 0 -0.39720956734663881 -0.20789716008779879 0 -0.39682758983152833 -0.1934811917008569 0 -0.39720956734663881 -0.20789716008779879 0 -0.39030045980085482 -0.20684916432352149 0 -0.39682758983152833 -0.1934811917008569 0 -0.39720956734663881 -0.20789716008779879 0 -0.39682758983152833 -0.1934811917008569 0 -0.40277518483810348 -0.20053664405661509 0 -0.39682758983152833 -0.1934811917008569 0 -0.40277518483810348 -0.20053664405661509 0 -0.40786839632368732 -0.19284167875001809 0 -0.40786839632368732 -0.19284167875001809 0 -0.42071188954671479 -0.1977783538484196 0 -0.41728712034711612 -0.21094258822191489 0 -0.40277518483810348 -0.20053664405661509 0 -0.40786839632368732 -0.19284167875001809 0 -0.41728712034711612 -0.21094258822191489 0 -0.40786839632368732 -0.19284167875001809 0 -0.41728712034711612 -0.21094258822191489 0 -0.40786839632368732 -0.19284167875001809 0 -0.42071188954671479 -0.1977783538484196 0 -0.41781993309639348 -0.18473776223631169 0 -0.39720956734663881 -0.20789716008779879 0 -0.41728712034711612 -0.21094258822191489 0 -0.41054768849444062 -0.2248275857939297 0 -0.39720956734663881 -0.20789716008779879 0 -0.41728712034711612 -0.21094258822191489 0 -0.41728712034711612 -0.21094258822191489 0 -0.43042781253814327 -0.20309513998401429 0 -0.43795718746300122 -0.2140778908121922 0 -0.41728712034711612 -0.21094258822191489 0 -0.43795718746300122 -0.2140778908121922 0 -0.42071188954671479 -0.1977783538484196 0 -0.41728712034711612 -0.21094258822191489 0 -0.43042781253814327 -0.20309513998401429 0 -0.42560539866416353 -0.22692866047589191 0 -0.41728712034711612 -0.21094258822191489 0 -0.43795718746300122 -0.2140778908121922 0 -0.43042781253814327 -0.20309513998401429 0 -0.43110417706379089 -0.19272761716818959 0 -0.44507868827009389 -0.1999492498693555 0 -0.42071188954671479 -0.1977783538484196 0 -0.43110417706379089 -0.19272761716818959 0 -0.41781993309639348 -0.18473776223631169 0 -0.42071188954671479 -0.1977783538484196 0 -0.43042781253814327 -0.20309513998401429 0 -0.43110417706379089 -0.19272761716818959 0 -0.43179072736577528 -0.17970529711169 0 -0.42986163711504638 -0.16701354152048811 0 -0.41699473597813752 -0.17063285726143029 0 -0.43179072736577528 -0.17970529711169 0 -0.41699473597813752 -0.17063285726143029 0 -0.41781993309639348 -0.18473776223631169 0 -0.43110417706379089 -0.19272761716818959 0 -0.43179072736577528 -0.17970529711169 0 -0.41781993309639348 -0.18473776223631169 0 -0.43110417706379089 -0.19272761716818959 0 -0.43179072736577528 -0.17970529711169 0 -0.44559792516655838 -0.1851633886427331 0 -0.43179072736577528 -0.17970529711169 0 -0.42986163711504638 -0.16701354152048811 0 -0.44303700991658518 -0.17026832712875151 0 -0.42986163711504638 -0.16701354152048811 0 -0.43823455075000578 -0.15580669622701629 0 -0.44303700991658518 -0.17026832712875151 0 -0.42986163711504638 -0.16701354152048811 0 -0.41699473597813752 -0.17063285726143029 0 -0.41985581490816198 -0.154444998856094 0 -0.42986163711504638 -0.16701354152048811 0 -0.41985581490816198 -0.154444998856094 0 -0.43823455075000578 -0.15580669622701629 0 -0.41699473597813752 -0.17063285726143029 0 -0.39844967230025591 -0.17474076927812279 0 -0.4045200176128938 -0.16008114399198281 0 -0.41699473597813752 -0.17063285726143029 0 -0.4045200176128938 -0.16008114399198281 0 -0.41985581490816198 -0.154444998856094 0 -0.41699473597813752 -0.17063285726143029 0 -0.41781993309639348 -0.18473776223631169 0 -0.39844967230025591 -0.17474076927812279 0 -0.40786839632368732 -0.19284167875001809 0 -0.41781993309639348 -0.18473776223631169 0 -0.39844967230025591 -0.17474076927812279 0 -0.40786839632368732 -0.19284167875001809 0 -0.39844967230025591 -0.17474076927812279 0 -0.39682758983152833 -0.1934811917008569 0 -0.40786839632368732 -0.19284167875001809 0 -0.39844967230025591 -0.17474076927812279 0 -0.38536242778287788 -0.1877352767683855 0 -0.39682758983152833 -0.1934811917008569 0 -0.39844967230025591 -0.17474076927812279 0 -0.38536242778287788 -0.1877352767683855 0 -0.39844967230025591 -0.17474076927812279 0 -0.37797331325891809 -0.17279160272627381 0 -0.37192204740575269 -0.18508240213403099 0 -0.38536242778287788 -0.1877352767683855 0 -0.37797331325891809 -0.17279160272627381 0 -0.37179133304014322 -0.14783430818272611 0 -0.37797331325891809 -0.17279160272627381 0 -0.38903094827682438 -0.15663985980622741 0 -0.39844967230025591 -0.17474076927812279 0 -0.37797331325891809 -0.17279160272627381 0 -0.38903094827682438 -0.15663985980622741 0 -0.39844967230025591 -0.17474076927812279 0 -0.38903094827682438 -0.15663985980622741 0 -0.39844967230025591 -0.17474076927812279 0 -0.38903094827682438 -0.15663985980622741 0 -0.4045200176128938 -0.16008114399198281 0 -0.38903094827682438 -0.15663985980622741 0 -0.4045200176128938 -0.16008114399198281 0 -0.39938536477583741 -0.14370127207381619 0 -0.38903094827682438 -0.15663985980622741 0 -0.39938536477583741 -0.14370127207381619 0 -0.38404989885292651 -0.1400792958384918 0 -0.37179133304014322 -0.14783430818272611 0 -0.38903094827682438 -0.15663985980622741 0 -0.38404989885292651 -0.1400792958384918 0 -0.36560935282136869 -0.1228770136391782 0 -0.38404989885292651 -0.1400792958384918 0 -0.38887223831657869 -0.12639873684615319 0 -0.38887223831657869 -0.12639873684615319 0 -0.41213512381178841 -0.1299204600531296 0 -0.39938536477583741 -0.14370127207381619 0 -0.38887223831657869 -0.12639873684615319 0 -0.41213512381178841 -0.1299204600531296 0 -0.39938536477583741 -0.14370127207381619 0 -0.38404989885292651 -0.1400792958384918 0 -0.38887223831657869 -0.12639873684615319 0 -0.4045200176128938 -0.16008114399198281 0 -0.39938536477583741 -0.14370127207381619 0 -0.41985581490816198 -0.154444998856094 0 -0.39938536477583741 -0.14370127207381619 0 -0.41213512381178841 -0.1299204600531296 0 -0.41985581490816198 -0.154444998856094 0 -0.41985581490816198 -0.154444998856094 0 -0.43539800930699801 -0.1334421832601059 0 -0.43823455075000578 -0.15580669622701629 0 -0.41213512381178841 -0.1299204600531296 0 -0.41985581490816198 -0.154444998856094 0 -0.43539800930699801 -0.1334421832601059 0 -0.41213512381178841 -0.1299204600531296 0 -0.43539800930699801 -0.1334421832601059 0 -0.43259539229225402 -0.1157747654031315 0 -0.41213512381178841 -0.1299204600531296 0 -0.43539800930699801 -0.1334421832601059 0 -0.43539800930699801 -0.1334421832601059 0 -0.45866089480220767 -0.1369639064670822 0 -0.45113905152447542 -0.1175368028588321 0 -0.43539800930699801 -0.1334421832601059 0 -0.44775450515208032 -0.1461386934312979 0 -0.45866089480220767 -0.1369639064670822 0 -0.43539800930699801 -0.1334421832601059 0 -0.45866089480220767 -0.1369639064670822 0 -0.44775450515208032 -0.1461386934312979 0 -0.43823455075000578 -0.15580669622701629 0 -0.45633895227784033 -0.1576945794699274 0 -0.43539800930699801 -0.1334421832601059 0 -0.44775450515208032 -0.1461386934312979 0 -0.43823455075000578 -0.15580669622701629 0 -0.44775450515208032 -0.1461386934312979 0 -0.45866089480220767 -0.1369639064670822 0 -0.45633895227784033 -0.1576945794699274 0 -0.45866089480220767 -0.1369639064670822 0 -0.47575659097790751 -0.15007175010341289 0 -0.45633895227784033 -0.1576945794699274 0 -0.45866089480220767 -0.1369639064670822 0 -0.47575659097790751 -0.15007175010341289 0 -0.46915934665662162 -0.1230624738371303 0 -0.45866089480220767 -0.1369639064670822 0 -0.45113905152447542 -0.1175368028588321 0 -0.46915934665662162 -0.1230624738371303 0 -0.47575659097790751 -0.15007175010341289 0 -0.46915934665662162 -0.1230624738371303 0 -0.48351137830779539 -0.13386722315158131 0 -0.47575659097790751 -0.15007175010341289 0 -0.46915934665662162 -0.1230624738371303 0 -0.48351137830779539 -0.13386722315158131 0 -0.5 -0.12673639045435739 0 -0.5 -0.15610943167098409 0 -0.48351137830779539 -0.13386722315158131 0 -0.5 -0.15610943167098409 0 -0.47575659097790751 -0.15007175010341289 0 -0.47575659097790751 -0.15007175010341289 0 -0.4823538352991934 -0.17708102636969561 0 -0.47575659097790751 -0.15007175010341289 0 -0.46899934294491291 -0.16540597077255109 0 -0.4823538352991934 -0.17708102636969561 0 -0.5 -0.15610943167098409 0 -0.47575659097790751 -0.15007175010341289 0 -0.4823538352991934 -0.17708102636969561 0 -0.5 -0.15610943167098409 0 -0.49999999999999722 -0.18548247288761069 0 -0.4823538352991934 -0.17708102636969561 0 -0.4823538352991934 -0.17708102636969561 0 -0.46154799322471052 -0.17677652714716849 0 -0.47332956926376563 -0.19085067910818809 0 -0.46899934294491291 -0.16540597077255109 0 -0.4823538352991934 -0.17708102636969561 0 -0.46154799322471052 -0.17677652714716849 0 -0.46154799322471052 -0.17677652714716849 0 -0.44559792516655838 -0.1851633886427331 0 -0.46102895515839498 -0.19155331343124329 0 -0.46154799322471052 -0.17677652714716849 0 -0.46102895515839498 -0.19155331343124329 0 -0.47332956926376563 -0.19085067910818809 0 -0.46899934294491291 -0.16540597077255109 0 -0.46154799322471052 -0.17677652714716849 0 -0.45633895227784033 -0.1576945794699274 0 -0.47575659097790751 -0.15007175010341289 0 -0.46899934294491291 -0.16540597077255109 0 -0.45633895227784033 -0.1576945794699274 0 -0.46154799322471052 -0.17677652714716849 0 -0.45633895227784033 -0.1576945794699274 0 -0.44303700991658518 -0.17026832712875151 0 -0.43823455075000578 -0.15580669622701629 0 -0.45633895227784033 -0.1576945794699274 0 -0.44303700991658518 -0.17026832712875151 0 -0.46154799322471052 -0.17677652714716849 0 -0.44303700991658518 -0.17026832712875151 0 -0.44559792516655838 -0.1851633886427331 0 -0.43179072736577528 -0.17970529711169 0 -0.44303700991658518 -0.17026832712875151 0 -0.44559792516655838 -0.1851633886427331 0 -0.44559792516655838 -0.1851633886427331 0 -0.44507868827009389 -0.1999492498693555 0 -0.46102895515839498 -0.19155331343124329 0 -0.43110417706379089 -0.19272761716818959 0 -0.44559792516655838 -0.1851633886427331 0 -0.44507868827009389 -0.1999492498693555 0 -0.44507868827009389 -0.1999492498693555 0 -0.43795718746300122 -0.2140778908121922 0 -0.4586272545788867 -0.21721319340246781 0 -0.43042781253814327 -0.20309513998401429 0 -0.44507868827009389 -0.1999492498693555 0 -0.43795718746300122 -0.2140778908121922 0 -0.43795718746300122 -0.2140778908121922 0 -0.4586272545788867 -0.21721319340246781 0 -0.4586272545788867 -0.21721319340246781 0 -0.46102895515839498 -0.19155331343124329 0 -0.47276598301604827 -0.20475222595685469 0 -0.44507868827009389 -0.1999492498693555 0 -0.4586272545788867 -0.21721319340246781 0 -0.46102895515839498 -0.19155331343124329 0 -0.47332956926376563 -0.19085067910818809 0 -0.48895107962048001 -0.20409030263597791 0 -0.47276598301604827 -0.20475222595685469 0 -0.4823538352991934 -0.17708102636969561 0 -0.47332956926376563 -0.19085067910818809 0 -0.48895107962048001 -0.20409030263597791 0 -0.46102895515839498 -0.19155331343124329 0 -0.47332956926376563 -0.19085067910818809 0 -0.47276598301604827 -0.20475222595685469 0 -0.4823538352991934 -0.17708102636969561 0 -0.48895107962048001 -0.20409030263597791 0 -0.49999999999999722 -0.18548247288761069 0 -0.48895107962048001 -0.20409030263597791 0 -0.49999999999999722 -0.18548247288761069 0 -0.5 -0.2044856090206181 0 -0.48895107962048001 -0.20409030263597791 0 -0.49999999999999722 -0.18548247288761069 0 -0.4823538352991934 -0.17708102636969561 0 -0.48895107962048001 -0.20409030263597791 0 -0.5 -0.2044856090206181 0 -0.500000000000002 -0.2234887451536256 0 -0.49344650703865789 -0.22249469015893941 0 -0.5 -0.2044856090206181 0 -0.48895107962048001 -0.20409030263597791 0 -0.49344650703865789 -0.22249469015893941 0 -0.48895107962048001 -0.20409030263597791 0 -0.47929732169477218 -0.22034849599274231 0 -0.49344650703865789 -0.22249469015893941 0 -0.48895107962048001 -0.20409030263597791 0 -0.49344650703865789 -0.22249469015893941 0 -0.48895107962048001 -0.20409030263597791 0 -0.47276598301604827 -0.20475222595685469 0 -0.47929732169477218 -0.22034849599274231 0 -0.48895107962048001 -0.20409030263597791 0 -0.47929732169477218 -0.22034849599274231 0 -0.4586272545788867 -0.21721319340246781 0 -0.47276598301604827 -0.20475222595685469 0 -0.47929732169477218 -0.22034849599274231 0 -0.4586272545788867 -0.21721319340246781 0 -0.47929732169477218 -0.22034849599274231 0 -0.47929732169477218 -0.22034849599274231 0 -0.48416686203858311 -0.23469505857438669 0 -0.46465652818918263 -0.24483730068029039 0 -0.47929732169477218 -0.22034849599274231 0 -0.46465652818918263 -0.24483730068029039 0 -0.47929732169477218 -0.22034849599274231 0 -0.49344650703865789 -0.22249469015893941 0 -0.47929732169477218 -0.22034849599274231 0 -0.49344650703865789 -0.22249469015893941 0 -0.48416686203858311 -0.23469505857438669 0 -0.49344650703865789 -0.22249469015893941 0 -0.49730382647131183 -0.23828664830542051 0 -0.48416686203858311 -0.23469505857438669 0 -0.500000000000002 -0.2234887451536256 0 -0.49344650703865789 -0.22249469015893941 0 -0.49730382647131183 -0.23828664830542051 0 -0.49344650703865789 -0.22249469015893941 0 -0.49730382647131183 -0.23828664830542051 0 -0.500000000000002 -0.2234887451536256 0 -0.49344650703865789 -0.22249469015893941 0 -0.5 -0.25150281007534703 0 -0.500000000000002 -0.2234887451536256 0 -0.49730382647131183 -0.23828664830542051 0 -0.5 -0.25150281007534703 0 -0.49730382647131183 -0.23828664830542051 0 -0.48570939693172899 -0.24902992718248729 0 -0.49730382647131183 -0.23828664830542051 0 -0.48570939693172899 -0.24902992718248729 0 -0.48416686203858311 -0.23469505857438669 0 -0.48570939693172899 -0.24902992718248729 0 -0.48416686203858311 -0.23469505857438669 0 -0.46465652818918263 -0.24483730068029039 0 -0.4586272545788867 -0.21721319340246781 0 -0.47929732169477218 -0.22034849599274231 0 -0.46465652818918263 -0.24483730068029039 0 -0.4586272545788867 -0.21721319340246781 0 -0.46465652818918263 -0.24483730068029039 0 -0.44658841198271632 -0.22637890077404829 0 -0.43795718746300122 -0.2140778908121922 0 -0.4586272545788867 -0.21721319340246781 0 -0.44658841198271632 -0.22637890077404829 0 -0.42560539866416353 -0.22692866047589191 0 -0.44658841198271632 -0.22637890077404829 0 -0.44336769959532257 -0.23972790925379969 0 -0.46465652818918263 -0.24483730068029039 0 -0.44658841198271632 -0.22637890077404829 0 -0.44336769959532257 -0.23972790925379969 0 -0.44165736388207272 -0.25360003737878889 0 -0.46465652818918263 -0.24483730068029039 0 -0.44336769959532257 -0.23972790925379969 0 -0.44165736388207272 -0.25360003737878889 0 -0.429193077912078 -0.24092705066174019 0 -0.44336769959532257 -0.23972790925379969 0 -0.41631059699689099 -0.042084497863468198 0 -0.41965755993826598 -0.033894451920331033 0 -0.42761534325808798 -0.038876017594557971 0 -0.41631059699689099 -0.042084497863468198 0 -0.41965755993826598 -0.033894451920331033 0 -0.41128163845263888 -0.036426639289896208 0 -0.41965755993826598 -0.033894451920331033 0 -0.41128163845263888 -0.036426639289896208 0 -0.41258462043609562 -0.025993866725156231 0 -0.41128163845263888 -0.036426639289896208 0 -0.40704563849368902 -0.043093498236160592 0 -0.40124408047313331 -0.037519640608623422 0 -0.41128163845263888 -0.036426639289896208 0 -0.41258462043609562 -0.025993866725156231 0 -0.40124408047313331 -0.037519640608623422 0 -0.41631059699689099 -0.042084497863468198 0 -0.40704563849368902 -0.043093498236160592 0 -0.41300523529446281 -0.049717993690613083 0 -0.41631059699689099 -0.042084497863468198 0 -0.41128163845263888 -0.036426639289896208 0 -0.40704563849368902 -0.043093498236160592 0 -0.40704563849368902 -0.043093498236160592 0 -0.41300523529446281 -0.049717993690613083 0 -0.40411610338443682 -0.050557450003133962 0 -0.41300523529446281 -0.049717993690613083 0 -0.41414033076402768 -0.061585207313392322 0 -0.40411610338443682 -0.050557450003133962 0 -0.41300523529446281 -0.049717993690613083 0 -0.41414033076402768 -0.061585207313392322 0 -0.42341350683326928 -0.051269315036910318 0 -0.41631059699689099 -0.042084497863468198 0 -0.41300523529446281 -0.049717993690613083 0 -0.42341350683326928 -0.051269315036910318 0 -0.41414033076402768 -0.061585207313392322 0 -0.42341350683326928 -0.051269315036910318 0 -0.43505259438904009 -0.065314564308975948 0 -0.42341350683326928 -0.051269315036910318 0 -0.43594560852523878 -0.049663465434261311 0 -0.43505259438904009 -0.065314564308975948 0 -0.43594560852523878 -0.049663465434261311 0 -0.42761534325808798 -0.038876017594557971 0 -0.44052059365423879 -0.038318026972638523 0 -0.42341350683326928 -0.051269315036910318 0 -0.43594560852523878 -0.049663465434261311 0 -0.42761534325808798 -0.038876017594557971 0 -0.41631059699689099 -0.042084497863468198 0 -0.42341350683326928 -0.051269315036910318 0 -0.42761534325808798 -0.038876017594557971 0 -0.41965755993826598 -0.033894451920331033 0 -0.42761534325808798 -0.038876017594557971 0 -0.43049560054761637 -0.026091238128576531 0 -0.42761534325808798 -0.038876017594557971 0 -0.43049560054761637 -0.026091238128576531 0 -0.44052059365423879 -0.038318026972638523 0 -0.43049560054761637 -0.026091238128576531 0 -0.42123606753034548 -0.0078521834473191492 0 -0.44016826678282051 -0.008282799190680902 0 -0.42123606753034548 -0.0078521834473191492 0 -0.41258462043609562 -0.025993866725156231 0 -0.40359645288427559 -0.01255273007959058 0 -0.42123606753034548 -0.0078521834473191492 0 -0.40359645288427559 -0.01255273007959058 0 -0.411842978763718 0.0071810696113592566 0 -0.43049560054761637 -0.026091238128576531 0 -0.42123606753034548 -0.0078521834473191492 0 -0.41258462043609562 -0.025993866725156231 0 -0.41965755993826598 -0.033894451920331033 0 -0.43049560054761637 -0.026091238128576531 0 -0.41258462043609562 -0.025993866725156231 0 -0.41258462043609562 -0.025993866725156231 0 -0.40359645288427559 -0.01255273007959058 0 -0.40124408047313331 -0.037519640608623422 0 -0.40359645288427559 -0.01255273007959058 0 -0.39764058419755538 -0.038576012957609408 0 -0.40124408047313331 -0.037519640608623422 0 -0.40359645288427559 -0.01255273007959058 0 -0.38932648706987377 -0.013730584936831609 0 -0.38650677435962982 -0.026234410340964749 0 -0.40359645288427559 -0.01255273007959058 0 -0.38650677435962982 -0.026234410340964749 0 -0.39764058419755538 -0.038576012957609408 0 -0.40359645288427559 -0.01255273007959058 0 -0.39764058419755538 -0.038576012957609408 0 -0.40359645288427559 -0.01255273007959058 0 -0.411842978763718 0.0071810696113592566 0 -0.39856960861661739 0.0046729487720050386 0 -0.40359645288427559 -0.01255273007959058 0 -0.39149303023403142 -0.005335277537219363 0 -0.39856960861661739 0.0046729487720050386 0 -0.40359645288427559 -0.01255273007959058 0 -0.39149303023403142 -0.005335277537219363 0 -0.38932648706987377 -0.013730584936831609 0 -0.39149303023403142 -0.005335277537219363 0 -0.38087232901863782 -0.0095024514541764069 0 -0.38510027358075227 0.0044364300124967379 0 -0.39149303023403142 -0.005335277537219363 0 -0.38932648706987377 -0.013730584936831609 0 -0.38087232901863782 -0.0095024514541764069 0 -0.38932648706987377 -0.013730584936831609 0 -0.38087232901863782 -0.0095024514541764069 0 -0.38186988518864651 -0.018280442328540609 0 -0.37719726677334758 -0.010782784077609161 0 -0.38087232901863782 -0.0095024514541764069 0 -0.38186988518864651 -0.018280442328540609 0 -0.37719726677334758 -0.010782784077609161 0 -0.38087232901863782 -0.0095024514541764069 0 -0.37719726677334758 -0.010782784077609161 0 -0.38510027358075227 0.0044364300124967379 0 -0.37145675818362223 0.001704133189072726 0 -0.37719726677334758 -0.010782784077609161 0 -0.38510027358075227 0.0044364300124967379 0 -0.37719726677334758 -0.010782784077609161 0 -0.38087232901863782 -0.0095024514541764069 0 -0.38510027358075227 0.0044364300124967379 0 -0.36684988365240911 -0.03070925546092473 0 -0.38650677435962982 -0.026234410340964749 0 -0.38186988518864651 -0.018280442328540609 0 -0.36684988365240911 -0.03070925546092473 0 -0.37719726677334758 -0.010782784077609161 0 -0.38186988518864651 -0.018280442328540609 0 -0.38932648706987377 -0.013730584936831609 0 -0.38650677435962982 -0.026234410340964749 0 -0.38186988518864651 -0.018280442328540609 0 -0.36684988365240911 -0.03070925546092473 0 -0.38650677435962982 -0.026234410340964749 0 -0.37707154236451451 -0.044605869900925722 0 -0.38650677435962982 -0.026234410340964749 0 -0.37707154236451451 -0.044605869900925722 0 -0.39764058419755538 -0.038576012957609408 0 -0.37707154236451451 -0.044605869900925722 0 -0.39764058419755538 -0.038576012957609408 0 -0.39764058419755538 -0.038576012957609408 0 -0.40065489473756588 -0.045520490424667083 0 -0.40124408047313331 -0.037519640608623422 0 -0.40704563849368902 -0.043093498236160592 0 -0.40065489473756588 -0.045520490424667083 0 -0.40124408047313331 -0.037519640608623422 0 -0.40704563849368902 -0.043093498236160592 0 -0.40065489473756588 -0.045520490424667083 0 -0.40411610338443682 -0.050557450003133962 0 -0.39764058419755538 -0.038576012957609408 0 -0.40124408047313331 -0.037519640608623422 0 -0.39764058419755538 -0.038576012957609408 0 -0.40065489473756588 -0.045520490424667083 0 -0.39322806713901498 -0.057855850317809959 0 -0.41414033076402768 -0.061585207313392322 0 -0.39322806713901498 -0.057855850317809959 0 -0.40444542418072821 -0.066780626888537295 0 -0.41414033076402768 -0.061585207313392322 0 -0.40411610338443682 -0.050557450003133962 0 -0.39322806713901498 -0.057855850317809959 0 -0.39764058419755538 -0.038576012957609408 0 -0.39322806713901498 -0.057855850317809959 0 -0.41414033076402768 -0.061585207313392322 0 -0.39322806713901498 -0.057855850317809959 0 -0.40065489473756588 -0.045520490424667083 0 -0.40411610338443682 -0.050557450003133962 0 -0.39322806713901498 -0.057855850317809959 0 -0.37470589733927712 -0.0545527271000322 0 -0.39322806713901498 -0.057855850317809959 0 -0.37470589733927712 -0.0545527271000322 0 -0.37707154236451451 -0.044605869900925722 0 -0.39322806713901498 -0.057855850317809959 0 -0.37707154236451451 -0.044605869900925722 0 -0.39764058419755538 -0.038576012957609408 0 -0.39322806713901498 -0.057855850317809959 0 -0.37470589733927712 -0.0545527271000322 0 -0.39322806713901498 -0.057855850317809959 0 -0.3838397651565123 -0.062625659154805113 0 -0.37470589733927712 -0.0545527271000322 0 -0.37683012181080239 -0.068733301298065499 0 -0.3838397651565123 -0.062625659154805113 0 -0.39322806713901498 -0.057855850317809959 0 -0.3838397651565123 -0.062625659154805113 0 -0.39059497433695439 -0.069360757903312753 0 -0.37683012181080239 -0.068733301298065499 0 -0.3838397651565123 -0.062625659154805113 0 -0.39059497433695439 -0.069360757903312753 0 -0.39059497433695439 -0.069360757903312753 0 -0.3750868287242039 -0.083945666598845156 0 -0.37683012181080239 -0.068733301298065499 0 -0.39059497433695439 -0.069360757903312753 0 -0.3750868287242039 -0.083945666598845156 0 -0.39059497433695439 -0.069360757903312753 0 -0.38574124546072602 -0.090568404714108222 0 -0.3750868287242039 -0.083945666598845156 0 -0.39059497433695439 -0.069360757903312753 0 -0.38574124546072602 -0.090568404714108222 0 -0.37338072534044958 -0.1015395423542827 0 -0.38574124546072602 -0.090568404714108222 0 -0.3750868287242039 -0.083945666598845156 0 -0.39059497433695439 -0.069360757903312753 0 -0.38574124546072602 -0.090568404714108222 0 -0.39722678832591729 -0.08549102947411294 0 -0.38574124546072602 -0.090568404714108222 0 -0.39722678832591729 -0.08549102947411294 0 -0.39016591446444671 -0.1027403174982935 0 -0.39722678832591729 -0.08549102947411294 0 -0.40358704082088931 -0.10183248075400859 0 -0.40955223446300359 -0.086375659296802715 0 -0.39722678832591729 -0.08549102947411294 0 -0.40456307765117672 -0.076708553120630463 0 -0.40955223446300359 -0.086375659296802715 0 -0.39722678832591729 -0.08549102947411294 0 -0.40456307765117672 -0.076708553120630463 0 -0.39841612749299532 -0.072664694729402735 0 -0.40456307765117672 -0.076708553120630463 0 -0.40444542418072821 -0.066780626888537295 0 -0.39841612749299532 -0.072664694729402735 0 -0.39059497433695439 -0.069360757903312753 0 -0.39722678832591729 -0.08549102947411294 0 -0.39841612749299532 -0.072664694729402735 0 -0.40444542418072821 -0.066780626888537295 0 -0.39525037297019971 -0.064982506260420264 0 -0.39841612749299532 -0.072664694729402735 0 -0.39059497433695439 -0.069360757903312753 0 -0.39525037297019971 -0.064982506260420264 0 -0.39841612749299532 -0.072664694729402735 0 -0.39322806713901498 -0.057855850317809959 0 -0.39059497433695439 -0.069360757903312753 0 -0.39525037297019971 -0.064982506260420264 0 -0.39322806713901498 -0.057855850317809959 0 -0.40444542418072821 -0.066780626888537295 0 -0.39525037297019971 -0.064982506260420264 0 -0.39322806713901498 -0.057855850317809959 0 -0.39059497433695439 -0.069360757903312753 0 -0.39059497433695439 -0.069360757903312753 0 -0.39525037297019971 -0.064982506260420264 0 -0.36560935282136869 -0.1228770136391782 0 -0.38887223831657869 -0.12639873684615319 0 -0.38887223831657869 -0.12639873684615319 0 -0.38088751658449588 -0.11177605152490321 0 -0.39861419104112761 -0.1141217052544175 0 -0.38088751658449588 -0.11177605152490321 0 -0.39016591446444671 -0.1027403174982935 0 -0.39861419104112761 -0.1141217052544175 0 -0.36560935282136869 -0.1228770136391782 0 -0.38887223831657869 -0.12639873684615319 0 -0.38088751658449588 -0.11177605152490321 0 -0.38574124546072602 -0.090568404714108222 0 -0.38088751658449588 -0.11177605152490321 0 -0.38574124546072602 -0.090568404714108222 0 -0.38088751658449588 -0.11177605152490321 0 -0.39016591446444671 -0.1027403174982935 0 -0.37338072534044958 -0.1015395423542827 0 -0.38574124546072602 -0.090568404714108222 0 -0.38088751658449588 -0.11177605152490321 0 -0.40358704082088931 -0.10183248075400859 0 -0.39861419104112761 -0.1141217052544175 0 -0.4160373122485671 -0.1120621848500169 0 -0.39722678832591729 -0.08549102947411294 0 -0.39016591446444671 -0.1027403174982935 0 -0.40358704082088931 -0.10183248075400859 0 -0.39016591446444671 -0.1027403174982935 0 -0.40358704082088931 -0.10183248075400859 0 -0.39861419104112761 -0.1141217052544175 0 -0.38887223831657869 -0.12639873684615319 0 -0.41213512381178841 -0.1299204600531296 0 -0.39861419104112761 -0.1141217052544175 0 -0.41213512381178841 -0.1299204600531296 0 -0.39861419104112761 -0.1141217052544175 0 -0.4160373122485671 -0.1120621848500169 0 -0.41213512381178841 -0.1299204600531296 0 -0.4160373122485671 -0.1120621848500169 0 -0.43259539229225402 -0.1157747654031315 0 -0.4160373122485671 -0.1120621848500169 0 -0.4169341364211625 -0.097460269163205951 0 -0.43115901768430159 -0.099355876929453982 0 -0.40358704082088931 -0.10183248075400859 0 -0.4160373122485671 -0.1120621848500169 0 -0.4169341364211625 -0.097460269163205951 0 -0.40358704082088931 -0.10183248075400859 0 -0.4169341364211625 -0.097460269163205951 0 -0.40955223446300359 -0.086375659296802715 0 -0.4160373122485671 -0.1120621848500169 0 -0.43115901768430159 -0.099355876929453982 0 -0.43259539229225402 -0.1157747654031315 0 -0.43115901768430159 -0.099355876929453982 0 -0.43259539229225402 -0.1157747654031315 0 -0.44676155729694311 -0.09856935048049352 0 -0.41414033076402768 -0.061585207313392322 0 -0.41477655714820522 -0.073508962632903227 0 -0.43505259438904009 -0.065314564308975948 0 -0.41414033076402768 -0.061585207313392322 0 -0.40444542418072821 -0.066780626888537295 0 -0.41477655714820522 -0.073508962632903227 0 -0.40456307765117672 -0.076708553120630463 0 -0.40444542418072821 -0.066780626888537295 0 -0.41477655714820522 -0.073508962632903227 0 -0.40456307765117672 -0.076708553120630463 0 -0.41477655714820522 -0.073508962632903227 0 -0.40955223446300359 -0.086375659296802715 0 -0.41477655714820522 -0.073508962632903227 0 -0.40955223446300359 -0.086375659296802715 0 -0.42547236143691691 -0.079964116854811126 0 -0.4169341364211625 -0.097460269163205951 0 -0.40955223446300359 -0.086375659296802715 0 -0.42547236143691691 -0.079964116854811126 0 -0.43115901768430159 -0.099355876929453982 0 -0.42547236143691691 -0.079964116854811126 0 -0.43948503029078051 -0.084366611422258486 0 -0.4169341364211625 -0.097460269163205951 0 -0.43115901768430159 -0.099355876929453982 0 -0.42547236143691691 -0.079964116854811126 0 -0.42547236143691691 -0.079964116854811126 0 -0.43593321389199208 -0.076166958257645731 0 -0.43948503029078051 -0.084366611422258486 0 -0.41414033076402768 -0.061585207313392322 0 -0.43505259438904009 -0.065314564308975948 0 -0.42547236143691691 -0.079964116854811126 0 -0.43593321389199208 -0.076166958257645731 0 -0.43505259438904009 -0.065314564308975948 0 -0.41477655714820522 -0.073508962632903227 0 -0.42547236143691691 -0.079964116854811126 0 -0.43505259438904009 -0.065314564308975948 0 -0.43505259438904009 -0.065314564308975948 0 -0.45596485801405168 -0.069043921304564548 0 -0.45254776170430372 -0.055054247167343383 0 -0.43505259438904009 -0.065314564308975948 0 -0.44372286945123102 -0.075022540444537378 0 -0.45596485801405168 -0.069043921304564548 0 -0.43505259438904009 -0.065314564308975948 0 -0.45596485801405168 -0.069043921304564548 0 -0.44372286945123102 -0.075022540444537378 0 -0.44986078827983011 -0.084538284578158471 0 -0.45596485801405168 -0.069043921304564548 0 -0.43593321389199208 -0.076166958257645731 0 -0.43505259438904009 -0.065314564308975948 0 -0.44372286945123102 -0.075022540444537378 0 -0.43593321389199208 -0.076166958257645731 0 -0.44372286945123102 -0.075022540444537378 0 -0.43948503029078051 -0.084366611422258486 0 -0.44986078827983011 -0.084538284578158471 0 -0.44676155729694311 -0.09856935048049352 0 -0.46256210233533568 -0.096053197570847695 0 -0.44372286945123102 -0.075022540444537378 0 -0.43948503029078051 -0.084366611422258486 0 -0.44986078827983011 -0.084538284578158471 0 -0.43948503029078051 -0.084366611422258486 0 -0.44986078827983011 -0.084538284578158471 0 -0.44676155729694311 -0.09856935048049352 0 -0.46571079481874128 -0.075383853833439818 0 -0.45596485801405168 -0.069043921304564548 0 -0.46256210233533568 -0.096053197570847695 0 -0.45596485801405168 -0.069043921304564548 0 -0.46256210233533568 -0.096053197570847695 0 -0.44986078827983011 -0.084538284578158471 0 -0.45596485801405168 -0.069043921304564548 0 -0.46256210233533568 -0.096053197570847695 0 -0.46571079481874128 -0.075383853833439818 0 -0.46440728388852631 -0.065665476577682319 0 -0.45759908464129401 -0.069335358645535999 0 -0.46571079481874128 -0.075383853833439818 0 -0.46440728388852631 -0.065665476577682319 0 -0.47046251890076313 -0.067508589662998122 0 -0.45759908464129401 -0.069335358645535999 0 -0.45958199435623182 -0.062522792654202811 0 -0.45596485801405168 -0.069043921304564548 0 -0.46440728388852631 -0.065665476577682319 0 -0.45759908464129401 -0.069335358645535999 0 -0.45958199435623182 -0.062522792654202811 0 -0.45759908464129401 -0.069335358645535999 0 -0.45596485801405168 -0.069043921304564548 0 -0.46571079481874128 -0.075383853833439818 0 -0.45759908464129401 -0.069335358645535999 0 -0.45596485801405168 -0.069043921304564548 0 -0.43539800930699801 -0.1334421832601059 0 -0.43259539229225402 -0.1157747654031315 0 -0.45113905152447542 -0.1175368028588321 0 -0.43259539229225402 -0.1157747654031315 0 -0.45113905152447542 -0.1175368028588321 0 -0.44676155729694311 -0.09856935048049352 0 -0.43115901768430159 -0.099355876929453982 0 -0.43948503029078051 -0.084366611422258486 0 -0.44676155729694311 -0.09856935048049352 0 -0.45113905152447542 -0.1175368028588321 0 -0.44676155729694311 -0.09856935048049352 0 -0.46256210233533568 -0.096053197570847695 0 -0.46256210233533568 -0.096053197570847695 0 -0.46915934665662162 -0.1230624738371303 0 -0.45113905152447542 -0.1175368028588321 0 -0.46256210233533568 -0.096053197570847695 0 -0.46915934665662162 -0.1230624738371303 0 -0.48351137830779539 -0.13386722315158131 0 -0.46915934665662162 -0.1230624738371303 0 -0.48133806505124233 -0.10835548473569059 0 -0.46256210233533568 -0.096053197570847695 0 -0.46915934665662162 -0.1230624738371303 0 -0.48133806505124233 -0.10835548473569059 0 -0.46256210233533568 -0.096053197570847695 0 -0.48133806505124233 -0.10835548473569059 0 -0.4787903951136242 -0.090525190808538269 0 -0.48133806505124233 -0.10835548473569059 0 -0.500000000000001 -0.097363349237730712 0 -0.4787903951136242 -0.090525190808538269 0 -0.48351137830779539 -0.13386722315158131 0 -0.5 -0.12673639045435739 0 -0.48133806505124233 -0.10835548473569059 0 -0.5 -0.12673639045435739 0 -0.48133806505124233 -0.10835548473569059 0 -0.500000000000001 -0.097363349237730712 0 -0.48434101336280139 -0.075470068664982515 0 -0.47046251890076313 -0.067508589662998122 0 -0.46868202672560128 -0.053576788092234838 0 -0.46571079481874128 -0.075383853833439818 0 -0.48434101336280139 -0.075470068664982515 0 -0.47046251890076313 -0.067508589662998122 0 -0.48434101336280139 -0.075470068664982515 0 -0.46868202672560128 -0.053576788092234838 0 -0.46571079481874128 -0.075383853833439818 0 -0.48434101336280139 -0.075470068664982515 0 -0.4787903951136242 -0.090525190808538269 0 -0.46571079481874128 -0.075383853833439818 0 -0.46256210233533568 -0.096053197570847695 0 -0.4787903951136242 -0.090525190808538269 0 -0.500000000000001 -0.097363349237730712 0 -0.48434101336280139 -0.075470068664982515 0 -0.5 -0.067775448906690738 0 -0.500000000000001 -0.097363349237730712 0 -0.48434101336280139 -0.075470068664982515 0 -0.4787903951136242 -0.090525190808538269 0 -0.500000000000001 -0.097363349237730712 0 -0.48434101336280139 -0.075470068664982515 0 -0.48434101336280139 -0.075470068664982515 0 -0.5 -0.067775448906690738 0 -0.48551694096935982 -0.058082376044726818 0 -0.5 -0.067775448906690738 0 -0.48551694096935982 -0.058082376044726818 0 -0.5 -0.038187548575650758 0 -0.48551694096935982 -0.058082376044726818 0 -0.5 -0.038187548575650758 0 -0.47983884509016961 -0.04559408958900394 0 -0.5 -0.038187548575650758 0 -0.47627813796950452 -0.032068202833415903 0 -0.47983884509016961 -0.04559408958900394 0 -0.47627813796950452 -0.032068202833415903 0 -0.47983884509016961 -0.04559408958900394 0 -0.46868202672560128 -0.053576788092234838 0 -0.48434101336280139 -0.075470068664982515 0 -0.48551694096935982 -0.058082376044726818 0 -0.46868202672560128 -0.053576788092234838 0 -0.48551694096935982 -0.058082376044726818 0 -0.47983884509016961 -0.04559408958900394 0 -0.46868202672560128 -0.053576788092234838 0 -0.46440728388852631 -0.065665476577682319 0 -0.47046251890076313 -0.067508589662998122 0 -0.46868202672560128 -0.053576788092234838 0 -0.45958199435623182 -0.062522792654202811 0 -0.46868202672560128 -0.053576788092234838 0 -0.45254776170430372 -0.055054247167343383 0 -0.46440728388852631 -0.065665476577682319 0 -0.45958199435623182 -0.062522792654202811 0 -0.46868202672560128 -0.053576788092234838 0 -0.45596485801405168 -0.069043921304564548 0 -0.45254776170430372 -0.055054247167343383 0 -0.45958199435623182 -0.062522792654202811 0 -0.45596485801405168 -0.069043921304564548 0 -0.45254776170430372 -0.055054247167343383 0 -0.46868202672560128 -0.053576788092234838 0 -0.45302304008840111 -0.031683507519487203 0 -0.45254776170430372 -0.055054247167343383 0 -0.46868202672560128 -0.053576788092234838 0 -0.45302304008840111 -0.031683507519487203 0 -0.47627813796950452 -0.032068202833415903 0 -0.46868202672560128 -0.053576788092234838 0 -0.45302304008840111 -0.031683507519487203 0 -0.43049560054761637 -0.026091238128576531 0 -0.45302304008840111 -0.031683507519487203 0 -0.44052059365423879 -0.038318026972638523 0 -0.45302304008840111 -0.031683507519487203 0 -0.44052059365423879 -0.038318026972638523 0 -0.45254776170430372 -0.055054247167343383 0 -0.43594560852523878 -0.049663465434261311 0 -0.44052059365423879 -0.038318026972638523 0 -0.45254776170430372 -0.055054247167343383 0 -0.43594560852523878 -0.049663465434261311 0 -0.43505259438904009 -0.065314564308975948 0 -0.45254776170430372 -0.055054247167343383 0 -0.44016826678282051 -0.008282799190680902 0 -0.46819439313074318 -0.0088485217403602174 0 -0.44910531892432481 0.0088256729137652749 0 -0.43049560054761637 -0.026091238128576531 0 -0.45302304008840111 -0.031683507519487203 0 -0.44016826678282051 -0.008282799190680902 0 -0.45302304008840111 -0.031683507519487203 0 -0.44016826678282051 -0.008282799190680902 0 -0.46819439313074318 -0.0088485217403602174 0 -0.47627813796950452 -0.032068202833415903 0 -0.45302304008840111 -0.031683507519487203 0 -0.46819439313074318 -0.0088485217403602174 0 -0.47627813796950452 -0.032068202833415903 0 -0.46819439313074318 -0.0088485217403602174 0 -0.5 -0.0085996482446106803 0 -0.46819439313074318 -0.0088485217403602174 0 -0.5 -0.0085996482446106803 0 -0.48327269561072528 0.0075949784500739621 0 -0.5 -0.038187548575650758 0 -0.47627813796950452 -0.032068202833415903 0 -0.5 -0.0085996482446106803 0 -0.5 -0.0085996482446106803 0 -0.500000000000001 0.020988252086429401 0 -0.48327269561072528 0.0075949784500739621 0 -0.500000000000001 0.020988252086429401 0 -0.4818334059336834 0.02486827538731046 0 -0.48327269561072528 0.0075949784500739621 0 -0.500000000000001 0.020988252086429401 0 -0.4818334059336834 0.02486827538731046 0 -0.48627387230376801 0.042906068467448051 0 -0.4818334059336834 0.02486827538731046 0 -0.46506519868097418 0.040930436164492531 0 -0.46608959876636241 0.01500864777446809 0 -0.4818334059336834 0.02486827538731046 0 -0.48327269561072528 0.0075949784500739621 0 -0.46608959876636241 0.01500864777446809 0 -0.46819439313074318 -0.0088485217403602174 0 -0.48327269561072528 0.0075949784500739621 0 -0.46608959876636241 0.01500864777446809 0 -0.5 0.047519219301533577 0 -0.48827346409411548 0.06027768147110632 0 -0.48627387230376801 0.042906068467448051 0 -0.5 0.047519219301533577 0 -0.48827346409411548 0.06027768147110632 0 -0.5 0.074050186516637917 0 -0.500000000000001 0.020988252086429401 0 -0.48627387230376801 0.042906068467448051 0 -0.500000000000001 0.020988252086429401 0 -0.5 0.047519219301533577 0 -0.48627387230376801 0.042906068467448051 0 -0.4818334059336834 0.02486827538731046 0 -0.48627387230376801 0.042906068467448051 0 -0.46506519868097418 0.040930436164492531 0 -0.48627387230376801 0.042906068467448051 0 -0.46506519868097418 0.040930436164492531 0 -0.47254774460753413 0.064823884848466309 0 -0.48827346409411548 0.06027768147110632 0 -0.48627387230376801 0.042906068467448051 0 -0.47254774460753413 0.064823884848466309 0 -0.48627387230376801 0.042906068467448051 0 -0.47254774460753413 0.064823884848466309 0 -0.46506519868097418 0.040930436164492531 0 -0.44375990034961432 0.061031549153910312 0 -0.47254774460753413 0.064823884848466309 0 -0.46506519868097418 0.040930436164492531 0 -0.44486031810931148 0.031744527408694517 0 -0.44375990034961432 0.061031549153910312 0 -0.46819439313074318 -0.0088485217403602174 0 -0.46608959876636241 0.01500864777446809 0 -0.44910531892432481 0.0088256729137652749 0 -0.46506519868097418 0.040930436164492531 0 -0.44486031810931148 0.031744527408694517 0 -0.46608959876636241 0.01500864777446809 0 -0.44486031810931148 0.031744527408694517 0 -0.46608959876636241 0.01500864777446809 0 -0.44910531892432481 0.0088256729137652749 0 -0.44486031810931148 0.031744527408694517 0 -0.44910531892432481 0.0088256729137652749 0 -0.43171222321057451 0.016975124179167082 0 -0.44016826678282051 -0.008282799190680902 0 -0.44910531892432481 0.0088256729137652749 0 -0.43171222321057451 0.016975124179167082 0 -0.42123606753034548 -0.0078521834473191492 0 -0.44016826678282051 -0.008282799190680902 0 -0.43171222321057451 0.016975124179167082 0 -0.44016826678282051 -0.008282799190680902 0 -0.43171222321057451 0.016975124179167082 0 -0.42123606753034548 -0.0078521834473191492 0 -0.411842978763718 0.0071810696113592566 0 -0.43171222321057451 0.016975124179167082 0 -0.411842978763718 0.0071810696113592566 0 -0.40872204527111111 0.022867749962900141 0 -0.39856960861661739 0.0046729487720050386 0 -0.40872204527111111 0.022867749962900141 0 -0.43171222321057451 0.016975124179167082 0 -0.4232561796383284 0.042233047549015017 0 -0.411842978763718 0.0071810696113592566 0 -0.40872204527111111 0.022867749962900141 0 -0.43171222321057451 0.016975124179167082 0 -0.44486031810931148 0.031744527408694517 0 -0.43171222321057451 0.016975124179167082 0 -0.4232561796383284 0.042233047549015017 0 -0.43171222321057451 0.016975124179167082 0 -0.4232561796383284 0.042233047549015017 0 -0.44486031810931148 0.031744527408694517 0 -0.44375990034961432 0.061031549153910312 0 -0.4232561796383284 0.042233047549015017 0 -0.44375990034961432 0.061031549153910312 0 -0.4232561796383284 0.042233047549015017 0 -0.41480013606608229 0.067490970918863163 0 -0.4232561796383284 0.042233047549015017 0 -0.41480013606608229 0.067490970918863163 0 -0.4232561796383284 0.042233047549015017 0 -0.40217936848404251 0.040656332868689943 0 -0.41480013606608229 0.067490970918863163 0 -0.40872204527111111 0.022867749962900141 0 -0.4232561796383284 0.042233047549015017 0 -0.40217936848404251 0.040656332868689943 0 -0.40217936848404251 0.040656332868689943 0 -0.38532972384356262 0.04987884220830327 0 -0.38670634030283008 0.033034015008687988 0 -0.40217936848404251 0.040656332868689943 0 -0.39445515791527019 0.0661614229995688 0 -0.41480013606608229 0.067490970918863163 0 -0.40217936848404251 0.040656332868689943 0 -0.38532972384356262 0.04987884220830327 0 -0.39445515791527019 0.0661614229995688 0 -0.38532972384356262 0.04987884220830327 0 -0.36842953035862158 0.050481425088617103 0 -0.37191756568804107 0.066739953928913298 0 -0.38532972384356262 0.04987884220830327 0 -0.39445515791527019 0.0661614229995688 0 -0.37191756568804107 0.066739953928913298 0 -0.38532972384356262 0.04987884220830327 0 -0.38670634030283008 0.033034015008687988 0 -0.37363166703579942 0.035604814688565273 0 -0.38532972384356262 0.04987884220830327 0 -0.37363166703579942 0.035604814688565273 0 -0.36842953035862158 0.050481425088617103 0 -0.38670634030283008 0.033034015008687988 0 -0.37938766176258892 0.01937444117527904 0 -0.37363166703579942 0.035604814688565273 0 -0.38670634030283008 0.033034015008687988 0 -0.37938766176258892 0.01937444117527904 0 -0.39300328038815729 0.019655644102602461 0 -0.37938766176258892 0.01937444117527904 0 -0.38510027358075227 0.0044364300124967379 0 -0.37145675818362223 0.001704133189072726 0 -0.38510027358075227 0.0044364300124967379 0 -0.39300328038815729 0.019655644102602461 0 -0.37938766176258892 0.01937444117527904 0 -0.38510027358075227 0.0044364300124967379 0 -0.39300328038815729 0.019655644102602461 0 -0.38510027358075227 0.0044364300124967379 0 -0.39856960861661739 0.0046729487720050386 0 -0.39300328038815729 0.019655644102602461 0 -0.39149303023403142 -0.005335277537219363 0 -0.38510027358075227 0.0044364300124967379 0 -0.39856960861661739 0.0046729487720050386 0 -0.40872204527111111 0.022867749962900141 0 -0.40217936848404251 0.040656332868689943 0 -0.39300328038815729 0.019655644102602461 0 -0.40217936848404251 0.040656332868689943 0 -0.38670634030283008 0.033034015008687988 0 -0.39300328038815729 0.019655644102602461 0 -0.40872204527111111 0.022867749962900141 0 -0.39856960861661739 0.0046729487720050386 0 -0.39300328038815729 0.019655644102602461 0 -0.3875766108720648 0.10801011350679229 0 -0.40575939566394709 0.088936040450249165 0 -0.41194990864025682 0.1130743234930766 0 -0.3875766108720648 0.10801011350679229 0 -0.41194990864025682 0.1130743234930766 0 -0.39303850838018423 0.12948099644521679 0 -0.3875766108720648 0.10801011350679229 0 -0.39303850838018423 0.12948099644521679 0 -0.36938718168541179 0.1255902499967409 0 -0.3875766108720648 0.10801011350679229 0 -0.37678680274428078 0.095920052983538381 0 -0.36262419495280129 0.1038515713423341 0 -0.3875766108720648 0.10801011350679229 0 -0.37678680274428078 0.095920052983538381 0 -0.38674475774594591 0.083266397622394045 0 -0.37678680274428078 0.095920052983538381 0 -0.38674475774594591 0.083266397622394045 0 -0.37138104083623391 0.082703932652830325 0 -0.38674475774594591 0.083266397622394045 0 -0.37191756568804107 0.066739953928913298 0 -0.37138104083623391 0.082703932652830325 0 -0.38674475774594591 0.083266397622394045 0 -0.39445515791527019 0.0661614229995688 0 -0.37191756568804107 0.066739953928913298 0 -0.39445515791527019 0.0661614229995688 0 -0.40575939566394709 0.088936040450249165 0 -0.41480013606608229 0.067490970918863163 0 -0.38674475774594591 0.083266397622394045 0 -0.39445515791527019 0.0661614229995688 0 -0.40575939566394709 0.088936040450249165 0 -0.3875766108720648 0.10801011350679229 0 -0.38674475774594591 0.083266397622394045 0 -0.40575939566394709 0.088936040450249165 0 -0.40575939566394709 0.088936040450249165 0 -0.41480013606608229 0.067490970918863163 0 -0.43079976792318958 0.090862199026124468 0 -0.44375990034961432 0.061031549153910312 0 -0.41480013606608229 0.067490970918863163 0 -0.43079976792318958 0.090862199026124468 0 -0.43079976792318958 0.090862199026124468 0 -0.41194990864025682 0.1130743234930766 0 -0.43625153759456498 0.1245866202337218 0 -0.40575939566394709 0.088936040450249165 0 -0.43079976792318958 0.090862199026124468 0 -0.41194990864025682 0.1130743234930766 0 -0.43079976792318958 0.090862199026124468 0 -0.43625153759456498 0.1245866202337218 0 -0.45075561745381781 0.10580031757457831 0 -0.43625153759456498 0.1245866202337218 0 -0.45075561745381781 0.10580031757457831 0 -0.46287227134589981 0.1236989169114972 0 -0.43079976792318958 0.090862199026124468 0 -0.45075561745381781 0.10580031757457831 0 -0.4588216169113003 0.086741701229484575 0 -0.45075561745381781 0.10580031757457831 0 -0.4588216169113003 0.086741701229484575 0 -0.47201107007212878 0.1037065685212097 0 -0.45075561745381781 0.10580031757457831 0 -0.46287227134589981 0.1236989169114972 0 -0.47201107007212878 0.1037065685212097 0 -0.44375990034961432 0.061031549153910312 0 -0.43079976792318958 0.090862199026124468 0 -0.4588216169113003 0.086741701229484575 0 -0.44375990034961432 0.061031549153910312 0 -0.4588216169113003 0.086741701229484575 0 -0.47254774460753413 0.064823884848466309 0 -0.4588216169113003 0.086741701229484575 0 -0.47254774460753413 0.064823884848466309 0 -0.4588216169113003 0.086741701229484575 0 -0.47254774460753413 0.064823884848466309 0 -0.4818122771930986 0.082263337292499406 0 -0.48827346409411548 0.06027768147110632 0 -0.47254774460753413 0.064823884848466309 0 -0.4818122771930986 0.082263337292499406 0 -0.4588216169113003 0.086741701229484575 0 -0.4818122771930986 0.082263337292499406 0 -0.47201107007212878 0.1037065685212097 0 -0.4818122771930986 0.082263337292499406 0 -0.5 0.074050186516637917 0 -0.5 0.1005811537317424 0 -0.48827346409411548 0.06027768147110632 0 -0.4818122771930986 0.082263337292499406 0 -0.5 0.074050186516637917 0 -0.46287227134589981 0.1236989169114972 0 -0.48219315692656572 0.1205151432882924 0 -0.47201107007212878 0.1037065685212097 0 -0.4818122771930986 0.082263337292499406 0 -0.47201107007212878 0.1037065685212097 0 -0.5 0.1005811537317424 0 -0.48219315692656572 0.1205151432882924 0 -0.47201107007212878 0.1037065685212097 0 -0.5 0.1005811537317424 0 -0.48219315692656572 0.1205151432882924 0 -0.5 0.1005811537317424 0 -0.5 0.12711212094684679 0 -0.48219315692656572 0.1205151432882924 0 -0.5 0.12711212094684679 0 -0.47883924748460222 0.14018161060892731 0 -0.5 0.12711212094684679 0 -0.47883924748460222 0.14018161060892731 0 -0.5 0.15364308816195121 0 -0.46287227134589981 0.1236989169114972 0 -0.48219315692656572 0.1205151432882924 0 -0.47883924748460222 0.14018161060892731 0 -0.47883924748460222 0.14018161060892731 0 -0.5 0.15364308816195121 0 -0.47008479780898071 0.1615400033189848 0 -0.5 0.15364308816195121 0 -0.50000000000000089 0.18017405537705561 0 -0.48213074815480522 0.17495155205334359 0 -0.50000000000000089 0.18017405537705561 0 -0.48146292621815812 0.19355635563559381 0 -0.50000000000000089 0.18017405537705561 0 -0.48213074815480522 0.17495155205334359 0 -0.48146292621815812 0.19355635563559381 0 -0.48213074815480522 0.17495155205334359 0 -0.45945765920556431 0.18493118343544621 0 -0.48146292621815812 0.19355635563559381 0 -0.48213074815480522 0.17495155205334359 0 -0.47008479780898071 0.1615400033189848 0 -0.45945765920556431 0.18493118343544621 0 -0.5 0.15364308816195121 0 -0.48213074815480522 0.17495155205334359 0 -0.47008479780898071 0.1615400033189848 0 -0.47008479780898071 0.1615400033189848 0 -0.45945765920556431 0.18493118343544621 0 -0.44491624466772411 0.16813711573335099 0 -0.47008479780898071 0.1615400033189848 0 -0.44491624466772411 0.16813711573335099 0 -0.45700588157118233 0.14460720660399121 0 -0.45945765920556431 0.18493118343544621 0 -0.44491624466772411 0.16813711573335099 0 -0.43474290047699488 0.19015608798310391 0 -0.44491624466772411 0.16813711573335099 0 -0.45700588157118233 0.14460720660399121 0 -0.43611169665434868 0.1504606440305504 0 -0.43625153759456498 0.1245866202337218 0 -0.45700588157118233 0.14460720660399121 0 -0.43611169665434868 0.1504606440305504 0 -0.43625153759456498 0.1245866202337218 0 -0.46287227134589981 0.1236989169114972 0 -0.45700588157118233 0.14460720660399121 0 -0.46287227134589981 0.1236989169114972 0 -0.47883924748460222 0.14018161060892731 0 -0.45700588157118233 0.14460720660399121 0 -0.47883924748460222 0.14018161060892731 0 -0.47008479780898071 0.1615400033189848 0 -0.45700588157118233 0.14460720660399121 0 -0.48207357253193078 0.21739097549918149 0 -0.5 0.2118815469096284 0 -0.5 0.25502500317745308 0 -0.48207357253193078 0.21739097549918149 0 -0.46802780128701832 0.22930896654194979 0 -0.5 0.25502500317745308 0 -0.46802780128701832 0.22930896654194979 0 -0.5 0.25502500317745308 0 -0.46826200115894351 0.25268254595322559 0 -0.50000000000000089 0.18017405537705561 0 -0.5 0.2118815469096284 0 -0.48146292621815812 0.19355635563559381 0 -0.48207357253193078 0.21739097549918149 0 -0.46292585243631501 0.20693865589413171 0 -0.46802780128701832 0.22930896654194979 0 -0.48207357253193078 0.21739097549918149 0 -0.48146292621815812 0.19355635563559381 0 -0.46292585243631501 0.20693865589413171 0 -0.48207357253193078 0.21739097549918149 0 -0.5 0.2118815469096284 0 -0.48146292621815812 0.19355635563559381 0 -0.48146292621815812 0.19355635563559381 0 -0.46292585243631501 0.20693865589413171 0 -0.45945765920556431 0.18493118343544621 0 -0.44696073447060752 0.20212681262101459 0 -0.46292585243631501 0.20693865589413171 0 -0.45945765920556431 0.18493118343544621 0 -0.48146292621815812 0.19355635563559381 0 -0.46292585243631501 0.20693865589413171 0 -0.45945765920556431 0.18493118343544621 0 -0.44696073447060752 0.20212681262101459 0 -0.43474290047699488 0.19015608798310391 0 -0.44696073447060752 0.20212681262101459 0 -0.43414988282090411 0.20902301392359759 0 -0.43474290047699488 0.19015608798310391 0 -0.44696073447060752 0.20212681262101459 0 -0.44438877865447191 0.2203209561526695 0 -0.43414988282090411 0.20902301392359759 0 -0.44696073447060752 0.20212681262101459 0 -0.46292585243631501 0.20693865589413171 0 -0.44438877865447191 0.2203209561526695 0 -0.46292585243631501 0.20693865589413171 0 -0.46802780128701832 0.22930896654194979 0 -0.45690026230445402 0.21971898361319381 0 -0.46292585243631501 0.20693865589413171 0 -0.44438877865447191 0.2203209561526695 0 -0.46292585243631501 0.20693865589413171 0 -0.45690026230445402 0.21971898361319381 0 -0.44438877865447191 0.2203209561526695 0 -0.46802780128701832 0.22930896654194979 0 -0.45424796336563722 0.22861724854116511 0 -0.45412118124825718 0.2395922552223117 0 -0.46802780128701832 0.22930896654194979 0 -0.45424796336563722 0.22861724854116511 0 -0.45690026230445402 0.21971898361319381 0 -0.45424796336563722 0.22861724854116511 0 -0.45690026230445402 0.21971898361319381 0 -0.44707608940517052 0.22231138206831691 0 -0.44707608940517052 0.22231138206831691 0 -0.44438877865447191 0.2203209561526695 0 -0.42586105085507731 0.219809117860577 0 -0.45690026230445402 0.21971898361319381 0 -0.44707608940517052 0.22231138206831691 0 -0.44438877865447191 0.2203209561526695 0 -0.44707608940517052 0.22231138206831691 0 -0.43755936465329281 0.22698532229141799 0 -0.44511448258328629 0.23215465526005299 0 -0.43755936465329281 0.22698532229141799 0 -0.44511448258328629 0.23215465526005299 0 -0.43218583576963709 0.2336661339767252 0 -0.45424796336563722 0.22861724854116511 0 -0.44707608940517052 0.22231138206831691 0 -0.44511448258328629 0.23215465526005299 0 -0.45424796336563722 0.22861724854116511 0 -0.44511448258328629 0.23215465526005299 0 -0.45412118124825718 0.2395922552223117 0 -0.44511448258328629 0.23215465526005299 0 -0.44161393816558842 0.24155257742212199 0 -0.45412118124825718 0.2395922552223117 0 -0.44511448258328629 0.23215465526005299 0 -0.44161393816558842 0.24155257742212199 0 -0.43218583576963709 0.2336661339767252 0 -0.44161393816558842 0.24155257742212199 0 -0.43243648966469961 0.24825823729562091 0 -0.44622747097204157 0.25447826500352411 0 -0.44161393816558842 0.24155257742212199 0 -0.45412118124825718 0.2395922552223117 0 -0.44622747097204157 0.25447826500352411 0 -0.46802780128701832 0.22930896654194979 0 -0.45412118124825718 0.2395922552223117 0 -0.46826200115894351 0.25268254595322559 0 -0.45412118124825718 0.2395922552223117 0 -0.46826200115894351 0.25268254595322559 0 -0.44622747097204157 0.25447826500352411 0 -0.40931020750963998 0.23948355441692229 0 -0.40101037553383972 0.24850817254535781 0 -0.4154354269666965 0.25327969466909228 0 -0.40931020750963998 0.23948355441692229 0 -0.42148184861410209 0.2406921978309261 0 -0.41698703102379953 0.22969989485302911 0 -0.40931020750963998 0.23948355441692229 0 -0.42148184861410209 0.2406921978309261 0 -0.4154354269666965 0.25327969466909228 0 -0.42148184861410209 0.2406921978309261 0 -0.43243648966469961 0.24825823729562091 0 -0.4154354269666965 0.25327969466909228 0 -0.44161393816558842 0.24155257742212199 0 -0.43243648966469961 0.24825823729562091 0 -0.43218583576963709 0.2336661339767252 0 -0.42148184861410209 0.2406921978309261 0 -0.43243648966469961 0.24825823729562091 0 -0.43218583576963709 0.2336661339767252 0 -0.42148184861410209 0.2406921978309261 0 -0.43218583576963709 0.2336661339767252 0 -0.41698703102379953 0.22969989485302911 0 -0.43218583576963709 0.2336661339767252 0 -0.42586105085507731 0.219809117860577 0 -0.41698703102379953 0.22969989485302911 0 -0.44707608940517052 0.22231138206831691 0 -0.42586105085507731 0.219809117860577 0 -0.44707608940517052 0.22231138206831691 0 -0.43755936465329281 0.22698532229141799 0 -0.42586105085507731 0.219809117860577 0 -0.43755936465329281 0.22698532229141799 0 -0.43218583576963709 0.2336661339767252 0 -0.42586105085507731 0.219809117860577 0 -0.42586105085507731 0.219809117860577 0 -0.41698703102379953 0.22969989485302911 0 -0.4046460123049842 0.2173068536528372 0 -0.40931020750963998 0.23948355441692229 0 -0.41698703102379953 0.22969989485302911 0 -0.40590702596286521 0.22946517391640911 0 -0.41698703102379953 0.22969989485302911 0 -0.4046460123049842 0.2173068536528372 0 -0.40590702596286521 0.22946517391640911 0 -0.42586105085507731 0.219809117860577 0 -0.4046460123049842 0.2173068536528372 0 -0.41722227291546332 0.20591524768845371 0 -0.39877196507631202 0.20270266476287849 0 -0.4046460123049842 0.2173068536528372 0 -0.42586105085507731 0.219809117860577 0 -0.41722227291546332 0.20591524768845371 0 -0.4046460123049842 0.2173068536528372 0 -0.42586105085507731 0.219809117860577 0 -0.41722227291546332 0.20591524768845371 0 -0.43414988282090411 0.20902301392359759 0 -0.44438877865447191 0.2203209561526695 0 -0.42586105085507731 0.219809117860577 0 -0.43414988282090411 0.20902301392359759 0 -0.41722227291546332 0.20591524768845371 0 -0.43414988282090411 0.20902301392359759 0 -0.43474290047699488 0.19015608798310391 0 -0.41722227291546332 0.20591524768845371 0 -0.40891615430536432 0.18798503216574861 0 -0.39877196507631202 0.20270266476287849 0 -0.41722227291546332 0.20591524768845371 0 -0.43474290047699488 0.19015608798310391 0 -0.40891615430536432 0.18798503216574861 0 -0.40891615430536432 0.18798503216574861 0 -0.39877196507631202 0.20270266476287849 0 -0.38648279715089662 0.18713020989402271 0 -0.38343097375489099 0.21480458944509739 0 -0.38648279715089662 0.18713020989402271 0 -0.37238122863976891 0.2002171120067491 0 -0.39877196507631202 0.20270266476287849 0 -0.38343097375489099 0.21480458944509739 0 -0.38648279715089662 0.18713020989402271 0 -0.38343097375489099 0.21480458944509739 0 -0.38648279715089662 0.18713020989402271 0 -0.38343097375489099 0.21480458944509739 0 -0.37154761244084089 0.2134029747549531 0 -0.37238122863976891 0.2002171120067491 0 -0.38343097375489099 0.21480458944509739 0 -0.37566813965858681 0.2234148702422048 0 -0.37154761244084089 0.2134029747549531 0 -0.38343097375489099 0.21480458944509739 0 -0.37154761244084089 0.2134029747549531 0 -0.38343097375489099 0.21480458944509739 0 -0.4046460123049842 0.2173068536528372 0 -0.38992427199157043 0.22185450724293909 0 -0.38343097375489099 0.21480458944509739 0 -0.4046460123049842 0.2173068536528372 0 -0.39877196507631202 0.20270266476287849 0 -0.38343097375489099 0.21480458944509739 0 -0.4046460123049842 0.2173068536528372 0 -0.4046460123049842 0.2173068536528372 0 -0.39872340832513992 0.226351764622962 0 -0.40590702596286521 0.22946517391640911 0 -0.39872340832513992 0.226351764622962 0 -0.40590702596286521 0.22946517391640911 0 -0.39648996776890633 0.23582301492399779 0 -0.39872340832513992 0.226351764622962 0 -0.38992427199157043 0.22185450724293909 0 -0.39648996776890633 0.23582301492399779 0 -0.4046460123049842 0.2173068536528372 0 -0.39872340832513992 0.226351764622962 0 -0.38992427199157043 0.22185450724293909 0 -0.38343097375489099 0.21480458944509739 0 -0.37566813965858681 0.2234148702422048 0 -0.38119555285080597 0.2350757121572056 0 -0.38343097375489099 0.21480458944509739 0 -0.38992427199157043 0.22185450724293909 0 -0.38119555285080597 0.2350757121572056 0 -0.38343097375489099 0.21480458944509739 0 -0.38119555285080597 0.2350757121572056 0 -0.38119555285080597 0.2350757121572056 0 -0.37210575503526089 0.24405057661464391 0 -0.37896013194671968 0.25534683486931381 0 -0.38119555285080597 0.2350757121572056 0 -0.37896013194671968 0.25534683486931381 0 -0.38992427199157043 0.22185450724293909 0 -0.38119555285080597 0.2350757121572056 0 -0.38722819947627368 0.24843385443806909 0 -0.38992427199157043 0.22185450724293909 0 -0.38722819947627368 0.24843385443806909 0 -0.38119555285080597 0.2350757121572056 0 -0.38722819947627368 0.24843385443806909 0 -0.37896013194671968 0.25534683486931381 0 -0.38992427199157043 0.22185450724293909 0 -0.38722819947627368 0.24843385443806909 0 -0.39648996776890633 0.23582301492399779 0 -0.38722819947627368 0.24843385443806909 0 -0.39648996776890633 0.23582301492399779 0 -0.40101037553383972 0.24850817254535781 0 -0.40931020750963998 0.23948355441692229 0 -0.39648996776890633 0.23582301492399779 0 -0.40101037553383972 0.24850817254535781 0 -0.40931020750963998 0.23948355441692229 0 -0.40590702596286521 0.22946517391640911 0 -0.39648996776890633 0.23582301492399779 0 -0.41530534823700072 0.1390315752597536 0 -0.41919069938251302 0.1652820875776414 0 -0.39528973877013662 0.15130477977831461 0 -0.41194990864025682 0.1130743234930766 0 -0.41530534823700072 0.1390315752597536 0 -0.39303850838018423 0.12948099644521679 0 -0.41194990864025682 0.1130743234930766 0 -0.43625153759456498 0.1245866202337218 0 -0.41530534823700072 0.1390315752597536 0 -0.43625153759456498 0.1245866202337218 0 -0.41530534823700072 0.1390315752597536 0 -0.43611169665434868 0.1504606440305504 0 -0.41530534823700072 0.1390315752597536 0 -0.43611169665434868 0.1504606440305504 0 -0.41919069938251302 0.1652820875776414 0 -0.44491624466772411 0.16813711573335099 0 -0.43611169665434868 0.1504606440305504 0 -0.41919069938251302 0.1652820875776414 0 -0.44491624466772411 0.16813711573335099 0 -0.43474290047699488 0.19015608798310391 0 -0.41919069938251302 0.1652820875776414 0 -0.40891615430536432 0.18798503216574861 0 -0.41919069938251302 0.1652820875776414 0 -0.39971758700540821 0.17129016696027699 0 -0.43474290047699488 0.19015608798310391 0 -0.40891615430536432 0.18798503216574861 0 -0.41919069938251302 0.1652820875776414 0 -0.41919069938251302 0.1652820875776414 0 -0.39971758700540821 0.17129016696027699 0 -0.39528973877013662 0.15130477977831461 0 -0.40891615430536432 0.18798503216574861 0 -0.39971758700540821 0.17129016696027699 0 -0.38648279715089662 0.18713020989402271 0 -0.39971758700540821 0.17129016696027699 0 -0.38648279715089662 0.18713020989402271 0 -0.372146074932449 0.16344591630492469 0 -0.39971758700540821 0.17129016696027699 0 -0.39528973877013662 0.15130477977831461 0 -0.372146074932449 0.16344591630492469 0 -0.37815506306193358 0.1433222327004802 0 -0.39528973877013662 0.15130477977831461 0 -0.39303850838018423 0.12948099644521679 0 -0.37815506306193358 0.1433222327004802 0 -0.39528973877013662 0.15130477977831461 0 -0.372146074932449 0.16344591630492469 0 -0.41530534823700072 0.1390315752597536 0 -0.39528973877013662 0.15130477977831461 0 -0.39303850838018423 0.12948099644521679 0 -0.37815506306193358 0.1433222327004802 0 -0.39303850838018423 0.12948099644521679 0 -0.36938718168541179 0.1255902499967409 0 -0.36938718168541179 0.1255902499967409 0 -0.35200794605681629 0.12502238642781019 0 -0.36027383228078641 0.14176664061691219 0 -0.37815506306193358 0.1433222327004802 0 -0.36938718168541179 0.1255902499967409 0 -0.36027383228078641 0.14176664061691219 0 -0.35200794605681629 0.12502238642781019 0 -0.36027383228078641 0.14176664061691219 0 -0.34238396195098092 0.13747367741656721 0 -0.34692124746973713 0.1542878562826405 0 -0.36027383228078641 0.14176664061691219 0 -0.34238396195098092 0.13747367741656721 0 -0.34692124746973713 0.1542878562826405 0 -0.36027383228078641 0.14176664061691219 0 -0.372146074932449 0.16344591630492469 0 -0.37815506306193358 0.1433222327004802 0 -0.36027383228078641 0.14176664061691219 0 -0.372146074932449 0.16344591630492469 0 -0.38648279715089662 0.18713020989402271 0 -0.372146074932449 0.16344591630492469 0 -0.35825464468573548 0.18846491094187309 0 -0.372146074932449 0.16344591630492469 0 -0.35358483912925948 0.17080886943100959 0 -0.35825464468573548 0.18846491094187309 0 -0.35358483912925948 0.17080886943100959 0 -0.35825464468573548 0.18846491094187309 0 -0.33660402194939321 0.18841081708856641 0 -0.34692124746973713 0.1542878562826405 0 -0.372146074932449 0.16344591630492469 0 -0.35358483912925948 0.17080886943100959 0 -0.34692124746973713 0.1542878562826405 0 -0.35358483912925948 0.17080886943100959 0 -0.33500456297109971 0.16792639800837539 0 -0.33500456297109971 0.16792639800837539 0 -0.31851102729851588 0.15590236448055639 0 -0.33255517435583237 0.14646848770795259 0 -0.35358483912925948 0.17080886943100959 0 -0.33500456297109971 0.16792639800837539 0 -0.33660402194939321 0.18841081708856641 0 -0.33500456297109971 0.16792639800837539 0 -0.31289652582642141 0.1805837036697519 0 -0.33660402194939321 0.18841081708856641 0 -0.33500456297109971 0.16792639800837539 0 -0.31289652582642141 0.1805837036697519 0 -0.33500456297109971 0.16792639800837539 0 -0.31289652582642141 0.1805837036697519 0 -0.31851102729851588 0.15590236448055639 0 -0.31851102729851588 0.15590236448055639 0 -0.31283651791160189 0.14254581953933751 0 -0.32160496684282269 0.13812883269818441 0 -0.31851102729851588 0.15590236448055639 0 -0.32160496684282269 0.13812883269818441 0 -0.33255517435583237 0.14646848770795259 0 -0.31283651791160189 0.14254581953933751 0 -0.32160496684282269 0.13812883269818441 0 -0.31723531685176609 0.1198603304800319 0 -0.32160496684282269 0.13812883269818441 0 -0.33282908497732799 0.12691684344983439 0 -0.31723531685176609 0.1198603304800319 0 -0.32160496684282269 0.13812883269818441 0 -0.33282908497732799 0.12691684344983439 0 -0.33255517435583237 0.14646848770795259 0 -0.35200794605681629 0.12502238642781019 0 -0.34238396195098092 0.13747367741656721 0 -0.33282908497732799 0.12691684344983439 0 -0.34238396195098092 0.13747367741656721 0 -0.33282908497732799 0.12691684344983439 0 -0.33255517435583237 0.14646848770795259 0 -0.34692124746973713 0.1542878562826405 0 -0.34238396195098092 0.13747367741656721 0 -0.33255517435583237 0.14646848770795259 0 -0.34692124746973713 0.1542878562826405 0 -0.33500456297109971 0.16792639800837539 0 -0.33255517435583237 0.14646848770795259 0 -0.36182205832064851 0.24457456243760281 0 -0.34139946132247112 0.24041351753421181 0 -0.35754908974886279 0.25815157521253052 0 -0.36182205832064851 0.24457456243760281 0 -0.36649841958780932 0.23037620461156319 0 -0.34139946132247112 0.24041351753421181 0 -0.36182205832064851 0.24457456243760281 0 -0.37210575503526089 0.24405057661464391 0 -0.36759241766554501 0.2538245840294952 0 -0.38119555285080597 0.2350757121572056 0 -0.37210575503526089 0.24405057661464391 0 -0.36649841958780932 0.23037620461156319 0 -0.36182205832064851 0.24457456243760281 0 -0.37210575503526089 0.24405057661464391 0 -0.36649841958780932 0.23037620461156319 0 -0.36649841958780932 0.23037620461156319 0 -0.35688565293773689 0.21871143604885451 0 -0.37154761244084089 0.2134029747549531 0 -0.37566813965858681 0.2234148702422048 0 -0.36649841958780932 0.23037620461156319 0 -0.37154761244084089 0.2134029747549531 0 -0.37566813965858681 0.2234148702422048 0 -0.38119555285080597 0.2350757121572056 0 -0.36649841958780932 0.23037620461156319 0 -0.35688565293773689 0.21871143604885451 0 -0.34289792395499269 0.21218791974938919 0 -0.34139946132247112 0.24041351753421181 0 -0.36649841958780932 0.23037620461156319 0 -0.35688565293773689 0.21871143604885451 0 -0.34139946132247112 0.24041351753421181 0 -0.35688565293773689 0.21871143604885451 0 -0.36039341253181489 0.20659687070036381 0 -0.34289792395499269 0.21218791974938919 0 -0.35688565293773689 0.21871143604885451 0 -0.37154761244084089 0.2134029747549531 0 -0.36039341253181489 0.20659687070036381 0 -0.37154761244084089 0.2134029747549531 0 -0.36039341253181489 0.20659687070036381 0 -0.37238122863976891 0.2002171120067491 0 -0.38648279715089662 0.18713020989402271 0 -0.37238122863976891 0.2002171120067491 0 -0.35825464468573548 0.18846491094187309 0 -0.36039341253181489 0.20659687070036381 0 -0.37238122863976891 0.2002171120067491 0 -0.35825464468573548 0.18846491094187309 0 -0.36039341253181489 0.20659687070036381 0 -0.35825464468573548 0.18846491094187309 0 -0.34289792395499269 0.21218791974938919 0 -0.35825464468573548 0.18846491094187309 0 -0.33660402194939321 0.18841081708856641 0 -0.34289792395499269 0.21218791974938919 0 -0.33660402194939321 0.18841081708856641 0 -0.32037844320246261 0.2049322073775762 0 -0.34289792395499269 0.21218791974938919 0 -0.31289652582642141 0.1805837036697519 0 -0.33660402194939321 0.18841081708856641 0 -0.32037844320246261 0.2049322073775762 0 -0.32037844320246261 0.2049322073775762 0 -0.32007631676378118 0.22793178832776281 0 -0.30808679103638181 0.2157672566230279 0 -0.32037844320246261 0.2049322073775762 0 -0.34289792395499269 0.21218791974938919 0 -0.32007631676378118 0.22793178832776281 0 -0.34289792395499269 0.21218791974938919 0 -0.34139946132247112 0.24041351753421181 0 -0.34289792395499269 0.21218791974938919 0 -0.32007631676378118 0.22793178832776281 0 -0.34139946132247112 0.24041351753421181 0 -0.32007631676378118 0.22793178832776281 0 -0.30683534910107541 0.24131982490484771 0 -0.32052316857880009 0.25199218265017043 0 -0.32007631676378118 0.22793178832776281 0 -0.34139946132247112 0.24041351753421181 0 -0.32052316857880009 0.25199218265017043 0 -0.28520633826073721 0.24204505302591109 0 -0.29177957584356251 0.2379097909607483 0 -0.29813700426351908 0.2549985658140525 0 -0.28520633826073721 0.24204505302591109 0 -0.29177957584356251 0.2379097909607483 0 -0.28620422144783292 0.23331914670984491 0 -0.28520633826073721 0.24204505302591109 0 -0.28620422144783292 0.23331914670984491 0 -0.2743775822837069 0.2311971640619615 0 -0.28520633826073721 0.24204505302591109 0 -0.29177957584356251 0.2379097909607483 0 -0.28520633826073721 0.24204505302591109 0 -0.29813700426351908 0.2549985658140525 0 -0.29177957584356251 0.2379097909607483 0 -0.30683534910107541 0.24131982490484771 0 -0.29813700426351908 0.2549985658140525 0 -0.30683534910107541 0.24131982490484771 0 -0.32052316857880009 0.25199218265017043 0 -0.29813700426351908 0.2549985658140525 0 -0.29177957584356251 0.2379097909607483 0 -0.30683534910107541 0.24131982490484771 0 -0.3025311369596701 0.2279451799051346 0 -0.32007631676378118 0.22793178832776281 0 -0.3025311369596701 0.2279451799051346 0 -0.30808679103638181 0.2157672566230279 0 -0.32007631676378118 0.22793178832776281 0 -0.30683534910107541 0.24131982490484771 0 -0.3025311369596701 0.2279451799051346 0 -0.3025311369596701 0.2279451799051346 0 -0.29339823295664158 0.22906557906458669 0 -0.29484583138699982 0.21546216672010021 0 -0.3025311369596701 0.2279451799051346 0 -0.29484583138699982 0.21546216672010021 0 -0.30808679103638181 0.2157672566230279 0 -0.28556364975324361 0.2258194074993474 0 -0.29484583138699982 0.21546216672010021 0 -0.2791973288468384 0.21790572090905611 0 -0.29339823295664158 0.22906557906458669 0 -0.28556364975324361 0.2258194074993474 0 -0.29484583138699982 0.21546216672010021 0 -0.29177957584356251 0.2379097909607483 0 -0.29339823295664158 0.22906557906458669 0 -0.28620422144783292 0.23331914670984491 0 -0.29177957584356251 0.2379097909607483 0 -0.3025311369596701 0.2279451799051346 0 -0.29339823295664158 0.22906557906458669 0 -0.29339823295664158 0.22906557906458669 0 -0.28620422144783292 0.23331914670984491 0 -0.28556364975324361 0.2258194074993474 0 -0.28620422144783292 0.23331914670984491 0 -0.28556364975324361 0.2258194074993474 0 -0.2743775822837069 0.2311971640619615 0 -0.29484583138699982 0.21546216672010021 0 -0.2791973288468384 0.21790572090905611 0 -0.28722286546432818 0.20701443054747121 0 -0.29484583138699982 0.21546216672010021 0 -0.2791973288468384 0.21790572090905611 0 -0.28722286546432818 0.20701443054747121 0 -0.29484583138699982 0.21546216672010021 0 -0.30260222686899518 0.20256494078456561 0 -0.32037844320246261 0.2049322073775762 0 -0.30808679103638181 0.2157672566230279 0 -0.30260222686899518 0.20256494078456561 0 -0.29484583138699982 0.21546216672010021 0 -0.30808679103638181 0.2157672566230279 0 -0.30260222686899518 0.20256494078456561 0 -0.31289652582642141 0.1805837036697519 0 -0.30260222686899518 0.20256494078456561 0 -0.29078848868174278 0.1932410093311285 0 -0.31289652582642141 0.1805837036697519 0 -0.32037844320246261 0.2049322073775762 0 -0.30260222686899518 0.20256494078456561 0 -0.28722286546432818 0.20701443054747121 0 -0.29078848868174278 0.1932410093311285 0 -0.26868045153706449 0.20589831499250541 0 -0.28722286546432818 0.20701443054747121 0 -0.30260222686899518 0.20256494078456561 0 -0.29078848868174278 0.1932410093311285 0 -0.29078848868174278 0.1932410093311285 0 -0.27856333876668132 0.18821622517566469 0 -0.28884814108856732 0.1821072455122304 0 -0.29078848868174278 0.1932410093311285 0 -0.27856333876668132 0.18821622517566469 0 -0.26868045153706449 0.20589831499250541 0 -0.27856333876668132 0.18821622517566469 0 -0.26868045153706449 0.20589831499250541 0 -0.29078848868174278 0.1932410093311285 0 -0.26868045153706449 0.20589831499250541 0 -0.27856333876668132 0.18821622517566469 0 -0.26868045153706449 0.20589831499250541 0 -0.26716833294266512 0.18744146854889909 0 -0.25462413856064708 0.2114088186030785 0 -0.26716833294266512 0.18744146854889909 0 -0.25193880530206408 0.19370481573741441 0 -0.26716833294266512 0.18744146854889909 0 -0.25648243047464631 0.1826357185327456 0 -0.25193880530206408 0.19370481573741441 0 -0.25462413856064708 0.2114088186030785 0 -0.26716833294266512 0.18744146854889909 0 -0.25462413856064708 0.2114088186030785 0 -0.26868045153706449 0.20589831499250541 0 -0.26716833294266512 0.18744146854889909 0 -0.2562356768596219 0.21302320427817639 0 -0.26868045153706449 0.20589831499250541 0 -0.25462413856064708 0.2114088186030785 0 -0.2562356768596219 0.21302320427817639 0 -0.26868045153706449 0.20589831499250541 0 -0.25272816581491458 0.21503132644266379 0 -0.25462413856064708 0.2114088186030785 0 -0.25272816581491458 0.21503132644266379 0 -0.2562356768596219 0.21302320427817639 0 -0.25272816581491458 0.21503132644266379 0 -0.25462413856064708 0.2114088186030785 0 -0.2562356768596219 0.21302320427817639 0 -0.25462413856064708 0.2114088186030785 0 -0.2562356768596219 0.21302320427817639 0 -0.25272816581491458 0.21503132644266379 0 -0.2562356768596219 0.21302320427817639 0 -0.25599591734786031 0.2173373503046071 0 -0.2562356768596219 0.21302320427817639 0 -0.25599591734786031 0.2173373503046071 0 -0.25801218981811458 0.2175055682723043 0 -0.25272816581491458 0.21503132644266379 0 -0.25599591734786031 0.2173373503046071 0 -0.2564563288255462 0.2214567869436789 0 -0.25599591734786031 0.2173373503046071 0 -0.25801218981811458 0.2175055682723043 0 -0.25703316838862827 0.21958787938824861 0 -0.2562356768596219 0.21302320427817639 0 -0.26166069193192981 0.2184578046382698 0 -0.26868045153706449 0.20589831499250541 0 -0.25801218981811458 0.2175055682723043 0 -0.25913549456253288 0.21912160275221951 0 -0.25703316838862827 0.21958787938824861 0 -0.26166069193192981 0.2184578046382698 0 -0.26868045153706449 0.20589831499250541 0 -0.26354882630667698 0.22034927509801169 0 -0.2562356768596219 0.21302320427817639 0 -0.26166069193192981 0.2184578046382698 0 -0.26166069193192981 0.2184578046382698 0 -0.26868045153706449 0.20589831499250541 0 -0.25801218981811458 0.2175055682723043 0 -0.26166069193192981 0.2184578046382698 0 -0.25913549456253288 0.21912160275221951 0 -0.2562356768596219 0.21302320427817639 0 -0.25801218981811458 0.2175055682723043 0 -0.26166069193192981 0.2184578046382698 0 -0.28722286546432818 0.20701443054747121 0 -0.26868045153706449 0.20589831499250541 0 -0.2791973288468384 0.21790572090905611 0 -0.26868045153706449 0.20589831499250541 0 -0.2791973288468384 0.21790572090905611 0 -0.26354882630667698 0.22034927509801169 0 -0.2791973288468384 0.21790572090905611 0 -0.26354882630667698 0.22034927509801169 0 -0.2791973288468384 0.21790572090905611 0 -0.2743775822837069 0.2311971640619615 0 -0.26354882630667698 0.22034927509801169 0 -0.28556364975324361 0.2258194074993474 0 -0.2791973288468384 0.21790572090905611 0 -0.2743775822837069 0.2311971640619615 0 -0.2743775822837069 0.2311971640619615 0 -0.26322708885207657 0.23130122429223079 0 -0.27053130904085088 0.23989425105438689 0 -0.2743775822837069 0.2311971640619615 0 -0.26354882630667698 0.22034927509801169 0 -0.26322708885207657 0.23130122429223079 0 -0.2743775822837069 0.2311971640619615 0 -0.26354882630667698 0.22034927509801169 0 -0.26354882630667698 0.22034927509801169 0 -0.26032187107898369 0.22085317251209219 0 -0.26322708885207657 0.23130122429223079 0 -0.26354882630667698 0.22034927509801169 0 -0.26032187107898369 0.22085317251209219 0 -0.26166069193192981 0.2184578046382698 0 -0.26354882630667698 0.22034927509801169 0 -0.26032187107898369 0.22085317251209219 0 -0.26166069193192981 0.2184578046382698 0 -0.26354882630667698 0.22034927509801169 0 -0.26166069193192981 0.2184578046382698 0 -0.26032187107898369 0.22085317251209219 0 -0.26166069193192981 0.2184578046382698 0 -0.26032187107898369 0.22085317251209219 0 -0.25913549456253288 0.21912160275221951 0 -0.26032187107898369 0.22085317251209219 0 -0.2564563288255462 0.2214567869436789 0 -0.26032187107898369 0.22085317251209219 0 -0.25703316838862827 0.21958787938824861 0 -0.2564563288255462 0.2214567869436789 0 -0.26032187107898369 0.22085317251209219 0 -0.25913549456253288 0.21912160275221951 0 -0.25703316838862827 0.21958787938824861 0 -0.25599591734786031 0.2173373503046071 0 -0.25703316838862827 0.21958787938824861 0 -0.2564563288255462 0.2214567869436789 0 -0.2564563288255462 0.2214567869436789 0 -0.25210514226647263 0.23555423440704959 0 -0.248734035528067 0.22266264303674471 0 -0.26032187107898369 0.22085317251209219 0 -0.2564563288255462 0.2214567869436789 0 -0.25210514226647263 0.23555423440704959 0 -0.25703316838862827 0.21958787938824861 0 -0.2564563288255462 0.2214567869436789 0 -0.25272816581491458 0.21503132644266379 0 -0.2564563288255462 0.2214567869436789 0 -0.248734035528067 0.22266264303674471 0 -0.2564563288255462 0.2214567869436789 0 -0.248734035528067 0.22266264303674471 0 -0.25272816581491458 0.21503132644266379 0 -0.248734035528067 0.22266264303674471 0 -0.26032187107898369 0.22085317251209219 0 -0.25210514226647263 0.23555423440704959 0 -0.2564563288255462 0.2214567869436789 0 -0.25210514226647263 0.23555423440704959 0 -0.26032187107898369 0.22085317251209219 0 -0.26322708885207657 0.23130122429223079 0 -0.25210514226647263 0.23555423440704959 0 -0.26322708885207657 0.23130122429223079 0 -0.25210514226647263 0.23555423440704959 0 -0.25993357060704247 0.2432609816545768 0 -0.25054816238852479 0.24059870715785611 0 -0.25993357060704247 0.2432609816545768 0 -0.2546175921406465 0.26128861144859822 0 -0.26322708885207657 0.23130122429223079 0 -0.25993357060704247 0.2432609816545768 0 -0.27053130904085088 0.23989425105438689 0 -0.25054816238852479 0.24059870715785611 0 -0.25210514226647263 0.23555423440704959 0 -0.25993357060704247 0.2432609816545768 0 -0.25054816238852479 0.24059870715785611 0 -0.25210514226647263 0.23555423440704959 0 -0.25993357060704247 0.2432609816545768 0 -0.27053130904085088 0.23989425105438689 0 -0.26991196520069161 0.25166683223725428 0 -0.28520633826073721 0.24204505302591109 0 -0.2743775822837069 0.2311971640619615 0 -0.27053130904085088 0.23989425105438689 0 -0.28520633826073721 0.24204505302591109 0 -0.2743775822837069 0.2311971640619615 0 -0.28520633826073721 0.24204505302591109 0 -0.26991196520069161 0.25166683223725428 0 -0.28520633826073721 0.24204505302591109 0 -0.27053130904085088 0.23989425105438689 0 -0.26991196520069161 0.25166683223725428 0 -0.29367763624156518 0.14580120048619691 0 -0.30132029725935677 0.14489814247345079 0 -0.28540527766694768 0.16993595446686949 0 -0.30132029725935677 0.14489814247345079 0 -0.29832911322591421 0.15285204554198301 0 -0.28540527766694768 0.16993595446686949 0 -0.29225672170669897 0.1395067684405393 0 -0.27971252732468282 0.16347411849471971 0 -0.29367763624156518 0.14580120048619691 0 -0.29225672170669897 0.1395067684405393 0 -0.27971252732468282 0.16347411849471971 0 -0.29225672170669897 0.1395067684405393 0 -0.27971252732468282 0.16347411849471971 0 -0.27793738210199243 0.14829742822643491 0 -0.29367763624156518 0.14580120048619691 0 -0.29225672170669897 0.1395067684405393 0 -0.29367763624156518 0.14580120048619691 0 -0.29225672170669897 0.1395067684405393 0 -0.29707098058306791 0.1417275861303573 0 -0.29225672170669897 0.1395067684405393 0 -0.27793738210199243 0.14829742822643491 0 -0.28046643513796882 0.14013597811185341 0 -0.29225672170669897 0.1395067684405393 0 -0.27842990629181991 0.12905884737457521 0 -0.28046643513796882 0.14013597811185341 0 -0.29225672170669897 0.1395067684405393 0 -0.27842990629181991 0.12905884737457521 0 -0.2863041877154166 0.1131379617402274 0 -0.29225672170669897 0.1395067684405393 0 -0.2863041877154166 0.1131379617402274 0 -0.29225672170669897 0.1395067684405393 0 -0.2981778848162786 0.128193599602963 0 -0.2863041877154166 0.1131379617402274 0 -0.29225672170669897 0.1395067684405393 0 -0.30121224024343363 0.13483728542546841 0 -0.29707098058306791 0.1417275861303573 0 -0.29225672170669897 0.1395067684405393 0 -0.2981778848162786 0.128193599602963 0 -0.29225672170669897 0.1395067684405393 0 -0.30121224024343363 0.13483728542546841 0 -0.2981778848162786 0.128193599602963 0 -0.30121224024343363 0.13483728542546841 0 -0.2981778848162786 0.128193599602963 0 -0.31723531685176609 0.1198603304800319 0 -0.30132029725935677 0.14489814247345079 0 -0.31723531685176609 0.1198603304800319 0 -0.30121224024343363 0.13483728542546841 0 -0.30132029725935677 0.14489814247345079 0 -0.29707098058306791 0.1417275861303573 0 -0.31283651791160189 0.14254581953933751 0 -0.30132029725935677 0.14489814247345079 0 -0.31723531685176609 0.1198603304800319 0 -0.30121224024343363 0.13483728542546841 0 -0.30132029725935677 0.14489814247345079 0 -0.31723531685176609 0.1198603304800319 0 -0.31283651791160189 0.14254581953933751 0 -0.30132029725935677 0.14489814247345079 0 -0.30551098130554788 0.1539394275644638 0 -0.29367763624156518 0.14580120048619691 0 -0.30132029725935677 0.14489814247345079 0 -0.29707098058306791 0.1417275861303573 0 -0.30132029725935677 0.14489814247345079 0 -0.29832911322591421 0.15285204554198301 0 -0.30551098130554788 0.1539394275644638 0 -0.31851102729851588 0.15590236448055639 0 -0.31283651791160189 0.14254581953933751 0 -0.30551098130554788 0.1539394275644638 0 -0.31289652582642141 0.1805837036697519 0 -0.31851102729851588 0.15590236448055639 0 -0.30548605551313601 0.16580850627828139 0 -0.31851102729851588 0.15590236448055639 0 -0.30551098130554788 0.1539394275644638 0 -0.30548605551313601 0.16580850627828139 0 -0.30548605551313601 0.16580850627828139 0 -0.29764345600278319 0.16844986735664469 0 -0.29759451090954719 0.17643761218330459 0 -0.30548605551313601 0.16580850627828139 0 -0.29764345600278319 0.16844986735664469 0 -0.29908316640873578 0.16231679642003941 0 -0.29832911322591421 0.15285204554198301 0 -0.30551098130554788 0.1539394275644638 0 -0.29908316640873578 0.16231679642003941 0 -0.30551098130554788 0.1539394275644638 0 -0.30548605551313601 0.16580850627828139 0 -0.29908316640873578 0.16231679642003941 0 -0.31289652582642141 0.1805837036697519 0 -0.29078848868174278 0.1932410093311285 0 -0.29759451090954719 0.17643761218330459 0 -0.31289652582642141 0.1805837036697519 0 -0.29078848868174278 0.1932410093311285 0 -0.31289652582642141 0.1805837036697519 0 -0.30548605551313601 0.16580850627828139 0 -0.29759451090954719 0.17643761218330459 0 -0.27856333876668132 0.18821622517566469 0 -0.28844622599629782 0.17053413535882381 0 -0.27856333876668132 0.18821622517566469 0 -0.28884814108856732 0.1821072455122304 0 -0.28844622599629782 0.17053413535882381 0 -0.27856333876668132 0.18821622517566469 0 -0.28540527766694768 0.16993595446686949 0 -0.28844622599629782 0.17053413535882381 0 -0.29078848868174278 0.1932410093311285 0 -0.29759451090954719 0.17643761218330459 0 -0.28884814108856732 0.1821072455122304 0 -0.29759451090954719 0.17643761218330459 0 -0.28884814108856732 0.1821072455122304 0 -0.28844622599629782 0.17053413535882381 0 -0.29832911322591421 0.15285204554198301 0 -0.29908316640873578 0.16231679642003941 0 -0.28844622599629782 0.17053413535882381 0 -0.30132029725935677 0.14489814247345079 0 -0.28540527766694768 0.16993595446686949 0 -0.29367763624156518 0.14580120048619691 0 -0.28540527766694768 0.16993595446686949 0 -0.27971252732468282 0.16347411849471971 0 -0.29832911322591421 0.15285204554198301 0 -0.28540527766694768 0.16993595446686949 0 -0.28844622599629782 0.17053413535882381 0 -0.29832911322591421 0.15285204554198301 0 -0.28844622599629782 0.17053413535882381 0 -0.29764345600278319 0.16844986735664469 0 -0.29759451090954719 0.17643761218330459 0 -0.28844622599629782 0.17053413535882381 0 -0.29764345600278319 0.16844986735664469 0 -0.29908316640873578 0.16231679642003941 0 -0.28844622599629782 0.17053413535882381 0 -0.27971252732468282 0.16347411849471971 0 -0.26681583754358312 0.15703960248194049 0 -0.27793738210199243 0.14829742822643491 0 -0.27971252732468282 0.16347411849471971 0 -0.26864544582317851 0.1695326912228835 0 -0.26681583754358312 0.15703960248194049 0 -0.28540527766694768 0.16993595446686949 0 -0.27971252732468282 0.16347411849471971 0 -0.26716833294266512 0.18744146854889909 0 -0.27971252732468282 0.16347411849471971 0 -0.26716833294266512 0.18744146854889909 0 -0.27856333876668132 0.18821622517566469 0 -0.28540527766694768 0.16993595446686949 0 -0.26716833294266512 0.18744146854889909 0 -0.27971252732468282 0.16347411849471971 0 -0.26864544582317851 0.1695326912228835 0 -0.26716833294266512 0.18744146854889909 0 -0.26088508548178302 0.1701755753659748 0 -0.24346313069296871 0.16633892637512099 0 -0.24593749817207319 0.17922101447869401 0 -0.26864544582317851 0.1695326912228835 0 -0.26716833294266512 0.18744146854889909 0 -0.26088508548178302 0.1701755753659748 0 -0.26716833294266512 0.18744146854889909 0 -0.25648243047464631 0.1826357185327456 0 -0.26088508548178302 0.1701755753659748 0 -0.25648243047464631 0.1826357185327456 0 -0.26088508548178302 0.1701755753659748 0 -0.24593749817207319 0.17922101447869401 0 -0.25193880530206408 0.19370481573741441 0 -0.25648243047464631 0.1826357185327456 0 -0.24593749817207319 0.17922101447869401 0 -0.26681583754358312 0.15703960248194049 0 -0.26088508548178302 0.1701755753659748 0 -0.25072842261960387 0.15603505327837411 0 -0.26088508548178302 0.1701755753659748 0 -0.25072842261960387 0.15603505327837411 0 -0.24346313069296871 0.16633892637512099 0 -0.26864544582317851 0.1695326912228835 0 -0.26681583754358312 0.15703960248194049 0 -0.26088508548178302 0.1701755753659748 0 -0.26088508548178302 0.1701755753659748 0 -0.25072842261960387 0.15603505327837411 0 -0.26681583754358312 0.15703960248194049 0 -0.25608290515330878 0.14176455504424121 0 -0.27043538879702828 0.1413306736031216 0 -0.26681583754358312 0.15703960248194049 0 -0.25072842261960387 0.15603505327837411 0 -0.25608290515330878 0.14176455504424121 0 -0.26681583754358312 0.15703960248194049 0 -0.27043538879702828 0.1413306736031216 0 -0.27793738210199243 0.14829742822643491 0 -0.27043538879702828 0.1413306736031216 0 -0.27793738210199243 0.14829742822643491 0 -0.28046643513796882 0.14013597811185341 0 -0.27043538879702828 0.1413306736031216 0 -0.27842990629181991 0.12905884737457521 0 -0.28046643513796882 0.14013597811185341 0 -0.27043538879702828 0.1413306736031216 0 -0.27842990629181991 0.12905884737457521 0 -0.2648400147316442 0.13011893998476409 0 -0.27842990629181991 0.12905884737457521 0 -0.2648400147316442 0.13011893998476409 0 -0.26830038075826779 0.11624375259475619 0 -0.25608290515330878 0.14176455504424121 0 -0.2648400147316442 0.13011893998476409 0 -0.24895710550971339 0.12165530893482571 0 -0.25608290515330878 0.14176455504424121 0 -0.27043538879702828 0.1413306736031216 0 -0.2648400147316442 0.13011893998476409 0 -0.25734245126200062 0.1014160866788785 0 -0.26830038075826779 0.11624375259475619 0 -0.24895710550971339 0.12165530893482571 0 -0.2648400147316442 0.13011893998476409 0 -0.26830038075826779 0.11624375259475619 0 -0.24895710550971339 0.12165530893482571 0 -0.25734245126200062 0.1014160866788785 0 -0.24895710550971339 0.12165530893482571 0 -0.25734245126200062 0.1014160866788785 0 -0.27392861903901239 0.1020753708552664 0 -0.26830038075826779 0.11624375259475619 0 -0.27392861903901239 0.1020753708552664 0 -0.2863041877154166 0.1131379617402274 0 -0.28035165372413551 0.086769155039914989 0 -0.25734245126200062 0.1014160866788785 0 -0.27392861903901239 0.1020753708552664 0 -0.26572779701428773 0.081176864422931191 0 -0.27842990629181991 0.12905884737457521 0 -0.26830038075826779 0.11624375259475619 0 -0.2863041877154166 0.1131379617402274 0 -0.27392861903901239 0.1020753708552664 0 -0.26830038075826779 0.11624375259475619 0 -0.2863041877154166 0.1131379617402274 0 -0.2981778848162786 0.128193599602963 0 -0.2863041877154166 0.1131379617402274 0 -0.30134905106005738 0.1164832023402728 0 -0.2863041877154166 0.1131379617402274 0 -0.28035165372413551 0.086769155039914989 0 -0.2863041877154166 0.1131379617402274 0 -0.29405774138327462 0.094893752904386258 0 -0.28035165372413551 0.086769155039914989 0 -0.2863041877154166 0.1131379617402274 0 -0.29405774138327462 0.094893752904386258 0 -0.30367881485676818 0.104740917537869 0 -0.29405774138327462 0.094893752904386258 0 -0.30367881485676818 0.104740917537869 0 -0.30859009333780452 0.087437634974232029 0 -0.30367881485676818 0.104740917537869 0 -0.30859009333780452 0.087437634974232029 0 -0.31724517505712951 0.098806923667406316 0 -0.2981778848162786 0.128193599602963 0 -0.30134905106005738 0.1164832023402728 0 -0.31723531685176609 0.1198603304800319 0 -0.2863041877154166 0.1131379617402274 0 -0.30367881485676818 0.104740917537869 0 -0.30134905106005738 0.1164832023402728 0 -0.30367881485676818 0.104740917537869 0 -0.30134905106005738 0.1164832023402728 0 -0.31723531685176609 0.1198603304800319 0 -0.30660633332941051 0.074378369855040594 0 -0.29366682663590249 0.070755320590707688 0 -0.31081826144354868 0.060679329518446831 0 -0.30660633332941051 0.074378369855040594 0 -0.29665452968210548 0.0828468466728563 0 -0.29366682663590249 0.070755320590707688 0 -0.29405774138327462 0.094893752904386258 0 -0.30859009333780452 0.087437634974232029 0 -0.29665452968210548 0.0828468466728563 0 -0.30660633332941051 0.074378369855040594 0 -0.30859009333780452 0.087437634974232029 0 -0.29665452968210548 0.0828468466728563 0 -0.29665452968210548 0.0828468466728563 0 -0.29366682663590249 0.070755320590707688 0 -0.28035165372413551 0.086769155039914989 0 -0.29405774138327462 0.094893752904386258 0 -0.29665452968210548 0.0828468466728563 0 -0.28035165372413551 0.086769155039914989 0 -0.29366682663590249 0.070755320590707688 0 -0.28035165372413551 0.086769155039914989 0 -0.2743991197328543 0.06040034833960263 0 -0.28035165372413551 0.086769155039914989 0 -0.2743991197328543 0.06040034833960263 0 -0.28035165372413551 0.086769155039914989 0 -0.26572779701428773 0.081176864422931191 0 -0.2743991197328543 0.06040034833960263 0 -0.27392861903901239 0.1020753708552664 0 -0.28035165372413551 0.086769155039914989 0 -0.26572779701428773 0.081176864422931191 0 -0.25734245126200062 0.1014160866788785 0 -0.26572779701428773 0.081176864422931191 0 -0.24672703352553629 0.080158677613093823 0 -0.25734245126200062 0.1014160866788785 0 -0.26572779701428773 0.081176864422931191 0 -0.26572779701428773 0.081176864422931191 0 -0.2559826395353394 0.061597363551489349 0 -0.2743991197328543 0.06040034833960263 0 -0.26572779701428773 0.081176864422931191 0 -0.2559826395353394 0.061597363551489349 0 -0.24672703352553629 0.080158677613093823 0 -0.2559826395353394 0.061597363551489349 0 -0.26844658574157321 0.034031541639290362 0 -0.24450296286368231 0.049373315754277197 0 -0.26844658574157321 0.034031541639290362 0 -0.24192231969137759 0.032530148466345048 0 -0.24450296286368231 0.049373315754277197 0 -0.26844658574157321 0.034031541639290362 0 -0.2743991197328543 0.06040034833960263 0 -0.28919208176463768 0.041254089627619089 0 -0.26844658574157321 0.034031541639290362 0 -0.28503043027369879 0.024646141826126219 0 -0.28919208176463768 0.041254089627619089 0 -0.2559826395353394 0.061597363551489349 0 -0.26844658574157321 0.034031541639290362 0 -0.2743991197328543 0.06040034833960263 0 -0.26844658574157321 0.034031541639290362 0 -0.2743991197328543 0.06040034833960263 0 -0.25227296286688322 -0.0076793426536460041 0 -0.26249405175029211 0.007662734938978108 0 -0.23546354233931949 0.0078270751002715265 0 -0.26844658574157321 0.034031541639290362 0 -0.26249405175029211 0.007662734938978108 0 -0.26844658574157321 0.034031541639290362 0 -0.26249405175029211 0.007662734938978108 0 -0.24192231969137759 0.032530148466345048 0 -0.26844658574157321 0.034031541639290362 0 -0.26249405175029211 0.007662734938978108 0 -0.28503043027369879 0.024646141826126219 0 -0.26249405175029211 0.007662734938978108 0 -0.29088909275279012 0.0052797473078289572 0 -0.28503043027369879 0.024646141826126219 0 -0.28503043027369879 0.024646141826126219 0 -0.30319396424779033 0.026796870749645822 0 -0.28919208176463768 0.041254089627619089 0 -0.29088909275279012 0.0052797473078289572 0 -0.28503043027369879 0.024646141826126219 0 -0.30319396424779033 0.026796870749645822 0 -0.30319396424779033 0.026796870749645822 0 -0.30957503066598552 0.011427225412800709 0 -0.32058731744473762 0.019928587991941731 0 -0.29088909275279012 0.0052797473078289572 0 -0.30319396424779033 0.026796870749645822 0 -0.30957503066598552 0.011427225412800709 0 -0.30518798685158838 -0.0020929360932298849 0 -0.29088909275279012 0.0052797473078289572 0 -0.30957503066598552 0.011427225412800709 0 -0.30518798685158838 -0.0020929360932298849 0 -0.30957503066598552 0.011427225412800709 0 -0.32049615199215492 0.0045280339304297253 0 -0.2743991197328543 0.06040034833960263 0 -0.29603323201561299 0.055812399873303893 0 -0.28919208176463768 0.041254089627619089 0 -0.29366682663590249 0.070755320590707688 0 -0.2743991197328543 0.06040034833960263 0 -0.29603323201561299 0.055812399873303893 0 -0.30319396424779033 0.026796870749645822 0 -0.28919208176463768 0.041254089627619089 0 -0.31060618731623352 0.044985865152084623 0 -0.30319396424779033 0.026796870749645822 0 -0.31060618731623352 0.044985865152084623 0 -0.31880783956767128 0.032922242476857162 0 -0.29603323201561299 0.055812399873303893 0 -0.28919208176463768 0.041254089627619089 0 -0.31060618731623352 0.044985865152084623 0 -0.29603323201561299 0.055812399873303893 0 -0.31060618731623352 0.044985865152084623 0 -0.31081826144354868 0.060679329518446831 0 -0.29366682663590249 0.070755320590707688 0 -0.29603323201561299 0.055812399873303893 0 -0.31081826144354868 0.060679329518446831 0 -0.31060618731623352 0.044985865152084623 0 -0.32788744175529538 0.041514351910999107 0 -0.32831049041907839 0.055921771907720449 0 -0.31060618731623352 0.044985865152084623 0 -0.31081826144354868 0.060679329518446831 0 -0.32831049041907839 0.055921771907720449 0 -0.31060618731623352 0.044985865152084623 0 -0.31880783956767128 0.032922242476857162 0 -0.32788744175529538 0.041514351910999107 0 -0.31880783956767128 0.032922242476857162 0 -0.32788744175529538 0.041514351910999107 0 -0.33284048064853922 0.02898560650307868 0 -0.34306862850599618 0.040992927417729488 0 -0.33284048064853922 0.02898560650307868 0 -0.34878147881263583 0.02639136098039228 0 -0.32788744175529538 0.041514351910999107 0 -0.34306862850599618 0.040992927417729488 0 -0.32831049041907839 0.055921771907720449 0 -0.32788744175529538 0.041514351910999107 0 -0.34306862850599618 0.040992927417729488 0 -0.33284048064853922 0.02898560650307868 0 -0.32831049041907839 0.055921771907720449 0 -0.34909822148757808 0.06037421403352132 0 -0.3353113387102199 0.067919589230939131 0 -0.34306862850599618 0.040992927417729488 0 -0.32831049041907839 0.055921771907720449 0 -0.34909822148757808 0.06037421403352132 0 -0.30957503066598552 0.011427225412800709 0 -0.32049615199215492 0.0045280339304297253 0 -0.32058731744473762 0.019928587991941731 0 -0.32049615199215492 0.0045280339304297253 0 -0.32058731744473762 0.019928587991941731 0 -0.33553321900770577 0.01329805350298063 0 -0.30319396424779033 0.026796870749645822 0 -0.31880783956767128 0.032922242476857162 0 -0.32058731744473762 0.019928587991941731 0 -0.31880783956767128 0.032922242476857162 0 -0.32058731744473762 0.019928587991941731 0 -0.33284048064853922 0.02898560650307868 0 -0.33284048064853922 0.02898560650307868 0 -0.33553321900770577 0.01329805350298063 0 -0.34878147881263583 0.02639136098039228 0 -0.32058731744473762 0.019928587991941731 0 -0.33284048064853922 0.02898560650307868 0 -0.33553321900770577 0.01329805350298063 0 -0.33449922093445961 -0.0040818700918973123 0 -0.32049615199215492 0.0045280339304297253 0 -0.33553321900770577 0.01329805350298063 0 -0.33449922093445961 -0.0040818700918973123 0 -0.33553321900770577 0.01329805350298063 0 -0.35182631000740072 0.0068229147672093007 0 -0.33553321900770577 0.01329805350298063 0 -0.35182631000740072 0.0068229147672093007 0 -0.34878147881263583 0.02639136098039228 0 -0.34878147881263583 0.02639136098039228 0 -0.3640039126182737 0.02126082680388874 0 -0.35655106705292511 0.040817520418704747 0 -0.35182631000740072 0.0068229147672093007 0 -0.34878147881263583 0.02639136098039228 0 -0.3640039126182737 0.02126082680388874 0 -0.3640039126182737 0.02126082680388874 0 -0.35655106705292511 0.040817520418704747 0 -0.37938766176258892 0.01937444117527904 0 -0.3640039126182737 0.02126082680388874 0 -0.37363166703579942 0.035604814688565273 0 -0.3640039126182737 0.02126082680388874 0 -0.37145675818362223 0.001704133189072726 0 -0.35182631000740072 0.0068229147672093007 0 -0.3640039126182737 0.02126082680388874 0 -0.37145675818362223 0.001704133189072726 0 -0.37938766176258892 0.01937444117527904 0 -0.3640039126182737 0.02126082680388874 0 -0.37145675818362223 0.001704133189072726 0 -0.34909822148757808 0.06037421403352132 0 -0.35655106705292511 0.040817520418704747 0 -0.34306862850599618 0.040992927417729488 0 -0.34909822148757808 0.06037421403352132 0 -0.35655106705292511 0.040817520418704747 0 -0.34306862850599618 0.040992927417729488 0 -0.34909822148757808 0.06037421403352132 0 -0.34909822148757808 0.06037421403352132 0 -0.35655106705292511 0.040817520418704747 0 -0.36842953035862158 0.050481425088617103 0 -0.34306862850599618 0.040992927417729488 0 -0.34878147881263583 0.02639136098039228 0 -0.35655106705292511 0.040817520418704747 0 -0.3640039126182737 0.02126082680388874 0 -0.35655106705292511 0.040817520418704747 0 -0.37363166703579942 0.035604814688565273 0 -0.35655106705292511 0.040817520418704747 0 -0.37363166703579942 0.035604814688565273 0 -0.36842953035862158 0.050481425088617103 0 -0.34909822148757808 0.06037421403352132 0 -0.36842953035862158 0.050481425088617103 0 -0.37191756568804107 0.066739953928913298 0 -0.37191756568804107 0.066739953928913298 0 -0.35586120822019068 0.082112892687927444 0 -0.37138104083623391 0.082703932652830325 0 -0.34909822148757808 0.06037421403352132 0 -0.35586120822019068 0.082112892687927444 0 -0.34909822148757808 0.06037421403352132 0 -0.35586120822019068 0.082112892687927444 0 -0.34122595447521131 0.081031493547087358 0 -0.34909822148757808 0.06037421403352132 0 -0.37191756568804107 0.066739953928913298 0 -0.35586120822019068 0.082112892687927444 0 -0.34909822148757808 0.06037421403352132 0 -0.34122595447521131 0.081031493547087358 0 -0.35586120822019068 0.082112892687927444 0 -0.36262419495280129 0.1038515713423341 0 -0.35586120822019068 0.082112892687927444 0 -0.36262419495280129 0.1038515713423341 0 -0.34676829850597268 0.094510259469289468 0 -0.35586120822019068 0.082112892687927444 0 -0.34676829850597268 0.094510259469289468 0 -0.34122595447521131 0.081031493547087358 0 -0.35586120822019068 0.082112892687927444 0 -0.37138104083623391 0.082703932652830325 0 -0.36262419495280129 0.1038515713423341 0 -0.37678680274428078 0.095920052983538381 0 -0.37138104083623391 0.082703932652830325 0 -0.36262419495280129 0.1038515713423341 0 -0.36938718168541179 0.1255902499967409 0 -0.35200794605681629 0.12502238642781019 0 -0.36262419495280129 0.1038515713423341 0 -0.3875766108720648 0.10801011350679229 0 -0.36938718168541179 0.1255902499967409 0 -0.36262419495280129 0.1038515713423341 0 -0.36938718168541179 0.1255902499967409 0 -0.36262419495280129 0.1038515713423341 0 -0.35200794605681629 0.12502238642781019 0 -0.36262419495280129 0.1038515713423341 0 -0.34097979843748499 0.11073282128248541 0 -0.36262419495280129 0.1038515713423341 0 -0.34676829850597268 0.094510259469289468 0 -0.34097979843748499 0.11073282128248541 0 -0.33315033644417541 0.094822518486612939 0 -0.34097979843748499 0.11073282128248541 0 -0.31723531685176609 0.1198603304800319 0 -0.34676829850597268 0.094510259469289468 0 -0.33315033644417541 0.094822518486612939 0 -0.34097979843748499 0.11073282128248541 0 -0.35200794605681629 0.12502238642781019 0 -0.33282908497732799 0.12691684344983439 0 -0.34097979843748499 0.11073282128248541 0 -0.33282908497732799 0.12691684344983439 0 -0.34097979843748499 0.11073282128248541 0 -0.31723531685176609 0.1198603304800319 0 -0.30367881485676818 0.104740917537869 0 -0.31723531685176609 0.1198603304800319 0 -0.31724517505712951 0.098806923667406316 0 -0.33315033644417541 0.094822518486612939 0 -0.31723531685176609 0.1198603304800319 0 -0.33315033644417541 0.094822518486612939 0 -0.31723531685176609 0.1198603304800319 0 -0.31724517505712951 0.098806923667406316 0 -0.30859009333780452 0.087437634974232029 0 -0.31724517505712951 0.098806923667406316 0 -0.32357131379513321 0.087173216858285787 0 -0.33315033644417541 0.094822518486612939 0 -0.31724517505712951 0.098806923667406316 0 -0.32357131379513321 0.087173216858285787 0 -0.30660633332941051 0.074378369855040594 0 -0.30859009333780452 0.087437634974232029 0 -0.32274642435413547 0.073355371094589714 0 -0.30859009333780452 0.087437634974232029 0 -0.32357131379513321 0.087173216858285787 0 -0.32274642435413547 0.073355371094589714 0 -0.31081826144354868 0.060679329518446831 0 -0.32831049041907839 0.055921771907720449 0 -0.32274642435413547 0.073355371094589714 0 -0.30660633332941051 0.074378369855040594 0 -0.31081826144354868 0.060679329518446831 0 -0.32274642435413547 0.073355371094589714 0 -0.32831049041907839 0.055921771907720449 0 -0.32274642435413547 0.073355371094589714 0 -0.3353113387102199 0.067919589230939131 0 -0.34909822148757808 0.06037421403352132 0 -0.3353113387102199 0.067919589230939131 0 -0.34122595447521131 0.081031493547087358 0 -0.32274642435413547 0.073355371094589714 0 -0.3353113387102199 0.067919589230939131 0 -0.34122595447521131 0.081031493547087358 0 -0.33315033644417541 0.094822518486612939 0 -0.32357131379513321 0.087173216858285787 0 -0.34122595447521131 0.081031493547087358 0 -0.32357131379513321 0.087173216858285787 0 -0.32274642435413547 0.073355371094589714 0 -0.34122595447521131 0.081031493547087358 0 -0.34676829850597268 0.094510259469289468 0 -0.33315033644417541 0.094822518486612939 0 -0.34122595447521131 0.081031493547087358 0 -0.39098080248864292 0.48082949146892462 0 -0.39688472812408349 0.46225301958370763 0 -0.40654981809613899 0.47943816589621452 0 -0.39098080248864292 0.48082949146892462 0 -0.40517642966730788 0.5 0 -0.40654981809613899 0.47943816589621452 0 -0.39098080248864292 0.48082949146892462 0 -0.40517642966730788 0.5 0 -0.37984386551400101 0.5 0 -0.39098080248864292 0.48082949146892462 0 -0.37984386551400101 0.5 0 -0.36562800957556379 0.48144847740775781 0 -0.39098080248864292 0.48082949146892462 0 -0.37674471779043378 0.46289695481551602 0 -0.36562800957556379 0.48144847740775781 0 -0.39098080248864292 0.48082949146892462 0 -0.37674471779043378 0.46289695481551602 0 -0.39688472812408349 0.46225301958370763 0 -0.37674471779043378 0.46289695481551602 0 -0.38786142600530288 0.44434543222327372 0 -0.37674471779043378 0.46289695481551602 0 -0.38786142600530288 0.44434543222327372 0 -0.3636594906987341 0.45259116813215772 0 -0.37674471779043378 0.46289695481551602 0 -0.38786142600530288 0.44434543222327372 0 -0.39688472812408349 0.46225301958370763 0 -0.38786142600530288 0.44434543222327372 0 -0.38219330561030318 0.43733759585905729 0 -0.37031446948010971 0.44164379239859503 0 -0.38786142600530288 0.44434543222327372 0 -0.3636594906987341 0.45259116813215772 0 -0.38786142600530288 0.44434543222327372 0 -0.39005529127119792 0.44068431777663197 0 -0.38219330561030318 0.43733759585905729 0 -0.38786142600530288 0.44434543222327372 0 -0.39005529127119792 0.44068431777663197 0 -0.38786142600530288 0.44434543222327372 0 -0.40276516754681568 0.43926764339155733 0 -0.39688472812408349 0.46225301958370763 0 -0.38786142600530288 0.44434543222327372 0 -0.40276516754681568 0.43926764339155733 0 -0.38786142600530288 0.44434543222327372 0 -0.39005529127119792 0.44068431777663197 0 -0.40276516754681568 0.43926764339155733 0 -0.40276516754681568 0.43926764339155733 0 -0.39688472812408349 0.46225301958370763 0 -0.41912534642966243 0.46276605766276058 0 -0.39688472812408349 0.46225301958370763 0 -0.41912534642966243 0.46276605766276058 0 -0.40654981809613899 0.47943816589621452 0 -0.40276516754681568 0.43926764339155733 0 -0.41912534642966243 0.46276605766276058 0 -0.41766890908832871 0.43418985455984122 0 -0.41912534642966243 0.46276605766276058 0 -0.41766890908832871 0.43418985455984122 0 -0.43637228529971711 0.45059119829788907 0 -0.44062134191292651 0.43194009349776402 0 -0.42355994468304931 0.43218274549486041 0 -0.41912534642966243 0.46276605766276058 0 -0.43637228529971711 0.45059119829788907 0 -0.41766890908832871 0.43418985455984122 0 -0.43637228529971711 0.45059119829788907 0 -0.42355994468304931 0.43218274549486041 0 -0.41766890908832871 0.43418985455984122 0 -0.41912534642966243 0.46276605766276058 0 -0.43637228529971711 0.45059119829788907 0 -0.43819607322225379 0.4802098919466351 0 -0.41912534642966243 0.46276605766276058 0 -0.42058178377099831 0.49134226076567977 0 -0.43819607322225379 0.4802098919466351 0 -0.41912534642966243 0.46276605766276058 0 -0.40654981809613899 0.47943816589621452 0 -0.42058178377099831 0.49134226076567977 0 -0.41912534642966243 0.46276605766276058 0 -0.42058178377099831 0.49134226076567977 0 -0.40517642966730788 0.5 0 -0.40654981809613899 0.47943816589621452 0 -0.42058178377099831 0.49134226076567977 0 -0.40517642966730788 0.5 0 -0.42058178377099831 0.49134226076567977 0 -0.43050899382061492 0.5 0 -0.42058178377099831 0.49134226076567977 0 -0.43050899382061492 0.5 0 -0.43819607322225379 0.4802098919466351 0 -0.43050899382061492 0.5 0 -0.43819607322225379 0.4802098919466351 0 -0.4558415579739219 0.50000000000000289 0 -0.5 0.5 0 -0.45848093797747058 0.44107104525054719 0 -0.5 0.39368719930634488 0 -0.43819607322225379 0.4802098919466351 0 -0.45716124797569629 0.47053552262527509 0 -0.4558415579739219 0.50000000000000289 0 -0.45716124797569629 0.47053552262527509 0 -0.4558415579739219 0.50000000000000289 0 -0.45716124797569629 0.47053552262527509 0 -0.5 0.5 0 -0.45848093797747058 0.44107104525054719 0 -0.45716124797569629 0.47053552262527509 0 -0.4558415579739219 0.50000000000000289 0 -0.5 0.5 0 -0.45716124797569629 0.47053552262527509 0 -0.45848093797747058 0.44107104525054719 0 -0.43637228529971711 0.45059119829788907 0 -0.45716124797569629 0.47053552262527509 0 -0.45848093797747058 0.44107104525054719 0 -0.43637228529971711 0.45059119829788907 0 -0.43819607322225379 0.4802098919466351 0 -0.45716124797569629 0.47053552262527509 0 -0.43637228529971711 0.45059119829788907 0 -0.45848093797747058 0.44107104525054719 0 -0.44062134191292651 0.43194009349776402 0 -0.45848093797747058 0.44107104525054719 0 -0.44062134191292651 0.43194009349776402 0 -0.45980062797924498 0.41160656787581928 0 -0.44121582346845373 0.41376147505037958 0 -0.45980062797924498 0.41160656787581928 0 -0.45143531712829632 0.39504510946912502 0 -0.44062134191292651 0.43194009349776402 0 -0.44121582346845373 0.41376147505037958 0 -0.45980062797924498 0.41160656787581928 0 -0.45848093797747058 0.44107104525054719 0 -0.45980062797924498 0.41160656787581928 0 -0.45848093797747058 0.44107104525054719 0 -0.45980062797924498 0.41160656787581928 0 -0.5 0.39368719930634488 0 -0.45980062797924498 0.41160656787581928 0 -0.5 0.39368719930634488 0 -0.47061151440635052 0.38738233066939171 0 -0.5 0.39368719930634488 0 -0.47061151440635052 0.38738233066939171 0 -0.47244599738177773 0.36378702031114818 0 -0.47061151440635052 0.38738233066939171 0 -0.45360913424094712 0.37591717629495691 0 -0.45143531712829632 0.39504510946912502 0 -0.47061151440635052 0.38738233066939171 0 -0.45360913424094712 0.37591717629495691 0 -0.47244599738177773 0.36378702031114818 0 -0.45980062797924498 0.41160656787581928 0 -0.47061151440635052 0.38738233066939171 0 -0.45143531712829632 0.39504510946912502 0 -0.44121582346845373 0.41376147505037958 0 -0.45143531712829632 0.39504510946912502 0 -0.43115992967391842 0.40404311620122768 0 -0.45143531712829632 0.39504510946912502 0 -0.43477227110011651 0.38804733227876548 0 -0.43115992967391842 0.40404311620122768 0 -0.45360913424094712 0.37591717629495691 0 -0.43477227110011651 0.38804733227876548 0 -0.43761421779729981 0.36799172170783712 0 -0.45360913424094712 0.37591717629495691 0 -0.43477227110011651 0.38804733227876548 0 -0.45360913424094712 0.37591717629495691 0 -0.45143531712829632 0.39504510946912502 0 -0.43477227110011651 0.38804733227876548 0 -0.41504006019910189 0.38261021041501481 0 -0.43761421779729981 0.36799172170783712 0 -0.43477227110011651 0.38804733227876548 0 -0.41504006019910189 0.38261021041501481 0 -0.43761421779729981 0.36799172170783712 0 -0.43477227110011651 0.38804733227876548 0 -0.41504006019910189 0.38261021041501481 0 -0.4159354079592873 0.40017748826257649 0 -0.41504006019910189 0.38261021041501481 0 -0.41164644412426671 0.3848078356442457 0 -0.42787124419666578 0.3625299828724986 0 -0.41164644412426671 0.3848078356442457 0 -0.40212947449434688 0.3748414468342991 0 -0.41107150013157362 0.36619624614190099 0 -0.41504006019910189 0.38261021041501481 0 -0.41164644412426671 0.3848078356442457 0 -0.41109804598765209 0.39149102164547678 0 -0.41504006019910189 0.38261021041501481 0 -0.41164644412426671 0.3848078356442457 0 -0.41504006019910189 0.38261021041501481 0 -0.4159354079592873 0.40017748826257649 0 -0.41504006019910189 0.38261021041501481 0 -0.41109804598765209 0.39149102164547678 0 -0.4159354079592873 0.40017748826257649 0 -0.41164644412426671 0.3848078356442457 0 -0.41109804598765209 0.39149102164547678 0 -0.40177027166795132 0.3983685522600704 0 -0.41109804598765209 0.39149102164547678 0 -0.4159354079592873 0.40017748826257649 0 -0.40177027166795132 0.3983685522600704 0 -0.41164644412426671 0.3848078356442457 0 -0.40177027166795132 0.3983685522600704 0 -0.43477227110011651 0.38804733227876548 0 -0.4159354079592873 0.40017748826257649 0 -0.43477227110011651 0.38804733227876548 0 -0.4159354079592873 0.40017748826257649 0 -0.43115992967391842 0.40404311620122768 0 -0.44121582346845373 0.41376147505037958 0 -0.43115992967391842 0.40404311620122768 0 -0.42986314558338468 0.42022497384430652 0 -0.43115992967391842 0.40404311620122768 0 -0.42986314558338468 0.42022497384430652 0 -0.41680215852380748 0.41718367141120882 0 -0.44062134191292651 0.43194009349776402 0 -0.44121582346845373 0.41376147505037958 0 -0.42986314558338468 0.42022497384430652 0 -0.44062134191292651 0.43194009349776402 0 -0.42986314558338468 0.42022497384430652 0 -0.42355994468304931 0.43218274549486041 0 -0.42986314558338468 0.42022497384430652 0 -0.42355994468304931 0.43218274549486041 0 -0.41680215852380748 0.41718367141120882 0 -0.41766890908832871 0.43418985455984122 0 -0.41680215852380748 0.41718367141120882 0 -0.41766890908832871 0.43418985455984122 0 -0.41680215852380748 0.41718367141120882 0 -0.40452415779474138 0.42721409118458831 0 -0.42355994468304931 0.43218274549486041 0 -0.41766890908832871 0.43418985455984122 0 -0.41680215852380748 0.41718367141120882 0 -0.42355994468304931 0.43218274549486041 0 -0.41766890908832871 0.43418985455984122 0 -0.40276516754681568 0.43926764339155733 0 -0.41766890908832871 0.43418985455984122 0 -0.40276516754681568 0.43926764339155733 0 -0.41766890908832871 0.43418985455984122 0 -0.40452415779474138 0.42721409118458831 0 -0.4159354079592873 0.40017748826257649 0 -0.43115992967391842 0.40404311620122768 0 -0.41680215852380748 0.41718367141120882 0 -0.4159354079592873 0.40017748826257649 0 -0.41680215852380748 0.41718367141120882 0 -0.4159354079592873 0.40017748826257649 0 -0.41680215852380748 0.41718367141120882 0 -0.39328619543943649 0.41476263859902718 0 -0.39328619543943649 0.41476263859902718 0 -0.39189409921163532 0.41192926887589459 0 -0.40177027166795132 0.3983685522600704 0 -0.4159354079592873 0.40017748826257649 0 -0.39328619543943649 0.41476263859902718 0 -0.41680215852380748 0.41718367141120882 0 -0.39328619543943649 0.41476263859902718 0 -0.40452415779474138 0.42721409118458831 0 -0.39328619543943649 0.41476263859902718 0 -0.40452415779474138 0.42721409118458831 0 -0.39209835837531859 0.43066664796130649 0 -0.40276516754681568 0.43926764339155733 0 -0.40452415779474138 0.42721409118458831 0 -0.39209835837531859 0.43066664796130649 0 -0.39005529127119792 0.44068431777663197 0 -0.40276516754681568 0.43926764339155733 0 -0.39209835837531859 0.43066664796130649 0 -0.39328619543943649 0.41476263859902718 0 -0.37063698291958719 0.42934778893548009 0 -0.39209835837531859 0.43066664796130649 0 -0.38219330561030318 0.43733759585905729 0 -0.37063698291958719 0.42934778893548009 0 -0.39328619543943649 0.41476263859902718 0 -0.39209835837531859 0.43066664796130649 0 -0.37063698291958719 0.42934778893548009 0 -0.39005529127119792 0.44068431777663197 0 -0.39209835837531859 0.43066664796130649 0 -0.38219330561030318 0.43733759585905729 0 -0.39189409921163532 0.41192926887589459 0 -0.39195655763330312 0.3975585388349005 0 -0.37226667114234002 0.41030924202555608 0 -0.39328619543943649 0.41476263859902718 0 -0.39189409921163532 0.41192926887589459 0 -0.37226667114234002 0.41030924202555608 0 -0.39328619543943649 0.41476263859902718 0 -0.37226667114234002 0.41030924202555608 0 -0.37063698291958719 0.42934778893548009 0 -0.39195655763330312 0.3975585388349005 0 -0.37226667114234002 0.41030924202555608 0 -0.39195655763330312 0.3975585388349005 0 -0.37495024184161951 0.39669027322643757 0 -0.37226667114234002 0.41030924202555608 0 -0.38343510648805168 0.38508963626910381 0 -0.39195655763330312 0.3975585388349005 0 -0.37495024184161951 0.39669027322643757 0 -0.38343510648805168 0.38508963626910381 0 -0.36896039956082288 0.38726624238899698 0 -0.37495024184161951 0.39669027322643757 0 -0.38343510648805168 0.38508963626910381 0 -0.37817844187468841 0.37049799817574158 0 -0.36896039956082288 0.38726624238899698 0 -0.38343510648805168 0.38508963626910381 0 -0.39677184295297052 0.38392901966133991 0 -0.39106782088146019 0.37499676007273403 0 -0.38343510648805168 0.38508963626910381 0 -0.39106782088146019 0.37499676007273403 0 -0.37817844187468841 0.37049799817574158 0 -0.38343510648805168 0.38508963626910381 0 -0.39677184295297052 0.38392901966133991 0 -0.39195655763330312 0.3975585388349005 0 -0.41164644412426671 0.3848078356442457 0 -0.39677184295297052 0.38392901966133991 0 -0.39195655763330312 0.3975585388349005 0 -0.39677184295297052 0.38392901966133991 0 -0.40212947449434688 0.3748414468342991 0 -0.39106782088146019 0.37499676007273403 0 -0.41164644412426671 0.3848078356442457 0 -0.39677184295297052 0.38392901966133991 0 -0.40212947449434688 0.3748414468342991 0 -0.41164644412426671 0.3848078356442457 0 -0.39195655763330312 0.3975585388349005 0 -0.4159354079592873 0.40017748826257649 0 -0.39328619543943649 0.41476263859902718 0 -0.40177027166795132 0.3983685522600704 0 -0.41164644412426671 0.3848078356442457 0 -0.40177027166795132 0.3983685522600704 0 -0.39195655763330312 0.3975585388349005 0 -0.39189409921163532 0.41192926887589459 0 -0.40177027166795132 0.3983685522600704 0 -0.39195655763330312 0.3975585388349005 0 -0.39189409921163532 0.41192926887589459 0 -0.40177027166795132 0.3983685522600704 0 -0.38763875309648088 0.35121150247505228 0 -0.41586739868277361 0.34573181628790323 0 -0.39706953126344319 0.36332699894800602 0 -0.38763875309648088 0.35121150247505228 0 -0.41586739868277361 0.34573181628790323 0 -0.38763875309648088 0.35121150247505228 0 -0.3937872350367228 0.33507229671605809 0 -0.41586739868277361 0.34573181628790323 0 -0.40212947449434688 0.3748414468342991 0 -0.39706953126344319 0.36332699894800602 0 -0.41107150013157362 0.36619624614190099 0 -0.40212947449434688 0.3748414468342991 0 -0.39106782088146019 0.37499676007273403 0 -0.39706953126344319 0.36332699894800602 0 -0.37817844187468841 0.37049799817574158 0 -0.38763875309648088 0.35121150247505228 0 -0.35941010751018809 0.3566911886622014 0 -0.39706953126344319 0.36332699894800602 0 -0.37817844187468841 0.37049799817574158 0 -0.38763875309648088 0.35121150247505228 0 -0.39106782088146019 0.37499676007273403 0 -0.39706953126344319 0.36332699894800602 0 -0.37817844187468841 0.37049799817574158 0 -0.38659885775585739 0.31565850626255348 0 -0.3937872350367228 0.33507229671605809 0 -0.371857819856382 0.33718357931137699 0 -0.38763875309648088 0.35121150247505228 0 -0.3937872350367228 0.33507229671605809 0 -0.371857819856382 0.33718357931137699 0 -0.38659885775585739 0.31565850626255348 0 -0.371857819856382 0.33718357931137699 0 -0.38659885775585739 0.31565850626255348 0 -0.3736940231061725 0.31398947852622111 0 -0.371857819856382 0.33718357931137699 0 -0.38659885775585739 0.31565850626255348 0 -0.3937872350367228 0.33507229671605809 0 -0.40697334579212008 0.32557607924340459 0 -0.38659885775585739 0.31565850626255348 0 -0.40697334579212008 0.32557607924340459 0 -0.40344199037643141 0.31069905435295109 0 -0.3937872350367228 0.33507229671605809 0 -0.40697334579212008 0.32557607924340459 0 -0.41586739868277361 0.34573181628790323 0 -0.40697334579212008 0.32557607924340459 0 -0.42641657962310969 0.33014507151577532 0 -0.41586739868277361 0.34573181628790323 0 -0.40697334579212008 0.32557607924340459 0 -0.42482201379485501 0.3164116993459492 0 -0.40344199037643141 0.31069905435295109 0 -0.40697334579212008 0.32557607924340459 0 -0.42482201379485501 0.3164116993459492 0 -0.42641657962310969 0.33014507151577532 0 -0.42482201379485501 0.3164116993459492 0 -0.44032409557673402 0.32275363260086698 0 -0.44093041861641502 0.30629419798598828 0 -0.42482201379485501 0.3164116993459492 0 -0.42641657962310969 0.33014507151577532 0 -0.44032409557673402 0.32275363260086698 0 -0.42641657962310969 0.33014507151577532 0 -0.41586739868277361 0.34573181628790323 0 -0.44409604426906601 0.34025213010075239 0 -0.42641657962310969 0.33014507151577532 0 -0.44409604426906601 0.34025213010075239 0 -0.44032409557673402 0.32275363260086698 0 -0.41586739868277361 0.34573181628790323 0 -0.44409604426906601 0.34025213010075239 0 -0.42787124419666578 0.3625299828724986 0 -0.44409604426906601 0.34025213010075239 0 -0.41586739868277361 0.34573181628790323 0 -0.42787124419666578 0.3625299828724986 0 -0.44409604426906601 0.34025213010075239 0 -0.41586739868277361 0.34573181628790323 0 -0.41107150013157362 0.36619624614190099 0 -0.42787124419666578 0.3625299828724986 0 -0.39706953126344319 0.36332699894800602 0 -0.41586739868277361 0.34573181628790323 0 -0.41107150013157362 0.36619624614190099 0 -0.41164644412426671 0.3848078356442457 0 -0.41107150013157362 0.36619624614190099 0 -0.42787124419666578 0.3625299828724986 0 -0.41164644412426671 0.3848078356442457 0 -0.42787124419666578 0.3625299828724986 0 -0.41504006019910189 0.38261021041501481 0 -0.42787124419666578 0.3625299828724986 0 -0.43761421779729981 0.36799172170783712 0 -0.42787124419666578 0.3625299828724986 0 -0.43761421779729981 0.36799172170783712 0 -0.44532995730629832 0.35516754502531411 0 -0.5 0.39368719930634488 0 -0.5 0.31375562759013931 0 -0.49236992051172512 0.33088130527536841 0 -0.5 0.39368719930634488 0 -0.49236992051172512 0.33088130527536841 0 -0.48276253299369798 0.33875474429348529 0 -0.43761421779729981 0.36799172170783712 0 -0.46018837539549878 0.35337323300066131 0 -0.45360913424094712 0.37591717629495691 0 -0.43761421779729981 0.36799172170783712 0 -0.46018837539549878 0.35337323300066131 0 -0.44532995730629832 0.35516754502531411 0 -0.46018837539549878 0.35337323300066131 0 -0.44409604426906601 0.34025213010075239 0 -0.42787124419666578 0.3625299828724986 0 -0.44532995730629832 0.35516754502531411 0 -0.44409604426906601 0.34025213010075239 0 -0.43761421779729981 0.36799172170783712 0 -0.44532995730629832 0.35516754502531411 0 -0.46018837539549878 0.35337323300066131 0 -0.45360913424094712 0.37591717629495691 0 -0.47244599738177773 0.36378702031114818 0 -0.45360913424094712 0.37591717629495691 0 -0.46018837539549878 0.35337323300066131 0 -0.47244599738177773 0.36378702031114818 0 -0.5 0.39368719930634488 0 -0.47244599738177773 0.36378702031114818 0 -0.48276253299369798 0.33875474429348529 0 -0.46018837539549878 0.35337323300066131 0 -0.47244599738177773 0.36378702031114818 0 -0.48276253299369798 0.33875474429348529 0 -0.46018837539549878 0.35337323300066131 0 -0.48276253299369798 0.33875474429348529 0 -0.5 0.31375562759013931 0 -0.49236992051172512 0.33088130527536841 0 -0.47844448370196352 0.32365782782372382 0 -0.49236992051172512 0.33088130527536841 0 -0.48276253299369798 0.33875474429348529 0 -0.46823298239039562 0.33556671768806118 0 -0.49236992051172512 0.33088130527536841 0 -0.47844448370196352 0.32365782782372382 0 -0.46823298239039562 0.33556671768806118 0 -0.46018837539549878 0.35337323300066131 0 -0.48276253299369798 0.33875474429348529 0 -0.46823298239039562 0.33556671768806118 0 -0.49236992051172512 0.33088130527536841 0 -0.46823298239039562 0.33556671768806118 0 -0.5 0.31375562759013931 0 -0.47844448370196352 0.32365782782372382 0 -0.47326150671693828 0.30885130336962702 0 -0.47844448370196352 0.32365782782372382 0 -0.46553845445045222 0.32292377735302652 0 -0.46823298239039562 0.33556671768806118 0 -0.47844448370196352 0.32365782782372382 0 -0.46553845445045222 0.32292377735302652 0 -0.47326150671693828 0.30885130336962702 0 -0.46553845445045222 0.32292377735302652 0 -0.45536731290503107 0.31414791777939732 0 -0.47326150671693828 0.30885130336962702 0 -0.46553845445045222 0.32292377735302652 0 -0.45342644041040631 0.32744080480790411 0 -0.45536731290503107 0.31414791777939732 0 -0.46823298239039562 0.33556671768806118 0 -0.44409604426906601 0.34025213010075239 0 -0.46018837539549878 0.35337323300066131 0 -0.46823298239039562 0.33556671768806118 0 -0.44409604426906601 0.34025213010075239 0 -0.45342644041040631 0.32744080480790411 0 -0.46823298239039562 0.33556671768806118 0 -0.44409604426906601 0.34025213010075239 0 -0.46553845445045222 0.32292377735302652 0 -0.45342644041040631 0.32744080480790411 0 -0.46823298239039562 0.33556671768806118 0 -0.45342644041040631 0.32744080480790411 0 -0.44409604426906601 0.34025213010075239 0 -0.44032409557673402 0.32275363260086698 0 -0.45342644041040631 0.32744080480790411 0 -0.44409604426906601 0.34025213010075239 0 -0.45536731290503107 0.31414791777939732 0 -0.44032409557673402 0.32275363260086698 0 -0.44093041861641502 0.30629419798598828 0 -0.45342644041040631 0.32744080480790411 0 -0.45536731290503107 0.31414791777939732 0 -0.44032409557673402 0.32275363260086698 0 -0.44093041861641502 0.30629419798598828 0 -0.44456522433562062 0.28987896746967612 0 -0.45784842118247587 0.29630392741269229 0 -0.45536731290503107 0.31414791777939732 0 -0.44093041861641502 0.30629419798598828 0 -0.45784842118247587 0.29630392741269229 0 -0.44456522433562062 0.28987896746967612 0 -0.45784842118247587 0.29630392741269229 0 -0.45683589886731429 0.27944522996227389 0 -0.45784842118247587 0.29630392741269229 0 -0.47613016565353689 0.27920594790919162 0 -0.45683589886731429 0.27944522996227389 0 -0.45536731290503107 0.31414791777939732 0 -0.45784842118247587 0.29630392741269229 0 -0.47326150671693828 0.30885130336962702 0 -0.5 0.31375562759013931 0 -0.47326150671693828 0.30885130336962702 0 -0.47613016565353689 0.27920594790919162 0 -0.5 0.31375562759013931 0 -0.5 0.25502500317745308 0 -0.47613016565353689 0.27920594790919162 0 -0.45784842118247587 0.29630392741269229 0 -0.47326150671693828 0.30885130336962702 0 -0.47613016565353689 0.27920594790919162 0 -0.5 0.25502500317745308 0 -0.47613016565353689 0.27920594790919162 0 -0.46826200115894351 0.25268254595322559 0 -0.46826200115894351 0.25268254595322559 0 -0.46001429554523132 0.26715439528268792 0 -0.44622747097204157 0.25447826500352411 0 -0.47613016565353689 0.27920594790919162 0 -0.46001429554523132 0.26715439528268792 0 -0.45683589886731429 0.27944522996227389 0 -0.47613016565353689 0.27920594790919162 0 -0.46826200115894351 0.25268254595322559 0 -0.46001429554523132 0.26715439528268792 0 -0.44456522433562062 0.28987896746967612 0 -0.45683589886731429 0.27944522996227389 0 -0.43912327732866052 0.27082845975049152 0 -0.46001429554523132 0.26715439528268792 0 -0.45683589886731429 0.27944522996227389 0 -0.43912327732866052 0.27082845975049152 0 -0.43912327732866052 0.27082845975049152 0 -0.44622747097204157 0.25447826500352411 0 -0.4271662496375016 0.26119471126077209 0 -0.46001429554523132 0.26715439528268792 0 -0.43912327732866052 0.27082845975049152 0 -0.44622747097204157 0.25447826500352411 0 -0.43243648966469961 0.24825823729562091 0 -0.4271662496375016 0.26119471126077209 0 -0.4154354269666965 0.25327969466909228 0 -0.43243648966469961 0.24825823729562091 0 -0.44622747097204157 0.25447826500352411 0 -0.4271662496375016 0.26119471126077209 0 -0.4154354269666965 0.25327969466909228 0 -0.41608093355480807 0.27260836016490658 0 -0.3994904005985685 0.26310408063752239 0 -0.4271662496375016 0.26119471126077209 0 -0.4154354269666965 0.25327969466909228 0 -0.41608093355480807 0.27260836016490658 0 -0.43912327732866052 0.27082845975049152 0 -0.4271662496375016 0.26119471126077209 0 -0.41608093355480807 0.27260836016490658 0 -0.43912327732866052 0.27082845975049152 0 -0.41608093355480807 0.27260836016490658 0 -0.42569467822547491 0.29333324823827622 0 -0.44093041861641502 0.30629419798598828 0 -0.44456522433562062 0.28987896746967612 0 -0.42569467822547491 0.29333324823827622 0 -0.44456522433562062 0.28987896746967612 0 -0.43912327732866052 0.27082845975049152 0 -0.42569467822547491 0.29333324823827622 0 -0.42482201379485501 0.3164116993459492 0 -0.44093041861641502 0.30629419798598828 0 -0.42569467822547491 0.29333324823827622 0 -0.42482201379485501 0.3164116993459492 0 -0.42569467822547491 0.29333324823827622 0 -0.41580892915603301 0.30455156730479449 0 -0.41580892915603301 0.30455156730479449 0 -0.40133989565533279 0.29413343321372998 0 -0.40344199037643141 0.31069905435295109 0 -0.42569467822547491 0.29333324823827622 0 -0.41580892915603301 0.30455156730479449 0 -0.40133989565533279 0.29413343321372998 0 -0.42482201379485501 0.3164116993459492 0 -0.41580892915603301 0.30455156730479449 0 -0.40344199037643141 0.31069905435295109 0 -0.41608093355480807 0.27260836016490658 0 -0.42569467822547491 0.29333324823827622 0 -0.40133989565533279 0.29413343321372998 0 -0.41608093355480807 0.27260836016490658 0 -0.40133989565533279 0.29413343321372998 0 -0.40133989565533279 0.29413343321372998 0 -0.391405356210975 0.28736794428101681 0 -0.38183605444568008 0.30159254882832942 0 -0.41608093355480807 0.27260836016490658 0 -0.40133989565533279 0.29413343321372998 0 -0.39791334778191012 0.27873259344880857 0 -0.40133989565533279 0.29413343321372998 0 -0.391405356210975 0.28736794428101681 0 -0.39791334778191012 0.27873259344880857 0 -0.38659885775585739 0.31565850626255348 0 -0.40133989565533279 0.29413343321372998 0 -0.40344199037643141 0.31069905435295109 0 -0.38659885775585739 0.31565850626255348 0 -0.40133989565533279 0.29413343321372998 0 -0.38659885775585739 0.31565850626255348 0 -0.40133989565533279 0.29413343321372998 0 -0.38183605444568008 0.30159254882832942 0 -0.38183605444568008 0.30159254882832942 0 -0.37466468983423318 0.28951354051077988 0 -0.36997315068782782 0.30191223918603199 0 -0.38183605444568008 0.30159254882832942 0 -0.36997315068782782 0.30191223918603199 0 -0.3736940231061725 0.31398947852622111 0 -0.38659885775585739 0.31565850626255348 0 -0.38183605444568008 0.30159254882832942 0 -0.3736940231061725 0.31398947852622111 0 -0.391405356210975 0.28736794428101681 0 -0.38183605444568008 0.30159254882832942 0 -0.38453212696097688 0.2750132016331992 0 -0.38183605444568008 0.30159254882832942 0 -0.38453212696097688 0.2750132016331992 0 -0.37466468983423318 0.28951354051077988 0 -0.38183605444568008 0.30159254882832942 0 -0.38453212696097688 0.2750132016331992 0 -0.37672471104263361 0.27561795758142188 0 -0.38453212696097688 0.2750132016331992 0 -0.37466468983423318 0.28951354051077988 0 -0.37672471104263361 0.27561795758142188 0 -0.38453212696097688 0.2750132016331992 0 -0.37896013194671968 0.25534683486931381 0 -0.38722819947627368 0.24843385443806909 0 -0.38453212696097688 0.2750132016331992 0 -0.37896013194671968 0.25534683486931381 0 -0.37672471104263361 0.27561795758142188 0 -0.37896013194671968 0.25534683486931381 0 -0.38722819947627368 0.24843385443806909 0 -0.38453212696097688 0.2750132016331992 0 -0.3994904005985685 0.26310408063752239 0 -0.38722819947627368 0.24843385443806909 0 -0.38453212696097688 0.2750132016331992 0 -0.40101037553383972 0.24850817254535781 0 -0.4154354269666965 0.25327969466909228 0 -0.3994904005985685 0.26310408063752239 0 -0.38722819947627368 0.24843385443806909 0 -0.40101037553383972 0.24850817254535781 0 -0.3994904005985685 0.26310408063752239 0 -0.38453212696097688 0.2750132016331992 0 -0.3994904005985685 0.26310408063752239 0 -0.39791334778191012 0.27873259344880857 0 -0.41608093355480807 0.27260836016490658 0 -0.3994904005985685 0.26310408063752239 0 -0.39791334778191012 0.27873259344880857 0 -0.391405356210975 0.28736794428101681 0 -0.38453212696097688 0.2750132016331992 0 -0.39791334778191012 0.27873259344880857 0 -0.35754908974886279 0.25815157521253052 0 -0.35995394297715549 0.27846885519039472 0 -0.3399009986899495 0.26863911531903439 0 -0.34139946132247112 0.24041351753421181 0 -0.35754908974886279 0.25815157521253052 0 -0.3399009986899495 0.26863911531903439 0 -0.37672471104263361 0.27561795758142188 0 -0.37896013194671968 0.25534683486931381 0 -0.3691483330232409 0.26445373858247911 0 -0.35754908974886279 0.25815157521253052 0 -0.36759241766554501 0.2538245840294952 0 -0.3691483330232409 0.26445373858247911 0 -0.36182205832064851 0.24457456243760281 0 -0.35754908974886279 0.25815157521253052 0 -0.36759241766554501 0.2538245840294952 0 -0.37210575503526089 0.24405057661464391 0 -0.37896013194671968 0.25534683486931381 0 -0.36759241766554501 0.2538245840294952 0 -0.37896013194671968 0.25534683486931381 0 -0.36759241766554501 0.2538245840294952 0 -0.3691483330232409 0.26445373858247911 0 -0.35754908974886279 0.25815157521253052 0 -0.3691483330232409 0.26445373858247911 0 -0.35995394297715549 0.27846885519039472 0 -0.37672471104263361 0.27561795758142188 0 -0.3691483330232409 0.26445373858247911 0 -0.35995394297715549 0.27846885519039472 0 -0.37672471104263361 0.27561795758142188 0 -0.35995394297715549 0.27846885519039472 0 -0.37466468983423318 0.28951354051077988 0 -0.35995394297715549 0.27846885519039472 0 -0.37466468983423318 0.28951354051077988 0 -0.36067095067979221 0.29568292426180159 0 -0.37466468983423318 0.28951354051077988 0 -0.36067095067979221 0.29568292426180159 0 -0.36997315068782782 0.30191223918603199 0 -0.36067095067979221 0.29568292426180159 0 -0.36997315068782782 0.30191223918603199 0 -0.35820423278511537 0.31360051904281339 0 -0.36997315068782782 0.30191223918603199 0 -0.35820423278511537 0.31360051904281339 0 -0.3736940231061725 0.31398947852622111 0 -0.36067095067979221 0.29568292426180159 0 -0.33840253605742793 0.29686471310385681 0 -0.35820423278511537 0.31360051904281339 0 -0.33840253605742793 0.29686471310385681 0 -0.33690407342490619 0.32509031088867912 0 -0.35820423278511537 0.31360051904281339 0 -0.35995394297715549 0.27846885519039472 0 -0.33840253605742793 0.29686471310385681 0 -0.3399009986899495 0.26863911531903439 0 -0.35995394297715549 0.27846885519039472 0 -0.36067095067979221 0.29568292426180159 0 -0.33840253605742793 0.29686471310385681 0 -0.33840253605742793 0.29686471310385681 0 -0.3399009986899495 0.26863911531903439 0 -0.33840253605742793 0.29686471310385681 0 -0.31331907053128433 0.313878567385664 0 -0.33690407342490619 0.32509031088867912 0 -0.33840253605742793 0.29686471310385681 0 -0.33690407342490619 0.32509031088867912 0 -0.33840253605742793 0.29686471310385681 0 -0.31760133335066493 0.29423642541125972 0 -0.31331907053128433 0.313878567385664 0 -0.33840253605742793 0.29686471310385681 0 -0.31760133335066493 0.29423642541125972 0 -0.31493928155445272 0.27430993559415479 0 -0.33840253605742793 0.29686471310385681 0 -0.31493928155445272 0.27430993559415479 0 -0.3399009986899495 0.26863911531903439 0 -0.34139946132247112 0.24041351753421181 0 -0.3399009986899495 0.26863911531903439 0 -0.34139946132247112 0.24041351753421181 0 -0.3399009986899495 0.26863911531903439 0 -0.32052316857880009 0.25199218265017043 0 -0.31493928155445272 0.27430993559415479 0 -0.3399009986899495 0.26863911531903439 0 -0.32052316857880009 0.25199218265017043 0 -0.31493928155445272 0.27430993559415479 0 -0.32052316857880009 0.25199218265017043 0 -0.29813700426351908 0.2549985658140525 0 -0.31493928155445272 0.27430993559415479 0 -0.29813700426351908 0.2549985658140525 0 -0.29529200006252948 0.27158343417855851 0 -0.31493928155445272 0.27430993559415479 0 -0.29529200006252948 0.27158343417855851 0 -0.29860197381843362 0.29024571476828781 0 -0.29529200006252948 0.27158343417855851 0 -0.28356153015689661 0.26077246338072052 0 -0.28122021051934548 0.27759049133557667 0 -0.29529200006252948 0.27158343417855851 0 -0.28122021051934548 0.27759049133557667 0 -0.29860197381843362 0.29024571476828781 0 -0.29813700426351908 0.2549985658140525 0 -0.29529200006252948 0.27158343417855851 0 -0.28356153015689661 0.26077246338072052 0 -0.28520633826073721 0.24204505302591109 0 -0.29813700426351908 0.2549985658140525 0 -0.28356153015689661 0.26077246338072052 0 -0.28520633826073721 0.24204505302591109 0 -0.28356153015689661 0.26077246338072052 0 -0.26991196520069161 0.25166683223725428 0 -0.28356153015689661 0.26077246338072052 0 -0.26991196520069161 0.25166683223725428 0 -0.26982671458757052 0.26781375962876097 0 -0.28356153015689661 0.26077246338072052 0 -0.26982671458757052 0.26781375962876097 0 -0.28122021051934548 0.27759049133557667 0 -0.26982671458757052 0.26781375962876097 0 -0.28122021051934548 0.27759049133557667 0 -0.25982227492027221 0.287750399741656 0 -0.2546175921406465 0.26128861144859822 0 -0.25982227492027221 0.287750399741656 0 -0.26982671458757052 0.26781375962876097 0 -0.2546175921406465 0.26128861144859822 0 -0.25982227492027221 0.287750399741656 0 -0.2546175921406465 0.26128861144859822 0 -0.25982227492027221 0.287750399741656 0 -0.24164285362834059 0.26945109504960563 0 -0.25054816238852479 0.24059870715785611 0 -0.2546175921406465 0.26128861144859822 0 -0.26991196520069161 0.25166683223725428 0 -0.26982671458757052 0.26781375962876097 0 -0.2546175921406465 0.26128861144859822 0 -0.25993357060704247 0.2432609816545768 0 -0.26991196520069161 0.25166683223725428 0 -0.2546175921406465 0.26128861144859822 0 -0.26991196520069161 0.25166683223725428 0 -0.2546175921406465 0.26128861144859822 0 -0.25982227492027221 0.287750399741656 0 -0.26502695769989643 0.31421218803471418 0 -0.25040582964490582 0.29567583303740069 0 -0.26031873506221342 0.31817490468258641 0 -0.26502695769989643 0.31421218803471418 0 -0.25040582964490582 0.29567583303740069 0 -0.26031873506221342 0.31817490468258641 0 -0.25040582964490582 0.29567583303740069 0 -0.25982227492027221 0.287750399741656 0 -0.26502695769989643 0.31421218803471418 0 -0.25040582964490582 0.29567583303740069 0 -0.26031873506221342 0.31817490468258641 0 -0.2434150889916675 0.31528126182336752 0 -0.25040582964490582 0.29567583303740069 0 -0.25982227492027221 0.287750399741656 0 -0.2404929242275981 0.27317676139221531 0 -0.28122021051934548 0.27759049133557667 0 -0.25982227492027221 0.287750399741656 0 -0.27872696579211859 0.29653502721740232 0 -0.27872696579211859 0.29653502721740232 0 -0.2889634120026453 0.31287634220677663 0 -0.26502695769989643 0.31421218803471418 0 -0.25982227492027221 0.287750399741656 0 -0.27872696579211859 0.29653502721740232 0 -0.26502695769989643 0.31421218803471418 0 -0.27872696579211859 0.29653502721740232 0 -0.29860197381843362 0.29024571476828781 0 -0.2889634120026453 0.31287634220677663 0 -0.28122021051934548 0.27759049133557667 0 -0.27872696579211859 0.29653502721740232 0 -0.29860197381843362 0.29024571476828781 0 -0.31760133335066493 0.29423642541125972 0 -0.31493928155445272 0.27430993559415479 0 -0.29860197381843362 0.29024571476828781 0 -0.29860197381843362 0.29024571476828781 0 -0.2889634120026453 0.31287634220677663 0 -0.31331907053128433 0.313878567385664 0 -0.31760133335066493 0.29423642541125972 0 -0.29860197381843362 0.29024571476828781 0 -0.31331907053128433 0.313878567385664 0 -0.29891576475332582 0.33197597815543639 0 -0.2889634120026453 0.31287634220677663 0 -0.31331907053128433 0.313878567385664 0 -0.29891576475332582 0.33197597815543639 0 -0.31508677610875602 0.33246264155886579 0 -0.31331907053128433 0.313878567385664 0 -0.29891576475332582 0.33197597815543639 0 -0.30998113757288742 0.35016350933599311 0 -0.31508677610875602 0.33246264155886579 0 -0.29891576475332582 0.33197597815543639 0 -0.27956012110933898 0.33426516842927712 0 -0.28899367546018362 0.34990607578599969 0 -0.27956012110933898 0.33426516842927712 0 -0.27835705654663001 0.3466973614805422 0 -0.28899367546018362 0.34990607578599969 0 -0.29891576475332582 0.33197597815543639 0 -0.2889634120026453 0.31287634220677663 0 -0.27956012110933898 0.33426516842927712 0 -0.27023164047952081 0.34067397632777208 0 -0.26502695769989643 0.31421218803471418 0 -0.2889634120026453 0.31287634220677663 0 -0.27956012110933898 0.33426516842927712 0 -0.26502695769989643 0.31421218803471418 0 -0.27956012110933898 0.33426516842927712 0 -0.27023164047952081 0.34067397632777208 0 -0.26502695769989643 0.31421218803471418 0 -0.27956012110933898 0.33426516842927712 0 -0.27023164047952081 0.34067397632777208 0 -0.27835705654663001 0.3466973614805422 0 -0.27023164047952081 0.34067397632777208 0 -0.25008303346203908 0.33611797840414298 0 -0.26058904667577898 0.35313253120237981 0 -0.27023164047952081 0.34067397632777208 0 -0.25008303346203908 0.33611797840414298 0 -0.26031873506221342 0.31817490468258641 0 -0.27023164047952081 0.34067397632777208 0 -0.26031873506221342 0.31817490468258641 0 -0.27023164047952081 0.34067397632777208 0 -0.26031873506221342 0.31817490468258641 0 -0.26502695769989643 0.31421218803471418 0 -0.25008303346203908 0.33611797840414298 0 -0.26031873506221342 0.31817490468258641 0 -0.2434150889916675 0.31528126182336752 0 -0.2592717334901794 0.37344143954643821 0 -0.26058904667577898 0.35313253120237981 0 -0.245130999697667 0.35617292401417999 0 -0.2592717334901794 0.37344143954643821 0 -0.26058904667577898 0.35313253120237981 0 -0.2742317000365197 0.36101118680509853 0 -0.25008303346203908 0.33611797840414298 0 -0.26058904667577898 0.35313253120237981 0 -0.245130999697667 0.35617292401417999 0 -0.27023164047952081 0.34067397632777208 0 -0.27835705654663001 0.3466973614805422 0 -0.2742317000365197 0.36101118680509853 0 -0.27023164047952081 0.34067397632777208 0 -0.26058904667577898 0.35313253120237981 0 -0.2742317000365197 0.36101118680509853 0 -0.27023164047952081 0.34067397632777208 0 -0.2742317000365197 0.36101118680509853 0 -0.27835705654663001 0.3466973614805422 0 -0.2742317000365197 0.36101118680509853 0 -0.28899367546018362 0.34990607578599969 0 -0.2592717334901794 0.37344143954643821 0 -0.2742317000365197 0.36101118680509853 0 -0.27666944541277583 0.38068284486427251 0 -0.2742317000365197 0.36101118680509853 0 -0.2918056253057611 0.36977816091582622 0 -0.27666944541277583 0.38068284486427251 0 -0.2742317000365197 0.36101118680509853 0 -0.2918056253057611 0.36977816091582622 0 -0.28899367546018362 0.34990607578599969 0 -0.2918056253057611 0.36977816091582622 0 -0.28899367546018362 0.34990607578599969 0 -0.30998113757288742 0.35016350933599311 0 -0.29891576475332582 0.33197597815543639 0 -0.28899367546018362 0.34990607578599969 0 -0.30998113757288742 0.35016350933599311 0 -0.2918056253057611 0.36977816091582622 0 -0.30998113757288742 0.35016350933599311 0 -0.30751920709622288 0.37811993239733782 0 -0.30998113757288742 0.35016350933599311 0 -0.3241796865990505 0.37446232129606583 0 -0.30998113757288742 0.35016350933599311 0 -0.3241796865990505 0.37446232129606583 0 -0.3311814619238953 0.36217087484935062 0 -0.30998113757288742 0.35016350933599311 0 -0.3241796865990505 0.37446232129606583 0 -0.30751920709622288 0.37811993239733782 0 -0.3241796865990505 0.37446232129606583 0 -0.3311814619238953 0.36217087484935062 0 -0.3450213805631549 0.37637896488870742 0 -0.3311814619238953 0.36217087484935062 0 -0.34248144252655999 0.3449329262912757 0 -0.32671787735756741 0.34394441277493482 0 -0.30998113757288742 0.35016350933599311 0 -0.3311814619238953 0.36217087484935062 0 -0.32671787735756741 0.34394441277493482 0 -0.30998113757288742 0.35016350933599311 0 -0.32671787735756741 0.34394441277493482 0 -0.31508677610875602 0.33246264155886579 0 -0.32671787735756741 0.34394441277493482 0 -0.31508677610875602 0.33246264155886579 0 -0.33690407342490619 0.32509031088867912 0 -0.31508677610875602 0.33246264155886579 0 -0.31331907053128433 0.313878567385664 0 -0.33690407342490619 0.32509031088867912 0 -0.34248144252655999 0.3449329262912757 0 -0.32671787735756741 0.34394441277493482 0 -0.33690407342490619 0.32509031088867912 0 -0.34248144252655999 0.3449329262912757 0 -0.33690407342490619 0.32509031088867912 0 -0.35402019531300261 0.33435003863570822 0 -0.33690407342490619 0.32509031088867912 0 -0.35402019531300261 0.33435003863570822 0 -0.35820423278511537 0.31360051904281339 0 -0.35820423278511537 0.31360051904281339 0 -0.3736940231061725 0.31398947852622111 0 -0.371857819856382 0.33718357931137699 0 -0.35402019531300261 0.33435003863570822 0 -0.35820423278511537 0.31360051904281339 0 -0.371857819856382 0.33718357931137699 0 -0.35402019531300261 0.33435003863570822 0 -0.371857819856382 0.33718357931137699 0 -0.35941010751018809 0.3566911886622014 0 -0.38763875309648088 0.35121150247505228 0 -0.371857819856382 0.33718357931137699 0 -0.35941010751018809 0.3566911886622014 0 -0.38763875309648088 0.35121150247505228 0 -0.35941010751018809 0.3566911886622014 0 -0.37817844187468841 0.37049799817574158 0 -0.35941010751018809 0.3566911886622014 0 -0.36132744716974019 0.37598607000928502 0 -0.35941010751018809 0.3566911886622014 0 -0.3450213805631549 0.37637896488870742 0 -0.36132744716974019 0.37598607000928502 0 -0.3311814619238953 0.36217087484935062 0 -0.35941010751018809 0.3566911886622014 0 -0.3450213805631549 0.37637896488870742 0 -0.3311814619238953 0.36217087484935062 0 -0.35941010751018809 0.3566911886622014 0 -0.34248144252655999 0.3449329262912757 0 -0.35402019531300261 0.33435003863570822 0 -0.35941010751018809 0.3566911886622014 0 -0.3311814619238953 0.36217087484935062 0 -0.34248144252655999 0.3449329262912757 0 -0.35941010751018809 0.3566911886622014 0 -0.35813247438357998 0.40322770661363078 0 -0.35506690633984689 0.38909595593077778 0 -0.33837823562521357 0.3987611332561386 0 -0.3450213805631549 0.37637896488870742 0 -0.35506690633984689 0.38909595593077778 0 -0.36132744716974019 0.37598607000928502 0 -0.3450213805631549 0.37637896488870742 0 -0.35506690633984689 0.38909595593077778 0 -0.33837823562521357 0.3987611332561386 0 -0.37817844187468841 0.37049799817574158 0 -0.36132744716974019 0.37598607000928502 0 -0.36896039956082288 0.38726624238899698 0 -0.35506690633984689 0.38909595593077778 0 -0.36132744716974019 0.37598607000928502 0 -0.36896039956082288 0.38726624238899698 0 -0.35813247438357998 0.40322770661363078 0 -0.35506690633984689 0.38909595593077778 0 -0.36896039956082288 0.38726624238899698 0 -0.35813247438357998 0.40322770661363078 0 -0.36896039956082288 0.38726624238899698 0 -0.37495024184161951 0.39669027322643757 0 -0.35813247438357998 0.40322770661363078 0 -0.37495024184161951 0.39669027322643757 0 -0.37226667114234002 0.41030924202555608 0 -0.37226667114234002 0.41030924202555608 0 -0.37063698291958719 0.42934778893548009 0 -0.35257678465137682 0.42305994521621149 0 -0.37226667114234002 0.41030924202555608 0 -0.35257678465137682 0.42305994521621149 0 -0.35813247438357998 0.40322770661363078 0 -0.37226667114234002 0.41030924202555608 0 -0.35257678465137682 0.42305994521621149 0 -0.37063698291958719 0.42934778893548009 0 -0.35509229673206349 0.42736488897625841 0 -0.35257678465137682 0.42305994521621149 0 -0.38219330561030318 0.43733759585905729 0 -0.37063698291958719 0.42934778893548009 0 -0.37031446948010971 0.44164379239859503 0 -0.37063698291958719 0.42934778893548009 0 -0.35100800832540779 0.43373908660655719 0 -0.34797539811694939 0.44391372641119659 0 -0.35257678465137682 0.42305994521621149 0 -0.34703292232895172 0.42665001888350013 0 -0.33490384995054723 0.4214646834239163 0 -0.37063698291958719 0.42934778893548009 0 -0.35509229673206349 0.42736488897625841 0 -0.35100800832540779 0.43373908660655719 0 -0.37063698291958719 0.42934778893548009 0 -0.34797539811694939 0.44391372641119659 0 -0.35509229673206349 0.42736488897625841 0 -0.35257678465137682 0.42305994521621149 0 -0.35120601168128568 0.42714359628681298 0 -0.35509229673206349 0.42736488897625841 0 -0.35120601168128568 0.42714359628681298 0 -0.35100800832540779 0.43373908660655719 0 -0.35509229673206349 0.42736488897625841 0 -0.35257678465137682 0.42305994521621149 0 -0.35257678465137682 0.42305994521621149 0 -0.34703292232895172 0.42665001888350013 0 -0.35120601168128568 0.42714359628681298 0 -0.35257678465137682 0.42305994521621149 0 -0.34703292232895172 0.42665001888350013 0 -0.34703292232895172 0.42665001888350013 0 -0.35120601168128568 0.42714359628681298 0 -0.35100800832540779 0.43373908660655719 0 -0.34703292232895172 0.42665001888350013 0 -0.35100800832540779 0.43373908660655719 0 -0.3416144021158749 0.43307637903049229 0 -0.35100800832540779 0.43373908660655719 0 -0.3416144021158749 0.43307637903049229 0 -0.34797539811694939 0.44391372641119659 0 -0.35257678465137682 0.42305994521621149 0 -0.33837823562521357 0.3987611332561386 0 -0.35813247438357998 0.40322770661363078 0 -0.35257678465137682 0.42305994521621149 0 -0.33837823562521357 0.3987611332561386 0 -0.35257678465137682 0.42305994521621149 0 -0.33490384995054723 0.4214646834239163 0 -0.33837823562521357 0.3987611332561386 0 -0.33490384995054723 0.4214646834239163 0 -0.32139182098691871 0.40894936325787168 0 -0.33837823562521357 0.3987611332561386 0 -0.34703292232895172 0.42665001888350013 0 -0.33490384995054723 0.4214646834239163 0 -0.3416144021158749 0.43307637903049229 0 -0.33490384995054723 0.4214646834239163 0 -0.3416144021158749 0.43307637903049229 0 -0.32915885350338547 0.436077628681731 0 -0.32915885350338547 0.436077628681731 0 -0.31540425984898302 0.42282960227343241 0 -0.31037484696397899 0.44222133160263499 0 -0.33490384995054723 0.4214646834239163 0 -0.32915885350338547 0.436077628681731 0 -0.31540425984898302 0.42282960227343241 0 -0.31540425984898302 0.42282960227343241 0 -0.32139182098691871 0.40894936325787168 0 -0.30380921659141291 0.40737586576510598 0 -0.33490384995054723 0.4214646834239163 0 -0.31540425984898302 0.42282960227343241 0 -0.32139182098691871 0.40894936325787168 0 -0.32139182098691871 0.40894936325787168 0 -0.31446354291843659 0.3943155315707651 0 -0.30380921659141291 0.40737586576510598 0 -0.32139182098691871 0.40894936325787168 0 -0.31446354291843659 0.3943155315707651 0 -0.33837823562521357 0.3987611332561386 0 -0.3241796865990505 0.37446232129606583 0 -0.33837823562521357 0.3987611332561386 0 -0.3241796865990505 0.37446232129606583 0 -0.3450213805631549 0.37637896488870742 0 -0.33837823562521357 0.3987611332561386 0 -0.3241796865990505 0.37446232129606583 0 -0.31446354291843659 0.3943155315707651 0 -0.33837823562521357 0.3987611332561386 0 -0.3241796865990505 0.37446232129606583 0 -0.31446354291843659 0.3943155315707651 0 -0.30751920709622288 0.37811993239733782 0 -0.31446354291843659 0.3943155315707651 0 -0.30751920709622288 0.37811993239733782 0 -0.29017157169787189 0.39747123853798338 0 -0.31446354291843659 0.3943155315707651 0 -0.29017157169787189 0.39747123853798338 0 -0.30380921659141291 0.40737586576510598 0 -0.31446354291843659 0.3943155315707651 0 -0.29017157169787189 0.39747123853798338 0 -0.2918056253057611 0.36977816091582622 0 -0.29017157169787189 0.39747123853798338 0 -0.27666944541277583 0.38068284486427251 0 -0.2918056253057611 0.36977816091582622 0 -0.30751920709622288 0.37811993239733782 0 -0.29017157169787189 0.39747123853798338 0 -0.2592717334901794 0.37344143954643821 0 -0.27666944541277583 0.38068284486427251 0 -0.26587960047730708 0.40062694550520161 0 -0.29017157169787189 0.39747123853798338 0 -0.26587960047730708 0.40062694550520161 0 -0.29017157169787189 0.39747123853798338 0 -0.27666944541277583 0.38068284486427251 0 -0.26587960047730708 0.40062694550520161 0 -0.26587960047730708 0.40062694550520161 0 -0.24390026663595221 0.4098265108577458 0 -0.24158762925674229 0.40378265247242029 0 -0.26587960047730708 0.40062694550520161 0 -0.24855740320059311 0.38849035142128929 0 -0.24158762925674229 0.40378265247242029 0 -0.26587960047730708 0.40062694550520161 0 -0.24158762925674229 0.40378265247242029 0 -0.2592717334901794 0.37344143954643821 0 -0.24855740320059311 0.38849035142128929 0 -0.24298804513369371 0.37489662163126852 0 -0.2592717334901794 0.37344143954643821 0 -0.26587960047730708 0.40062694550520161 0 -0.24855740320059311 0.38849035142128929 0 -0.26486291021761232 0.42723466671622251 0 -0.25440434670568679 0.43727792757369249 0 -0.24390026663595221 0.4098265108577458 0 -0.26486291021761232 0.42723466671622251 0 -0.25440434670568679 0.43727792757369249 0 -0.268601175871508 0.43936588513269881 0 -0.26587960047730708 0.40062694550520161 0 -0.26486291021761232 0.42723466671622251 0 -0.24390026663595221 0.4098265108577458 0 -0.26486291021761232 0.42723466671622251 0 -0.24390026663595221 0.4098265108577458 0 -0.26587960047730708 0.40062694550520161 0 -0.26486291021761232 0.42723466671622251 0 -0.29212211282505068 0.42111929002973092 0 -0.26486291021761232 0.42723466671622251 0 -0.28582555379927221 0.44464282257469973 0 -0.26486291021761232 0.42723466671622251 0 -0.29212211282505068 0.42111929002973092 0 -0.28582555379927221 0.44464282257469973 0 -0.26486291021761232 0.42723466671622251 0 -0.28582555379927221 0.44464282257469973 0 -0.268601175871508 0.43936588513269881 0 -0.29212211282505068 0.42111929002973092 0 -0.31037484696397899 0.44222133160263499 0 -0.28582555379927221 0.44464282257469973 0 -0.29017157169787189 0.39747123853798338 0 -0.26587960047730708 0.40062694550520161 0 -0.29212211282505068 0.42111929002973092 0 -0.29017157169787189 0.39747123853798338 0 -0.29212211282505068 0.42111929002973092 0 -0.30380921659141291 0.40737586576510598 0 -0.31540425984898302 0.42282960227343241 0 -0.29212211282505068 0.42111929002973092 0 -0.30380921659141291 0.40737586576510598 0 -0.31540425984898302 0.42282960227343241 0 -0.29212211282505068 0.42111929002973092 0 -0.31037484696397899 0.44222133160263499 0 -0.31037484696397899 0.44222133160263499 0 -0.30678819738092977 0.46205097843317938 0 -0.28582555379927221 0.44464282257469973 0 -0.30678819738092977 0.46205097843317938 0 -0.28923783613749188 0.46977947950295129 0 -0.30678819738092977 0.46205097843317938 0 -0.28923783613749188 0.46977947950295129 0 -0.30891410950205461 0.46909475087526598 0 -0.30891410950205461 0.46909475087526598 0 -0.31325745709166991 0.46742329137141808 0 -0.30678819738092977 0.46205097843317938 0 -0.30891410950205461 0.46909475087526598 0 -0.31325745709166991 0.46742329137141808 0 -0.30891410950205461 0.46909475087526598 0 -0.31525562008559699 0.46908263994992622 0 -0.31325745709166991 0.46742329137141808 0 -0.30678819738092977 0.46205097843317938 0 -0.31325745709166991 0.46742329137141808 0 -0.30678819738092977 0.46205097843317938 0 -0.29206160947224158 0.45498445755246653 0 -0.28582555379927221 0.44464282257469973 0 -0.30678819738092977 0.46205097843317938 0 -0.28582555379927221 0.44464282257469973 0 -0.30678819738092977 0.46205097843317938 0 -0.29206160947224158 0.45498445755246653 0 -0.28923783613749188 0.46977947950295129 0 -0.29206160947224158 0.45498445755246653 0 -0.28923783613749188 0.46977947950295129 0 -0.29206160947224158 0.45498445755246653 0 -0.27802275223802481 0.45856884181986929 0 -0.28923783613749188 0.46977947950295129 0 -0.29206160947224158 0.45498445755246653 0 -0.28582555379927221 0.44464282257469973 0 -0.27802275223802481 0.45856884181986929 0 -0.28582555379927221 0.44464282257469973 0 -0.26931189276346068 0.44830812366618028 0 -0.27802275223802481 0.45856884181986929 0 -0.28582555379927221 0.44464282257469973 0 -0.268601175871508 0.43936588513269881 0 -0.26931189276346068 0.44830812366618028 0 -0.26931189276346068 0.44830812366618028 0 -0.27802275223802481 0.45856884181986929 0 -0.26490842677542209 0.46472934428963919 0 -0.27802275223802481 0.45856884181986929 0 -0.26490842677542209 0.46472934428963919 0 -0.27188202748178247 0.47742230712921863 0 -0.27802275223802481 0.45856884181986929 0 -0.27188202748178247 0.47742230712921863 0 -0.28923783613749188 0.46977947950295129 0 -0.26190074499161498 0.45925492802712919 0 -0.25374771190227041 0.46769530379170138 0 -0.2470835307717511 0.45204209071788648 0 -0.25440434670568679 0.43727792757369249 0 -0.26190074499161498 0.45925492802712919 0 -0.26490842677542209 0.46472934428963919 0 -0.26190074499161498 0.45925492802712919 0 -0.26490842677542209 0.46472934428963919 0 -0.25374771190227041 0.46769530379170138 0 -0.26190074499161498 0.45925492802712919 0 -0.26490842677542209 0.46472934428963919 0 -0.25440434670568679 0.43727792757369249 0 -0.26190074499161498 0.45925492802712919 0 -0.2470835307717511 0.45204209071788648 0 -0.25440434670568679 0.43727792757369249 0 -0.26490842677542209 0.46472934428963919 0 -0.25440434670568679 0.43727792757369249 0 -0.26931189276346068 0.44830812366618028 0 -0.26490842677542209 0.46472934428963919 0 -0.25440434670568679 0.43727792757369249 0 -0.268601175871508 0.43936588513269881 0 -0.26931189276346068 0.44830812366618028 0 -0.25847810702610519 0.48850414280974469 0 -0.27007053304879808 0.47822001929417107 0 -0.24534086517324849 0.48911000964708612 0 -0.25847810702610519 0.48850414280974469 0 -0.26092149103342371 0.50000000000000044 0 -0.24271601658602809 0.5 0 -0.25847810702610519 0.48850414280974469 0 -0.27201266959149478 0.48329560889354789 0 -0.25847810702610519 0.48850414280974469 0 -0.26092149103342371 0.50000000000000044 0 -0.26665442019254082 0.49000718405533439 0 -0.26490842677542209 0.46472934428963919 0 -0.25374771190227041 0.46769530379170138 0 -0.27007053304879808 0.47822001929417107 0 -0.25374771190227041 0.46769530379170138 0 -0.27007053304879808 0.47822001929417107 0 -0.24534086517324849 0.48911000964708612 0 -0.27007053304879808 0.47822001929417107 0 -0.24534086517324849 0.48911000964708612 0 -0.27188202748178247 0.47742230712921863 0 -0.28923783613749188 0.46977947950295129 0 -0.25847810702610519 0.48850414280974469 0 -0.27007053304879808 0.47822001929417107 0 -0.27201266959149478 0.48329560889354789 0 -0.27188202748178247 0.47742230712921863 0 -0.27456848518075422 0.48231204905436859 0 -0.28781911866264892 0.47721278015904062 0 -0.27007053304879808 0.47822001929417107 0 -0.27188202748178247 0.47742230712921863 0 -0.27210308472192962 0.4803444769229962 0 -0.27188202748178247 0.47742230712921863 0 -0.27456848518075422 0.48231204905436859 0 -0.27188202748178247 0.47742230712921863 0 -0.27210308472192962 0.4803444769229962 0 -0.27456848518075422 0.48231204905436859 0 -0.27007053304879808 0.47822001929417107 0 -0.27188202748178247 0.47742230712921863 0 -0.27007053304879808 0.47822001929417107 0 -0.27201266959149478 0.48329560889354789 0 -0.27210308472192962 0.4803444769229962 0 -0.27201266959149478 0.48329560889354789 0 -0.27456848518075422 0.48231204905436859 0 -0.27007053304879808 0.47822001929417107 0 -0.27210308472192962 0.4803444769229962 0 -0.27201266959149478 0.48329560889354789 0 -0.27201266959149478 0.48329560889354789 0 -0.27456848518075422 0.48231204905436859 0 -0.26490842677542209 0.46472934428963919 0 -0.27188202748178247 0.47742230712921863 0 -0.26490842677542209 0.46472934428963919 0 -0.27007053304879808 0.47822001929417107 0 -0.27188202748178247 0.47742230712921863 0 -0.26490842677542209 0.46472934428963919 0 -0.27007053304879808 0.47822001929417107 0 -0.27456848518075422 0.48231204905436859 0 -0.28781911866264892 0.47721278015904062 0 -0.26092149103342371 0.50000000000000044 0 -0.27494821351356852 0.49096737443205551 0 -0.27840448038632598 0.49999999999999989 0 -0.27456848518075422 0.48231204905436859 0 -0.27818028796098981 0.48888605298774751 0 -0.28662963421400323 0.4834450256126463 0 -0.27818028796098981 0.48888605298774751 0 -0.27494821351356852 0.49096737443205551 0 -0.27201266959149478 0.48329560889354789 0 -0.27494821351356852 0.49096737443205551 0 -0.27201266959149478 0.48329560889354789 0 -0.27456848518075422 0.48231204905436859 0 -0.27818028796098981 0.48888605298774751 0 -0.27201266959149478 0.48329560889354789 0 -0.27818028796098981 0.48888605298774751 0 -0.27494821351356852 0.49096737443205551 0 -0.27456848518075422 0.48231204905436859 0 -0.27818028796098981 0.48888605298774751 0 -0.27201266959149478 0.48329560889354789 0 -0.27494821351356852 0.49096737443205551 0 -0.26665442019254082 0.49000718405533439 0 -0.25847810702610519 0.48850414280974469 0 -0.27201266959149478 0.48329560889354789 0 -0.26665442019254082 0.49000718405533439 0 -0.26092149103342371 0.50000000000000044 0 -0.27494821351356852 0.49096737443205551 0 -0.26092149103342371 0.50000000000000044 0 -0.27494821351356852 0.49096737443205551 0 -0.26665442019254082 0.49000718405533439 0 -0.27494821351356852 0.49096737443205551 0 -0.27840448038632598 0.49999999999999989 0 -0.27818028796098981 0.48888605298774751 0 -0.27840448038632598 0.49999999999999989 0 -0.28368044823936328 0.49889714094141469 0 -0.27818028796098981 0.48888605298774751 0 -0.27494821351356852 0.49096737443205551 0 -0.27840448038632598 0.49999999999999989 0 -0.27818028796098981 0.48888605298774751 0 -0.28368044823936328 0.49889714094141469 0 -0.28368044823936328 0.49889714094141469 0 -0.29224888689071188 0.49344190183271952 0 -0.30769467815930068 0.5 0 -0.27818028796098981 0.48888605298774751 0 -0.28368044823936328 0.49889714094141469 0 -0.28662963421400323 0.4834450256126463 0 -0.28368044823936328 0.49889714094141469 0 -0.28662963421400323 0.4834450256126463 0 -0.28368044823936328 0.49889714094141469 0 -0.29224888689071188 0.49344190183271952 0 -0.28662963421400323 0.4834450256126463 0 -0.27818028796098981 0.48888605298774751 0 -0.28662963421400323 0.4834450256126463 0 -0.29224888689071188 0.49344190183271952 0 -0.28662963421400323 0.4834450256126463 0 -0.30094150763636901 0.48708058862929682 0 -0.28781911866264892 0.47721278015904062 0 -0.28923783613749188 0.46977947950295129 0 -0.30891410950205461 0.46909475087526598 0 -0.27188202748178247 0.47742230712921863 0 -0.28781911866264892 0.47721278015904062 0 -0.28923783613749188 0.46977947950295129 0 -0.28781911866264892 0.47721278015904062 0 -0.28923783613749188 0.46977947950295129 0 -0.27456848518075422 0.48231204905436859 0 -0.28781911866264892 0.47721278015904062 0 -0.28662963421400323 0.4834450256126463 0 -0.28781911866264892 0.47721278015904062 0 -0.28662963421400323 0.4834450256126463 0 -0.28662963421400323 0.4834450256126463 0 -0.30182933433063519 0.4736570512592001 0 -0.30094150763636901 0.48708058862929682 0 -0.28781911866264892 0.47721278015904062 0 -0.28662963421400323 0.4834450256126463 0 -0.30182933433063519 0.4736570512592001 0 -0.28662963421400323 0.4834450256126463 0 -0.30182933433063519 0.4736570512592001 0 -0.28781911866264892 0.47721278015904062 0 -0.30182933433063519 0.4736570512592001 0 -0.30182933433063519 0.4736570512592001 0 -0.31729910476423501 0.48596558745179752 0 -0.31525562008559699 0.46908263994992622 0 -0.30182933433063519 0.4736570512592001 0 -0.30094150763636901 0.48708058862929682 0 -0.31729910476423501 0.48596558745179752 0 -0.28781911866264892 0.47721278015904062 0 -0.30182933433063519 0.4736570512592001 0 -0.30891410950205461 0.46909475087526598 0 -0.28781911866264892 0.47721278015904062 0 -0.30891410950205461 0.46909475087526598 0 -0.30182933433063519 0.4736570512592001 0 -0.31525562008559699 0.46908263994992622 0 -0.30182933433063519 0.4736570512592001 0 -0.30891410950205461 0.46909475087526598 0 -0.31525562008559699 0.46908263994992622 0 -0.30182933433063519 0.4736570512592001 0 -0.30891410950205461 0.46909475087526598 0 -0.30094150763636901 0.48708058862929682 0 -0.30769467815930068 0.5 0 -0.31729910476423501 0.48596558745179752 0 -0.29224888689071188 0.49344190183271952 0 -0.30094150763636901 0.48708058862929682 0 -0.30769467815930068 0.5 0 -0.31729910476423501 0.48596558745179752 0 -0.33427013892530733 0.48487300084816443 0 -0.33110298975999741 0.5 0 -0.30769467815930068 0.5 0 -0.31729910476423501 0.48596558745179752 0 -0.33110298975999741 0.5 0 -0.33427013892530733 0.48487300084816443 0 -0.33110298975999741 0.5 0 -0.35451130136069398 0.4999999999999995 0 -0.33427013892530733 0.48487300084816443 0 -0.33945755539216582 0.46083690404104272 0 -0.34969032548814538 0.47637365565428952 0 -0.33427013892530733 0.48487300084816443 0 -0.31525562008559699 0.46908263994992622 0 -0.33945755539216582 0.46083690404104272 0 -0.31729910476423501 0.48596558745179752 0 -0.33427013892530733 0.48487300084816443 0 -0.31525562008559699 0.46908263994992622 0 -0.33427013892530733 0.48487300084816443 0 -0.31525562008559699 0.46908263994992622 0 -0.31525562008559699 0.46908263994992622 0 -0.31325745709166991 0.46742329137141808 0 -0.33361387207467458 0.45958948977355291 0 -0.31325745709166991 0.46742329137141808 0 -0.33024094015483157 0.45536115943149169 0 -0.33361387207467458 0.45958948977355291 0 -0.31525562008559699 0.46908263994992622 0 -0.31325745709166991 0.46742329137141808 0 -0.30678819738092977 0.46205097843317938 0 -0.32738179774893988 0.45298235242218882 0 -0.30678819738092977 0.46205097843317938 0 -0.31325745709166991 0.46742329137141808 0 -0.32738179774893988 0.45298235242218882 0 -0.31325745709166991 0.46742329137141808 0 -0.33024094015483157 0.45536115943149169 0 -0.31325745709166991 0.46742329137141808 0 -0.32738179774893988 0.45298235242218882 0 -0.33024094015483157 0.45536115943149169 0 -0.31325745709166991 0.46742329137141808 0 -0.33361387207467458 0.45958948977355291 0 -0.31525562008559699 0.46908263994992622 0 -0.33945755539216582 0.46083690404104272 0 -0.31037484696397899 0.44222133160263499 0 -0.30678819738092977 0.46205097843317938 0 -0.32738179774893988 0.45298235242218882 0 -0.32915885350338547 0.436077628681731 0 -0.31037484696397899 0.44222133160263499 0 -0.32738179774893988 0.45298235242218882 0 -0.32915885350338547 0.436077628681731 0 -0.32738179774893988 0.45298235242218882 0 -0.34797539811694939 0.44391372641119659 0 -0.32738179774893988 0.45298235242218882 0 -0.34797539811694939 0.44391372641119659 0 -0.33024094015483157 0.45536115943149169 0 -0.33361387207467458 0.45958948977355291 0 -0.34797539811694939 0.44391372641119659 0 -0.3416144021158749 0.43307637903049229 0 -0.32915885350338547 0.436077628681731 0 -0.34797539811694939 0.44391372641119659 0 -0.33024094015483157 0.45536115943149169 0 -0.34797539811694939 0.44391372641119659 0 -0.32738179774893988 0.45298235242218882 0 -0.33024094015483157 0.45536115943149169 0 -0.34797539811694939 0.44391372641119659 0 -0.31525562008559699 0.46908263994992622 0 -0.33361387207467458 0.45958948977355291 0 -0.33945755539216582 0.46083690404104272 0 -0.33361387207467458 0.45958948977355291 0 -0.33945755539216582 0.46083690404104272 0 -0.35397028705767941 0.45175568817568751 0 -0.33945755539216582 0.46083690404104272 0 -0.35397028705767941 0.45175568817568751 0 -0.3636594906987341 0.45259116813215772 0 -0.33945755539216582 0.46083690404104272 0 -0.35903601978900862 0.4668294320101527 0 -0.3636594906987341 0.45259116813215772 0 -0.33945755539216582 0.46083690404104272 0 -0.35903601978900862 0.4668294320101527 0 -0.34969032548814538 0.47637365565428952 0 -0.33361387207467458 0.45958948977355291 0 -0.35397028705767941 0.45175568817568751 0 -0.33945755539216582 0.46083690404104272 0 -0.3636594906987341 0.45259116813215772 0 -0.35397028705767941 0.45175568817568751 0 -0.34797539811694939 0.44391372641119659 0 -0.3636594906987341 0.45259116813215772 0 -0.33361387207467458 0.45958948977355291 0 -0.35397028705767941 0.45175568817568751 0 -0.34797539811694939 0.44391372641119659 0 -0.38786142600530288 0.44434543222327372 0 -0.3636594906987341 0.45259116813215772 0 -0.37031446948010971 0.44164379239859503 0 -0.34797539811694939 0.44391372641119659 0 -0.3636594906987341 0.45259116813215772 0 -0.37031446948010971 0.44164379239859503 0 -0.37063698291958719 0.42934778893548009 0 -0.34797539811694939 0.44391372641119659 0 -0.37031446948010971 0.44164379239859503 0 -0.37674471779043378 0.46289695481551602 0 -0.35903601978900862 0.4668294320101527 0 -0.3636594906987341 0.45259116813215772 0 -0.37674471779043378 0.46289695481551602 0 -0.35903601978900862 0.4668294320101527 0 -0.36562800957556379 0.48144847740775781 0 -0.37674471779043378 0.46289695481551602 0 -0.36562800957556379 0.48144847740775781 0 -0.36562800957556379 0.48144847740775781 0 -0.35451130136069398 0.4999999999999995 0 -0.37984386551400101 0.5 0 -0.36562800957556379 0.48144847740775781 0 -0.35451130136069398 0.4999999999999995 0 -0.33427013892530733 0.48487300084816443 0 -0.35451130136069398 0.4999999999999995 0 -0.34969032548814538 0.47637365565428952 0 -0.36562800957556379 0.48144847740775781 0 -0.35451130136069398 0.4999999999999995 0 -0.34969032548814538 0.47637365565428952 0 -0.35903601978900862 0.4668294320101527 0 -0.36562800957556379 0.48144847740775781 0 -0.34969032548814538 0.47637365565428952 0 -0.13298062755884579 0.48255116261061692 0 -0.15843735091332889 0.4710522502620903 0 -0.13298062755884579 0.48255116261061692 0 -0.14150291950411281 0.46425469992345519 0 -0.15843735091332889 0.4710522502620903 0 -0.13975760046378269 0.49999999999999878 0 -0.15843735091332889 0.4710522502620903 0 -0.16099880066542119 0.50000000000000022 0 -0.13975760046378269 0.49999999999999878 0 -0.13298062755884579 0.48255116261061692 0 -0.15843735091332889 0.4710522502620903 0 -0.13975760046378269 0.49999999999999878 0 -0.13298062755884579 0.48255116261061692 0 -0.13975760046378269 0.49999999999999878 0 -0.13298062755884579 0.48255116261061692 0 -0.11380605494256869 0.5 0 -0.13298062755884579 0.48255116261061692 0 -0.12544051825853689 0.4631374593356033 0 -0.14150291950411281 0.46425469992345519 0 -0.13298062755884579 0.48255116261061692 0 -0.12544051825853689 0.4631374593356033 0 -0.1336307511693739 0.45491465667522191 0 -0.12544051825853689 0.4631374593356033 0 -0.14150291950411281 0.46425469992345519 0 -0.1336307511693739 0.45491465667522191 0 -0.13175207046494611 0.44346192959665548 0 -0.11475987009784661 0.45084407402711402 0 -0.13175207046494611 0.44346192959665548 0 -0.15702534962047851 0.44961797073374349 0 -0.14544522351027661 0.43702334659483638 0 -0.1336307511693739 0.45491465667522191 0 -0.13175207046494611 0.44346192959665548 0 -0.15702534962047851 0.44961797073374349 0 -0.15702534962047851 0.44961797073374349 0 -0.14544522351027661 0.43702334659483638 0 -0.1556699124179855 0.4290423380990836 0 -0.13175207046494611 0.44346192959665548 0 -0.15702534962047851 0.44961797073374349 0 -0.1336307511693739 0.45491465667522191 0 -0.14150291950411281 0.46425469992345519 0 -0.15702534962047851 0.44961797073374349 0 -0.14150291950411281 0.46425469992345519 0 -0.15702534962047851 0.44961797073374349 0 -0.15843735091332889 0.4710522502620903 0 -0.15702534962047851 0.44961797073374349 0 -0.15843735091332889 0.4710522502620903 0 -0.16426353778385031 0.46842053638370362 0 -0.16193071402987511 0.45081281469960982 0 -0.15843735091332889 0.4710522502620903 0 -0.15702534962047851 0.44961797073374349 0 -0.16193071402987511 0.45081281469960982 0 -0.15843735091332889 0.4710522502620903 0 -0.16426353778385031 0.46842053638370362 0 -0.16193071402987511 0.45081281469960982 0 -0.17220307999619611 0.44534927840499378 0 -0.16426353778385031 0.46842053638370362 0 -0.17220307999619611 0.44534927840499378 0 -0.15702534962047851 0.44961797073374349 0 -0.1556699124179855 0.4290423380990836 0 -0.16306062424848339 0.44050736484390751 0 -0.15702534962047851 0.44961797073374349 0 -0.1556699124179855 0.4290423380990836 0 -0.16306062424848339 0.44050736484390751 0 -0.15702534962047851 0.44961797073374349 0 -0.16193071402987511 0.45081281469960982 0 -0.15702534962047851 0.44961797073374349 0 -0.16193071402987511 0.45081281469960982 0 -0.16306062424848339 0.44050736484390751 0 -0.16193071402987511 0.45081281469960982 0 -0.17220307999619611 0.44534927840499378 0 -0.16306062424848339 0.44050736484390751 0 -0.17220307999619611 0.44534927840499378 0 -0.16780974434499221 0.43040982398245581 0 -0.17220307999619611 0.44534927840499378 0 -0.18281758700689349 0.4600395918781951 0 -0.19105692089556489 0.43334490180876922 0 -0.18281758700689349 0.4600395918781951 0 -0.19105692089556489 0.43334490180876922 0 -0.18281758700689349 0.4600395918781951 0 -0.17801000380965989 0.47561572280906489 0 -0.19482622675472999 0.46587529032893948 0 -0.16426353778385031 0.46842053638370362 0 -0.17220307999619611 0.44534927840499378 0 -0.18281758700689349 0.4600395918781951 0 -0.16426353778385031 0.46842053638370362 0 -0.18281758700689349 0.4600395918781951 0 -0.17801000380965989 0.47561572280906489 0 -0.16426353778385031 0.46842053638370362 0 -0.18281758700689349 0.4600395918781951 0 -0.18281758700689349 0.4600395918781951 0 -0.17801000380965989 0.47561572280906489 0 -0.17801000380965989 0.47561572280906489 0 -0.17320242061242691 0.49119185373993512 0 -0.190689979325044 0.47856994519631457 0 -0.17801000380965989 0.47561572280906489 0 -0.17014513666291531 0.48171822366538508 0 -0.17320242061242691 0.49119185373993512 0 -0.17801000380965989 0.47561572280906489 0 -0.17320242061242691 0.49119185373993512 0 -0.16116749874829769 0.47741721571243328 0 -0.15843735091332889 0.4710522502620903 0 -0.16099880066542119 0.50000000000000022 0 -0.16426353778385031 0.46842053638370362 0 -0.17801000380965989 0.47561572280906489 0 -0.17014513666291531 0.48171822366538508 0 -0.16426353778385031 0.46842053638370362 0 -0.17014513666291531 0.48171822366538508 0 -0.16116749874829769 0.47741721571243328 0 -0.16426353778385031 0.46842053638370362 0 -0.16116749874829769 0.47741721571243328 0 -0.15843735091332889 0.4710522502620903 0 -0.16426353778385031 0.46842053638370362 0 -0.16116749874829769 0.47741721571243328 0 -0.16426353778385031 0.46842053638370362 0 -0.15843735091332889 0.4710522502620903 0 -0.17014513666291531 0.48171822366538508 0 -0.16116749874829769 0.47741721571243328 0 -0.16099880066542119 0.50000000000000022 0 -0.17014513666291531 0.48171822366538508 0 -0.16099880066542119 0.50000000000000022 0 -0.17320242061242691 0.49119185373993512 0 -0.15843735091332889 0.4710522502620903 0 -0.16099880066542119 0.50000000000000022 0 -0.17048378039640921 0.499999999999996 0 -0.17320242061242691 0.49119185373993512 0 -0.16099880066542119 0.50000000000000022 0 -0.17048378039640921 0.499999999999996 0 -0.17320242061242691 0.49119185373993512 0 -0.16099880066542119 0.50000000000000022 0 -0.17320242061242691 0.49119185373993512 0 -0.17320242061242691 0.49119185373993512 0 -0.190689979325044 0.47856994519631457 0 -0.17048378039640921 0.499999999999996 0 -0.17320242061242691 0.49119185373993512 0 -0.18581873262730181 0.49118729788902749 0 -0.17320242061242691 0.49119185373993512 0 -0.18581873262730181 0.49118729788902749 0 -0.190689979325044 0.47856994519631457 0 -0.17048378039640921 0.499999999999996 0 -0.18581873262730181 0.49118729788902749 0 -0.19554748884705389 0.5 0 -0.18581873262730181 0.49118729788902749 0 -0.19487595816744871 0.48827984865781948 0 -0.19554748884705389 0.5 0 -0.19487595816744871 0.48827984865781948 0 -0.19554748884705389 0.5 0 -0.20744763187039511 0.48336215154593609 0 -0.18581873262730181 0.49118729788902749 0 -0.19487595816744871 0.48827984865781948 0 -0.190689979325044 0.47856994519631457 0 -0.190689979325044 0.47856994519631457 0 -0.20817753803766101 0.46594803665269391 0 -0.190689979325044 0.47856994519631457 0 -0.20817753803766101 0.46594803665269391 0 -0.19482622675472999 0.46587529032893948 0 -0.19487595816744871 0.48827984865781948 0 -0.190689979325044 0.47856994519631457 0 -0.20744763187039511 0.48336215154593609 0 -0.17801000380965989 0.47561572280906489 0 -0.190689979325044 0.47856994519631457 0 -0.19482622675472999 0.46587529032893948 0 -0.190689979325044 0.47856994519631457 0 -0.20744763187039511 0.48336215154593609 0 -0.20817753803766101 0.46594803665269391 0 -0.20744763187039511 0.48336215154593609 0 -0.2232475932131088 0.47874498222143241 0 -0.20817753803766101 0.46594803665269391 0 -0.2232475932131088 0.47874498222143241 0 -0.22334275735617259 0.46647783610587229 0 -0.20817753803766101 0.46594803665269391 0 -0.19554748884705389 0.5 0 -0.20744763187039511 0.48336215154593609 0 -0.22061119729769851 0.50000000000000044 0 -0.20744763187039511 0.48336215154593609 0 -0.22061119729769851 0.50000000000000044 0 -0.2232475932131088 0.47874498222143241 0 -0.22061119729769851 0.50000000000000044 0 -0.22451054213863281 0.50000000000000233 0 -0.24534086517324849 0.48911000964708612 0 -0.22061119729769851 0.50000000000000044 0 -0.2232475932131088 0.47874498222143241 0 -0.24534086517324849 0.48911000964708612 0 -0.22061119729769851 0.50000000000000044 0 -0.24534086517324849 0.48911000964708612 0 -0.22451054213863281 0.50000000000000233 0 -0.24148255890114151 0.49421753813106339 0 -0.2232475932131088 0.47874498222143241 0 -0.23628080142364249 0.46789219744028959 0 -0.22334275735617259 0.46647783610587229 0 -0.2232475932131088 0.47874498222143241 0 -0.24534086517324849 0.48911000964708612 0 -0.23628080142364249 0.46789219744028959 0 -0.25374771190227041 0.46769530379170138 0 -0.24534086517324849 0.48911000964708612 0 -0.23628080142364249 0.46789219744028959 0 -0.22451054213863281 0.50000000000000233 0 -0.24534086517324849 0.48911000964708612 0 -0.24148255890114151 0.49421753813106339 0 -0.25847810702610519 0.48850414280974469 0 -0.24534086517324849 0.48911000964708612 0 -0.24148255890114151 0.49421753813106339 0 -0.22451054213863281 0.50000000000000233 0 -0.24271601658602809 0.5 0 -0.24148255890114151 0.49421753813106339 0 -0.25847810702610519 0.48850414280974469 0 -0.24271601658602809 0.5 0 -0.24148255890114151 0.49421753813106339 0 -0.25847810702610519 0.48850414280974469 0 -0.24148255890114151 0.49421753813106339 0 -0.25440434670568679 0.43727792757369249 0 -0.2470835307717511 0.45204209071788648 0 -0.23583124119127399 0.4374763133559072 0 -0.2470835307717511 0.45204209071788648 0 -0.2256650967502781 0.4533261281090733 0 -0.23583124119127399 0.4374763133559072 0 -0.2470835307717511 0.45204209071788648 0 -0.23628080142364249 0.46789219744028959 0 -0.2256650967502781 0.4533261281090733 0 -0.25374771190227041 0.46769530379170138 0 -0.2470835307717511 0.45204209071788648 0 -0.23628080142364249 0.46789219744028959 0 -0.22334275735617259 0.46647783610587229 0 -0.2256650967502781 0.4533261281090733 0 -0.20817753803766101 0.46594803665269391 0 -0.23628080142364249 0.46789219744028959 0 -0.22334275735617259 0.46647783610587229 0 -0.2256650967502781 0.4533261281090733 0 -0.2256650967502781 0.4533261281090733 0 -0.22084070426585289 0.43538371924467612 0 -0.23583124119127399 0.4374763133559072 0 -0.2256650967502781 0.4533261281090733 0 -0.20831066890565611 0.44852425621752878 0 -0.22084070426585289 0.43538371924467612 0 -0.2256650967502781 0.4533261281090733 0 -0.20831066890565611 0.44852425621752878 0 -0.20817753803766101 0.46594803665269391 0 -0.2256650967502781 0.4533261281090733 0 -0.20817753803766101 0.46594803665269391 0 -0.20831066890565611 0.44852425621752878 0 -0.20817753803766101 0.46594803665269391 0 -0.19482622675472999 0.46587529032893948 0 -0.18281758700689349 0.4600395918781951 0 -0.20831066890565611 0.44852425621752878 0 -0.19482622675472999 0.46587529032893948 0 -0.18281758700689349 0.4600395918781951 0 -0.20831066890565611 0.44852425621752878 0 -0.18281758700689349 0.4600395918781951 0 -0.20831066890565611 0.44852425621752878 0 -0.19105692089556489 0.43334490180876922 0 -0.20831066890565611 0.44852425621752878 0 -0.19105692089556489 0.43334490180876922 0 -0.20810391325395439 0.42398758438242701 0 -0.19105692089556489 0.43334490180876922 0 -0.1992962547842371 0.40665021173934351 0 -0.19105692089556489 0.43334490180876922 0 -0.1992962547842371 0.40665021173934351 0 -0.18014262220854191 0.42227802042628387 0 -0.1992962547842371 0.40665021173934351 0 -0.18808216442088779 0.39920676244757408 0 -0.18014262220854191 0.42227802042628387 0 -0.19105692089556489 0.43334490180876922 0 -0.1992962547842371 0.40665021173934351 0 -0.20810391325395439 0.42398758438242701 0 -0.1992962547842371 0.40665021173934351 0 -0.21742618678061951 0.40692140278904287 0 -0.20810391325395439 0.42398758438242701 0 -0.21742618678061951 0.40692140278904287 0 -0.20810391325395439 0.42398758438242701 0 -0.22035716728969429 0.42060188859009112 0 -0.20831066890565611 0.44852425621752878 0 -0.20810391325395439 0.42398758438242701 0 -0.22084070426585289 0.43538371924467612 0 -0.20810391325395439 0.42398758438242701 0 -0.22084070426585289 0.43538371924467612 0 -0.22035716728969429 0.42060188859009112 0 -0.22084070426585289 0.43538371924467612 0 -0.22806234900785671 0.42609527632417488 0 -0.23583124119127399 0.4374763133559072 0 -0.22806234900785671 0.42609527632417488 0 -0.23583124119127399 0.4374763133559072 0 -0.23813634159033989 0.42290976463926327 0 -0.22084070426585289 0.43538371924467612 0 -0.22806234900785671 0.42609527632417488 0 -0.22035716728969429 0.42060188859009112 0 -0.21742618678061951 0.40692140278904287 0 -0.22961658629595061 0.41319157683878799 0 -0.24158762925674229 0.40378265247242029 0 -0.22806234900785671 0.42609527632417488 0 -0.22035716728969429 0.42060188859009112 0 -0.22961658629595061 0.41319157683878799 0 -0.21742618678061951 0.40692140278904287 0 -0.22035716728969429 0.42060188859009112 0 -0.22961658629595061 0.41319157683878799 0 -0.22806234900785671 0.42609527632417488 0 -0.22961658629595061 0.41319157683878799 0 -0.23813634159033989 0.42290976463926327 0 -0.22961658629595061 0.41319157683878799 0 -0.239163799237434 0.41168781992760201 0 -0.23813634159033989 0.42290976463926327 0 -0.239163799237434 0.41168781992760201 0 -0.24390026663595221 0.4098265108577458 0 -0.23813634159033989 0.42290976463926327 0 -0.22961658629595061 0.41319157683878799 0 -0.239163799237434 0.41168781992760201 0 -0.24158762925674229 0.40378265247242029 0 -0.239163799237434 0.41168781992760201 0 -0.24390026663595221 0.4098265108577458 0 -0.24158762925674229 0.40378265247242029 0 -0.24390026663595221 0.4098265108577458 0 -0.24158762925674229 0.40378265247242029 0 -0.25440434670568679 0.43727792757369249 0 -0.24390026663595221 0.4098265108577458 0 -0.25440434670568679 0.43727792757369249 0 -0.23583124119127399 0.4374763133559072 0 -0.23813634159033989 0.42290976463926327 0 -0.25440434670568679 0.43727792757369249 0 -0.24390026663595221 0.4098265108577458 0 -0.23813634159033989 0.42290976463926327 0 -0.23424469339825599 0.38459258624753379 0 -0.22773539588177269 0.371785806926901 0 -0.24298804513369371 0.37489662163126852 0 -0.24855740320059311 0.38849035142128929 0 -0.23424469339825599 0.38459258624753379 0 -0.24298804513369371 0.37489662163126852 0 -0.24158762925674229 0.40378265247242029 0 -0.23424469339825599 0.38459258624753379 0 -0.24855740320059311 0.38849035142128929 0 -0.24158762925674229 0.40378265247242029 0 -0.23424469339825599 0.38459258624753379 0 -0.24158762925674229 0.40378265247242029 0 -0.22554848148559539 0.39550039904942808 0 -0.23424469339825599 0.38459258624753379 0 -0.21742618678061951 0.40692140278904287 0 -0.24158762925674229 0.40378265247242029 0 -0.21742618678061951 0.40692140278904287 0 -0.24158762925674229 0.40378265247242029 0 -0.22554848148559539 0.39550039904942808 0 -0.21742618678061951 0.40692140278904287 0 -0.22554848148559539 0.39550039904942808 0 -0.2145442316967007 0.39558569262158683 0 -0.22554848148559539 0.39550039904942808 0 -0.2206001822887777 0.38503322384510019 0 -0.2145442316967007 0.39558569262158683 0 -0.22554848148559539 0.39550039904942808 0 -0.2206001822887777 0.38503322384510019 0 -0.23424469339825599 0.38459258624753379 0 -0.2206001822887777 0.38503322384510019 0 -0.23424469339825599 0.38459258624753379 0 -0.22773539588177269 0.371785806926901 0 -0.2206001822887777 0.38503322384510019 0 -0.2075355886729093 0.37995552166991781 0 -0.22773539588177269 0.371785806926901 0 -0.2206001822887777 0.38503322384510019 0 -0.2075355886729093 0.37995552166991781 0 -0.2145442316967007 0.39558569262158683 0 -0.1992962547842371 0.40665021173934351 0 -0.21742618678061951 0.40692140278904287 0 -0.2145442316967007 0.39558569262158683 0 -0.1992962547842371 0.40665021173934351 0 -0.2075355886729093 0.37995552166991781 0 -0.2145442316967007 0.39558569262158683 0 -0.1992962547842371 0.40665021173934351 0 -0.2075355886729093 0.37995552166991781 0 -0.1992962547842371 0.40665021173934351 0 -0.2075355886729093 0.37995552166991781 0 -0.19773392862781691 0.3904870000814249 0 -0.1992962547842371 0.40665021173934351 0 -0.18808216442088779 0.39920676244757408 0 -0.19773392862781691 0.3904870000814249 0 -0.18808216442088779 0.39920676244757408 0 -0.19602170663323359 0.37613550446886429 0 -0.18808216442088779 0.39920676244757408 0 -0.19602170663323359 0.37613550446886429 0 -0.19773392862781691 0.3904870000814249 0 -0.18808216442088779 0.39920676244757408 0 -0.19602170663323359 0.37613550446886429 0 -0.18047408951467989 0.38368683415264299 0 -0.2075355886729093 0.37995552166991781 0 -0.19602170663323359 0.37613550446886429 0 -0.19773392862781691 0.3904870000814249 0 -0.18047408951467989 0.38368683415264299 0 -0.16393263101776051 0.377811301899728 0 -0.17738562461233581 0.36620191856746193 0 -0.19602170663323359 0.37613550446886429 0 -0.18047408951467989 0.38368683415264299 0 -0.18587119209385661 0.37354081621318608 0 -0.16393263101776051 0.377811301899728 0 -0.1697532507094677 0.3985670854867942 0 -0.14892453724321039 0.38998910039625528 0 -0.18047408951467989 0.38368683415264299 0 -0.16393263101776051 0.377811301899728 0 -0.1697532507094677 0.3985670854867942 0 -0.1697532507094677 0.3985670854867942 0 -0.1543144752154926 0.40846670546442382 0 -0.14892453724321039 0.38998910039625528 0 -0.18808216442088779 0.39920676244757408 0 -0.18047408951467989 0.38368683415264299 0 -0.1697532507094677 0.3985670854867942 0 -0.18808216442088779 0.39920676244757408 0 -0.1697532507094677 0.3985670854867942 0 -0.1764876300481629 0.40873099662466561 0 -0.18808216442088779 0.39920676244757408 0 -0.1764876300481629 0.40873099662466561 0 -0.18014262220854191 0.42227802042628387 0 -0.18808216442088779 0.39920676244757408 0 -0.18014262220854191 0.42227802042628387 0 -0.1764876300481629 0.40873099662466561 0 -0.18014262220854191 0.42227802042628387 0 -0.16797248285375421 0.41487211813801012 0 -0.17220307999619611 0.44534927840499378 0 -0.18014262220854191 0.42227802042628387 0 -0.17220307999619611 0.44534927840499378 0 -0.19105692089556489 0.43334490180876922 0 -0.18014262220854191 0.42227802042628387 0 -0.17220307999619611 0.44534927840499378 0 -0.18014262220854191 0.42227802042628387 0 -0.16780974434499221 0.43040982398245581 0 -0.18014262220854191 0.42227802042628387 0 -0.16780974434499221 0.43040982398245581 0 -0.16797248285375421 0.41487211813801012 0 -0.16780974434499221 0.43040982398245581 0 -0.16797248285375421 0.41487211813801012 0 -0.1556699124179855 0.4290423380990836 0 -0.16306062424848339 0.44050736484390751 0 -0.16780974434499221 0.43040982398245581 0 -0.1556699124179855 0.4290423380990836 0 -0.1697532507094677 0.3985670854867942 0 -0.1764876300481629 0.40873099662466561 0 -0.16797248285375421 0.41487211813801012 0 -0.16797248285375421 0.41487211813801012 0 -0.1543144752154926 0.40846670546442382 0 -0.1556699124179855 0.4290423380990836 0 -0.1697532507094677 0.3985670854867942 0 -0.16797248285375421 0.41487211813801012 0 -0.1543144752154926 0.40846670546442382 0 -0.1543144752154926 0.40846670546442382 0 -0.13955083839820601 0.41331054213078378 0 -0.1342738988421254 0.39940632656162323 0 -0.1543144752154926 0.40846670546442382 0 -0.1556699124179855 0.4290423380990836 0 -0.13955083839820601 0.41331054213078378 0 -0.1543144752154926 0.40846670546442382 0 -0.1556699124179855 0.4290423380990836 0 -0.14544522351027661 0.43702334659483638 0 -0.1556699124179855 0.4290423380990836 0 -0.13656638764367751 0.42782024169105087 0 -0.1556699124179855 0.4290423380990836 0 -0.13656638764367751 0.42782024169105087 0 -0.13955083839820601 0.41331054213078378 0 -0.13175207046494611 0.44346192959665548 0 -0.13656638764367751 0.42782024169105087 0 -0.1221002198223846 0.42926878838971572 0 -0.13175207046494611 0.44346192959665548 0 -0.14544522351027661 0.43702334659483638 0 -0.13656638764367751 0.42782024169105087 0 -0.13656638764367751 0.42782024169105087 0 -0.12548201032280559 0.41579856094527679 0 -0.1221002198223846 0.42926878838971572 0 -0.13955083839820601 0.41331054213078378 0 -0.12548201032280559 0.41579856094527679 0 -0.1342738988421254 0.39940632656162323 0 -0.13656638764367751 0.42782024169105087 0 -0.13955083839820601 0.41331054213078378 0 -0.12548201032280559 0.41579856094527679 0 -0.1342738988421254 0.39940632656162323 0 -0.12655549565904481 0.38459039506062281 0 -0.14892453724321039 0.38998910039625528 0 -0.12655549565904481 0.38459039506062281 0 -0.14892453724321039 0.38998910039625528 0 -0.14471747201537141 0.37109278790434008 0 -0.16393263101776051 0.377811301899728 0 -0.14892453724321039 0.38998910039625528 0 -0.14471747201537141 0.37109278790434008 0 -0.1543144752154926 0.40846670546442382 0 -0.1342738988421254 0.39940632656162323 0 -0.14892453724321039 0.38998910039625528 0 -0.14165043288496271 0.34906334461799549 0 -0.15843984593516669 0.3353087962765417 0 -0.16020893970901179 0.3578896071927124 0 -0.14165043288496271 0.34906334461799549 0 -0.14471747201537141 0.37109278790434008 0 -0.16020893970901179 0.3578896071927124 0 -0.12655549565904481 0.38459039506062281 0 -0.14471747201537141 0.37109278790434008 0 -0.12710123171609961 0.3622807710251873 0 -0.14165043288496271 0.34906334461799549 0 -0.14471747201537141 0.37109278790434008 0 -0.12710123171609961 0.3622807710251873 0 -0.14165043288496271 0.34906334461799549 0 -0.12710123171609961 0.3622807710251873 0 -0.1189994847652637 0.3425748687043878 0 -0.14165043288496271 0.34906334461799549 0 -0.1315170279352865 0.33102482385584192 0 -0.1189994847652637 0.3425748687043878 0 -0.14165043288496271 0.34906334461799549 0 -0.1315170279352865 0.33102482385584192 0 -0.1443776795059328 0.33390895980560381 0 -0.1315170279352865 0.33102482385584192 0 -0.14495419486811961 0.31734813855161759 0 -0.12577302420238409 0.3093301053864293 0 -0.1315170279352865 0.33102482385584192 0 -0.14495419486811961 0.31734813855161759 0 -0.1443776795059328 0.33390895980560381 0 -0.14495419486811961 0.31734813855161759 0 -0.15843984593516669 0.3353087962765417 0 -0.16290230207748849 0.31861206890147392 0 -0.14495419486811961 0.31734813855161759 0 -0.1443776795059328 0.33390895980560381 0 -0.15843984593516669 0.3353087962765417 0 -0.14165043288496271 0.34906334461799549 0 -0.1443776795059328 0.33390895980560381 0 -0.15843984593516669 0.3353087962765417 0 -0.15843984593516669 0.3353087962765417 0 -0.17774973011518999 0.33020764546750409 0 -0.17749789925717871 0.34686132115754031 0 -0.15843984593516669 0.3353087962765417 0 -0.16290230207748849 0.31861206890147392 0 -0.17774973011518999 0.33020764546750409 0 -0.17774973011518999 0.33020764546750409 0 -0.19720201262974121 0.32662885324472202 0 -0.17861358928141469 0.31234998356939919 0 -0.16290230207748849 0.31861206890147392 0 -0.17774973011518999 0.33020764546750409 0 -0.17861358928141469 0.31234998356939919 0 -0.17774973011518999 0.33020764546750409 0 -0.17749789925717871 0.34686132115754031 0 -0.1924972983359893 0.34358046834146699 0 -0.17749789925717871 0.34686132115754031 0 -0.17738562461233581 0.36620191856746193 0 -0.1942619271162552 0.36094369023707662 0 -0.17749789925717871 0.34686132115754031 0 -0.16020893970901179 0.3578896071927124 0 -0.17738562461233581 0.36620191856746193 0 -0.15843984593516669 0.3353087962765417 0 -0.17749789925717871 0.34686132115754031 0 -0.16020893970901179 0.3578896071927124 0 -0.16393263101776051 0.377811301899728 0 -0.16020893970901179 0.3578896071927124 0 -0.17738562461233581 0.36620191856746193 0 -0.16393263101776051 0.377811301899728 0 -0.14471747201537141 0.37109278790434008 0 -0.16020893970901179 0.3578896071927124 0 -0.18047408951467989 0.38368683415264299 0 -0.17738562461233581 0.36620191856746193 0 -0.18587119209385661 0.37354081621318608 0 -0.17738562461233581 0.36620191856746193 0 -0.18587119209385661 0.37354081621318608 0 -0.1942619271162552 0.36094369023707662 0 -0.19602170663323359 0.37613550446886429 0 -0.18587119209385661 0.37354081621318608 0 -0.1942619271162552 0.36094369023707662 0 -0.2075355886729093 0.37995552166991781 0 -0.19602170663323359 0.37613550446886429 0 -0.1942619271162552 0.36094369023707662 0 -0.1942619271162552 0.36094369023707662 0 -0.2157749225615814 0.35326083160049221 0 -0.1924972983359893 0.34358046834146699 0 -0.17749789925717871 0.34686132115754031 0 -0.1942619271162552 0.36094369023707662 0 -0.1924972983359893 0.34358046834146699 0 -0.2075355886729093 0.37995552166991781 0 -0.2157749225615814 0.35326083160049221 0 -0.2075355886729093 0.37995552166991781 0 -0.2157749225615814 0.35326083160049221 0 -0.22773539588177269 0.371785806926901 0 -0.2075355886729093 0.37995552166991781 0 -0.1942619271162552 0.36094369023707662 0 -0.2157749225615814 0.35326083160049221 0 -0.2157749225615814 0.35326083160049221 0 -0.22773539588177269 0.371785806926901 0 -0.245130999697667 0.35617292401417999 0 -0.2157749225615814 0.35326083160049221 0 -0.245130999697667 0.35617292401417999 0 -0.23295058751304551 0.34252643707592823 0 -0.25008303346203908 0.33611797840414298 0 -0.245130999697667 0.35617292401417999 0 -0.23295058751304551 0.34252643707592823 0 -0.22773539588177269 0.371785806926901 0 -0.245130999697667 0.35617292401417999 0 -0.24298804513369371 0.37489662163126852 0 -0.2592717334901794 0.37344143954643821 0 -0.245130999697667 0.35617292401417999 0 -0.24298804513369371 0.37489662163126852 0 -0.25008303346203908 0.33611797840414298 0 -0.2434150889916675 0.31528126182336752 0 -0.22401425645025361 0.32656614153106639 0 -0.25008303346203908 0.33611797840414298 0 -0.23295058751304551 0.34252643707592823 0 -0.22401425645025361 0.32656614153106639 0 -0.2157749225615814 0.35326083160049221 0 -0.22401425645025361 0.32656614153106639 0 -0.2157749225615814 0.35326083160049221 0 -0.23295058751304551 0.34252643707592823 0 -0.22401425645025361 0.32656614153106639 0 -0.2434150889916675 0.31528126182336752 0 -0.22401425645025361 0.32656614153106639 0 -0.2322535903389257 0.29987145146164079 0 -0.22401425645025361 0.32656614153106639 0 -0.2322535903389257 0.29987145146164079 0 -0.22401425645025361 0.32656614153106639 0 -0.19720201262974121 0.32662885324472202 0 -0.19906220937645289 0.30981321912625731 0 -0.2157749225615814 0.35326083160049221 0 -0.22401425645025361 0.32656614153106639 0 -0.19720201262974121 0.32662885324472202 0 -0.2157749225615814 0.35326083160049221 0 -0.1924972983359893 0.34358046834146699 0 -0.19720201262974121 0.32662885324472202 0 -0.17774973011518999 0.33020764546750409 0 -0.1924972983359893 0.34358046834146699 0 -0.19720201262974121 0.32662885324472202 0 -0.19720201262974121 0.32662885324472202 0 -0.19906220937645289 0.30981321912625731 0 -0.17861358928141469 0.31234998356939919 0 -0.19906220937645289 0.30981321912625731 0 -0.19856760929965681 0.29512163553205928 0 -0.18259298835682489 0.29782857031946008 0 -0.19085311474529701 0.28244454806871849 0 -0.19856760929965681 0.29512163553205928 0 -0.18259298835682489 0.29782857031946008 0 -0.19085311474529701 0.28244454806871849 0 -0.19856760929965681 0.29512163553205928 0 -0.2071077174296316 0.28582887531117668 0 -0.2071077174296316 0.28582887531117668 0 -0.21338280024082609 0.30038413056083629 0 -0.2192288693812762 0.28355186314419151 0 -0.19856760929965681 0.29512163553205928 0 -0.2071077174296316 0.28582887531117668 0 -0.21338280024082609 0.30038413056083629 0 -0.2071077174296316 0.28582887531117668 0 -0.2192288693812762 0.28355186314419151 0 -0.2134516182061634 0.27614892865934582 0 -0.22401425645025361 0.32656614153106639 0 -0.19906220937645289 0.30981321912625731 0 -0.21338280024082609 0.30038413056083629 0 -0.19906220937645289 0.30981321912625731 0 -0.19856760929965681 0.29512163553205928 0 -0.21338280024082609 0.30038413056083629 0 -0.22401425645025361 0.32656614153106639 0 -0.21338280024082609 0.30038413056083629 0 -0.2322535903389257 0.29987145146164079 0 -0.21338280024082609 0.30038413056083629 0 -0.2322535903389257 0.29987145146164079 0 -0.2192288693812762 0.28355186314419151 0 -0.2322535903389257 0.29987145146164079 0 -0.2192288693812762 0.28355186314419151 0 -0.2404929242275981 0.27317676139221531 0 -0.2322535903389257 0.29987145146164079 0 -0.2404929242275981 0.27317676139221531 0 -0.25040582964490582 0.29567583303740069 0 -0.2322535903389257 0.29987145146164079 0 -0.2404929242275981 0.27317676139221531 0 -0.25040582964490582 0.29567583303740069 0 -0.2404929242275981 0.27317676139221531 0 -0.25040582964490582 0.29567583303740069 0 -0.2434150889916675 0.31528126182336752 0 -0.2322535903389257 0.29987145146164079 0 -0.25054816238852479 0.24059870715785611 0 -0.2546175921406465 0.26128861144859822 0 -0.24164285362834059 0.26945109504960563 0 -0.25054816238852479 0.24059870715785611 0 -0.24164285362834059 0.26945109504960563 0 -0.24164285362834059 0.26945109504960563 0 -0.23310158204141429 0.25640081827561029 0 -0.2466801300010773 0.2452604621424746 0 -0.25054816238852479 0.24059870715785611 0 -0.24164285362834059 0.26945109504960563 0 -0.2466801300010773 0.2452604621424746 0 -0.24164285362834059 0.26945109504960563 0 -0.2394572339012683 0.27082608115536438 0 -0.23310158204141429 0.25640081827561029 0 -0.2394572339012683 0.27082608115536438 0 -0.23310158204141429 0.25640081827561029 0 -0.2546175921406465 0.26128861144859822 0 -0.24164285362834059 0.26945109504960563 0 -0.25982227492027221 0.287750399741656 0 -0.24164285362834059 0.26945109504960563 0 -0.2404929242275981 0.27317676139221531 0 -0.24164285362834059 0.26945109504960563 0 -0.2404929242275981 0.27317676139221531 0 -0.24164285362834059 0.26945109504960563 0 -0.2394572339012683 0.27082608115536438 0 -0.24164285362834059 0.26945109504960563 0 -0.2404929242275981 0.27317676139221531 0 -0.2394572339012683 0.27082608115536438 0 -0.2404929242275981 0.27317676139221531 0 -0.2394572339012683 0.27082608115536438 0 -0.2192288693812762 0.28355186314419151 0 -0.2404929242275981 0.27317676139221531 0 -0.2394572339012683 0.27082608115536438 0 -0.2192288693812762 0.28355186314419151 0 -0.2394572339012683 0.27082608115536438 0 -0.2223662512991782 0.27304179816788748 0 -0.2192288693812762 0.28355186314419151 0 -0.2394572339012683 0.27082608115536438 0 -0.2394572339012683 0.27082608115536438 0 -0.2223662512991782 0.27304179816788748 0 -0.23310158204141429 0.25640081827561029 0 -0.2223662512991782 0.27304179816788748 0 -0.23310158204141429 0.25640081827561029 0 -0.2355501434136231 0.2478522206023164 0 -0.2223662512991782 0.27304179816788748 0 -0.2355501434136231 0.2478522206023164 0 -0.2223662512991782 0.27304179816788748 0 -0.222192014233517 0.25700640751059239 0 -0.2355501434136231 0.2478522206023164 0 -0.2223662512991782 0.27304179816788748 0 -0.222192014233517 0.25700640751059239 0 -0.21287289659801359 0.26516855002046552 0 -0.222192014233517 0.25700640751059239 0 -0.22222104444170529 0.2467327462878163 0 -0.2355501434136231 0.2478522206023164 0 -0.222192014233517 0.25700640751059239 0 -0.21371201764358261 0.25214650866738469 0 -0.22222104444170529 0.2467327462878163 0 -0.222192014233517 0.25700640751059239 0 -0.21371201764358261 0.25214650866738469 0 -0.21287289659801359 0.26516855002046552 0 -0.21371201764358261 0.25214650866738469 0 -0.21287289659801359 0.26516855002046552 0 -0.20206212765223941 0.25873777709478579 0 -0.21287289659801359 0.26516855002046552 0 -0.20374397774259509 0.27266482885045462 0 -0.20206212765223941 0.25873777709478579 0 -0.21371201764358261 0.25214650866738469 0 -0.20206212765223941 0.25873777709478579 0 -0.20132404028626799 0.2438270423260239 0 -0.2192288693812762 0.28355186314419151 0 -0.2223662512991782 0.27304179816788748 0 -0.2134516182061634 0.27614892865934582 0 -0.2223662512991782 0.27304179816788748 0 -0.21287289659801359 0.26516855002046552 0 -0.2134516182061634 0.27614892865934582 0 -0.21287289659801359 0.26516855002046552 0 -0.2134516182061634 0.27614892865934582 0 -0.20374397774259509 0.27266482885045462 0 -0.2071077174296316 0.28582887531117668 0 -0.2134516182061634 0.27614892865934582 0 -0.20374397774259509 0.27266482885045462 0 -0.19085311474529701 0.28244454806871849 0 -0.2071077174296316 0.28582887531117668 0 -0.20374397774259509 0.27266482885045462 0 -0.20374397774259509 0.27266482885045462 0 -0.19076826268548239 0.26827287779833747 0 -0.20206212765223941 0.25873777709478579 0 -0.19085311474529701 0.28244454806871849 0 -0.20374397774259509 0.27266482885045462 0 -0.19076826268548239 0.26827287779833747 0 -0.19076826268548239 0.26827287779833747 0 -0.20206212765223941 0.25873777709478579 0 -0.18859670902218051 0.25052543551881717 0 -0.20206212765223941 0.25873777709478579 0 -0.18859670902218051 0.25052543551881717 0 -0.20132404028626799 0.2438270423260239 0 -0.18859670902218051 0.25052543551881717 0 -0.17798103800664031 0.2589484764895198 0 -0.1765110772481347 0.2431385849621667 0 -0.19076826268548239 0.26827287779833747 0 -0.18859670902218051 0.25052543551881717 0 -0.17798103800664031 0.2589484764895198 0 -0.1593990608277665 0.26226189644582071 0 -0.1613020889038615 0.23837444865205379 0 -0.14911298171075679 0.24967097175487091 0 -0.17798103800664031 0.2589484764895198 0 -0.1593990608277665 0.26226189644582071 0 -0.1765110772481347 0.2431385849621667 0 -0.1593990608277665 0.26226189644582071 0 -0.1613020889038615 0.23837444865205379 0 -0.17798103800664031 0.2589484764895198 0 -0.1593990608277665 0.26226189644582071 0 -0.17625891120693621 0.27267786553860818 0 -0.1593990608277665 0.26226189644582071 0 -0.1625734141651913 0.27864750634068558 0 -0.17625891120693621 0.27267786553860818 0 -0.1625734141651913 0.27864750634068558 0 -0.17625891120693621 0.27267786553860818 0 -0.1759785768112396 0.28549188808856729 0 -0.19076826268548239 0.26827287779833747 0 -0.17798103800664031 0.2589484764895198 0 -0.17625891120693621 0.27267786553860818 0 -0.19085311474529701 0.28244454806871849 0 -0.19076826268548239 0.26827287779833747 0 -0.17625891120693621 0.27267786553860818 0 -0.19085311474529701 0.28244454806871849 0 -0.17625891120693621 0.27267786553860818 0 -0.1759785768112396 0.28549188808856729 0 -0.19085311474529701 0.28244454806871849 0 -0.1759785768112396 0.28549188808856729 0 -0.18259298835682489 0.29782857031946008 0 -0.1759785768112396 0.28549188808856729 0 -0.18259298835682489 0.29782857031946008 0 -0.16136995080389721 0.29864400117774398 0 -0.17861358928141469 0.31234998356939919 0 -0.18259298835682489 0.29782857031946008 0 -0.16136995080389721 0.29864400117774398 0 -0.19906220937645289 0.30981321912625731 0 -0.17861358928141469 0.31234998356939919 0 -0.18259298835682489 0.29782857031946008 0 -0.14495419486811961 0.31734813855161759 0 -0.16290230207748849 0.31861206890147392 0 -0.16136995080389721 0.29864400117774398 0 -0.16290230207748849 0.31861206890147392 0 -0.17861358928141469 0.31234998356939919 0 -0.16136995080389721 0.29864400117774398 0 -0.1625734141651913 0.27864750634068558 0 -0.16136995080389721 0.29864400117774398 0 -0.1450808597671244 0.27950790118027541 0 -0.1625734141651913 0.27864750634068558 0 -0.1759785768112396 0.28549188808856729 0 -0.16136995080389721 0.29864400117774398 0 -0.16136995080389721 0.29864400117774398 0 -0.14126992245711781 0.29947087285495883 0 -0.1450808597671244 0.27950790118027541 0 -0.14495419486811961 0.31734813855161759 0 -0.16136995080389721 0.29864400117774398 0 -0.14126992245711781 0.29947087285495883 0 -0.14126992245711781 0.29947087285495883 0 -0.12577302420238409 0.3093301053864293 0 -0.12922822593455879 0.28960894173240792 0 -0.14495419486811961 0.31734813855161759 0 -0.14126992245711781 0.29947087285495883 0 -0.12577302420238409 0.3093301053864293 0 -0.14126992245711781 0.29947087285495883 0 -0.12922822593455879 0.28960894173240792 0 -0.1450808597671244 0.27950790118027541 0 -0.12922822593455879 0.28960894173240792 0 -0.1349930010153193 0.26255216121800568 0 -0.12922822593455879 0.28960894173240792 0 -0.1349930010153193 0.26255216121800568 0 -0.1450808597671244 0.27950790118027541 0 -0.12922822593455879 0.28960894173240792 0 -0.1349930010153193 0.26255216121800568 0 -0.1154385093851408 0.26413547420137762 0 -0.1593990608277665 0.26226189644582071 0 -0.1349930010153193 0.26255216121800568 0 -0.14911298171075679 0.24967097175487091 0 -0.1593990608277665 0.26226189644582071 0 -0.1349930010153193 0.26255216121800568 0 -0.1450808597671244 0.27950790118027541 0 -0.1593990608277665 0.26226189644582071 0 -0.1625734141651913 0.27864750634068558 0 -0.1450808597671244 0.27950790118027541 0 -0.1125365884501535 0.28353815127968629 0 -0.09362037031597753 0.26527792879994888 0 -0.1125365884501535 0.28353815127968629 0 -0.093128128460342754 0.28254352657507131 0 -0.09362037031597753 0.26527792879994888 0 -0.1154385093851408 0.26413547420137762 0 -0.1125365884501535 0.28353815127968629 0 -0.09362037031597753 0.26527792879994888 0 -0.1154385093851408 0.26413547420137762 0 -0.09362037031597753 0.26527792879994888 0 -0.097135213821017974 0.2450179218164267 0 -0.1154385093851408 0.26413547420137762 0 -0.097135213821017974 0.2450179218164267 0 -0.11832329044822951 0.24304604882281969 0 -0.1349930010153193 0.26255216121800568 0 -0.1154385093851408 0.26413547420137762 0 -0.11832329044822951 0.24304604882281969 0 -0.12922822593455879 0.28960894173240792 0 -0.1154385093851408 0.26413547420137762 0 -0.1125365884501535 0.28353815127968629 0 -0.12922822593455879 0.28960894173240792 0 -0.1125365884501535 0.28353815127968629 0 -0.11715930820710339 0.29724977554595788 0 -0.1125365884501535 0.28353815127968629 0 -0.11715930820710339 0.29724977554595788 0 -0.1038404580068167 0.30398166541893579 0 -0.12577302420238409 0.3093301053864293 0 -0.1038404580068167 0.30398166541893579 0 -0.11250071635914489 0.32397018824961021 0 -0.12577302420238409 0.3093301053864293 0 -0.11715930820710339 0.29724977554595788 0 -0.1038404580068167 0.30398166541893579 0 -0.12577302420238409 0.3093301053864293 0 -0.12922822593455879 0.28960894173240792 0 -0.11715930820710339 0.29724977554595788 0 -0.1125365884501535 0.28353815127968629 0 -0.1038404580068167 0.30398166541893579 0 -0.093128128460342754 0.28254352657507131 0 -0.083140595227089928 0.29591471829194321 0 -0.093128128460342754 0.28254352657507131 0 -0.06936539161773822 0.28020753346750782 0 -0.1038404580068167 0.30398166541893579 0 -0.083140595227089928 0.29591471829194321 0 -0.093128128460342754 0.28254352657507131 0 -0.1038404580068167 0.30398166541893579 0 -0.083140595227089928 0.29591471829194321 0 -0.090988500091643998 0.31647506579520901 0 -0.083140595227089928 0.29591471829194321 0 -0.073171874186503463 0.31004866742903531 0 -0.090988500091643998 0.31647506579520901 0 -0.083140595227089928 0.29591471829194321 0 -0.073171874186503463 0.31004866742903531 0 -0.058649820332164468 0.29485946887662068 0 -0.073171874186503463 0.31004866742903531 0 -0.058649820332164468 0.29485946887662068 0 -0.056101506374375817 0.3128319137626559 0 -0.083140595227089928 0.29591471829194321 0 -0.06936539161773822 0.28020753346750782 0 -0.058649820332164468 0.29485946887662068 0 -0.06936539161773822 0.28020753346750782 0 -0.077315147936728598 0.26324091235374891 0 -0.061029816546774987 0.26105054837526498 0 -0.093128128460342754 0.28254352657507131 0 -0.09362037031597753 0.26527792879994888 0 -0.077315147936728598 0.26324091235374891 0 -0.093128128460342754 0.28254352657507131 0 -0.06936539161773822 0.28020753346750782 0 -0.077315147936728598 0.26324091235374891 0 -0.09362037031597753 0.26527792879994888 0 -0.097135213821017974 0.2450179218164267 0 -0.074704152181801681 0.24701770632021169 0 -0.09362037031597753 0.26527792879994888 0 -0.077315147936728598 0.26324091235374891 0 -0.074704152181801681 0.24701770632021169 0 -0.09362037031597753 0.26527792879994888 0 -0.074704152181801681 0.24701770632021169 0 -0.061029816546774987 0.26105054837526498 0 -0.074704152181801681 0.24701770632021169 0 -0.057747386715908428 0.24463041023760571 0 -0.077315147936728598 0.26324091235374891 0 -0.061029816546774987 0.26105054837526498 0 -0.074704152181801681 0.24701770632021169 0 -0.061029816546774987 0.26105054837526498 0 -0.03742977218140614 0.26357467527551443 0 -0.046594812073733123 0.24823599275617891 0 -0.061029816546774987 0.26105054837526498 0 -0.046594812073733123 0.24823599275617891 0 -0.057747386715908428 0.24463041023760571 0 -0.06936539161773822 0.28020753346750782 0 -0.061029816546774987 0.26105054837526498 0 -0.048476972550706023 0.27982564543664679 0 -0.061029816546774987 0.26105054837526498 0 -0.048476972550706023 0.27982564543664679 0 -0.03742977218140614 0.26357467527551443 0 -0.061029816546774987 0.26105054837526498 0 -0.048476972550706023 0.27982564543664679 0 -0.048476972550706023 0.27982564543664679 0 -0.031819983271387867 0.27999546987022927 0 -0.03742977218140614 0.26357467527551443 0 -0.03742977218140614 0.26357467527551443 0 -0.03189830216395443 0.24568919817845219 0 -0.046594812073733123 0.24823599275617891 0 -0.03742977218140614 0.26357467527551443 0 -0.020565667716041462 0.25572736355358933 0 -0.03189830216395443 0.24568919817845219 0 -0.03742977218140614 0.26357467527551443 0 -0.020565667716041462 0.25572736355358933 0 -0.022715456858953278 0.26994870387583431 0 -0.020565667716041462 0.25572736355358933 0 -0.022715456858953278 0.26994870387583431 0 -0.0080731797928139601 0.26595294531788349 0 -0.031819983271387867 0.27999546987022927 0 -0.03742977218140614 0.26357467527551443 0 -0.022715456858953278 0.26994870387583431 0 -0.031819983271387867 0.27999546987022927 0 -0.022715456858953278 0.26994870387583431 0 -0.01304989637173277 0.28246747093767138 0 -0.022715456858953278 0.26994870387583431 0 -0.0080731797928139601 0.26595294531788349 0 -0.01304989637173277 0.28246747093767138 0 -0.0080731797928139601 0.26595294531788349 0 -0.01304989637173277 0.28246747093767138 0 0.0042686616650212863 0.27440264234540929 0 -0.0080731797928139601 0.26595294531788349 0 -0.004361582131907446 0.25012675423618741 0 0.0045166499774289158 0.26107549289106269 0 -0.020565667716041462 0.25572736355358933 0 -0.0080731797928139601 0.26595294531788349 0 -0.004361582131907446 0.25012675423618741 0 -0.0025045175740335168 0.31031314766219981 0 -0.001308369768482999 0.29320410557187471 0 -0.016598711115656001 0.30159589275249321 0 -0.0025045175740335168 0.31031314766219981 0 -0.016598711115656001 0.30159589275249321 0 -0.021593132986752129 0.32003539370993961 0 -0.001308369768482999 0.29320410557187471 0 -0.01304989637173277 0.28246747093767138 0 0.0042686616650212863 0.27440264234540929 0 -0.001308369768482999 0.29320410557187471 0 -0.01304989637173277 0.28246747093767138 0 -0.016598711115656001 0.30159589275249321 0 -0.01304989637173277 0.28246747093767138 0 -0.035924128554638488 0.29860074249802943 0 -0.01304989637173277 0.28246747093767138 0 -0.016598711115656001 0.30159589275249321 0 -0.035924128554638488 0.29860074249802943 0 -0.031819983271387867 0.27999546987022927 0 -0.01304989637173277 0.28246747093767138 0 -0.035924128554638488 0.29860074249802943 0 -0.016598711115656001 0.30159589275249321 0 -0.035924128554638488 0.29860074249802943 0 -0.021593132986752129 0.32003539370993961 0 -0.035924128554638488 0.29860074249802943 0 -0.021593132986752129 0.32003539370993961 0 -0.035924128554638488 0.29860074249802943 0 -0.056101506374375817 0.3128319137626559 0 -0.035924128554638488 0.29860074249802943 0 -0.038849285662232391 0.31623083740802288 0 -0.021593132986752129 0.32003539370993961 0 -0.035924128554638488 0.29860074249802943 0 -0.056101506374375817 0.3128319137626559 0 -0.038849285662232391 0.31623083740802288 0 -0.048476972550706023 0.27982564543664679 0 -0.031819983271387867 0.27999546987022927 0 -0.035924128554638488 0.29860074249802943 0 -0.048476972550706023 0.27982564543664679 0 -0.035924128554638488 0.29860074249802943 0 -0.06936539161773822 0.28020753346750782 0 -0.048476972550706023 0.27982564543664679 0 -0.058649820332164468 0.29485946887662068 0 -0.048476972550706023 0.27982564543664679 0 -0.035924128554638488 0.29860074249802943 0 -0.058649820332164468 0.29485946887662068 0 -0.035924128554638488 0.29860074249802943 0 -0.058649820332164468 0.29485946887662068 0 -0.056101506374375817 0.3128319137626559 0 -0.056101506374375817 0.3128319137626559 0 -0.061273612338163523 0.34168082392211641 0 -0.041778374733163148 0.33345529966146709 0 -0.041778374733163148 0.33345529966146709 0 -0.038849285662232391 0.31623083740802288 0 -0.021593132986752129 0.32003539370993961 0 -0.056101506374375817 0.3128319137626559 0 -0.041778374733163148 0.33345529966146709 0 -0.038849285662232391 0.31623083740802288 0 -0.021593132986752129 0.32003539370993961 0 -0.0072621374188671052 0.34147004492185079 0 -0.026756520995263839 0.34622662442059521 0 -0.041778374733163148 0.33345529966146709 0 -0.021593132986752129 0.32003539370993961 0 -0.026756520995263839 0.34622662442059521 0 -0.021593132986752129 0.32003539370993961 0 -0.0072621374188671052 0.34147004492185079 0 -0.021593132986752129 0.32003539370993961 0 -0.0072621374188671052 0.34147004492185079 0 -0.00017254440855824261 0.32560037032276101 0 -0.0025045175740335168 0.31031314766219981 0 -0.021593132986752129 0.32003539370993961 0 -0.00017254440855824261 0.32560037032276101 0 -0.017975249263795932 0.36469023687930041 0 -0.0036227877329230301 0.37947700469323042 0 0.0070688581490178301 0.36290469613376197 0 -0.017975249263795932 0.36469023687930041 0 -0.017202423973373768 0.37968737263981228 0 -0.0036227877329230301 0.37947700469323042 0 -0.0072621374188671052 0.34147004492185079 0 0.0070688581490178301 0.36290469613376197 0 -0.0072621374188671052 0.34147004492185079 0 -0.017975249263795932 0.36469023687930041 0 0.0070688581490178301 0.36290469613376197 0 -0.0072621374188671052 0.34147004492185079 0 -0.026756520995263839 0.34622662442059521 0 -0.017975249263795932 0.36469023687930041 0 -0.026756520995263839 0.34622662442059521 0 -0.017975249263795932 0.36469023687930041 0 -0.044972299261370183 0.36017708579622421 0 -0.017975249263795932 0.36469023687930041 0 -0.044972299261370183 0.36017708579622421 0 -0.033696569954803593 0.38151106350699548 0 -0.044972299261370183 0.36017708579622421 0 -0.056355392512392112 0.37995563405969551 0 -0.033696569954803593 0.38151106350699548 0 -0.041778374733163148 0.33345529966146709 0 -0.026756520995263839 0.34622662442059521 0 -0.044972299261370183 0.36017708579622421 0 -0.061273612338163523 0.34168082392211641 0 -0.044972299261370183 0.36017708579622421 0 -0.06521228616511808 0.36405037212009378 0 -0.061273612338163523 0.34168082392211641 0 -0.041778374733163148 0.33345529966146709 0 -0.044972299261370183 0.36017708579622421 0 -0.044972299261370183 0.36017708579622421 0 -0.06521228616511808 0.36405037212009378 0 -0.056355392512392112 0.37995563405969551 0 -0.06521228616511808 0.36405037212009378 0 -0.083611302269088666 0.35468926302163939 0 -0.079848824444575958 0.38374905380079372 0 -0.083611302269088666 0.35468926302163939 0 -0.096975471326963783 0.37148378381343322 0 -0.079848824444575958 0.38374905380079372 0 -0.061273612338163523 0.34168082392211641 0 -0.06521228616511808 0.36405037212009378 0 -0.083611302269088666 0.35468926302163939 0 -0.061273612338163523 0.34168082392211641 0 -0.083611302269088666 0.35468926302163939 0 -0.076278884194113258 0.32706308502728249 0 -0.056101506374375817 0.3128319137626559 0 -0.076278884194113258 0.32706308502728249 0 -0.056101506374375817 0.3128319137626559 0 -0.061273612338163523 0.34168082392211641 0 -0.076278884194113258 0.32706308502728249 0 -0.073171874186503463 0.31004866742903531 0 -0.056101506374375817 0.3128319137626559 0 -0.076278884194113258 0.32706308502728249 0 -0.076278884194113258 0.32706308502728249 0 -0.090988500091643998 0.31647506579520901 0 -0.096998472576195746 0.33787207035444761 0 -0.073171874186503463 0.31004866742903531 0 -0.076278884194113258 0.32706308502728249 0 -0.090988500091643998 0.31647506579520901 0 -0.083611302269088666 0.35468926302163939 0 -0.076278884194113258 0.32706308502728249 0 -0.096998472576195746 0.33787207035444761 0 -0.090988500091643998 0.31647506579520901 0 -0.096998472576195746 0.33787207035444761 0 -0.11250071635914489 0.32397018824961021 0 -0.1038404580068167 0.30398166541893579 0 -0.090988500091643998 0.31647506579520901 0 -0.11250071635914489 0.32397018824961021 0 -0.1315170279352865 0.33102482385584192 0 -0.12577302420238409 0.3093301053864293 0 -0.11250071635914489 0.32397018824961021 0 -0.1315170279352865 0.33102482385584192 0 -0.11250071635914489 0.32397018824961021 0 -0.1189994847652637 0.3425748687043878 0 -0.096998472576195746 0.33787207035444761 0 -0.11250071635914489 0.32397018824961021 0 -0.1189994847652637 0.3425748687043878 0 -0.12710123171609961 0.3622807710251873 0 -0.1189994847652637 0.3425748687043878 0 -0.1089146800649551 0.3561770594294375 0 -0.12710123171609961 0.3622807710251873 0 -0.1130895959368447 0.37246627340933908 0 -0.1089146800649551 0.3561770594294375 0 -0.12655549565904481 0.38459039506062281 0 -0.12710123171609961 0.3622807710251873 0 -0.1130895959368447 0.37246627340933908 0 -0.1130895959368447 0.37246627340933908 0 -0.096975471326963783 0.37148378381343322 0 -0.1089146800649551 0.3561770594294375 0 -0.083611302269088666 0.35468926302163939 0 -0.096975471326963783 0.37148378381343322 0 -0.1089146800649551 0.3561770594294375 0 -0.096998472576195746 0.33787207035444761 0 -0.1189994847652637 0.3425748687043878 0 -0.1089146800649551 0.3561770594294375 0 -0.083611302269088666 0.35468926302163939 0 -0.096998472576195746 0.33787207035444761 0 -0.1089146800649551 0.3561770594294375 0 -0.10335637586111809 0.38776536102133979 0 -0.1122756033997336 0.40440751886529608 0 -0.092626744140319878 0.40339206391310989 0 -0.1130895959368447 0.37246627340933908 0 -0.096975471326963783 0.37148378381343322 0 -0.10335637586111809 0.38776536102133979 0 -0.12655549565904481 0.38459039506062281 0 -0.1130895959368447 0.37246627340933908 0 -0.10335637586111809 0.38776536102133979 0 -0.12655549565904481 0.38459039506062281 0 -0.10335637586111809 0.38776536102133979 0 -0.1122756033997336 0.40440751886529608 0 -0.1342738988421254 0.39940632656162323 0 -0.12655549565904481 0.38459039506062281 0 -0.1122756033997336 0.40440751886529608 0 -0.12548201032280559 0.41579856094527679 0 -0.1122756033997336 0.40440751886529608 0 -0.1104394098233438 0.42174348832390141 0 -0.12548201032280559 0.41579856094527679 0 -0.1342738988421254 0.39940632656162323 0 -0.1122756033997336 0.40440751886529608 0 -0.13175207046494611 0.44346192959665548 0 -0.1221002198223846 0.42926878838971572 0 -0.1064787913094135 0.43730588845956792 0 -0.12548201032280559 0.41579856094527679 0 -0.1104394098233438 0.42174348832390141 0 -0.1221002198223846 0.42926878838971572 0 -0.1104394098233438 0.42174348832390141 0 -0.1221002198223846 0.42926878838971572 0 -0.1064787913094135 0.43730588845956792 0 -0.1064787913094135 0.43730588845956792 0 -0.08120551215388104 0.43114984732248018 0 -0.1064787913094135 0.43730588845956792 0 -0.097026127818036836 0.42472771569137829 0 -0.08120551215388104 0.43114984732248018 0 -0.1104394098233438 0.42174348832390141 0 -0.1064787913094135 0.43730588845956792 0 -0.097026127818036836 0.42472771569137829 0 -0.1122756033997336 0.40440751886529608 0 -0.098824778170087071 0.41543684488035082 0 -0.092626744140319878 0.40339206391310989 0 -0.1122756033997336 0.40440751886529608 0 -0.1104394098233438 0.42174348832390141 0 -0.098824778170087071 0.41543684488035082 0 -0.1104394098233438 0.42174348832390141 0 -0.097026127818036836 0.42472771569137829 0 -0.098824778170087071 0.41543684488035082 0 -0.097026127818036836 0.42472771569137829 0 -0.098824778170087071 0.41543684488035082 0 -0.088182147633458732 0.41800250947059109 0 -0.088182147633458732 0.41800250947059109 0 -0.075766822878524695 0.41019172804676379 0 -0.092626744140319878 0.40339206391310989 0 -0.088182147633458732 0.41800250947059109 0 -0.08120551215388104 0.43114984732248018 0 -0.075766822878524695 0.41019172804676379 0 -0.098824778170087071 0.41543684488035082 0 -0.088182147633458732 0.41800250947059109 0 -0.092626744140319878 0.40339206391310989 0 -0.08120551215388104 0.43114984732248018 0 -0.071684821312473307 0.43663440229273398 0 -0.093222345705159748 0.44373923815992428 0 -0.097026127818036836 0.42472771569137829 0 -0.088182147633458732 0.41800250947059109 0 -0.08120551215388104 0.43114984732248018 0 -0.1064787913094135 0.43730588845956792 0 -0.08120551215388104 0.43114984732248018 0 -0.093222345705159748 0.44373923815992428 0 -0.065135249615538293 0.42231944082984091 0 -0.071684821312473307 0.43663440229273398 0 -0.055943765893954757 0.43144171565494821 0 -0.065135249615538293 0.42231944082984091 0 -0.071684821312473307 0.43663440229273398 0 -0.075766822878524695 0.41019172804676379 0 -0.08120551215388104 0.43114984732248018 0 -0.071684821312473307 0.43663440229273398 0 -0.075766822878524695 0.41019172804676379 0 -0.071684821312473307 0.43663440229273398 0 -0.055943765893954757 0.43144171565494821 0 -0.071684821312473307 0.43663440229273398 0 -0.075766822878524695 0.41019172804676379 0 -0.065135249615538293 0.42231944082984091 0 -0.075766822878524695 0.41019172804676379 0 -0.05600936231039217 0.41342904923233581 0 -0.075766822878524695 0.41019172804676379 0 -0.063299398534094969 0.39691509799282482 0 -0.05600936231039217 0.41342904923233581 0 -0.075766822878524695 0.41019172804676379 0 -0.063299398534094969 0.39691509799282482 0 -0.079848824444575958 0.38374905380079372 0 -0.075766822878524695 0.41019172804676379 0 -0.079848824444575958 0.38374905380079372 0 -0.10335637586111809 0.38776536102133979 0 -0.092626744140319878 0.40339206391310989 0 -0.079848824444575958 0.38374905380079372 0 -0.075766822878524695 0.41019172804676379 0 -0.092626744140319878 0.40339206391310989 0 -0.079848824444575958 0.38374905380079372 0 -0.096975471326963783 0.37148378381343322 0 -0.10335637586111809 0.38776536102133979 0 -0.079848824444575958 0.38374905380079372 0 -0.06521228616511808 0.36405037212009378 0 -0.079848824444575958 0.38374905380079372 0 -0.056355392512392112 0.37995563405969551 0 -0.063299398534094969 0.39691509799282482 0 -0.079848824444575958 0.38374905380079372 0 -0.056355392512392112 0.37995563405969551 0 -0.063299398534094969 0.39691509799282482 0 -0.056355392512392112 0.37995563405969551 0 -0.048516590524589932 0.3972500248245352 0 -0.063299398534094969 0.39691509799282482 0 -0.048516590524589932 0.3972500248245352 0 -0.05600936231039217 0.41342904923233581 0 -0.048516590524589932 0.3972500248245352 0 -0.032850518460687449 0.39898186447299261 0 -0.037770955976974781 0.41204834058667128 0 -0.048516590524589932 0.3972500248245352 0 -0.032850518460687449 0.39898186447299261 0 -0.033696569954803593 0.38151106350699548 0 -0.056355392512392112 0.37995563405969551 0 -0.048516590524589932 0.3972500248245352 0 -0.033696569954803593 0.38151106350699548 0 -0.017975249263795932 0.36469023687930041 0 -0.033696569954803593 0.38151106350699548 0 -0.017202423973373768 0.37968737263981228 0 -0.033696569954803593 0.38151106350699548 0 -0.017202423973373768 0.37968737263981228 0 -0.018646700241063071 0.39302480292672293 0 -0.018646700241063071 0.39302480292672293 0 -0.0081246324890641812 0.40805065625530412 0 -0.02380123978217763 0.41023834757766542 0 -0.032850518460687449 0.39898186447299261 0 -0.018646700241063071 0.39302480292672293 0 -0.02380123978217763 0.41023834757766542 0 -0.032850518460687449 0.39898186447299261 0 -0.033696569954803593 0.38151106350699548 0 -0.018646700241063071 0.39302480292672293 0 -0.018646700241063071 0.39302480292672293 0 -0.0081246324890641812 0.40805065625530412 0 0.0058412231562265226 0.39891749499975832 0 -0.018646700241063071 0.39302480292672293 0 -0.0036227877329230301 0.37947700469323042 0 0.0058412231562265226 0.39891749499975832 0 -0.017202423973373768 0.37968737263981228 0 -0.018646700241063071 0.39302480292672293 0 -0.0036227877329230301 0.37947700469323042 0 -0.0072392309157056894 0.43649428994281841 0 -0.01082192781792536 0.4212785973985777 0 -0.025245314308565012 0.42614172839533782 0 -0.0072392309157056894 0.43649428994281841 0 -0.01082192781792536 0.4212785973985777 0 0.0059488009041311612 0.41735624870114602 0 -0.0081246324890641812 0.40805065625530412 0 -0.01082192781792536 0.4212785973985777 0 -0.02380123978217763 0.41023834757766542 0 -0.0081246324890641812 0.40805065625530412 0 -0.01082192781792536 0.4212785973985777 0 0.0059488009041311612 0.41735624870114602 0 -0.02380123978217763 0.41023834757766542 0 -0.025245314308565012 0.42614172839533782 0 -0.037770955976974781 0.41204834058667128 0 -0.01082192781792536 0.4212785973985777 0 -0.02380123978217763 0.41023834757766542 0 -0.025245314308565012 0.42614172839533782 0 -0.0072392309157056894 0.43649428994281841 0 -0.025245314308565012 0.42614172839533782 0 -0.027102965719072159 0.44246949839488359 0 -0.025245314308565012 0.42614172839533782 0 -0.040202710475436512 0.4262490290171615 0 -0.027102965719072159 0.44246949839488359 0 -0.040202710475436512 0.4262490290171615 0 -0.037770955976974781 0.41204834058667128 0 -0.05600936231039217 0.41342904923233581 0 -0.032850518460687449 0.39898186447299261 0 -0.02380123978217763 0.41023834757766542 0 -0.037770955976974781 0.41204834058667128 0 -0.025245314308565012 0.42614172839533782 0 -0.040202710475436512 0.4262490290171615 0 -0.037770955976974781 0.41204834058667128 0 -0.048516590524589932 0.3972500248245352 0 -0.037770955976974781 0.41204834058667128 0 -0.05600936231039217 0.41342904923233581 0 -0.040202710475436512 0.4262490290171615 0 -0.055943765893954757 0.43144171565494821 0 -0.065135249615538293 0.42231944082984091 0 -0.05600936231039217 0.41342904923233581 0 -0.055943765893954757 0.43144171565494821 0 -0.040202710475436512 0.4262490290171615 0 -0.055943765893954757 0.43144171565494821 0 -0.044517274739645132 0.44459183642540612 0 -0.040202710475436512 0.4262490290171615 0 -0.05600936231039217 0.41342904923233581 0 -0.055943765893954757 0.43144171565494821 0 -0.058335943557526457 0.44624868987483279 0 -0.051109653666529857 0.46081922680591902 0 -0.044517274739645132 0.44459183642540612 0 -0.071684821312473307 0.43663440229273398 0 -0.055943765893954757 0.43144171565494821 0 -0.058335943557526457 0.44624868987483279 0 -0.055943765893954757 0.43144171565494821 0 -0.058335943557526457 0.44624868987483279 0 -0.044517274739645132 0.44459183642540612 0 -0.051109653666529857 0.46081922680591902 0 -0.065163583037585071 0.47887813409757868 0 -0.068424202175029258 0.45775626819515641 0 -0.058335943557526457 0.44624868987483279 0 -0.051109653666529857 0.46081922680591902 0 -0.068424202175029258 0.45775626819515641 0 -0.051109653666529857 0.46081922680591902 0 -0.032757904119458489 0.46093040696708881 0 -0.044531910374045837 0.48023148171387958 0 -0.051109653666529857 0.46081922680591902 0 -0.032757904119458489 0.46093040696708881 0 -0.044517274739645132 0.44459183642540612 0 -0.040202710475436512 0.4262490290171615 0 -0.044517274739645132 0.44459183642540612 0 -0.027102965719072159 0.44246949839488359 0 -0.032757904119458489 0.46093040696708881 0 -0.044517274739645132 0.44459183642540612 0 -0.027102965719072159 0.44246949839488359 0 -0.0072392309157056894 0.43649428994281841 0 -0.027102965719072159 0.44246949839488359 0 -0.01461213653914459 0.45725057482734738 0 -0.032757904119458489 0.46093040696708881 0 -0.027102965719072159 0.44246949839488359 0 -0.01461213653914459 0.45725057482734738 0 -0.032757904119458489 0.46093040696708881 0 -0.01461213653914459 0.45725057482734738 0 -0.02185909025790168 0.48076112241269181 0 -0.01461213653914459 0.45725057482734738 0 -0.003089566724048357 0.47326761514296101 0 0.0026031304198410629 0.45131346537392758 0 -0.0072392309157056894 0.43649428994281841 0 -0.01461213653914459 0.45725057482734738 0 0.0026031304198410629 0.45131346537392758 0 -0.0068935706251778139 0.5 0 -0.003089566724048357 0.47326761514296101 0 -0.02185909025790168 0.48076112241269181 0 -0.01461213653914459 0.45725057482734738 0 -0.003089566724048357 0.47326761514296101 0 -0.02185909025790168 0.48076112241269181 0 -0.0068935706251778139 0.5 0 -0.02185909025790168 0.48076112241269181 0 -0.034398267262659273 0.5 0 -0.02185909025790168 0.48076112241269181 0 -0.034398267262659273 0.5 0 -0.044531910374045837 0.48023148171387958 0 -0.032757904119458489 0.46093040696708881 0 -0.02185909025790168 0.48076112241269181 0 -0.044531910374045837 0.48023148171387958 0 -0.051109653666529857 0.46081922680591902 0 -0.044531910374045837 0.48023148171387958 0 -0.065163583037585071 0.47887813409757868 0 -0.044531910374045837 0.48023148171387958 0 -0.061902963900140731 0.50000000000000089 0 -0.065163583037585071 0.47887813409757868 0 -0.034398267262659273 0.5 0 -0.044531910374045837 0.48023148171387958 0 -0.061902963900140731 0.50000000000000089 0 -0.061902963900140731 0.50000000000000089 0 -0.065163583037585071 0.47887813409757868 0 -0.061902963900140731 0.50000000000000089 0 -0.077838109667281524 0.48710250329852411 0 -0.087854509421354754 0.5 0 -0.061902963900140731 0.50000000000000089 0 -0.077838109667281524 0.48710250329852411 0 -0.065163583037585071 0.47887813409757868 0 -0.077838109667281524 0.48710250329852411 0 -0.087854509421354754 0.5 0 -0.093631833857276997 0.48378290981445132 0 -0.077838109667281524 0.48710250329852411 0 -0.093631833857276997 0.48378290981445132 0 -0.080637658120050082 0.47285147258059063 0 -0.093631833857276997 0.48378290981445132 0 -0.080637658120050082 0.47285147258059063 0 -0.095304075467821936 0.46893627996427029 0 -0.080637658120050082 0.47285147258059063 0 -0.065163583037585071 0.47887813409757868 0 -0.068424202175029258 0.45775626819515641 0 -0.077838109667281524 0.48710250329852411 0 -0.080637658120050082 0.47285147258059063 0 -0.065163583037585071 0.47887813409757868 0 -0.065163583037585071 0.47887813409757868 0 -0.068424202175029258 0.45775626819515641 0 -0.068424202175029258 0.45775626819515641 0 -0.079579065155363032 0.44906004053067289 0 -0.084984891428789844 0.45811025347487683 0 -0.080637658120050082 0.47285147258059063 0 -0.068424202175029258 0.45775626819515641 0 -0.084984891428789844 0.45811025347487683 0 -0.071684821312473307 0.43663440229273398 0 -0.058335943557526457 0.44624868987483279 0 -0.068424202175029258 0.45775626819515641 0 -0.071684821312473307 0.43663440229273398 0 -0.068424202175029258 0.45775626819515641 0 -0.071684821312473307 0.43663440229273398 0 -0.068424202175029258 0.45775626819515641 0 -0.079579065155363032 0.44906004053067289 0 -0.071684821312473307 0.43663440229273398 0 -0.079579065155363032 0.44906004053067289 0 -0.093222345705159748 0.44373923815992428 0 -0.071684821312473307 0.43663440229273398 0 -0.093222345705159748 0.44373923815992428 0 -0.079579065155363032 0.44906004053067289 0 -0.093222345705159748 0.44373923815992428 0 -0.084984891428789844 0.45811025347487683 0 -0.093222345705159748 0.44373923815992428 0 -0.084984891428789844 0.45811025347487683 0 -0.099437105326258865 0.45731761566948659 0 -0.084984891428789844 0.45811025347487683 0 -0.099437105326258865 0.45731761566948659 0 -0.095304075467821936 0.46893627996427029 0 -0.080637658120050082 0.47285147258059063 0 -0.084984891428789844 0.45811025347487683 0 -0.095304075467821936 0.46893627996427029 0 -0.099437105326258865 0.45731761566948659 0 -0.10891434393167621 0.46495823272124781 0 -0.095304075467821936 0.46893627996427029 0 -0.099437105326258865 0.45731761566948659 0 -0.10891434393167621 0.46495823272124781 0 -0.11475987009784661 0.45084407402711402 0 -0.093222345705159748 0.44373923815992428 0 -0.099437105326258865 0.45731761566948659 0 -0.11475987009784661 0.45084407402711402 0 -0.1064787913094135 0.43730588845956792 0 -0.093222345705159748 0.44373923815992428 0 -0.11475987009784661 0.45084407402711402 0 -0.093222345705159748 0.44373923815992428 0 -0.11475987009784661 0.45084407402711402 0 -0.13175207046494611 0.44346192959665548 0 -0.1064787913094135 0.43730588845956792 0 -0.13175207046494611 0.44346192959665548 0 -0.1064787913094135 0.43730588845956792 0 -0.11475987009784661 0.45084407402711402 0 -0.1336307511693739 0.45491465667522191 0 -0.12544051825853689 0.4631374593356033 0 -0.11475987009784661 0.45084407402711402 0 -0.12544051825853689 0.4631374593356033 0 -0.10891434393167621 0.46495823272124781 0 -0.1136160252334053 0.47771856728300521 0 -0.12544051825853689 0.4631374593356033 0 -0.10891434393167621 0.46495823272124781 0 -0.11475987009784661 0.45084407402711402 0 -0.13298062755884579 0.48255116261061692 0 -0.12544051825853689 0.4631374593356033 0 -0.1136160252334053 0.47771856728300521 0 -0.13298062755884579 0.48255116261061692 0 -0.1058458182692171 0.49480807365413371 0 -0.13298062755884579 0.48255116261061692 0 -0.11380605494256869 0.5 0 -0.1058458182692171 0.49480807365413371 0 -0.13298062755884579 0.48255116261061692 0 -0.1136160252334053 0.47771856728300521 0 -0.1058458182692171 0.49480807365413371 0 -0.087854509421354754 0.5 0 -0.11380605494256869 0.5 0 -0.1058458182692171 0.49480807365413371 0 -0.087854509421354754 0.5 0 -0.093631833857276997 0.48378290981445132 0 -0.1058458182692171 0.49480807365413371 0 -0.1136160252334053 0.47771856728300521 0 -0.1058458182692171 0.49480807365413371 0 -0.1043559736166358 0.48381945471134902 0 -0.093631833857276997 0.48378290981445132 0 -0.1058458182692171 0.49480807365413371 0 -0.1043559736166358 0.48381945471134902 0 -0.093631833857276997 0.48378290981445132 0 -0.1048057889081305 0.47442420204765762 0 -0.1043559736166358 0.48381945471134902 0 -0.093631833857276997 0.48378290981445132 0 -0.095304075467821936 0.46893627996427029 0 -0.1048057889081305 0.47442420204765762 0 -0.10891434393167621 0.46495823272124781 0 -0.1136160252334053 0.47771856728300521 0 -0.1048057889081305 0.47442420204765762 0 -0.10891434393167621 0.46495823272124781 0 -0.095304075467821936 0.46893627996427029 0 -0.1048057889081305 0.47442420204765762 0 -0.1136160252334053 0.47771856728300521 0 -0.1048057889081305 0.47442420204765762 0 -0.1043559736166358 0.48381945471134902 0 -0.16372231175516949 0.08442819848465731 0 -0.15093626356447659 0.087069345181943508 0 -0.15518952671466241 0.069788713381716036 0 -0.16372231175516949 0.08442819848465731 0 -0.1756345505012066 0.070889783495268699 0 -0.1751333004977583 0.097143888168289519 0 -0.16372231175516949 0.08442819848465731 0 -0.1751333004977583 0.097143888168289519 0 -0.16171791749774381 0.097249262196068775 0 -0.16372231175516949 0.08442819848465731 0 -0.16171791749774381 0.097249262196068775 0 -0.15093626356447659 0.087069345181943508 0 -0.16372231175516949 0.08442819848465731 0 -0.1756345505012066 0.070889783495268699 0 -0.15518952671466241 0.069788713381716036 0 -0.1756345505012066 0.070889783495268699 0 -0.15518952671466241 0.069788713381716036 0 -0.16223695238926561 0.052594200190125132 0 -0.1756345505012066 0.070889783495268699 0 -0.19053419445951161 0.052610770621845292 0 -0.19612483249420401 0.068091746174319415 0 -0.1756345505012066 0.070889783495268699 0 -0.18871947576181089 0.093673214670465021 0 -0.19612483249420401 0.068091746174319415 0 -0.1756345505012066 0.070889783495268699 0 -0.1751333004977583 0.097143888168289519 0 -0.1756345505012066 0.070889783495268699 0 -0.1751333004977583 0.097143888168289519 0 -0.18871947576181089 0.093673214670465021 0 -0.18131411902941769 0.11925468316661041 0 -0.18871947576181089 0.093673214670465021 0 -0.1751333004977583 0.097143888168289519 0 -0.18131411902941769 0.11925468316661041 0 -0.18871947576181089 0.093673214670465021 0 -0.1751333004977583 0.097143888168289519 0 -0.17463205049430791 0.1233979928413103 0 -0.18131411902941769 0.11925468316661041 0 -0.17463205049430791 0.1233979928413103 0 -0.19892457962824481 0.1205653340059829 0 -0.17463205049430791 0.1233979928413103 0 -0.19892457962824481 0.1205653340059829 0 -0.18530606321329801 0.12949084902847491 0 -0.1751333004977583 0.097143888168289519 0 -0.18131411902941769 0.11925468316661041 0 -0.17463205049430791 0.1233979928413103 0 -0.17463205049430791 0.1233979928413103 0 -0.19892457962824481 0.1205653340059829 0 -0.1751333004977583 0.097143888168289519 0 -0.17463205049430791 0.1233979928413103 0 -0.165591889364022 0.1100935584672583 0 -0.17463205049430791 0.1233979928413103 0 -0.1598554046101329 0.12512104095579701 0 -0.17463205049430791 0.1233979928413103 0 -0.16396547557359309 0.1179523604009539 0 -0.1598554046101329 0.12512104095579701 0 -0.17463205049430791 0.1233979928413103 0 -0.165591889364022 0.1100935584672583 0 -0.16396547557359309 0.1179523604009539 0 -0.165591889364022 0.1100935584672583 0 -0.16396547557359309 0.1179523604009539 0 -0.1557825578259103 0.11319684933944919 0 -0.16396547557359309 0.1179523604009539 0 -0.1557825578259103 0.11319684933944919 0 -0.1598554046101329 0.12512104095579701 0 -0.1751333004977583 0.097143888168289519 0 -0.165591889364022 0.1100935584672583 0 -0.16171791749774381 0.097249262196068775 0 -0.165591889364022 0.1100935584672583 0 -0.1513048045227823 0.10252569531319269 0 -0.1557825578259103 0.11319684933944919 0 -0.165591889364022 0.1100935584672583 0 -0.16171791749774381 0.097249262196068775 0 -0.1513048045227823 0.10252569531319269 0 -0.1513048045227823 0.10252569531319269 0 -0.1355182161913136 0.10914070680675041 0 -0.13964798444238999 0.092855372928561969 0 -0.16171791749774381 0.097249262196068775 0 -0.1513048045227823 0.10252569531319269 0 -0.15093626356447659 0.087069345181943508 0 -0.1513048045227823 0.10252569531319269 0 -0.1557825578259103 0.11319684933944919 0 -0.1355182161913136 0.10914070680675041 0 -0.1513048045227823 0.10252569531319269 0 -0.13964798444238999 0.092855372928561969 0 -0.15093626356447659 0.087069345181943508 0 -0.1557825578259103 0.11319684933944919 0 -0.1355182161913136 0.10914070680675041 0 -0.1598554046101329 0.12512104095579701 0 -0.1355182161913136 0.10914070680675041 0 -0.1598554046101329 0.12512104095579701 0 -0.14280445220814469 0.1192500300409249 0 -0.1598554046101329 0.12512104095579701 0 -0.13922952195075211 0.12752614618091959 0 -0.14280445220814469 0.1192500300409249 0 -0.1355182161913136 0.10914070680675041 0 -0.1598554046101329 0.12512104095579701 0 -0.13074244959953979 0.11946175785799951 0 -0.1355182161913136 0.10914070680675041 0 -0.123743476780604 0.10140915347104661 0 -0.14280445220814469 0.1192500300409249 0 -0.13074244959953979 0.11946175785799951 0 -0.13922952195075211 0.12752614618091959 0 -0.14280445220814469 0.1192500300409249 0 -0.1355182161913136 0.10914070680675041 0 -0.14280445220814469 0.1192500300409249 0 -0.13074244959953979 0.11946175785799951 0 -0.1355182161913136 0.10914070680675041 0 -0.1355182161913136 0.10914070680675041 0 -0.12576525993317081 0.095608920700106598 0 -0.13964798444238999 0.092855372928561969 0 -0.1355182161913136 0.10914070680675041 0 -0.12576525993317081 0.095608920700106598 0 -0.1355182161913136 0.10914070680675041 0 -0.12576525993317081 0.095608920700106598 0 -0.123743476780604 0.10140915347104661 0 -0.1355182161913136 0.10914070680675041 0 -0.123743476780604 0.10140915347104661 0 -0.12576525993317081 0.095608920700106598 0 -0.13964798444238999 0.092855372928561969 0 -0.13471537800020611 0.069932196640817734 0 -0.12576525993317081 0.095608920700106598 0 -0.13471537800020611 0.069932196640817734 0 -0.1158200249735767 0.081810356583590621 0 -0.12576525993317081 0.095608920700106598 0 -0.13471537800020611 0.069932196640817734 0 -0.13964798444238999 0.092855372928561969 0 -0.15093626356447659 0.087069345181943508 0 -0.13471537800020611 0.069932196640817734 0 -0.15093626356447659 0.087069345181943508 0 -0.15518952671466241 0.069788713381716036 0 -0.13471537800020611 0.069932196640817734 0 -0.13471537800020611 0.069932196640817734 0 -0.12657932631233151 0.049909814768299969 0 -0.1143187324205953 0.061132814960732959 0 -0.13471537800020611 0.069932196640817734 0 -0.14366549606724091 0.044255472581528732 0 -0.13471537800020611 0.069932196640817734 0 -0.12657932631233151 0.049909814768299969 0 -0.14366549606724091 0.044255472581528732 0 -0.12657932631233151 0.049909814768299969 0 -0.1284208098020175 0.033179877632891097 0 -0.14366549606724091 0.044255472581528732 0 -0.1284208098020175 0.033179877632891097 0 -0.14366549606724091 0.044255472581528732 0 -0.1467564914265658 0.025061264112791169 0 -0.14366549606724091 0.044255472581528732 0 -0.16223695238926561 0.052594200190125132 0 -0.1605593881585633 0.033401352669864208 0 -0.14366549606724091 0.044255472581528732 0 -0.1467564914265658 0.025061264112791169 0 -0.1605593881585633 0.033401352669864208 0 -0.15518952671466241 0.069788713381716036 0 -0.13471537800020611 0.069932196640817734 0 -0.14366549606724091 0.044255472581528732 0 -0.15518952671466241 0.069788713381716036 0 -0.14366549606724091 0.044255472581528732 0 -0.16223695238926561 0.052594200190125132 0 -0.13137048688310951 -0.003337023478303953 0 -0.13460564055411489 0.01723703355858653 0 -0.11131614731463491 0.019777731715017489 0 -0.13137048688310951 -0.003337023478303953 0 -0.13460564055411489 0.01723703355858653 0 -0.1433170204333889 0.0042533116210359059 0 -0.13137048688310951 -0.003337023478303953 0 -0.1433170204333889 0.0042533116210359059 0 -0.1284208098020175 0.033179877632891097 0 -0.13460564055411489 0.01723703355858653 0 -0.1467564914265658 0.025061264112791169 0 -0.13460564055411489 0.01723703355858653 0 -0.1467564914265658 0.025061264112791169 0 -0.15542372099760421 0.0119454102405231 0 -0.1467564914265658 0.025061264112791169 0 -0.15542372099760421 0.0119454102405231 0 -0.1605593881585633 0.033401352669864208 0 -0.13460564055411489 0.01723703355858653 0 -0.15542372099760421 0.0119454102405231 0 -0.1433170204333889 0.0042533116210359059 0 -0.15542372099760421 0.0119454102405231 0 -0.1433170204333889 0.0042533116210359059 0 -0.1564869492866878 -0.00059129627401754796 0 -0.15542372099760421 0.0119454102405231 0 -0.1433170204333889 0.0042533116210359059 0 -0.15542372099760421 0.0119454102405231 0 -0.17947695511209899 0.027227843959349921 0 -0.17208342559322409 0.0058404778805985873 0 -0.1564869492866878 -0.00059129627401754796 0 -0.15542372099760421 0.0119454102405231 0 -0.17208342559322409 0.0058404778805985873 0 -0.15542372099760421 0.0119454102405231 0 -0.17947695511209899 0.027227843959349921 0 -0.1605593881585633 0.033401352669864208 0 -0.15542372099760421 0.0119454102405231 0 -0.17947695511209899 0.027227843959349921 0 -0.18418091461086311 -0.0067458590849352237 0 -0.17208342559322409 0.0058404778805985873 0 -0.19246094727398991 0.01350162855121731 0 -0.17947695511209899 0.027227843959349921 0 -0.17208342559322409 0.0058404778805985873 0 -0.19246094727398991 0.01350162855121731 0 -0.1756345505012066 0.070889783495268699 0 -0.16223695238926561 0.052594200190125132 0 -0.17613580050465499 0.044635678822247941 0 -0.16223695238926561 0.052594200190125132 0 -0.1605593881585633 0.033401352669864208 0 -0.17613580050465499 0.044635678822247941 0 -0.17947695511209899 0.027227843959349921 0 -0.17613580050465499 0.044635678822247941 0 -0.19053419445951161 0.052610770621845292 0 -0.17947695511209899 0.027227843959349921 0 -0.1605593881585633 0.033401352669864208 0 -0.17613580050465499 0.044635678822247941 0 -0.1756345505012066 0.070889783495268699 0 -0.17613580050465499 0.044635678822247941 0 -0.1756345505012066 0.070889783495268699 0 -0.17613580050465499 0.044635678822247941 0 -0.19053419445951161 0.052610770621845292 0 -0.20353018922659619 0.042510277678173593 0 -0.19612483249420401 0.068091746174319415 0 -0.19053419445951161 0.052610770621845292 0 -0.20353018922659619 0.042510277678173593 0 -0.19612483249420401 0.068091746174319415 0 -0.17947695511209899 0.027227843959349921 0 -0.20353018922659619 0.042510277678173593 0 -0.17947695511209899 0.027227843959349921 0 -0.19053419445951161 0.052610770621845292 0 -0.20353018922659619 0.042510277678173593 0 -0.20353018922659619 0.042510277678173593 0 -0.21955159654467851 0.052689619643397433 0 -0.22113039192623851 0.032431486205985689 0 -0.20353018922659619 0.042510277678173593 0 -0.2127216369241372 0.066942535097736622 0 -0.19612483249420401 0.068091746174319415 0 -0.20353018922659619 0.042510277678173593 0 -0.21955159654467851 0.052689619643397433 0 -0.20353018922659619 0.042510277678173593 0 -0.21955159654467851 0.052689619643397433 0 -0.2127216369241372 0.066942535097736622 0 -0.2008908429601583 -0.001101000049535744 0 -0.19246094727398991 0.01350162855121731 0 -0.21117588750041991 0.016098560242972841 0 -0.18418091461086311 -0.0067458590849352237 0 -0.2008908429601583 -0.001101000049535744 0 -0.19246094727398991 0.01350162855121731 0 -0.17947695511209899 0.027227843959349921 0 -0.20353018922659619 0.042510277678173593 0 -0.19246094727398991 0.01350162855121731 0 -0.20353018922659619 0.042510277678173593 0 -0.19246094727398991 0.01350162855121731 0 -0.21117588750041991 0.016098560242972841 0 -0.20353018922659619 0.042510277678173593 0 -0.21117588750041991 0.016098560242972841 0 -0.22113039192623851 0.032431486205985689 0 -0.20353018922659619 0.042510277678173593 0 -0.21117588750041991 0.016098560242972841 0 -0.21882158577424271 -0.0103131571922281 0 -0.21117588750041991 0.016098560242972841 0 -0.2008908429601583 -0.001101000049535744 0 -0.21882158577424271 -0.0103131571922281 0 -0.21117588750041991 0.016098560242972841 0 -0.21882158577424271 -0.0103131571922281 0 -0.21117588750041991 0.016098560242972841 0 -0.23546354233931949 0.0078270751002715265 0 -0.23546354233931949 0.0078270751002715265 0 -0.22113039192623851 0.032431486205985689 0 -0.24192231969137759 0.032530148466345048 0 -0.21117588750041991 0.016098560242972841 0 -0.23546354233931949 0.0078270751002715265 0 -0.22113039192623851 0.032431486205985689 0 -0.26249405175029211 0.007662734938978108 0 -0.23546354233931949 0.0078270751002715265 0 -0.24192231969137759 0.032530148466345048 0 -0.21955159654467851 0.052689619643397433 0 -0.235573003862763 0.062868961608618018 0 -0.21955159654467851 0.052689619643397433 0 -0.235573003862763 0.062868961608618018 0 -0.2127216369241372 0.066942535097736622 0 -0.21955159654467851 0.052689619643397433 0 -0.24450296286368231 0.049373315754277197 0 -0.235573003862763 0.062868961608618018 0 -0.21955159654467851 0.052689619643397433 0 -0.22113039192623851 0.032431486205985689 0 -0.24192231969137759 0.032530148466345048 0 -0.21955159654467851 0.052689619643397433 0 -0.24192231969137759 0.032530148466345048 0 -0.24450296286368231 0.049373315754277197 0 -0.2559826395353394 0.061597363551489349 0 -0.24450296286368231 0.049373315754277197 0 -0.235573003862763 0.062868961608618018 0 -0.2559826395353394 0.061597363551489349 0 -0.235573003862763 0.062868961608618018 0 -0.24672703352553629 0.080158677613093823 0 -0.235573003862763 0.062868961608618018 0 -0.24672703352553629 0.080158677613093823 0 -0.2291931736768115 0.079240865998811236 0 -0.24672703352553629 0.080158677613093823 0 -0.2291931736768115 0.079240865998811236 0 -0.23621836434907981 0.095400964388867249 0 -0.25734245126200062 0.1014160866788785 0 -0.24672703352553629 0.080158677613093823 0 -0.23621836434907981 0.095400964388867249 0 -0.2291931736768115 0.079240865998811236 0 -0.21482055865464289 0.083254774020096164 0 -0.2224133943648228 0.095863443882093446 0 -0.2291931736768115 0.079240865998811236 0 -0.2224133943648228 0.095863443882093446 0 -0.23621836434907981 0.095400964388867249 0 -0.235573003862763 0.062868961608618018 0 -0.2291931736768115 0.079240865998811236 0 -0.2127216369241372 0.066942535097736622 0 -0.2291931736768115 0.079240865998811236 0 -0.2127216369241372 0.066942535097736622 0 -0.21482055865464289 0.083254774020096164 0 -0.2127216369241372 0.066942535097736622 0 -0.21482055865464289 0.083254774020096164 0 -0.203099952488771 0.082051867707200909 0 -0.2127216369241372 0.066942535097736622 0 -0.203099952488771 0.082051867707200909 0 -0.19612483249420401 0.068091746174319415 0 -0.21482055865464289 0.083254774020096164 0 -0.203099952488771 0.082051867707200909 0 -0.20375886312158339 0.098403164090322431 0 -0.21482055865464289 0.083254774020096164 0 -0.20375886312158339 0.098403164090322431 0 -0.2224133943648228 0.095863443882093446 0 -0.203099952488771 0.082051867707200909 0 -0.18871947576181089 0.093673214670465021 0 -0.19612483249420401 0.068091746174319415 0 -0.203099952488771 0.082051867707200909 0 -0.18871947576181089 0.093673214670465021 0 -0.20375886312158339 0.098403164090322431 0 -0.18871947576181089 0.093673214670465021 0 -0.19612483249420401 0.068091746174319415 0 -0.18131411902941769 0.11925468316661041 0 -0.19892457962824481 0.1205653340059829 0 -0.19516396372389291 0.10855896077987801 0 -0.19892457962824481 0.1205653340059829 0 -0.19516396372389291 0.10855896077987801 0 -0.2064149638336307 0.1103678524700213 0 -0.18131411902941769 0.11925468316661041 0 -0.18871947576181089 0.093673214670465021 0 -0.19516396372389291 0.10855896077987801 0 -0.18871947576181089 0.093673214670465021 0 -0.19516396372389291 0.10855896077987801 0 -0.20375886312158339 0.098403164090322431 0 -0.19516396372389291 0.10855896077987801 0 -0.20375886312158339 0.098403164090322431 0 -0.2064149638336307 0.1103678524700213 0 -0.20375886312158339 0.098403164090322431 0 -0.21522430961498251 0.1066047727861448 0 -0.2064149638336307 0.1103678524700213 0 -0.20375886312158339 0.098403164090322431 0 -0.21522430961498251 0.1066047727861448 0 -0.2224133943648228 0.095863443882093446 0 -0.19892457962824481 0.1205653340059829 0 -0.2064149638336307 0.1103678524700213 0 -0.22321710876218179 0.117732675170656 0 -0.19892457962824481 0.1205653340059829 0 -0.22321710876218179 0.117732675170656 0 -0.21198243415042209 0.1273270768851994 0 -0.19892457962824481 0.1205653340059829 0 -0.22321710876218179 0.117732675170656 0 -0.21522430961498251 0.1066047727861448 0 -0.2064149638336307 0.1103678524700213 0 -0.22321710876218179 0.117732675170656 0 -0.22321710876218179 0.117732675170656 0 -0.22699489982736379 0.11729216141517949 0 -0.22321710876218179 0.117732675170656 0 -0.22699489982736379 0.11729216141517949 0 -0.22407622611686431 0.1086811689817279 0 -0.21522430961498251 0.1066047727861448 0 -0.22321710876218179 0.117732675170656 0 -0.21522430961498251 0.1066047727861448 0 -0.22321710876218179 0.117732675170656 0 -0.22407622611686431 0.1086811689817279 0 -0.22699489982736379 0.11729216141517949 0 -0.22407622611686431 0.1086811689817279 0 -0.23779668997176759 0.1099640720218579 0 -0.21522430961498251 0.1066047727861448 0 -0.2224133943648228 0.095863443882093446 0 -0.22407622611686431 0.1086811689817279 0 -0.22407622611686431 0.1086811689817279 0 -0.23621836434907981 0.095400964388867249 0 -0.23779668997176759 0.1099640720218579 0 -0.2224133943648228 0.095863443882093446 0 -0.22407622611686431 0.1086811689817279 0 -0.23621836434907981 0.095400964388867249 0 -0.25734245126200062 0.1014160866788785 0 -0.23621836434907981 0.095400964388867249 0 -0.23779668997176759 0.1099640720218579 0 -0.25734245126200062 0.1014160866788785 0 -0.23779668997176759 0.1099640720218579 0 -0.24895710550971339 0.12165530893482571 0 -0.2385801137665676 0.122701518390659 0 -0.23779668997176759 0.1099640720218579 0 -0.24895710550971339 0.12165530893482571 0 -0.22699489982736379 0.11729216141517949 0 -0.2385801137665676 0.122701518390659 0 -0.23779668997176759 0.1099640720218579 0 -0.22699489982736379 0.11729216141517949 0 -0.2385801137665676 0.122701518390659 0 -0.2405717597574257 0.1418945311907728 0 -0.2385801137665676 0.122701518390659 0 -0.24895710550971339 0.12165530893482571 0 -0.2405717597574257 0.1418945311907728 0 -0.25608290515330878 0.14176455504424121 0 -0.24895710550971339 0.12165530893482571 0 -0.2405717597574257 0.1418945311907728 0 -0.24895710550971339 0.12165530893482571 0 -0.2405717597574257 0.1418945311907728 0 -0.22321710876218179 0.117732675170656 0 -0.22354757195218369 0.13155214617265881 0 -0.2405717597574257 0.1418945311907728 0 -0.22321710876218179 0.117732675170656 0 -0.22699489982736379 0.11729216141517949 0 -0.2405717597574257 0.1418945311907728 0 -0.22321710876218179 0.117732675170656 0 -0.2405717597574257 0.1418945311907728 0 -0.22354757195218369 0.13155214617265881 0 -0.22866128532361621 0.14153149423513051 0 -0.2405717597574257 0.1418945311907728 0 -0.21878746546912231 0.1392010645796998 0 -0.22354757195218369 0.13155214617265881 0 -0.22866128532361621 0.14153149423513051 0 -0.21878746546912231 0.1392010645796998 0 -0.22354757195218369 0.13155214617265881 0 -0.2159650745918322 0.13357921232561451 0 -0.22321710876218179 0.117732675170656 0 -0.22354757195218369 0.13155214617265881 0 -0.21198243415042209 0.1273270768851994 0 -0.22866128532361621 0.14153149423513051 0 -0.2405717597574257 0.1418945311907728 0 -0.23379856030635021 0.15824260950785349 0 -0.2220979066771098 0.14976549412664819 0 -0.22866128532361621 0.14153149423513051 0 -0.23379856030635021 0.15824260950785349 0 -0.2220979066771098 0.14976549412664819 0 -0.23379856030635021 0.15824260950785349 0 -0.21909321543322929 0.1606009590281276 0 -0.21878746546912231 0.1392010645796998 0 -0.2220979066771098 0.14976549412664819 0 -0.22866128532361621 0.14153149423513051 0 -0.25072842261960387 0.15603505327837411 0 -0.2405717597574257 0.1418945311907728 0 -0.23379856030635021 0.15824260950785349 0 -0.2405717597574257 0.1418945311907728 0 -0.23379856030635021 0.15824260950785349 0 -0.25072842261960387 0.15603505327837411 0 -0.25608290515330878 0.14176455504424121 0 -0.2405717597574257 0.1418945311907728 0 -0.25072842261960387 0.15603505327837411 0 -0.2405717597574257 0.1418945311907728 0 -0.24346313069296871 0.16633892637512099 0 -0.22702536085527411 0.17459068782493389 0 -0.23379856030635021 0.15824260950785349 0 -0.25072842261960387 0.15603505327837411 0 -0.24346313069296871 0.16633892637512099 0 -0.23379856030635021 0.15824260950785349 0 -0.24593749817207319 0.17922101447869401 0 -0.22702536085527411 0.17459068782493389 0 -0.23531355475386351 0.19206411553567329 0 -0.24346313069296871 0.16633892637512099 0 -0.24593749817207319 0.17922101447869401 0 -0.22702536085527411 0.17459068782493389 0 -0.22702536085527411 0.17459068782493389 0 -0.23531355475386351 0.19206411553567329 0 -0.21668486691279551 0.1896349297876268 0 -0.22702536085527411 0.17459068782493389 0 -0.21909321543322929 0.1606009590281276 0 -0.21078083849551829 0.1734645188772713 0 -0.22702536085527411 0.17459068782493389 0 -0.23379856030635021 0.15824260950785349 0 -0.22702536085527411 0.17459068782493389 0 -0.23379856030635021 0.15824260950785349 0 -0.21909321543322929 0.1606009590281276 0 -0.21909321543322929 0.1606009590281276 0 -0.20917883787537819 0.16210322782447459 0 -0.21014900685323101 0.14925134328242939 0 -0.21909321543322929 0.1606009590281276 0 -0.20917883787537819 0.16210322782447459 0 -0.21078083849551829 0.1734645188772713 0 -0.20917883787537819 0.16210322782447459 0 -0.21078083849551829 0.1734645188772713 0 -0.19690649474481761 0.16930016240990661 0 -0.22702536085527411 0.17459068782493389 0 -0.21078083849551829 0.1734645188772713 0 -0.21668486691279551 0.1896349297876268 0 -0.21078083849551829 0.1734645188772713 0 -0.21668486691279551 0.1896349297876268 0 -0.19675568901559279 0.189567439062066 0 -0.21078083849551829 0.1734645188772713 0 -0.19690649474481761 0.16930016240990661 0 -0.19675568901559279 0.189567439062066 0 -0.19690649474481761 0.16930016240990661 0 -0.19675568901559279 0.189567439062066 0 -0.1806498087268969 0.1809583004820513 0 -0.20917883787537819 0.16210322782447459 0 -0.20149615309500679 0.15718250099910261 0 -0.19690649474481761 0.16930016240990661 0 -0.20149615309500679 0.15718250099910261 0 -0.19690649474481761 0.16930016240990661 0 -0.1900737238031488 0.15648625425656729 0 -0.19690649474481761 0.16930016240990661 0 -0.1900737238031488 0.15648625425656729 0 -0.18329050548046091 0.16641049957591181 0 -0.1900737238031488 0.15648625425656729 0 -0.1892816596668532 0.14729824464464031 0 -0.18348409084234379 0.15060627553684849 0 -0.1900737238031488 0.15648625425656729 0 -0.19814782504055481 0.14911065488519101 0 -0.1892816596668532 0.14729824464464031 0 -0.20149615309500679 0.15718250099910261 0 -0.1900737238031488 0.15648625425656729 0 -0.19814782504055481 0.14911065488519101 0 -0.19814782504055481 0.14911065488519101 0 -0.2022681758196824 0.14167303138421811 0 -0.1943649823155553 0.141902467696427 0 -0.19814782504055481 0.14911065488519101 0 -0.1943649823155553 0.141902467696427 0 -0.1892816596668532 0.14729824464464031 0 -0.1943649823155553 0.141902467696427 0 -0.1892816596668532 0.14729824464464031 0 -0.18843187665971381 0.14117764216521481 0 -0.1943649823155553 0.141902467696427 0 -0.18843187665971381 0.14117764216521481 0 -0.1909929067815555 0.135001194222511 0 -0.18843187665971381 0.14117764216521481 0 -0.1909929067815555 0.135001194222511 0 -0.18421136551585299 0.13733957154214979 0 -0.19892457962824481 0.1205653340059829 0 -0.1909929067815555 0.135001194222511 0 -0.18530606321329801 0.12949084902847491 0 -0.19892457962824481 0.1205653340059829 0 -0.1909929067815555 0.135001194222511 0 -0.20124287374027899 0.13384974139548031 0 -0.2022681758196824 0.14167303138421811 0 -0.1943649823155553 0.141902467696427 0 -0.20124287374027899 0.13384974139548031 0 -0.1943649823155553 0.141902467696427 0 -0.1909929067815555 0.135001194222511 0 -0.20124287374027899 0.13384974139548031 0 -0.2022681758196824 0.14167303138421811 0 -0.20124287374027899 0.13384974139548031 0 -0.20954282679560091 0.1362365616649002 0 -0.20124287374027899 0.13384974139548031 0 -0.20954282679560091 0.1362365616649002 0 -0.21198243415042209 0.1273270768851994 0 -0.19892457962824481 0.1205653340059829 0 -0.20124287374027899 0.13384974139548031 0 -0.21198243415042209 0.1273270768851994 0 -0.22354757195218369 0.13155214617265881 0 -0.21198243415042209 0.1273270768851994 0 -0.2159650745918322 0.13357921232561451 0 -0.20954282679560091 0.1362365616649002 0 -0.21198243415042209 0.1273270768851994 0 -0.2159650745918322 0.13357921232561451 0 -0.21878746546912231 0.1392010645796998 0 -0.20954282679560091 0.1362365616649002 0 -0.2159650745918322 0.13357921232561451 0 -0.21878746546912231 0.1392010645796998 0 -0.2220979066771098 0.14976549412664819 0 -0.21014900685323101 0.14925134328242939 0 -0.21878746546912231 0.1392010645796998 0 -0.20954282679560091 0.1362365616649002 0 -0.21014900685323101 0.14925134328242939 0 -0.2220979066771098 0.14976549412664819 0 -0.21909321543322929 0.1606009590281276 0 -0.21014900685323101 0.14925134328242939 0 -0.20149615309500679 0.15718250099910261 0 -0.19814782504055481 0.14911065488519101 0 -0.21014900685323101 0.14925134328242939 0 -0.20917883787537819 0.16210322782447459 0 -0.20149615309500679 0.15718250099910261 0 -0.21014900685323101 0.14925134328242939 0 -0.19814782504055481 0.14911065488519101 0 -0.2022681758196824 0.14167303138421811 0 -0.21014900685323101 0.14925134328242939 0 -0.2022681758196824 0.14167303138421811 0 -0.20954282679560091 0.1362365616649002 0 -0.21014900685323101 0.14925134328242939 0 -0.2254770662958033 0.23770261769940551 0 -0.2355501434136231 0.2478522206023164 0 -0.23301571208005251 0.22631711136445781 0 -0.2254770662958033 0.23770261769940551 0 -0.21946187770755399 0.2272335662722752 0 -0.2144294763495698 0.23954399660221651 0 -0.22222104444170529 0.2467327462878163 0 -0.2254770662958033 0.23770261769940551 0 -0.2144294763495698 0.23954399660221651 0 -0.22222104444170529 0.2467327462878163 0 -0.2254770662958033 0.23770261769940551 0 -0.2355501434136231 0.2478522206023164 0 -0.25210514226647263 0.23555423440704959 0 -0.2355501434136231 0.2478522206023164 0 -0.2466801300010773 0.2452604621424746 0 -0.2355501434136231 0.2478522206023164 0 -0.248734035528067 0.22266264303674471 0 -0.25210514226647263 0.23555423440704959 0 -0.2355501434136231 0.2478522206023164 0 -0.248734035528067 0.22266264303674471 0 -0.23310158204141429 0.25640081827561029 0 -0.2355501434136231 0.2478522206023164 0 -0.2466801300010773 0.2452604621424746 0 -0.25210514226647263 0.23555423440704959 0 -0.2466801300010773 0.2452604621424746 0 -0.25054816238852479 0.24059870715785611 0 -0.25210514226647263 0.23555423440704959 0 -0.2466801300010773 0.2452604621424746 0 -0.25272816581491458 0.21503132644266379 0 -0.23589780562791721 0.22466705357138941 0 -0.2355501434136231 0.2478522206023164 0 -0.23589780562791721 0.22466705357138941 0 -0.23301571208005251 0.22631711136445781 0 -0.2355501434136231 0.2478522206023164 0 -0.248734035528067 0.22266264303674471 0 -0.23589780562791721 0.22466705357138941 0 -0.25272816581491458 0.21503132644266379 0 -0.248734035528067 0.22266264303674471 0 -0.23589780562791721 0.22466705357138941 0 -0.248734035528067 0.22266264303674471 0 -0.23589780562791721 0.22466705357138941 0 -0.23589780562791721 0.22466705357138941 0 -0.23301571208005251 0.22631711136445781 0 -0.23589780562791721 0.22466705357138941 0 -0.21946187770755399 0.2272335662722752 0 -0.225888155969557 0.21631124094479351 0 -0.23589780562791721 0.22466705357138941 0 -0.23301571208005251 0.22631711136445781 0 -0.21946187770755399 0.2272335662722752 0 -0.23589780562791721 0.22466705357138941 0 -0.21946187770755399 0.2272335662722752 0 -0.2254770662958033 0.23770261769940551 0 -0.23301571208005251 0.22631711136445781 0 -0.21946187770755399 0.2272335662722752 0 -0.21946187770755399 0.2272335662722752 0 -0.225888155969557 0.21631124094479351 0 -0.2147498456923036 0.21679580952784941 0 -0.225888155969557 0.21631124094479351 0 -0.2163983660951504 0.20664118688365379 0 -0.2147498456923036 0.21679580952784941 0 -0.225888155969557 0.21631124094479351 0 -0.22900898315534271 0.20498679461036609 0 -0.2163983660951504 0.20664118688365379 0 -0.225888155969557 0.21631124094479351 0 -0.22900898315534271 0.20498679461036609 0 -0.23632785610705401 0.21457891752941979 0 -0.23589780562791721 0.22466705357138941 0 -0.225888155969557 0.21631124094479351 0 -0.23632785610705401 0.21457891752941979 0 -0.25272816581491458 0.21503132644266379 0 -0.23632785610705401 0.21457891752941979 0 -0.24165148627456459 0.20791054123727601 0 -0.25272816581491458 0.21503132644266379 0 -0.23589780562791721 0.22466705357138941 0 -0.23632785610705401 0.21457891752941979 0 -0.25462413856064708 0.2114088186030785 0 -0.24165148627456459 0.20791054123727601 0 -0.23531355475386351 0.19206411553567329 0 -0.25272816581491458 0.21503132644266379 0 -0.25462413856064708 0.2114088186030785 0 -0.24165148627456459 0.20791054123727601 0 -0.22900898315534271 0.20498679461036609 0 -0.23632785610705401 0.21457891752941979 0 -0.24165148627456459 0.20791054123727601 0 -0.25193880530206408 0.19370481573741441 0 -0.24593749817207319 0.17922101447869401 0 -0.23531355475386351 0.19206411553567329 0 -0.25462413856064708 0.2114088186030785 0 -0.23531355475386351 0.19206411553567329 0 -0.25193880530206408 0.19370481573741441 0 -0.25462413856064708 0.2114088186030785 0 -0.23531355475386351 0.19206411553567329 0 -0.22900898315534271 0.20498679461036609 0 -0.24165148627456459 0.20791054123727601 0 -0.23531355475386351 0.19206411553567329 0 -0.22900898315534271 0.20498679461036609 0 -0.21668486691279551 0.1896349297876268 0 -0.2163983660951504 0.20664118688365379 0 -0.22900898315534271 0.20498679461036609 0 -0.23531355475386351 0.19206411553567329 0 -0.21668486691279551 0.1896349297876268 0 -0.21668486691279551 0.1896349297876268 0 -0.20588600075920099 0.20051631774142969 0 -0.2163983660951504 0.20664118688365379 0 -0.21668486691279551 0.1896349297876268 0 -0.20588600075920099 0.20051631774142969 0 -0.19675568901559279 0.189567439062066 0 -0.20588600075920099 0.20051631774142969 0 -0.19675568901559279 0.189567439062066 0 -0.1872373767624223 0.2114249087681892 0 -0.20588600075920099 0.20051631774142969 0 -0.203925412238775 0.2130566048024192 0 -0.1872373767624223 0.2114249087681892 0 -0.203925412238775 0.2130566048024192 0 -0.20302594978719091 0.22980007897316179 0 -0.1872373767624223 0.2114249087681892 0 -0.20588600075920099 0.20051631774142969 0 -0.203925412238775 0.2130566048024192 0 -0.2163983660951504 0.20664118688365379 0 -0.203925412238775 0.2130566048024192 0 -0.2163983660951504 0.20664118688365379 0 -0.2147498456923036 0.21679580952784941 0 -0.21946187770755399 0.2272335662722752 0 -0.20302594978719091 0.22980007897316179 0 -0.2144294763495698 0.23954399660221651 0 -0.21946187770755399 0.2272335662722752 0 -0.20302594978719091 0.22980007897316179 0 -0.21946187770755399 0.2272335662722752 0 -0.2147498456923036 0.21679580952784941 0 -0.20302594978719091 0.22980007897316179 0 -0.203925412238775 0.2130566048024192 0 -0.2147498456923036 0.21679580952784941 0 -0.20302594978719091 0.22980007897316179 0 -0.20302594978719091 0.22980007897316179 0 -0.1861179612628448 0.23220845709977719 0 -0.1872373767624223 0.2114249087681892 0 -0.18859670902218051 0.25052543551881717 0 -0.20132404028626799 0.2438270423260239 0 -0.1861179612628448 0.23220845709977719 0 -0.20302594978719091 0.22980007897316179 0 -0.20132404028626799 0.2438270423260239 0 -0.1861179612628448 0.23220845709977719 0 -0.21371201764358261 0.25214650866738469 0 -0.20132404028626799 0.2438270423260239 0 -0.2144294763495698 0.23954399660221651 0 -0.20302594978719091 0.22980007897316179 0 -0.20132404028626799 0.2438270423260239 0 -0.2144294763495698 0.23954399660221651 0 -0.21371201764358261 0.25214650866738469 0 -0.22222104444170529 0.2467327462878163 0 -0.2144294763495698 0.23954399660221651 0 -0.1613020889038615 0.23837444865205379 0 -0.1765110772481347 0.2431385849621667 0 -0.17254032084098081 0.22750047358122369 0 -0.1593990608277665 0.26226189644582071 0 -0.1613020889038615 0.23837444865205379 0 -0.1765110772481347 0.2431385849621667 0 -0.18859670902218051 0.25052543551881717 0 -0.1765110772481347 0.2431385849621667 0 -0.1861179612628448 0.23220845709977719 0 -0.17254032084098081 0.22750047358122369 0 -0.1861179612628448 0.23220845709977719 0 -0.1872373767624223 0.2114249087681892 0 -0.1765110772481347 0.2431385849621667 0 -0.17254032084098081 0.22750047358122369 0 -0.1861179612628448 0.23220845709977719 0 -0.1613020889038615 0.23837444865205379 0 -0.17254032084098081 0.22750047358122369 0 -0.16320511697995649 0.2144870008582867 0 -0.1613020889038615 0.23837444865205379 0 -0.16320511697995649 0.2144870008582867 0 -0.1529468832891846 0.22419885760078639 0 -0.1613020889038615 0.23837444865205379 0 -0.16320511697995649 0.2144870008582867 0 -0.16320511697995649 0.2144870008582867 0 -0.1872373767624223 0.2114249087681892 0 -0.17633970375998559 0.20030682361007979 0 -0.17254032084098081 0.22750047358122369 0 -0.16320511697995649 0.2144870008582867 0 -0.1872373767624223 0.2114249087681892 0 -0.19675568901559279 0.189567439062066 0 -0.17633970375998559 0.20030682361007979 0 -0.1806498087268969 0.1809583004820513 0 -0.19675568901559279 0.189567439062066 0 -0.1872373767624223 0.2114249087681892 0 -0.17633970375998559 0.20030682361007979 0 -0.17633970375998559 0.20030682361007979 0 -0.16510814505605159 0.19059955306451951 0 -0.1806498087268969 0.1809583004820513 0 -0.16320511697995649 0.2144870008582867 0 -0.16510814505605159 0.19059955306451951 0 -0.16320511697995649 0.2144870008582867 0 -0.17633970375998559 0.20030682361007979 0 -0.16510814505605159 0.19059955306451951 0 -0.16320511697995649 0.2144870008582867 0 -0.16510814505605159 0.19059955306451951 0 -0.15189646247486119 0.19678216421774269 0 -0.15189646247486119 0.19678216421774269 0 -0.1348313290251755 0.19391948141146001 0 -0.14981517013628179 0.1764661855652461 0 -0.15189646247486119 0.19678216421774269 0 -0.1348313290251755 0.19391948141146001 0 -0.1465225511768404 0.20843860018920141 0 -0.16510814505605159 0.19059955306451951 0 -0.15189646247486119 0.19678216421774269 0 -0.14981517013628179 0.1764661855652461 0 -0.1348313290251755 0.19391948141146001 0 -0.1252468427212147 0.2168953735999099 0 -0.1203089118816133 0.20055052938219861 0 -0.1348313290251755 0.19391948141146001 0 -0.1252468427212147 0.2168953735999099 0 -0.1465225511768404 0.20843860018920141 0 -0.16320511697995649 0.2144870008582867 0 -0.1465225511768404 0.20843860018920141 0 -0.1529468832891846 0.22419885760078639 0 -0.16320511697995649 0.2144870008582867 0 -0.15189646247486119 0.19678216421774269 0 -0.1465225511768404 0.20843860018920141 0 -0.1465225511768404 0.20843860018920141 0 -0.14075777609607981 0.2354953807036036 0 -0.1465225511768404 0.20843860018920141 0 -0.1529468832891846 0.22419885760078639 0 -0.14075777609607981 0.2354953807036036 0 -0.1613020889038615 0.23837444865205379 0 -0.1529468832891846 0.22419885760078639 0 -0.14075777609607981 0.2354953807036036 0 -0.1252468427212147 0.2168953735999099 0 -0.1465225511768404 0.20843860018920141 0 -0.14075777609607981 0.2354953807036036 0 -0.1252468427212147 0.2168953735999099 0 -0.14075777609607981 0.2354953807036036 0 -0.11832329044822951 0.24304604882281969 0 -0.1349930010153193 0.26255216121800568 0 -0.14075777609607981 0.2354953807036036 0 -0.1349930010153193 0.26255216121800568 0 -0.14075777609607981 0.2354953807036036 0 -0.11832329044822951 0.24304604882281969 0 -0.1349930010153193 0.26255216121800568 0 -0.14075777609607981 0.2354953807036036 0 -0.14911298171075679 0.24967097175487091 0 -0.1613020889038615 0.23837444865205379 0 -0.14075777609607981 0.2354953807036036 0 -0.14911298171075679 0.24967097175487091 0 -0.1662144153725649 0.14970975453020571 0 -0.1667765488875127 0.13812225091292091 0 -0.17427879965612819 0.14190030589397651 0 -0.1662144153725649 0.14970975453020571 0 -0.15453424001036289 0.15945434353378279 0 -0.15202557664741981 0.14720865995561999 0 -0.1662144153725649 0.14970975453020571 0 -0.15911751616331751 0.1391979048316449 0 -0.15202557664741981 0.14720865995561999 0 -0.1662144153725649 0.14970975453020571 0 -0.15911751616331751 0.1391979048316449 0 -0.1667765488875127 0.13812225091292091 0 -0.15911751616331751 0.1391979048316449 0 -0.1598554046101329 0.12512104095579701 0 -0.1667765488875127 0.13812225091292091 0 -0.15911751616331751 0.1391979048316449 0 -0.1598554046101329 0.12512104095579701 0 -0.1500033633973421 0.13584755301834109 0 -0.1598554046101329 0.12512104095579701 0 -0.1667765488875127 0.13812225091292091 0 -0.1744166086354216 0.1346822483529781 0 -0.17463205049430791 0.1233979928413103 0 -0.1598554046101329 0.12512104095579701 0 -0.1744166086354216 0.1346822483529781 0 -0.1598554046101329 0.12512104095579701 0 -0.1744166086354216 0.1346822483529781 0 -0.1667765488875127 0.13812225091292091 0 -0.1744166086354216 0.1346822483529781 0 -0.17427879965612819 0.14190030589397651 0 -0.1744166086354216 0.1346822483529781 0 -0.17427879965612819 0.14190030589397651 0 -0.1744166086354216 0.1346822483529781 0 -0.17777111929803571 0.13688489396563699 0 -0.17427879965612819 0.14190030589397651 0 -0.1744166086354216 0.1346822483529781 0 -0.17777111929803571 0.13688489396563699 0 -0.1744166086354216 0.1346822483529781 0 -0.17777111929803571 0.13688489396563699 0 -0.1798721579770142 0.13261044405125519 0 -0.17777111929803571 0.13688489396563699 0 -0.17908323016457489 0.14155253666455231 0 -0.17427879965612819 0.14190030589397651 0 -0.17463205049430791 0.1233979928413103 0 -0.1744166086354216 0.1346822483529781 0 -0.1798721579770142 0.13261044405125519 0 -0.17463205049430791 0.1233979928413103 0 -0.1744166086354216 0.1346822483529781 0 -0.17463205049430791 0.1233979928413103 0 -0.18530606321329801 0.12949084902847491 0 -0.1798721579770142 0.13261044405125519 0 -0.1909929067815555 0.135001194222511 0 -0.18530606321329801 0.12949084902847491 0 -0.18421136551585299 0.13733957154214979 0 -0.18530606321329801 0.12949084902847491 0 -0.1798721579770142 0.13261044405125519 0 -0.18421136551585299 0.13733957154214979 0 -0.17777111929803571 0.13688489396563699 0 -0.18421136551585299 0.13733957154214979 0 -0.17908323016457489 0.14155253666455231 0 -0.17777111929803571 0.13688489396563699 0 -0.1798721579770142 0.13261044405125519 0 -0.18421136551585299 0.13733957154214979 0 -0.1892816596668532 0.14729824464464031 0 -0.18843187665971381 0.14117764216521481 0 -0.183308469018752 0.14434673272034601 0 -0.18843187665971381 0.14117764216521481 0 -0.18421136551585299 0.13733957154214979 0 -0.183308469018752 0.14434673272034601 0 -0.1892816596668532 0.14729824464464031 0 -0.183308469018752 0.14434673272034601 0 -0.18348409084234379 0.15060627553684849 0 -0.183308469018752 0.14434673272034601 0 -0.1769770860414964 0.14813931566199959 0 -0.18348409084234379 0.15060627553684849 0 -0.183308469018752 0.14434673272034601 0 -0.17908323016457489 0.14155253666455231 0 -0.1769770860414964 0.14813931566199959 0 -0.18421136551585299 0.13733957154214979 0 -0.183308469018752 0.14434673272034601 0 -0.17908323016457489 0.14155253666455231 0 -0.1662144153725649 0.14970975453020571 0 -0.1769770860414964 0.14813931566199959 0 -0.17427879965612819 0.14190030589397651 0 -0.17908323016457489 0.14155253666455231 0 -0.1769770860414964 0.14813931566199959 0 -0.17427879965612819 0.14190030589397651 0 -0.1662144153725649 0.14970975453020571 0 -0.1769770860414964 0.14813931566199959 0 -0.17777951568146841 0.15676083040068911 0 -0.1769770860414964 0.14813931566199959 0 -0.18348409084234379 0.15060627553684849 0 -0.17777951568146841 0.15676083040068911 0 -0.1900737238031488 0.15648625425656729 0 -0.18348409084234379 0.15060627553684849 0 -0.17777951568146841 0.15676083040068911 0 -0.18329050548046091 0.16641049957591181 0 -0.1806498087268969 0.1809583004820513 0 -0.16701117313214661 0.16671210527075239 0 -0.18329050548046091 0.16641049957591181 0 -0.17777951568146841 0.15676083040068911 0 -0.16701117313214661 0.16671210527075239 0 -0.1900737238031488 0.15648625425656729 0 -0.18329050548046091 0.16641049957591181 0 -0.17777951568146841 0.15676083040068911 0 -0.19690649474481761 0.16930016240990661 0 -0.18329050548046091 0.16641049957591181 0 -0.1806498087268969 0.1809583004820513 0 -0.16510814505605159 0.19059955306451951 0 -0.16701117313214661 0.16671210527075239 0 -0.16510814505605159 0.19059955306451951 0 -0.1806498087268969 0.1809583004820513 0 -0.16701117313214661 0.16671210527075239 0 -0.16510814505605159 0.19059955306451951 0 -0.16701117313214661 0.16671210527075239 0 -0.14981517013628179 0.1764661855652461 0 -0.1662144153725649 0.14970975453020571 0 -0.16701117313214661 0.16671210527075239 0 -0.15453424001036289 0.15945434353378279 0 -0.1662144153725649 0.14970975453020571 0 -0.17777951568146841 0.15676083040068911 0 -0.16701117313214661 0.16671210527075239 0 -0.16701117313214661 0.16671210527075239 0 -0.15453424001036289 0.15945434353378279 0 -0.14981517013628179 0.1764661855652461 0 -0.14981517013628179 0.1764661855652461 0 -0.13268914273538329 0.1750509562650924 0 -0.1400456084615111 0.15909886324928099 0 -0.15453424001036289 0.15945434353378279 0 -0.14981517013628179 0.1764661855652461 0 -0.1400456084615111 0.15909886324928099 0 -0.1348313290251755 0.19391948141146001 0 -0.13268914273538329 0.1750509562650924 0 -0.1144809389531023 0.1869767666301351 0 -0.1348313290251755 0.19391948141146001 0 -0.14981517013628179 0.1764661855652461 0 -0.13268914273538329 0.1750509562650924 0 -0.1400456084615111 0.15909886324928099 0 -0.12711493411718411 0.1494661060528254 0 -0.1194513481457689 0.1635609988765839 0 -0.13268914273538329 0.1750509562650924 0 -0.1400456084615111 0.15909886324928099 0 -0.1194513481457689 0.1635609988765839 0 -0.1400456084615111 0.15909886324928099 0 -0.12711493411718411 0.1494661060528254 0 -0.1393467656979451 0.14225431360183649 0 -0.12711493411718411 0.1494661060528254 0 -0.1393467656979451 0.14225431360183649 0 -0.12653041952395039 0.1354161737842513 0 -0.1400456084615111 0.15909886324928099 0 -0.1393467656979451 0.14225431360183649 0 -0.15202557664741981 0.14720865995561999 0 -0.1393467656979451 0.14225431360183649 0 -0.15202557664741981 0.14720865995561999 0 -0.1500033633973421 0.13584755301834109 0 -0.15911751616331751 0.1391979048316449 0 -0.15202557664741981 0.14720865995561999 0 -0.1500033633973421 0.13584755301834109 0 -0.15453424001036289 0.15945434353378279 0 -0.1400456084615111 0.15909886324928099 0 -0.15202557664741981 0.14720865995561999 0 -0.1598554046101329 0.12512104095579701 0 -0.1500033633973421 0.13584755301834109 0 -0.13922952195075211 0.12752614618091959 0 -0.1598554046101329 0.12512104095579701 0 -0.13922952195075211 0.12752614618091959 0 -0.1393467656979451 0.14225431360183649 0 -0.1500033633973421 0.13584755301834109 0 -0.13922952195075211 0.12752614618091959 0 -0.13074244959953979 0.11946175785799951 0 -0.13922952195075211 0.12752614618091959 0 -0.12653041952395039 0.1354161737842513 0 -0.1393467656979451 0.14225431360183649 0 -0.13922952195075211 0.12752614618091959 0 -0.12653041952395039 0.1354161737842513 0 -0.12653041952395039 0.1354161737842513 0 -0.11549744085296181 0.12506595749432459 0 -0.1072514049253199 0.14872276151760261 0 -0.13074244959953979 0.11946175785799951 0 -0.12653041952395039 0.1354161737842513 0 -0.11549744085296181 0.12506595749432459 0 -0.11549744085296181 0.12506595749432459 0 -0.1072514049253199 0.14872276151760261 0 -0.11549744085296181 0.12506595749432459 0 -0.097351596905396909 0.1366011738647028 0 -0.095157466154961498 0.1222738246889692 0 -0.11549744085296181 0.12506595749432459 0 -0.097351596905396909 0.1366011738647028 0 -0.1072514049253199 0.14872276151760261 0 -0.097351596905396909 0.1366011738647028 0 -0.1072514049253199 0.14872276151760261 0 -0.095429287301162569 0.1538271060288352 0 -0.12711493411718411 0.1494661060528254 0 -0.12653041952395039 0.1354161737842513 0 -0.1072514049253199 0.14872276151760261 0 -0.12711493411718411 0.1494661060528254 0 -0.1072514049253199 0.14872276151760261 0 -0.1194513481457689 0.1635609988765839 0 -0.1194513481457689 0.1635609988765839 0 -0.1144809389531023 0.1869767666301351 0 -0.099005368997678006 0.1723795655408806 0 -0.13268914273538329 0.1750509562650924 0 -0.1194513481457689 0.1635609988765839 0 -0.1144809389531023 0.1869767666301351 0 -0.1144809389531023 0.1869767666301351 0 -0.099005368997678006 0.1723795655408806 0 -0.0907593330700361 0.19603636956415871 0 -0.099005368997678006 0.1723795655408806 0 -0.0907593330700361 0.19603636956415871 0 -0.1072514049253199 0.14872276151760261 0 -0.1194513481457689 0.1635609988765839 0 -0.099005368997678006 0.1723795655408806 0 -0.1072514049253199 0.14872276151760261 0 -0.095429287301162569 0.1538271060288352 0 -0.099005368997678006 0.1723795655408806 0 -0.1072514049253199 0.14872276151760261 0 -0.099005368997678006 0.1723795655408806 0 -0.095429287301162569 0.1538271060288352 0 -0.099005368997678006 0.1723795655408806 0 -0.089264976304947813 0.16305913715607981 0 -0.089264976304947813 0.16305913715607981 0 -0.078726297129264447 0.1568051313220773 0 -0.070728802668765189 0.16298784849958539 0 -0.099005368997678006 0.1723795655408806 0 -0.089264976304947813 0.16305913715607981 0 -0.083173158014857834 0.1819778711413477 0 -0.089264976304947813 0.16305913715607981 0 -0.083173158014857834 0.1819778711413477 0 -0.06435517074193417 0.179531982830265 0 -0.099005368997678006 0.1723795655408806 0 -0.083173158014857834 0.1819778711413477 0 -0.0907593330700361 0.19603636956415871 0 -0.083173158014857834 0.1819778711413477 0 -0.06435517074193417 0.179531982830265 0 -0.072480940959693013 0.1988823006153542 0 -0.089264976304947813 0.16305913715607981 0 -0.06435517074193417 0.179531982830265 0 -0.070728802668765189 0.16298784849958539 0 -0.089264976304947813 0.16305913715607981 0 -0.06435517074193417 0.179531982830265 0 -0.06435517074193417 0.179531982830265 0 -0.070728802668765189 0.16298784849958539 0 -0.060817304647522517 0.16063211997463811 0 -0.078726297129264447 0.1568051313220773 0 -0.070728802668765189 0.16298784849958539 0 -0.070638320170874583 0.15280064756773359 0 -0.070728802668765189 0.16298784849958539 0 -0.070638320170874583 0.15280064756773359 0 -0.060817304647522517 0.16063211997463811 0 -0.070638320170874583 0.15280064756773359 0 -0.06050925962069742 0.14933122419088271 0 -0.060817304647522517 0.16063211997463811 0 -0.078726297129264447 0.1568051313220773 0 -0.070638320170874583 0.15280064756773359 0 -0.084273089372470245 0.14837289206491031 0 -0.070638320170874583 0.15280064756773359 0 -0.073986689617270868 0.1403986132245284 0 -0.084273089372470245 0.14837289206491031 0 -0.073986689617270868 0.1403986132245284 0 -0.060395274942560528 0.13416549391068189 0 -0.06050925962069742 0.14933122419088271 0 -0.070638320170874583 0.15280064756773359 0 -0.073986689617270868 0.1403986132245284 0 -0.06050925962069742 0.14933122419088271 0 -0.073986689617270868 0.1403986132245284 0 -0.079964733767734122 0.12668506296934109 0 -0.060395274942560528 0.13416549391068189 0 -0.060395274942560528 0.13416549391068189 0 -0.068008023874607193 0.1194813826226566 0 -0.073986689617270868 0.1403986132245284 0 -0.085757333202322553 0.1342092020786384 0 -0.079964733767734122 0.12668506296934109 0 -0.097351596905396909 0.1366011738647028 0 -0.085757333202322553 0.1342092020786384 0 -0.095157466154961498 0.1222738246889692 0 -0.085757333202322553 0.1342092020786384 0 -0.079964733767734122 0.12668506296934109 0 -0.095157466154961498 0.1222738246889692 0 -0.097351596905396909 0.1366011738647028 0 -0.085757333202322553 0.1342092020786384 0 -0.084273089372470245 0.14837289206491031 0 -0.097351596905396909 0.1366011738647028 0 -0.095429287301162569 0.1538271060288352 0 -0.084273089372470245 0.14837289206491031 0 -0.095429287301162569 0.1538271060288352 0 -0.089264976304947813 0.16305913715607981 0 -0.084273089372470245 0.14837289206491031 0 -0.089264976304947813 0.16305913715607981 0 -0.078726297129264447 0.1568051313220773 0 -0.084273089372470245 0.14837289206491031 0 -0.073986689617270868 0.1403986132245284 0 -0.085757333202322553 0.1342092020786384 0 -0.084273089372470245 0.14837289206491031 0 -0.097135213821017974 0.2450179218164267 0 -0.11832329044822951 0.24304604882281969 0 -0.10188732904743091 0.22416775388930879 0 -0.1252468427212147 0.2168953735999099 0 -0.11832329044822951 0.24304604882281969 0 -0.10188732904743091 0.22416775388930879 0 -0.10188732904743091 0.22416775388930879 0 -0.10553645135762139 0.20639637139721009 0 -0.085647611720234704 0.211582202570961 0 -0.10553645135762139 0.20639637139721009 0 -0.0907593330700361 0.19603636956415871 0 -0.085647611720234704 0.211582202570961 0 -0.1252468427212147 0.2168953735999099 0 -0.10553645135762139 0.20639637139721009 0 -0.1203089118816133 0.20055052938219861 0 -0.1252468427212147 0.2168953735999099 0 -0.10188732904743091 0.22416775388930879 0 -0.10553645135762139 0.20639637139721009 0 -0.1144809389531023 0.1869767666301351 0 -0.10553645135762139 0.20639637139721009 0 -0.1203089118816133 0.20055052938219861 0 -0.1348313290251755 0.19391948141146001 0 -0.1144809389531023 0.1869767666301351 0 -0.1203089118816133 0.20055052938219861 0 -0.1144809389531023 0.1869767666301351 0 -0.10553645135762139 0.20639637139721009 0 -0.0907593330700361 0.19603636956415871 0 -0.083173158014857834 0.1819778711413477 0 -0.0907593330700361 0.19603636956415871 0 -0.072480940959693013 0.1988823006153542 0 -0.0907593330700361 0.19603636956415871 0 -0.072480940959693013 0.1988823006153542 0 -0.085647611720234704 0.211582202570961 0 -0.06435517074193417 0.179531982830265 0 -0.072480940959693013 0.1988823006153542 0 -0.057501641022342467 0.1963435114306189 0 -0.065516926835851183 0.21659017637723951 0 -0.085647611720234704 0.211582202570961 0 -0.078837631547527487 0.22646261886489361 0 -0.072480940959693013 0.1988823006153542 0 -0.065516926835851183 0.21659017637723951 0 -0.085647611720234704 0.211582202570961 0 -0.072480940959693013 0.1988823006153542 0 -0.065516926835851183 0.21659017637723951 0 -0.056774781747103042 0.20807563334730969 0 -0.097135213821017974 0.2450179218164267 0 -0.10188732904743091 0.22416775388930879 0 -0.078837631547527487 0.22646261886489361 0 -0.10188732904743091 0.22416775388930879 0 -0.078837631547527487 0.22646261886489361 0 -0.10188732904743091 0.22416775388930879 0 -0.085647611720234704 0.211582202570961 0 -0.078837631547527487 0.22646261886489361 0 -0.078837631547527487 0.22646261886489361 0 -0.055787934047623812 0.22875748384047651 0 -0.078837631547527487 0.22646261886489361 0 -0.074704152181801681 0.24701770632021169 0 -0.055787934047623812 0.22875748384047651 0 -0.065516926835851183 0.21659017637723951 0 -0.078837631547527487 0.22646261886489361 0 -0.055787934047623812 0.22875748384047651 0 -0.074704152181801681 0.24701770632021169 0 -0.055787934047623812 0.22875748384047651 0 -0.074704152181801681 0.24701770632021169 0 -0.057747386715908428 0.24463041023760571 0 -0.055787934047623812 0.22875748384047651 0 -0.097135213821017974 0.2450179218164267 0 -0.078837631547527487 0.22646261886489361 0 -0.074704152181801681 0.24701770632021169 0 -0.03189830216395443 0.24568919817845219 0 -0.04135776092400012 0.23809779795821551 0 -0.030614146685572802 0.23126382662090891 0 -0.04135776092400012 0.23809779795821551 0 -0.046594812073733123 0.24823599275617891 0 -0.049952252460554 0.2397627017524232 0 -0.03189830216395443 0.24568919817845219 0 -0.04135776092400012 0.23809779795821551 0 -0.046594812073733123 0.24823599275617891 0 -0.046594812073733123 0.24823599275617891 0 -0.057747386715908428 0.24463041023760571 0 -0.049952252460554 0.2397627017524232 0 -0.057747386715908428 0.24463041023760571 0 -0.049952252460554 0.2397627017524232 0 -0.055787934047623812 0.22875748384047651 0 -0.04135776092400012 0.23809779795821551 0 -0.049952252460554 0.2397627017524232 0 -0.055787934047623812 0.22875748384047651 0 -0.055787934047623812 0.22875748384047651 0 -0.052323738254648429 0.22541342291643321 0 -0.065516926835851183 0.21659017637723951 0 -0.055787934047623812 0.22875748384047651 0 -0.054616056031908368 0.21893633417385969 0 -0.055787934047623812 0.22875748384047651 0 -0.052323738254648429 0.22541342291643321 0 -0.042225130782071622 0.22351742659662871 0 -0.054616056031908368 0.21893633417385969 0 -0.052323738254648429 0.22541342291643321 0 -0.049046602241481829 0.2206752111693363 0 -0.052323738254648429 0.22541342291643321 0 -0.049046602241481829 0.2206752111693363 0 -0.042225130782071622 0.22351742659662871 0 -0.055787934047623812 0.22875748384047651 0 -0.054616056031908368 0.21893633417385969 0 -0.052323738254648429 0.22541342291643321 0 -0.055787934047623812 0.22875748384047651 0 -0.042225130782071622 0.22351742659662871 0 -0.030614146685572802 0.23126382662090891 0 -0.055787934047623812 0.22875748384047651 0 -0.030614146685572802 0.23126382662090891 0 -0.049046602241481829 0.2206752111693363 0 -0.042225130782071622 0.22351742659662871 0 -0.047021483897298919 0.2148336609904237 0 -0.04135776092400012 0.23809779795821551 0 -0.055787934047623812 0.22875748384047651 0 -0.030614146685572802 0.23126382662090891 0 -0.042225130782071622 0.22351742659662871 0 -0.035706106933987618 0.212040288753787 0 -0.024813853389476559 0.2211714782904188 0 -0.042225130782071622 0.22351742659662871 0 -0.024813853389476559 0.2211714782904188 0 -0.030614146685572802 0.23126382662090891 0 -0.035706106933987618 0.212040288753787 0 -0.047940973094851513 0.204892605264445 0 -0.039445365178920423 0.19600482850445031 0 -0.035706106933987618 0.212040288753787 0 -0.047021483897298919 0.2148336609904237 0 -0.047940973094851513 0.204892605264445 0 -0.042225130782071622 0.22351742659662871 0 -0.035706106933987618 0.212040288753787 0 -0.047021483897298919 0.2148336609904237 0 -0.054616056031908368 0.21893633417385969 0 -0.049046602241481829 0.2206752111693363 0 -0.047021483897298919 0.2148336609904237 0 -0.054616056031908368 0.21893633417385969 0 -0.047021483897298919 0.2148336609904237 0 -0.056774781747103042 0.20807563334730969 0 -0.065516926835851183 0.21659017637723951 0 -0.054616056031908368 0.21893633417385969 0 -0.056774781747103042 0.20807563334730969 0 -0.047021483897298919 0.2148336609904237 0 -0.056774781747103042 0.20807563334730969 0 -0.047940973094851513 0.204892605264445 0 -0.047940973094851513 0.204892605264445 0 -0.057501641022342467 0.1963435114306189 0 -0.039445365178920423 0.19600482850445031 0 -0.06435517074193417 0.179531982830265 0 -0.039445365178920423 0.19600482850445031 0 -0.072480940959693013 0.1988823006153542 0 -0.056774781747103042 0.20807563334730969 0 -0.057501641022342467 0.1963435114306189 0 -0.056774781747103042 0.20807563334730969 0 -0.047940973094851513 0.204892605264445 0 -0.057501641022342467 0.1963435114306189 0 -0.06435517074193417 0.179531982830265 0 -0.057501641022342467 0.1963435114306189 0 -0.039445365178920423 0.19600482850445031 0 -0.039445365178920423 0.19600482850445031 0 -0.027727343604313569 0.197178151178412 0 -0.038616654050395688 0.17617393208916859 0 -0.039445365178920423 0.19600482850445031 0 -0.027727343604313569 0.197178151178412 0 -0.014535559615906669 0.2124776741786355 0 -0.027727343604313569 0.197178151178412 0 -0.010915521324717001 0.1993315760592379 0 -0.014535559615906669 0.2124776741786355 0 -0.027727343604313569 0.197178151178412 0 -0.010915521324717001 0.1993315760592379 0 -0.020104729349334449 0.1840085448946619 0 -0.027727343604313569 0.197178151178412 0 -0.028750072776026619 0.18228756371234331 0 -0.020104729349334449 0.1840085448946619 0 -0.010915521324717001 0.1993315760592379 0 -0.0058150648891281392 0.18464487058732859 0 0.0047479160901643591 0.19966970600779571 0 -0.010915521324717001 0.1993315760592379 0 -0.020104729349334449 0.1840085448946619 0 -0.0058150648891281392 0.18464487058732859 0 -0.010915521324717001 0.1993315760592379 0 -0.001618838316679704 0.21186515805952549 0 -0.014535559615906669 0.2124776741786355 0 -0.010915521324717001 0.1993315760592379 0 -0.001618838316679704 0.21186515805952549 0 0.0047479160901643591 0.19966970600779571 0 -0.001618838316679704 0.21186515805952549 0 -0.010819744977475119 0.2201826338773481 0 0.0022205822065663882 0.22338098429998751 0 -0.001618838316679704 0.21186515805952549 0 -0.014535559615906669 0.2124776741786355 0 -0.010819744977475119 0.2201826338773481 0 -0.039445365178920423 0.19600482850445031 0 -0.014535559615906669 0.2124776741786355 0 -0.035706106933987618 0.212040288753787 0 -0.039445365178920423 0.19600482850445031 0 -0.014535559615906669 0.2124776741786355 0 -0.014535559615906669 0.2124776741786355 0 -0.024813853389476559 0.2211714782904188 0 -0.010819744977475119 0.2201826338773481 0 -0.035706106933987618 0.212040288753787 0 -0.014535559615906669 0.2124776741786355 0 -0.024813853389476559 0.2211714782904188 0 -0.030614146685572802 0.23126382662090891 0 -0.0054403593235216562 0.23377016940133941 0 -0.030614146685572802 0.23126382662090891 0 -0.0054403593235216562 0.23377016940133941 0 -0.01514813330815701 0.23061359466582701 0 -0.024813853389476559 0.2211714782904188 0 -0.030614146685572802 0.23126382662090891 0 -0.01514813330815701 0.23061359466582701 0 -0.024813853389476559 0.2211714782904188 0 -0.010819744977475119 0.2201826338773481 0 -0.01514813330815701 0.23061359466582701 0 -0.010819744977475119 0.2201826338773481 0 -0.01514813330815701 0.23061359466582701 0 0.0022205822065663882 0.22338098429998751 0 -0.01514813330815701 0.23061359466582701 0 0.0022205822065663882 0.22338098429998751 0 -0.0054403593235216562 0.23377016940133941 0 -0.01514813330815701 0.23061359466582701 0 0.0022205822065663882 0.22338098429998751 0 -0.004361582131907446 0.25012675423618741 0 -0.0054403593235216562 0.23377016940133941 0 0.0051881906427589239 0.2429023142665572 0 -0.004361582131907446 0.25012675423618741 0 -0.0054403593235216562 0.23377016940133941 0 -0.018506566158488919 0.2431339505957798 0 -0.020565667716041462 0.25572736355358933 0 -0.004361582131907446 0.25012675423618741 0 -0.018506566158488919 0.2431339505957798 0 -0.030614146685572802 0.23126382662090891 0 -0.0054403593235216562 0.23377016940133941 0 -0.018506566158488919 0.2431339505957798 0 -0.03189830216395443 0.24568919817845219 0 -0.030614146685572802 0.23126382662090891 0 -0.018506566158488919 0.2431339505957798 0 -0.020565667716041462 0.25572736355358933 0 -0.03189830216395443 0.24568919817845219 0 -0.018506566158488919 0.2431339505957798 0 -0.042460363287522958 0.14347988613362259 0 -0.044473419521311869 0.15297756029890641 0 -0.037891307588098999 0.15301779907060481 0 -0.044473419521311869 0.15297756029890641 0 -0.037891307588098999 0.15301779907060481 0 -0.031636506627965313 0.16150224911057051 0 -0.042460363287522958 0.14347988613362259 0 -0.035174347344809967 0.15001976644272921 0 -0.037891307588098999 0.15301779907060481 0 -0.035174347344809967 0.15001976644272921 0 -0.037891307588098999 0.15301779907060481 0 -0.033404653207921721 0.15507918068198209 0 -0.035174347344809967 0.15001976644272921 0 -0.033404653207921721 0.15507918068198209 0 -0.02776282729533102 0.15476173176141739 0 -0.035174347344809967 0.15001976644272921 0 -0.034180114506779158 0.14292432320853909 0 -0.02883591677782232 0.14796437992771719 0 -0.042460363287522958 0.14347988613362259 0 -0.035174347344809967 0.15001976644272921 0 -0.034180114506779158 0.14292432320853909 0 -0.042460363287522958 0.14347988613362259 0 -0.034180114506779158 0.14292432320853909 0 -0.038211226953362397 0.13781437243294631 0 -0.034180114506779158 0.14292432320853909 0 -0.032488323731578138 0.13717556183428281 0 -0.038211226953362397 0.13781437243294631 0 -0.034180114506779158 0.14292432320853909 0 -0.032488323731578138 0.13717556183428281 0 -0.027483842170251089 0.14162756103877569 0 -0.032488323731578138 0.13717556183428281 0 -0.035266368379565052 0.13009707587939279 0 -0.02667969692195489 0.13460984520473249 0 -0.032488323731578138 0.13717556183428281 0 -0.038211226953362397 0.13781437243294631 0 -0.035266368379565052 0.13009707587939279 0 -0.035266368379565052 0.13009707587939279 0 -0.046331318124510253 0.13174141938699169 0 -0.041763705598505362 0.11912362676530031 0 -0.038211226953362397 0.13781437243294631 0 -0.035266368379565052 0.13009707587939279 0 -0.046331318124510253 0.13174141938699169 0 -0.042460363287522958 0.14347988613362259 0 -0.038211226953362397 0.13781437243294631 0 -0.046331318124510253 0.13174141938699169 0 -0.042460363287522958 0.14347988613362259 0 -0.046331318124510253 0.13174141938699169 0 -0.060395274942560528 0.13416549391068189 0 -0.046331318124510253 0.13174141938699169 0 -0.060395274942560528 0.13416549391068189 0 -0.057376161549244957 0.12328487032798489 0 -0.060395274942560528 0.13416549391068189 0 -0.057376161549244957 0.12328487032798489 0 -0.068008023874607193 0.1194813826226566 0 -0.044473419521311869 0.15297756029890641 0 -0.060395274942560528 0.13416549391068189 0 -0.049505964496477838 0.1551697129999251 0 -0.060395274942560528 0.13416549391068189 0 -0.049505964496477838 0.1551697129999251 0 -0.060395274942560528 0.13416549391068189 0 -0.049505964496477838 0.1551697129999251 0 -0.06050925962069742 0.14933122419088271 0 -0.042460363287522958 0.14347988613362259 0 -0.044473419521311869 0.15297756029890641 0 -0.060395274942560528 0.13416549391068189 0 -0.044473419521311869 0.15297756029890641 0 -0.060395274942560528 0.13416549391068189 0 -0.06050925962069742 0.14933122419088271 0 -0.055951783244603238 0.15683636846341581 0 -0.060817304647522517 0.16063211997463811 0 -0.049505964496477838 0.1551697129999251 0 -0.06050925962069742 0.14933122419088271 0 -0.055951783244603238 0.15683636846341581 0 -0.06435517074193417 0.179531982830265 0 -0.060817304647522517 0.16063211997463811 0 -0.054190933413391887 0.1696376128955723 0 -0.055951783244603238 0.15683636846341581 0 -0.060817304647522517 0.16063211997463811 0 -0.051816527970478227 0.163689949284544 0 -0.060817304647522517 0.16063211997463811 0 -0.054190933413391887 0.1696376128955723 0 -0.051816527970478227 0.163689949284544 0 -0.054190933413391887 0.1696376128955723 0 -0.051816527970478227 0.163689949284544 0 -0.038616654050395688 0.17617393208916859 0 -0.049505964496477838 0.1551697129999251 0 -0.055951783244603238 0.15683636846341581 0 -0.051816527970478227 0.163689949284544 0 -0.06435517074193417 0.179531982830265 0 -0.039445365178920423 0.19600482850445031 0 -0.038616654050395688 0.17617393208916859 0 -0.06435517074193417 0.179531982830265 0 -0.054190933413391887 0.1696376128955723 0 -0.038616654050395688 0.17617393208916859 0 -0.027727343604313569 0.197178151178412 0 -0.038616654050395688 0.17617393208916859 0 -0.027727343604313569 0.197178151178412 0 -0.038616654050395688 0.17617393208916859 0 -0.028750072776026619 0.18228756371234331 0 -0.038616654050395688 0.17617393208916859 0 -0.028551564100062751 0.1717896266871306 0 -0.028750072776026619 0.18228756371234331 0 -0.044473419521311869 0.15297756029890641 0 -0.028551564100062751 0.1717896266871306 0 -0.049505964496477838 0.1551697129999251 0 -0.051816527970478227 0.163689949284544 0 -0.038616654050395688 0.17617393208916859 0 -0.044473419521311869 0.15297756029890641 0 -0.031636506627965313 0.16150224911057051 0 -0.028551564100062751 0.1717896266871306 0 -0.049505964496477838 0.1551697129999251 0 -0.038616654050395688 0.17617393208916859 0 -0.044473419521311869 0.15297756029890641 0 -0.049505964496477838 0.1551697129999251 0 -0.038616654050395688 0.17617393208916859 0 -0.044473419521311869 0.15297756029890641 0 -0.038616654050395688 0.17617393208916859 0 -0.028551564100062751 0.1717896266871306 0 -0.037891307588098999 0.15301779907060481 0 -0.033404653207921721 0.15507918068198209 0 -0.031636506627965313 0.16150224911057051 0 -0.031636506627965313 0.16150224911057051 0 -0.02253447650115362 0.1626338424728738 0 -0.02776282729533102 0.15476173176141739 0 -0.033404653207921721 0.15507918068198209 0 -0.031636506627965313 0.16150224911057051 0 -0.02776282729533102 0.15476173176141739 0 -0.031636506627965313 0.16150224911057051 0 -0.028551564100062751 0.1717896266871306 0 -0.02253447650115362 0.1626338424728738 0 -0.028551564100062751 0.1717896266871306 0 -0.02253447650115362 0.1626338424728738 0 -0.01498566762474032 0.1721399223420339 0 -0.02253447650115362 0.1626338424728738 0 -0.01498566762474032 0.1721399223420339 0 -0.012046897657486009 0.15973393686910059 0 -0.02253447650115362 0.1626338424728738 0 -0.012046897657486009 0.15973393686910059 0 -0.01974455104335017 0.1550417818637245 0 -0.02253447650115362 0.1626338424728738 0 -0.01974455104335017 0.1550417818637245 0 -0.02776282729533102 0.15476173176141739 0 -0.028551564100062751 0.1717896266871306 0 -0.028750072776026619 0.18228756371234331 0 -0.020104729349334449 0.1840085448946619 0 -0.028551564100062751 0.1717896266871306 0 -0.020104729349334449 0.1840085448946619 0 -0.01498566762474032 0.1721399223420339 0 -0.020104729349334449 0.1840085448946619 0 -0.01498566762474032 0.1721399223420339 0 -0.0058150648891281392 0.18464487058732859 0 -0.01498566762474032 0.1721399223420339 0 -0.0058150648891281392 0.18464487058732859 0 9.8439874396488518e-06 0.16909653965514321 0 -0.01498566762474032 0.1721399223420339 0 -0.012046897657486009 0.15973393686910059 0 9.8439874396488518e-06 0.16909653965514321 0 -0.012046897657486009 0.15973393686910059 0 -0.001399927819642065 0.15853034608675531 0 -0.0067216127360385028 0.15176017281181059 0 -0.012046897657486009 0.15973393686910059 0 -0.001399927819642065 0.15853034608675531 0 9.8439874396488518e-06 0.16909653965514321 0 -0.0067216127360385028 0.15176017281181059 0 -0.001932496299644968 0.1459540675981712 0 0.002037105597096525 0.15151695060409001 0 -0.001399927819642065 0.15853034608675531 0 -0.0067216127360385028 0.15176017281181059 0 0.002037105597096525 0.15151695060409001 0 -0.001932496299644968 0.1459540675981712 0 -0.0047871023855838284 0.14117591745817429 0 0.000228448927285114 0.14012311706009631 0 -0.0067216127360385028 0.15176017281181059 0 -0.001932496299644968 0.1459540675981712 0 -0.0088873299160877918 0.1454187600715697 0 -0.001932496299644968 0.1459540675981712 0 -0.0047871023855838284 0.14117591745817429 0 -0.0088873299160877918 0.1454187600715697 0 -0.0047871023855838284 0.14117591745817429 0 -0.0088873299160877918 0.1454187600715697 0 -0.010460643721398131 0.13913610184510419 0 -0.0088873299160877918 0.1454187600715697 0 -0.015535574841907601 0.14368344141407929 0 -0.010460643721398131 0.13913610184510419 0 -0.0088873299160877918 0.1454187600715697 0 -0.015535574841907601 0.14368344141407929 0 -0.014413369338275051 0.15020994658701309 0 -0.012046897657486009 0.15973393686910059 0 -0.014413369338275051 0.15020994658701309 0 -0.01974455104335017 0.1550417818637245 0 -0.012046897657486009 0.15973393686910059 0 -0.0067216127360385028 0.15176017281181059 0 -0.014413369338275051 0.15020994658701309 0 -0.0067216127360385028 0.15176017281181059 0 -0.0088873299160877918 0.1454187600715697 0 -0.014413369338275051 0.15020994658701309 0 -0.01974455104335017 0.1550417818637245 0 -0.021965184424505169 0.1478694516282176 0 -0.02776282729533102 0.15476173176141739 0 -0.014413369338275051 0.15020994658701309 0 -0.01974455104335017 0.1550417818637245 0 -0.021965184424505169 0.1478694516282176 0 -0.015535574841907601 0.14368344141407929 0 -0.014413369338275051 0.15020994658701309 0 -0.021965184424505169 0.1478694516282176 0 -0.015535574841907601 0.14368344141407929 0 -0.02085887518683055 0.14051112573817109 0 -0.01572570720539903 0.1386245228663322 0 -0.015535574841907601 0.14368344141407929 0 -0.021965184424505169 0.1478694516282176 0 -0.02085887518683055 0.14051112573817109 0 -0.021965184424505169 0.1478694516282176 0 -0.027483842170251089 0.14162756103877569 0 -0.02085887518683055 0.14051112573817109 0 -0.021965184424505169 0.1478694516282176 0 -0.027483842170251089 0.14162756103877569 0 -0.02883591677782232 0.14796437992771719 0 -0.034180114506779158 0.14292432320853909 0 -0.027483842170251089 0.14162756103877569 0 -0.02883591677782232 0.14796437992771719 0 -0.035174347344809967 0.15001976644272921 0 -0.02883591677782232 0.14796437992771719 0 -0.02776282729533102 0.15476173176141739 0 -0.021965184424505169 0.1478694516282176 0 -0.02883591677782232 0.14796437992771719 0 -0.02776282729533102 0.15476173176141739 0 -0.035266368379565052 0.13009707587939279 0 -0.02498016711913827 0.1241785180753891 0 -0.033110622576494379 0.1214386067867833 0 -0.02667969692195489 0.13460984520473249 0 -0.019000604944366228 0.13406922866238341 0 -0.02498016711913827 0.1241785180753891 0 -0.035266368379565052 0.13009707587939279 0 -0.02667969692195489 0.13460984520473249 0 -0.02498016711913827 0.1241785180753891 0 -0.032488323731578138 0.13717556183428281 0 -0.027483842170251089 0.14162756103877569 0 -0.02667969692195489 0.13460984520473249 0 -0.027483842170251089 0.14162756103877569 0 -0.02667969692195489 0.13460984520473249 0 -0.02085887518683055 0.14051112573817109 0 -0.02667969692195489 0.13460984520473249 0 -0.02085887518683055 0.14051112573817109 0 -0.019000604944366228 0.13406922866238341 0 -0.02085887518683055 0.14051112573817109 0 -0.01572570720539903 0.1386245228663322 0 -0.019000604944366228 0.13406922866238341 0 -0.019000604944366228 0.13406922866238341 0 -0.013108962008021981 0.1259178359004969 0 -0.02498016711913827 0.1241785180753891 0 -0.019000604944366228 0.13406922866238341 0 -0.013108962008021981 0.1259178359004969 0 -0.011245417678365909 0.1339710152718474 0 -0.013108962008021981 0.1259178359004969 0 -0.011245417678365909 0.1339710152718474 0 -0.0043823690024683438 0.12942386948176529 0 -0.015535574841907601 0.14368344141407929 0 -0.01572570720539903 0.1386245228663322 0 -0.010460643721398131 0.13913610184510419 0 -0.01572570720539903 0.1386245228663322 0 -0.011245417678365909 0.1339710152718474 0 -0.010460643721398131 0.13913610184510419 0 -0.01572570720539903 0.1386245228663322 0 -0.019000604944366228 0.13406922866238341 0 -0.011245417678365909 0.1339710152718474 0 -0.011245417678365909 0.1339710152718474 0 -0.010460643721398131 0.13913610184510419 0 -0.0049074646713017818 0.13634897063783119 0 -0.0047871023855838284 0.14117591745817429 0 -0.010460643721398131 0.13913610184510419 0 -0.0049074646713017818 0.13634897063783119 0 -0.011245417678365909 0.1339710152718474 0 -0.0049074646713017818 0.13634897063783119 0 -0.0043823690024683438 0.12942386948176529 0 -0.0049074646713017818 0.13634897063783119 0 -0.0043823690024683438 0.12942386948176529 0 0.0012022958327204049 0.13426380270999949 0 -0.0047871023855838284 0.14117591745817429 0 -0.0049074646713017818 0.13634897063783119 0 0.000228448927285114 0.14012311706009631 0 -0.0049074646713017818 0.13634897063783119 0 0.000228448927285114 0.14012311706009631 0 0.0012022958327204049 0.13426380270999949 0 -0.0043823690024683438 0.12942386948176529 0 -0.0015382865690094869 0.1195819360983075 0 0.0028297340199113529 0.12737786763030409 0 -0.0043823690024683438 0.12942386948176529 0 0.0028297340199113529 0.12737786763030409 0 0.0012022958327204049 0.13426380270999949 0 -0.013108962008021981 0.1259178359004969 0 -0.0015382865690094869 0.1195819360983075 0 -0.018013141318310021 0.1118215823196331 0 -0.0015382865690094869 0.1195819360983075 0 -0.0093267163156350585 0.10220622611456499 0 -0.018013141318310021 0.1118215823196331 0 -0.0015382865690094869 0.1195819360983075 0 -0.0093267163156350585 0.10220622611456499 0 0.0088418889268726004 0.1125261115153213 0 -0.013108962008021981 0.1259178359004969 0 -0.0043823690024683438 0.12942386948176529 0 -0.0015382865690094869 0.1195819360983075 0 -0.0093267163156350585 0.10220622611456499 0 -0.028384651446471159 0.094232735224306696 0 -0.028384651446471159 0.094232735224306696 0 -0.030432249208768851 0.112355206427051 0 -0.018013141318310021 0.1118215823196331 0 -0.0093267163156350585 0.10220622611456499 0 -0.028384651446471159 0.094232735224306696 0 -0.018013141318310021 0.1118215823196331 0 -0.030432249208768851 0.112355206427051 0 -0.02498016711913827 0.1241785180753891 0 -0.018013141318310021 0.1118215823196331 0 -0.030432249208768851 0.112355206427051 0 -0.02498016711913827 0.1241785180753891 0 -0.033110622576494379 0.1214386067867833 0 -0.013108962008021981 0.1259178359004969 0 -0.02498016711913827 0.1241785180753891 0 -0.018013141318310021 0.1118215823196331 0 -0.019815605255134251 0.077564307382831099 0 -0.01123722517146284 0.061714947321965113 0 0.0078113760670387236 0.068869370431613411 0 -0.019815605255134251 0.077564307382831099 0 0.0078113760670387236 0.068869370431613411 0 -0.0022168413230157229 0.085736250976024914 0 -0.019815605255134251 0.077564307382831099 0 0.0078113760670387236 0.068869370431613411 0 -0.0093267163156350585 0.10220622611456499 0 -0.0022168413230157229 0.085736250976024914 0 -0.019815605255134251 0.077564307382831099 0 -0.0093267163156350585 0.10220622611456499 0 -0.028384651446471159 0.094232735224306696 0 -0.019815605255134251 0.077564307382831099 0 -0.019815605255134251 0.077564307382831099 0 -0.02897814582929455 0.062873885781940531 0 -0.01123722517146284 0.061714947321965113 0 -0.019815605255134251 0.077564307382831099 0 -0.02897814582929455 0.062873885781940531 0 -0.037351726516990362 0.072256576054196331 0 -0.037351726516990362 0.072256576054196331 0 -0.04744258657730735 0.086259244334048468 0 -0.048521472395479701 0.069705355416953899 0 -0.042000822527735973 0.064880087355207783 0 -0.037351726516990362 0.072256576054196331 0 -0.048521472395479701 0.069705355416953899 0 -0.042000822527735973 0.064880087355207783 0 -0.048521472395479701 0.069705355416953899 0 -0.048543751051203898 0.057697742817346243 0 -0.02897814582929455 0.062873885781940531 0 -0.042000822527735973 0.064880087355207783 0 -0.037351726516990362 0.072256576054196331 0 -0.028384651446471159 0.094232735224306696 0 -0.048484368781985768 0.092953390863835139 0 -0.04744258657730735 0.086259244334048468 0 -0.019815605255134251 0.077564307382831099 0 -0.037351726516990362 0.072256576054196331 0 -0.04744258657730735 0.086259244334048468 0 -0.019815605255134251 0.077564307382831099 0 -0.04744258657730735 0.086259244334048468 0 -0.028384651446471159 0.094232735224306696 0 -0.04744258657730735 0.086259244334048468 0 -0.028384651446471159 0.094232735224306696 0 -0.019815605255134251 0.077564307382831099 0 -0.04744258657730735 0.086259244334048468 0 -0.04744258657730735 0.086259244334048468 0 -0.056352896539992578 0.082531333895216066 0 -0.048521472395479701 0.069705355416953899 0 -0.04744258657730735 0.086259244334048468 0 -0.055667229109567583 0.088847755450422561 0 -0.048484368781985768 0.092953390863835139 0 -0.04744258657730735 0.086259244334048468 0 -0.055667229109567583 0.088847755450422561 0 -0.055667229109567583 0.088847755450422561 0 -0.056352896539992578 0.082531333895216066 0 -0.055667229109567583 0.088847755450422561 0 -0.056352896539992578 0.082531333895216066 0 -0.068535421204038979 0.084669133357873919 0 -0.04744258657730735 0.086259244334048468 0 -0.055667229109567583 0.088847755450422561 0 -0.056352896539992578 0.082531333895216066 0 -0.04744258657730735 0.086259244334048468 0 -0.056352896539992578 0.082531333895216066 0 -0.056352896539992578 0.082531333895216066 0 -0.048521472395479701 0.069705355416953899 0 -0.059557339835071388 0.053011753697425897 0 -0.056352896539992578 0.082531333895216066 0 -0.065455038900646412 0.063135680861219914 0 -0.059557339835071388 0.053011753697425897 0 -0.056352896539992578 0.082531333895216066 0 -0.059557339835071388 0.053011753697425897 0 -0.041763705598505362 0.11912362676530031 0 -0.040355805924582322 0.10811297036328291 0 -0.053061720868948711 0.1128498994681193 0 -0.030432249208768851 0.112355206427051 0 -0.041763705598505362 0.11912362676530031 0 -0.033110622576494379 0.1214386067867833 0 -0.035266368379565052 0.13009707587939279 0 -0.041763705598505362 0.11912362676530031 0 -0.033110622576494379 0.1214386067867833 0 -0.030432249208768851 0.112355206427051 0 -0.041763705598505362 0.11912362676530031 0 -0.040355805924582322 0.10811297036328291 0 -0.028384651446471159 0.094232735224306696 0 -0.040355805924582322 0.10811297036328291 0 -0.047601570349403252 0.1001146928854318 0 -0.028384651446471159 0.094232735224306696 0 -0.048484368781985768 0.092953390863835139 0 -0.047601570349403252 0.1001146928854318 0 -0.028384651446471159 0.094232735224306696 0 -0.030432249208768851 0.112355206427051 0 -0.040355805924582322 0.10811297036328291 0 -0.055667229109567583 0.088847755450422561 0 -0.047601570349403252 0.1001146928854318 0 -0.053061720868948711 0.1128498994681193 0 -0.055667229109567583 0.088847755450422561 0 -0.053061720868948711 0.1128498994681193 0 -0.040355805924582322 0.10811297036328291 0 -0.047601570349403252 0.1001146928854318 0 -0.053061720868948711 0.1128498994681193 0 -0.055667229109567583 0.088847755450422561 0 -0.061317563763440802 0.10299561175118491 0 -0.053061720868948711 0.1128498994681193 0 -0.048484368781985768 0.092953390863835139 0 -0.055667229109567583 0.088847755450422561 0 -0.047601570349403252 0.1001146928854318 0 -0.055667229109567583 0.088847755450422561 0 -0.061317563763440802 0.10299561175118491 0 -0.06797342141030252 0.10030920148610591 0 -0.061317563763440802 0.10299561175118491 0 -0.053061720868948711 0.1128498994681193 0 -0.066574353573826517 0.1091611438734031 0 -0.046331318124510253 0.13174141938699169 0 -0.041763705598505362 0.11912362676530031 0 -0.057376161549244957 0.12328487032798489 0 -0.041763705598505362 0.11912362676530031 0 -0.053061720868948711 0.1128498994681193 0 -0.057376161549244957 0.12328487032798489 0 -0.053061720868948711 0.1128498994681193 0 -0.057376161549244957 0.12328487032798489 0 -0.068008023874607193 0.1194813826226566 0 -0.060395274942560528 0.13416549391068189 0 -0.068008023874607193 0.1194813826226566 0 -0.077957056184904241 0.1134158145620357 0 -0.060395274942560528 0.13416549391068189 0 -0.077957056184904241 0.1134158145620357 0 -0.079964733767734122 0.12668506296934109 0 -0.060395274942560528 0.13416549391068189 0 -0.077957056184904241 0.1134158145620357 0 -0.053061720868948711 0.1128498994681193 0 -0.068008023874607193 0.1194813826226566 0 -0.066574353573826517 0.1091611438734031 0 -0.068008023874607193 0.1194813826226566 0 -0.075620772806654399 0.1047972713346316 0 -0.066574353573826517 0.1091611438734031 0 -0.068008023874607193 0.1194813826226566 0 -0.077957056184904241 0.1134158145620357 0 -0.075620772806654399 0.1047972713346316 0 -0.068008023874607193 0.1194813826226566 0 -0.075620772806654399 0.1047972713346316 0 -0.079964733767734122 0.12668506296934109 0 -0.077957056184904241 0.1134158145620357 0 -0.086534582504385088 0.1156474293511931 0 -0.077957056184904241 0.1134158145620357 0 -0.086534582504385088 0.1156474293511931 0 -0.083947310206231279 0.1074935535689709 0 -0.086534582504385088 0.1156474293511931 0 -0.095157466154961498 0.1222738246889692 0 -0.093760682860616423 0.1071519620079809 0 -0.086534582504385088 0.1156474293511931 0 -0.083947310206231279 0.1074935535689709 0 -0.093760682860616423 0.1071519620079809 0 -0.079964733767734122 0.12668506296934109 0 -0.086534582504385088 0.1156474293511931 0 -0.095157466154961498 0.1222738246889692 0 -0.084868150004751591 0.098297010781769723 0 -0.085645907343274513 0.087820148674278453 0 -0.093949525724613639 0.096173232947952741 0 -0.084868150004751591 0.098297010781769723 0 -0.093760682860616423 0.1071519620079809 0 -0.093949525724613639 0.096173232947952741 0 -0.083947310206231279 0.1074935535689709 0 -0.084868150004751591 0.098297010781769723 0 -0.093760682860616423 0.1071519620079809 0 -0.083947310206231279 0.1074935535689709 0 -0.084868150004751591 0.098297010781769723 0 -0.075620772806654399 0.1047972713346316 0 -0.077957056184904241 0.1134158145620357 0 -0.083947310206231279 0.1074935535689709 0 -0.075620772806654399 0.1047972713346316 0 -0.084868150004751591 0.098297010781769723 0 -0.07416284546680918 0.094668811910581629 0 -0.075620772806654399 0.1047972713346316 0 -0.07416284546680918 0.094668811910581629 0 -0.075620772806654399 0.1047972713346316 0 -0.06797342141030252 0.10030920148610591 0 -0.055667229109567583 0.088847755450422561 0 -0.07416284546680918 0.094668811910581629 0 -0.06797342141030252 0.10030920148610591 0 -0.075620772806654399 0.1047972713346316 0 -0.066574353573826517 0.1091611438734031 0 -0.06797342141030252 0.10030920148610591 0 -0.061317563763440802 0.10299561175118491 0 -0.066574353573826517 0.1091611438734031 0 -0.06797342141030252 0.10030920148610591 0 -0.055667229109567583 0.088847755450422561 0 -0.07416284546680918 0.094668811910581629 0 -0.055667229109567583 0.088847755450422561 0 -0.07416284546680918 0.094668811910581629 0 -0.068535421204038979 0.084669133357873919 0 -0.056352896539992578 0.082531333895216066 0 -0.068535421204038979 0.084669133357873919 0 -0.079954973421325709 0.072656657351692189 0 -0.068535421204038979 0.084669133357873919 0 -0.077074786858862099 0.084953687823606544 0 -0.079954973421325709 0.072656657351692189 0 -0.07416284546680918 0.094668811910581629 0 -0.068535421204038979 0.084669133357873919 0 -0.077074786858862099 0.084953687823606544 0 -0.056352896539992578 0.082531333895216066 0 -0.079954973421325709 0.072656657351692189 0 -0.056352896539992578 0.082531333895216066 0 -0.065455038900646412 0.063135680861219914 0 -0.079954973421325709 0.072656657351692189 0 -0.065455038900646412 0.063135680861219914 0 -0.079954973421325709 0.072656657351692189 0 -0.065455038900646412 0.063135680861219914 0 -0.079954973421325709 0.072656657351692189 0 -0.076524839145482512 0.060394734624827362 0 -0.079954973421325709 0.072656657351692189 0 -0.093524594780215381 0.066979376389898315 0 -0.098442440583084309 0.07567796336267002 0 -0.079954973421325709 0.072656657351692189 0 -0.087851637875022454 0.059069255740853588 0 -0.076524839145482512 0.060394734624827362 0 -0.079954973421325709 0.072656657351692189 0 -0.093524594780215381 0.066979376389898315 0 -0.079954973421325709 0.072656657351692189 0 -0.093524594780215381 0.066979376389898315 0 -0.087851637875022454 0.059069255740853588 0 -0.079954973421325709 0.072656657351692189 0 -0.085645907343274513 0.087820148674278453 0 -0.1018492251009645 0.087032905411369765 0 -0.079954973421325709 0.072656657351692189 0 -0.1018492251009645 0.087032905411369765 0 -0.079954973421325709 0.072656657351692189 0 -0.1018492251009645 0.087032905411369765 0 -0.098442440583084309 0.07567796336267002 0 -0.084868150004751591 0.098297010781769723 0 -0.07416284546680918 0.094668811910581629 0 -0.085645907343274513 0.087820148674278453 0 -0.07416284546680918 0.094668811910581629 0 -0.077074786858862099 0.084953687823606544 0 -0.085645907343274513 0.087820148674278453 0 -0.077074786858862099 0.084953687823606544 0 -0.079954973421325709 0.072656657351692189 0 -0.085645907343274513 0.087820148674278453 0 -0.085645907343274513 0.087820148674278453 0 -0.1018492251009645 0.087032905411369765 0 -0.093949525724613639 0.096173232947952741 0 -0.1018492251009645 0.087032905411369765 0 -0.098442440583084309 0.07567796336267002 0 -0.1104905068726369 0.082990227197258584 0 -0.093524594780215381 0.066979376389898315 0 -0.106392902740279 0.068730650463131246 0 -0.095695867018895209 0.061386095523021718 0 -0.093524594780215381 0.066979376389898315 0 -0.098442440583084309 0.07567796336267002 0 -0.106392902740279 0.068730650463131246 0 -0.098442440583084309 0.07567796336267002 0 -0.106392902740279 0.068730650463131246 0 -0.1104905068726369 0.082990227197258584 0 -0.106392902740279 0.068730650463131246 0 -0.1143187324205953 0.061132814960732959 0 -0.1040003188276042 0.06051796656090451 0 -0.13471537800020611 0.069932196640817734 0 -0.1158200249735767 0.081810356583590621 0 -0.1143187324205953 0.061132814960732959 0 -0.1158200249735767 0.081810356583590621 0 -0.1143187324205953 0.061132814960732959 0 -0.106392902740279 0.068730650463131246 0 -0.1158200249735767 0.081810356583590621 0 -0.1143187324205953 0.061132814960732959 0 -0.106392902740279 0.068730650463131246 0 -0.1104905068726369 0.082990227197258584 0 -0.1158200249735767 0.081810356583590621 0 -0.106392902740279 0.068730650463131246 0 -0.1158200249735767 0.081810356583590621 0 -0.1104905068726369 0.082990227197258584 0 -0.1158200249735767 0.081810356583590621 0 -0.123743476780604 0.10140915347104661 0 -0.12576525993317081 0.095608920700106598 0 -0.1158200249735767 0.081810356583590621 0 -0.123743476780604 0.10140915347104661 0 -0.1018492251009645 0.087032905411369765 0 -0.1104905068726369 0.082990227197258584 0 -0.123743476780604 0.10140915347104661 0 -0.12576525993317081 0.095608920700106598 0 -0.1158200249735767 0.081810356583590621 0 -0.1018492251009645 0.087032905411369765 0 -0.123743476780604 0.10140915347104661 0 -0.10362366331346121 0.1005641378643648 0 -0.123743476780604 0.10140915347104661 0 -0.1048537663643479 0.1137288284916211 0 -0.10362366331346121 0.1005641378643648 0 -0.1018492251009645 0.087032905411369765 0 -0.123743476780604 0.10140915347104661 0 -0.12576525993317081 0.095608920700106598 0 -0.123743476780604 0.10140915347104661 0 -0.13074244959953979 0.11946175785799951 0 -0.11549744085296181 0.12506595749432459 0 -0.123743476780604 0.10140915347104661 0 -0.11549744085296181 0.12506595749432459 0 -0.123743476780604 0.10140915347104661 0 -0.1048537663643479 0.1137288284916211 0 -0.11549744085296181 0.12506595749432459 0 -0.123743476780604 0.10140915347104661 0 -0.11549744085296181 0.12506595749432459 0 -0.1048537663643479 0.1137288284916211 0 -0.095157466154961498 0.1222738246889692 0 -0.1048537663643479 0.1137288284916211 0 -0.095157466154961498 0.1222738246889692 0 -0.093760682860616423 0.1071519620079809 0 -0.1048537663643479 0.1137288284916211 0 -0.093760682860616423 0.1071519620079809 0 -0.10362366331346121 0.1005641378643648 0 -0.093760682860616423 0.1071519620079809 0 -0.093949525724613639 0.096173232947952741 0 -0.10362366331346121 0.1005641378643648 0 -0.1018492251009645 0.087032905411369765 0 -0.093949525724613639 0.096173232947952741 0 -0.10362366331346121 0.1005641378643648 0 -0.098111174817663571 0.029299933210101211 0 -0.11131614731463491 0.019777731715017489 0 -0.093270919285344131 0.021002023320940321 0 -0.099902477996615974 0.0097047614334804834 0 -0.11131614731463491 0.019777731715017489 0 -0.093270919285344131 0.021002023320940321 0 -0.098111174817663571 0.029299933210101211 0 -0.11131614731463491 0.019777731715017489 0 -0.1037154685123088 0.036850908914803658 0 -0.11131614731463491 0.019777731715017489 0 -0.1037154685123088 0.036850908914803658 0 -0.099902477996615974 0.0097047614334804834 0 -0.1099986790197032 0.001632030897992919 0 -0.11131614731463491 0.019777731715017489 0 -0.097318817554363779 -0.0057286893867275063 0 -0.099902477996615974 0.0097047614334804834 0 -0.087524390624848222 0.006688577221896419 0 -0.097318817554363779 -0.0057286893867275063 0 -0.099902477996615974 0.0097047614334804834 0 -0.1099986790197032 0.001632030897992919 0 -0.1236122261121546 -0.0078425818954372464 0 -0.13137048688310951 -0.003337023478303953 0 -0.11131614731463491 0.019777731715017489 0 -0.1099986790197032 0.001632030897992919 0 -0.11131614731463491 0.019777731715017489 0 -0.1236122261121546 -0.0078425818954372464 0 -0.1099986790197032 0.001632030897992919 0 -0.11131614731463491 0.019777731715017489 0 -0.1236122261121546 -0.0078425818954372464 0 -0.11131614731463491 0.019777731715017489 0 -0.1284208098020175 0.033179877632891097 0 -0.13460564055411489 0.01723703355858653 0 -0.11131614731463491 0.019777731715017489 0 -0.11131614731463491 0.019777731715017489 0 -0.1128174398676144 0.040455273337875242 0 -0.1284208098020175 0.033179877632891097 0 -0.11131614731463491 0.019777731715017489 0 -0.1128174398676144 0.040455273337875242 0 -0.12657932631233151 0.049909814768299969 0 -0.1284208098020175 0.033179877632891097 0 -0.1128174398676144 0.040455273337875242 0 -0.12657932631233151 0.049909814768299969 0 -0.1128174398676144 0.040455273337875242 0 -0.1143187324205953 0.061132814960732959 0 -0.1128174398676144 0.040455273337875242 0 -0.1143187324205953 0.061132814960732959 0 -0.1082223027228006 0.050485275180462093 0 -0.1128174398676144 0.040455273337875242 0 -0.1143187324205953 0.061132814960732959 0 -0.1143187324205953 0.061132814960732959 0 -0.10610639822075781 0.055771586811031351 0 -0.1082223027228006 0.050485275180462093 0 -0.1025152677102278 0.050750948389364392 0 -0.096114789709981496 0.053924086114589299 0 -0.1037154685123088 0.036850908914803658 0 -0.106392902740279 0.068730650463131246 0 -0.1040003188276042 0.06051796656090451 0 -0.096965780506980889 0.055650944342672051 0 -0.106392902740279 0.068730650463131246 0 -0.096965780506980889 0.055650944342672051 0 -0.1143187324205953 0.061132814960732959 0 -0.1040003188276042 0.06051796656090451 0 -0.10610639822075781 0.055771586811031351 0 -0.1040003188276042 0.06051796656090451 0 -0.10610639822075781 0.055771586811031351 0 -0.1014753694225613 0.055970928963692809 0 -0.10610639822075781 0.055771586811031351 0 -0.1025152677102278 0.050750948389364392 0 -0.1014753694225613 0.055970928963692809 0 -0.10610639822075781 0.055771586811031351 0 -0.1082223027228006 0.050485275180462093 0 -0.1025152677102278 0.050750948389364392 0 -0.1082223027228006 0.050485275180462093 0 -0.1025152677102278 0.050750948389364392 0 -0.1067356553623631 0.044178634216678392 0 -0.096408734094846682 0.047028599374544268 0 -0.094016665615900177 0.045027451179461733 0 -0.091788012541196298 0.052311951289322388 0 -0.096114789709981496 0.053924086114589299 0 -0.093744419191978248 0.056500250678553403 0 -0.091788012541196298 0.052311951289322388 0 -0.096408734094846682 0.047028599374544268 0 -0.096114789709981496 0.053924086114589299 0 -0.091788012541196298 0.052311951289322388 0 -0.096114789709981496 0.053924086114589299 0 -0.099124967027144822 0.054450492792824511 0 -0.096965780506980889 0.055650944342672051 0 -0.1025152677102278 0.050750948389364392 0 -0.096114789709981496 0.053924086114589299 0 -0.099124967027144822 0.054450492792824511 0 -0.1025152677102278 0.050750948389364392 0 -0.099124967027144822 0.054450492792824511 0 -0.1014753694225613 0.055970928963692809 0 -0.106392902740279 0.068730650463131246 0 -0.096965780506980889 0.055650944342672051 0 -0.095695867018895209 0.061386095523021718 0 -0.1040003188276042 0.06051796656090451 0 -0.1014753694225613 0.055970928963692809 0 -0.096965780506980889 0.055650944342672051 0 -0.099124967027144822 0.054450492792824511 0 -0.1014753694225613 0.055970928963692809 0 -0.096965780506980889 0.055650944342672051 0 -0.096965780506980889 0.055650944342672051 0 -0.095695867018895209 0.061386095523021718 0 -0.093744419191978248 0.056500250678553403 0 -0.096114789709981496 0.053924086114589299 0 -0.096965780506980889 0.055650944342672051 0 -0.093744419191978248 0.056500250678553403 0 -0.096408734094846682 0.047028599374544268 0 -0.096114789709981496 0.053924086114589299 0 -0.1037154685123088 0.036850908914803658 0 -0.11131614731463491 0.019777731715017489 0 -0.1128174398676144 0.040455273337875242 0 -0.1037154685123088 0.036850908914803658 0 -0.096114789709981496 0.053924086114589299 0 -0.1037154685123088 0.036850908914803658 0 -0.1128174398676144 0.040455273337875242 0 -0.1037154685123088 0.036850908914803658 0 -0.1067356553623631 0.044178634216678392 0 -0.1128174398676144 0.040455273337875242 0 -0.1082223027228006 0.050485275180462093 0 -0.1067356553623631 0.044178634216678392 0 -0.1025152677102278 0.050750948389364392 0 -0.1037154685123088 0.036850908914803658 0 -0.1067356553623631 0.044178634216678392 0 -0.096408734094846682 0.047028599374544268 0 -0.1037154685123088 0.036850908914803658 0 -0.094016665615900177 0.045027451179461733 0 -0.1037154685123088 0.036850908914803658 0 -0.094016665615900177 0.045027451179461733 0 -0.094491571965461013 0.037104767562455593 0 -0.098111174817663571 0.029299933210101211 0 -0.1037154685123088 0.036850908914803658 0 -0.094491571965461013 0.037104767562455593 0 -0.098111174817663571 0.029299933210101211 0 -0.094491571965461013 0.037104767562455593 0 -0.087647185425064736 0.031842659612238623 0 -0.087647185425064736 0.031842659612238623 0 -0.089854685869044451 0.040908764775179712 0 -0.081629424010395357 0.041419166804349421 0 -0.094491571965461013 0.037104767562455593 0 -0.087647185425064736 0.031842659612238623 0 -0.089854685869044451 0.040908764775179712 0 -0.089854685869044451 0.040908764775179712 0 -0.081629424010395357 0.041419166804349421 0 -0.086707275669269182 0.049908642651155542 0 -0.094016665615900177 0.045027451179461733 0 -0.089854685869044451 0.040908764775179712 0 -0.086707275669269182 0.049908642651155542 0 -0.094016665615900177 0.045027451179461733 0 -0.094491571965461013 0.037104767562455593 0 -0.089854685869044451 0.040908764775179712 0 -0.087647185425064736 0.031842659612238623 0 -0.081629424010395357 0.041419166804349421 0 -0.076164181077954182 0.032009494226678391 0 -0.095695867018895209 0.061386095523021718 0 -0.087851637875022454 0.059069255740853588 0 -0.093744419191978248 0.056500250678553403 0 -0.093524594780215381 0.066979376389898315 0 -0.095695867018895209 0.061386095523021718 0 -0.087851637875022454 0.059069255740853588 0 -0.087851637875022454 0.059069255740853588 0 -0.093744419191978248 0.056500250678553403 0 -0.091788012541196298 0.052311951289322388 0 -0.087851637875022454 0.059069255740853588 0 -0.091788012541196298 0.052311951289322388 0 -0.086707275669269182 0.049908642651155542 0 -0.094016665615900177 0.045027451179461733 0 -0.091788012541196298 0.052311951289322388 0 -0.086707275669269182 0.049908642651155542 0 -0.086707275669269182 0.049908642651155542 0 -0.081818850965788142 0.055238295402956307 0 -0.077896340682555187 0.050949615115596543 0 -0.081629424010395357 0.041419166804349421 0 -0.086707275669269182 0.049908642651155542 0 -0.077896340682555187 0.050949615115596543 0 -0.087851637875022454 0.059069255740853588 0 -0.086707275669269182 0.049908642651155542 0 -0.081818850965788142 0.055238295402956307 0 -0.081818850965788142 0.055238295402956307 0 -0.076524839145482512 0.060394734624827362 0 -0.077896340682555187 0.050949615115596543 0 -0.087851637875022454 0.059069255740853588 0 -0.081818850965788142 0.055238295402956307 0 -0.076524839145482512 0.060394734624827362 0 -0.076524839145482512 0.060394734624827362 0 -0.077896340682555187 0.050949615115596543 0 -0.069328576095109715 0.053744354209428961 0 -0.065455038900646412 0.063135680861219914 0 -0.076524839145482512 0.060394734624827362 0 -0.069328576095109715 0.053744354209428961 0 -0.077896340682555187 0.050949615115596543 0 -0.069328576095109715 0.053744354209428961 0 -0.071506875338484571 0.042895824445247768 0 -0.069328576095109715 0.053744354209428961 0 -0.071506875338484571 0.042895824445247768 0 -0.059557339835071388 0.053011753697425897 0 -0.065455038900646412 0.063135680861219914 0 -0.069328576095109715 0.053744354209428961 0 -0.059557339835071388 0.053011753697425897 0 -0.076164181077954182 0.032009494226678391 0 -0.071506875338484571 0.042895824445247768 0 -0.062761783130148519 0.02349217349963555 0 -0.071506875338484571 0.042895824445247768 0 -0.062761783130148519 0.02349217349963555 0 -0.059557339835071388 0.053011753697425897 0 -0.081629424010395357 0.041419166804349421 0 -0.076164181077954182 0.032009494226678391 0 -0.071506875338484571 0.042895824445247768 0 -0.081629424010395357 0.041419166804349421 0 -0.077896340682555187 0.050949615115596543 0 -0.071506875338484571 0.042895824445247768 0 -0.076164181077954182 0.032009494226678391 0 -0.062761783130148519 0.02349217349963555 0 -0.078304733749917463 0.018406078267593839 0 -0.087647185425064736 0.031842659612238623 0 -0.076164181077954182 0.032009494226678391 0 -0.078304733749917463 0.018406078267593839 0 -0.098111174817663571 0.029299933210101211 0 -0.087647185425064736 0.031842659612238623 0 -0.093270919285344131 0.021002023320940321 0 -0.087647185425064736 0.031842659612238623 0 -0.078304733749917463 0.018406078267593839 0 -0.093270919285344131 0.021002023320940321 0 -0.099902477996615974 0.0097047614334804834 0 -0.093270919285344131 0.021002023320940321 0 -0.087524390624848222 0.006688577221896419 0 -0.078304733749917463 0.018406078267593839 0 -0.093270919285344131 0.021002023320940321 0 -0.087524390624848222 0.006688577221896419 0 -0.065966226425225663 -0.0060274066981548767 0 -0.062761783130148519 0.02349217349963555 0 -0.078304733749917463 0.018406078267593839 0 -0.065966226425225663 -0.0060274066981548767 0 -0.078304733749917463 0.018406078267593839 0 -0.087524390624848222 0.006688577221896419 0 -0.065966226425225663 -0.0060274066981548767 0 -0.062761783130148519 0.02349217349963555 0 -0.065966226425225663 -0.0060274066981548767 0 -0.062761783130148519 0.02349217349963555 0 -0.041285176168578859 0.002941795093874656 0 -0.062761783130148519 0.02349217349963555 0 -0.036272784281526353 0.030700192342145501 0 -0.041285176168578859 0.002941795093874656 0 -0.036272784281526353 0.030700192342145501 0 -0.041285176168578859 0.002941795093874656 0 -0.01693898921702304 0.0117618500821222 0 -0.048521472395479701 0.069705355416953899 0 -0.048543751051203898 0.057697742817346243 0 -0.059557339835071388 0.053011753697425897 0 -0.048543751051203898 0.057697742817346243 0 -0.059557339835071388 0.053011753697425897 0 -0.04189961413571635 0.0481337511233643 0 -0.062761783130148519 0.02349217349963555 0 -0.059557339835071388 0.053011753697425897 0 -0.062761783130148519 0.02349217349963555 0 -0.036272784281526353 0.030700192342145501 0 -0.04189961413571635 0.0481337511233643 0 -0.062761783130148519 0.02349217349963555 0 -0.059557339835071388 0.053011753697425897 0 -0.04189961413571635 0.0481337511233643 0 -0.036272784281526353 0.030700192342145501 0 -0.04189961413571635 0.0481337511233643 0 -0.022255981323007819 0.049811798938199467 0 -0.042000822527735973 0.064880087355207783 0 -0.048543751051203898 0.057697742817346243 0 -0.04189961413571635 0.0481337511233643 0 -0.02897814582929455 0.062873885781940531 0 -0.042000822527735973 0.064880087355207783 0 -0.04189961413571635 0.0481337511233643 0 -0.02897814582929455 0.062873885781940531 0 -0.022255981323007819 0.049811798938199467 0 -0.01123722517146284 0.061714947321965113 0 -0.02897814582929455 0.062873885781940531 0 -0.04189961413571635 0.0481337511233643 0 -0.022255981323007819 0.049811798938199467 0 -0.036272784281526353 0.030700192342145501 0 -0.022255981323007819 0.049811798938199467 0 -0.01438021634244922 0.03170234610626791 0 -0.01438021634244922 0.03170234610626791 0 0.0022615025708572051 0.02103125876278546 0 0.0031430691038015031 0.043008717564808917 0 -0.022255981323007819 0.049811798938199467 0 -0.01438021634244922 0.03170234610626791 0 0.0031430691038015031 0.043008717564808917 0 -0.022255981323007819 0.049811798938199467 0 -0.01123722517146284 0.061714947321965113 0 0.0031430691038015031 0.043008717564808917 0 -0.01123722517146284 0.061714947321965113 0 0.0031430691038015031 0.043008717564808917 0 0.0078113760670387236 0.068869370431613411 0 -0.018090432812363919 -0.0051789454257338127 0 -0.041285176168578859 0.002941795093874656 0 -0.01693898921702304 0.0117618500821222 0 -0.036272784281526353 0.030700192342145501 0 -0.01693898921702304 0.0117618500821222 0 -0.036272784281526353 0.030700192342145501 0 -0.01438021634244922 0.03170234610626791 0 -0.01693898921702304 0.0117618500821222 0 -0.01438021634244922 0.03170234610626791 0 -0.01693898921702304 0.0117618500821222 0 0.0022615025708572051 0.02103125876278546 0 -0.01693898921702304 0.0117618500821222 0 0.002394805847480138 -0.0071764921779012506 0 -0.01693898921702304 0.0117618500821222 0 0.0022615025708572051 0.02103125876278546 0 0.002394805847480138 -0.0071764921779012506 0 0.0022615025708572051 0.02103125876278546 0 0.01988593924933146 0.01021281285273932 0 0.002394805847480138 -0.0071764921779012506 0 0.01988593924933146 0.01021281285273932 0 0.018044735406519189 -0.0027914786915071068 0 0.002394805847480138 -0.0071764921779012506 0 0.01988593924933146 0.01021281285273932 0 0.002394805847480138 -0.0071764921779012506 0 0.0022615025708572051 0.02103125876278546 0 0.01988593924933146 0.01021281285273932 0 0.01967507988536589 0.033248318378640847 0 0.01988593924933146 0.01021281285273932 0 0.037377072651182792 0.027602117883379889 0 0.01988593924933146 0.01021281285273932 0 0.01967507988536589 0.033248318378640847 0 0.037377072651182792 0.027602117883379889 0 0.01988593924933146 0.01021281285273932 0 0.035622497167505339 0.0063925700628825917 0 0.018044735406519189 -0.0027914786915071068 0 0.01988593924933146 0.01021281285273932 0 0.035622497167505339 0.0063925700628825917 0 0.037377072651182792 0.027602117883379889 0 0.0031430691038015031 0.043008717564808917 0 0.019783223174817739 0.050872415177661792 0 0.0078113760670387236 0.068869370431613411 0 0.0031430691038015031 0.043008717564808917 0 0.0078113760670387236 0.068869370431613411 0 0.0031430691038015031 0.043008717564808917 0 0.01967507988536589 0.033248318378640847 0 0.019783223174817739 0.050872415177661792 0 0.0022615025708572051 0.02103125876278546 0 0.0031430691038015031 0.043008717564808917 0 0.01967507988536589 0.033248318378640847 0 0.01967507988536589 0.033248318378640847 0 0.019783223174817739 0.050872415177661792 0 0.035662389103733989 0.047481221614176811 0 0.01967507988536589 0.033248318378640847 0 0.035662389103733989 0.047481221614176811 0 0.037377072651182792 0.027602117883379889 0 0.019783223174817739 0.050872415177661792 0 0.035662389103733989 0.047481221614176811 0 0.032141493454138102 0.060275729162332752 0 0.019783223174817739 0.050872415177661792 0 0.021142096610139102 0.064673842397447556 0 0.0078113760670387236 0.068869370431613411 0 0.019783223174817739 0.050872415177661792 0 0.032141493454138102 0.060275729162332752 0 0.021142096610139102 0.064673842397447556 0 0.035662389103733989 0.047481221614176811 0 0.032141493454138102 0.060275729162332752 0 0.049290572992936238 0.066355209737614357 0 0.035662389103733989 0.047481221614176811 0 0.054868206053034503 0.044991422914020113 0 0.049290572992936238 0.066355209737614357 0 0.054868206053034503 0.044991422914020113 0 0.037377072651182792 0.027602117883379889 0 0.035662389103733989 0.047481221614176811 0 0.054868206053034503 0.044991422914020113 0 0.037377072651182792 0.027602117883379889 0 0.054868206053034503 0.044991422914020113 0 0.037377072651182792 0.027602117883379889 0 0.059466454908930037 0.027378932586910581 0 0.054868206053034503 0.044991422914020113 0 0.059466454908930037 0.027378932586910581 0 0.054868206053034503 0.044991422914020113 0 0.049290572992936238 0.066355209737614357 0 0.054868206053034503 0.044991422914020113 0 0.067806688972275458 0.057854581689803772 0 0.049290572992936238 0.066355209737614357 0 0.054868206053034503 0.044991422914020113 0 0.067806688972275458 0.057854581689803772 0 0.035622497167505339 0.0063925700628825917 0 0.048661329883321183 0.016868832195515299 0 0.04884534130661923 0.0054823796607835363 0 0.035622497167505339 0.0063925700628825917 0 0.04884534130661923 0.0054823796607835363 0 0.045210290485040869 -0.0034719151203993228 0 0.035622497167505339 0.0063925700628825917 0 0.037377072651182792 0.027602117883379889 0 0.048661329883321183 0.016868832195515299 0 0.037377072651182792 0.027602117883379889 0 0.048661329883321183 0.016868832195515299 0 0.059466454908930037 0.027378932586910581 0 0.048661329883321183 0.016868832195515299 0 0.059466454908930037 0.027378932586910581 0 0.059551554903704583 0.012329945274186901 0 0.048661329883321183 0.016868832195515299 0 0.059551554903704583 0.012329945274186901 0 0.04884534130661923 0.0054823796607835363 0 0.04884534130661923 0.0054823796607835363 0 0.058196269712748661 -0.0010094984802769141 0 0.045210290485040869 -0.0034719151203993228 0 0.059551554903704583 0.012329945274186901 0 0.04884534130661923 0.0054823796607835363 0 0.058196269712748661 -0.0010094984802769141 0 0.059551554903704583 0.012329945274186901 0 0.070381517258247442 0.0054324954822656396 0 0.058196269712748661 -0.0010094984802769141 0 0.059551554903704583 0.012329945274186901 0 0.070381517258247442 0.0054324954822656396 0 0.071076364355982968 0.019572888861291889 0 0.070381517258247442 0.0054324954822656396 0 0.083131704911828669 0.010948624559543209 0 0.071076364355982968 0.019572888861291889 0 0.083131704911828669 0.010948624559543209 0 0.096167504599054904 0.0042442054759202954 0 0.09879577097810871 0.02017555683513389 0 0.070381517258247442 0.0054324954822656396 0 0.083131704911828669 0.010948624559543209 0 0.081717153665888317 -0.0025063239881197622 0 0.083131704911828669 0.010948624559543209 0 0.096167504599054904 0.0042442054759202954 0 0.081717153665888317 -0.0025063239881197622 0 0.083131704911828669 0.010948624559543209 0 0.084020254894405358 0.02481244236443322 0 0.09879577097810871 0.02017555683513389 0 0.084020254894405358 0.02481244236443322 0 0.089449236229465365 0.03685286092118592 0 0.09879577097810871 0.02017555683513389 0 0.083131704911828669 0.010948624559543209 0 0.084020254894405358 0.02481244236443322 0 0.071076364355982968 0.019572888861291889 0 0.084020254894405358 0.02481244236443322 0 0.071076364355982968 0.019572888861291889 0 0.073196751006103261 0.040000434485980937 0 0.059466454908930037 0.027378932586910581 0 0.071076364355982968 0.019572888861291889 0 0.073196751006103261 0.040000434485980937 0 0.059466454908930037 0.027378932586910581 0 0.059551554903704583 0.012329945274186901 0 0.071076364355982968 0.019572888861291889 0 0.054868206053034503 0.044991422914020113 0 0.059466454908930037 0.027378932586910581 0 0.073196751006103261 0.040000434485980937 0 0.073196751006103261 0.040000434485980937 0 0.067806688972275458 0.057854581689803772 0 0.092977810154944648 0.053070117425326267 0 0.054868206053034503 0.044991422914020113 0 0.073196751006103261 0.040000434485980937 0 0.067806688972275458 0.057854581689803772 0 0.092977810154944648 0.053070117425326267 0 0.080745171891517087 0.070717740465586792 0 0.067806688972275458 0.057854581689803772 0 0.092977810154944648 0.053070117425326267 0 0.080745171891517087 0.070717740465586792 0 0.084020254894405358 0.02481244236443322 0 0.073196751006103261 0.040000434485980937 0 0.089449236229465365 0.03685286092118592 0 0.073196751006103261 0.040000434485980937 0 0.092977810154944648 0.053070117425326267 0 0.089449236229465365 0.03685286092118592 0 0.092977810154944648 0.053070117425326267 0 0.10521044841837041 0.035422494385064417 0 0.092977810154944648 0.053070117425326267 0 0.089449236229465365 0.03685286092118592 0 0.10521044841837041 0.035422494385064417 0 0.092977810154944648 0.053070117425326267 0 0.1133392402374467 0.053204142399891047 0 0.1035655079248483 0.069632380985197889 0 0.092977810154944648 0.053070117425326267 0 0.10521044841837041 0.035422494385064417 0 0.1133392402374467 0.053204142399891047 0 0.1133392402374467 0.053204142399891047 0 0.1220245952479405 0.07004619687739172 0 0.13318341665519781 0.054736537254868822 0 0.1133392402374467 0.053204142399891047 0 0.12506256882025399 0.035699134337412737 0 0.13318341665519781 0.054736537254868822 0 0.10521044841837041 0.035422494385064417 0 0.1133392402374467 0.053204142399891047 0 0.12506256882025399 0.035699134337412737 0 0.10521044841837041 0.035422494385064417 0 0.11744308668179609 0.017774871344802521 0 0.12506256882025399 0.035699134337412737 0 0.10521044841837041 0.035422494385064417 0 0.11744308668179609 0.017774871344802521 0 0.10847276501169199 0.0092252325767439008 0 0.12681727907172599 0.0028609529651058472 0 0.11158832231026521 -0.002538519333972472 0 0.11744308668179609 0.017774871344802521 0 0.10847276501169199 0.0092252325767439008 0 0.12681727907172599 0.0028609529651058472 0 0.10847276501169199 0.0092252325767439008 0 0.096167504599054904 0.0042442054759202954 0 0.09879577097810871 0.02017555683513389 0 0.10847276501169199 0.0092252325767439008 0 0.096167504599054904 0.0042442054759202954 0 0.11158832231026521 -0.002538519333972472 0 0.10521044841837041 0.035422494385064417 0 0.11744308668179609 0.017774871344802521 0 0.09879577097810871 0.02017555683513389 0 0.089449236229465365 0.03685286092118592 0 0.10521044841837041 0.035422494385064417 0 0.09879577097810871 0.02017555683513389 0 0.11744308668179609 0.017774871344802521 0 0.10847276501169199 0.0092252325767439008 0 0.09879577097810871 0.02017555683513389 0 0.10882650996042049 0.098635597023528671 0 0.099321881767187231 0.10979448526446239 0 0.11057203073837581 0.10974959828000851 0 0.10882650996042049 0.098635597023528671 0 0.099321881767187231 0.10979448526446239 0 0.093532106097527157 0.097201512098380446 0 0.099321881767187231 0.10979448526446239 0 0.10718004060487731 0.1186919078288297 0 0.094925170845575335 0.12812185349131111 0 0.099321881767187231 0.10979448526446239 0 0.10718004060487731 0.1186919078288297 0 0.11057203073837581 0.10974959828000851 0 0.10718004060487731 0.1186919078288297 0 0.11057203073837581 0.10974959828000851 0 0.11923934643535521 0.1171320194813406 0 0.11923934643535521 0.1171320194813406 0 0.11184177323789279 0.12866158262702601 0 0.12877089149896251 0.12628235461406201 0 0.11057203073837581 0.10974959828000851 0 0.11923934643535521 0.1171320194813406 0 0.1204523462490521 0.10350528248164099 0 0.10718004060487731 0.1186919078288297 0 0.11923934643535521 0.1171320194813406 0 0.11184177323789279 0.12866158262702601 0 0.11923934643535521 0.1171320194813406 0 0.1204523462490521 0.10350528248164099 0 0.13278919984088661 0.11230677671938701 0 0.10882650996042049 0.098635597023528671 0 0.1204523462490521 0.10350528248164099 0 0.1175203890912727 0.086079419998433368 0 0.1204523462490521 0.10350528248164099 0 0.1175203890912727 0.086079419998433368 0 0.13376660142800201 0.097128283387147629 0 0.10882650996042049 0.098635597023528671 0 0.11057203073837581 0.10974959828000851 0 0.1204523462490521 0.10350528248164099 0 0.1175203890912727 0.086079419998433368 0 0.1220245952479405 0.07004619687739172 0 0.1035655079248483 0.069632380985197889 0 0.1133392402374467 0.053204142399891047 0 0.1220245952479405 0.07004619687739172 0 0.1035655079248483 0.069632380985197889 0 0.1175203890912727 0.086079419998433368 0 0.1035655079248483 0.069632380985197889 0 0.094785840925968687 0.084676668744557898 0 0.10882650996042049 0.098635597023528671 0 0.1175203890912727 0.086079419998433368 0 0.094785840925968687 0.084676668744557898 0 0.10882650996042049 0.098635597023528671 0 0.094785840925968687 0.084676668744557898 0 0.10882650996042049 0.098635597023528671 0 0.094785840925968687 0.084676668744557898 0 0.093532106097527157 0.097201512098380446 0 0.094785840925968687 0.084676668744557898 0 0.083309168386930019 0.090214104788044758 0 0.093532106097527157 0.097201512098380446 0 0.094785840925968687 0.084676668744557898 0 0.083309168386930019 0.090214104788044758 0 0.080745171891517087 0.070717740465586792 0 0.092977810154944648 0.053070117425326267 0 0.1035655079248483 0.069632380985197889 0 0.080745171891517087 0.070717740465586792 0 0.1035655079248483 0.069632380985197889 0 0.094785840925968687 0.084676668744557898 0 0.080745171891517087 0.070717740465586792 0 0.094785840925968687 0.084676668744557898 0 0.080745171891517087 0.070717740465586792 0 0.067806688972275458 0.057854581689803772 0 0.080745171891517087 0.070717740465586792 0 0.06101355018332804 0.07564509050647375 0 0.067806688972275458 0.057854581689803772 0 0.080745171891517087 0.070717740465586792 0 0.080745171891517087 0.070717740465586792 0 0.063512377127071362 0.095578924078155048 0 0.083309168386930019 0.090214104788044758 0 0.080745171891517087 0.070717740465586792 0 0.063512377127071362 0.095578924078155048 0 0.080745171891517087 0.070717740465586792 0 0.063512377127071362 0.095578924078155048 0 0.06101355018332804 0.07564509050647375 0 0.083309168386930019 0.090214104788044758 0 0.063512377127071362 0.095578924078155048 0 0.081417129447129324 0.1026867046713085 0 0.063512377127071362 0.095578924078155048 0 0.081417129447129324 0.1026867046713085 0 0.063512377127071362 0.095578924078155048 0 0.081417129447129324 0.1026867046713085 0 0.067817743154455989 0.1135840018968045 0 0.099321881767187231 0.10979448526446239 0 0.081417129447129324 0.1026867046713085 0 0.093532106097527157 0.097201512098380446 0 0.099321881767187231 0.10979448526446239 0 0.081417129447129324 0.1026867046713085 0 0.083309168386930019 0.090214104788044758 0 0.081417129447129324 0.1026867046713085 0 0.093532106097527157 0.097201512098380446 0 0.099321881767187231 0.10979448526446239 0 0.081417129447129324 0.1026867046713085 0 0.08262403040743542 0.1174427642681065 0 0.099321881767187231 0.10979448526446239 0 0.08262403040743542 0.1174427642681065 0 0.094925170845575335 0.12812185349131111 0 0.067817743154455989 0.1135840018968045 0 0.056785074219297037 0.123962922715022 0 0.069638226822829233 0.13302677601664631 0 0.08262403040743542 0.1174427642681065 0 0.067817743154455989 0.1135840018968045 0 0.069638226822829233 0.13302677601664631 0 0.081417129447129324 0.1026867046713085 0 0.08262403040743542 0.1174427642681065 0 0.067817743154455989 0.1135840018968045 0 0.067817743154455989 0.1135840018968045 0 0.056785074219297037 0.123962922715022 0 0.051472524226887043 0.11294842204475181 0 0.056785074219297037 0.123962922715022 0 0.051472524226887043 0.11294842204475181 0 0.045358146108277778 0.122235841909611 0 0.063512377127071362 0.095578924078155048 0 0.067817743154455989 0.1135840018968045 0 0.051472524226887043 0.11294842204475181 0 0.063512377127071362 0.095578924078155048 0 0.04894346805059932 0.099918275759685315 0 0.043712939932840048 0.087718996561209156 0 0.063512377127071362 0.095578924078155048 0 0.051472524226887043 0.11294842204475181 0 0.04894346805059932 0.099918275759685315 0 0.063512377127071362 0.095578924078155048 0 0.051472524226887043 0.11294842204475181 0 0.038417021745327531 0.1080037420749501 0 0.043712939932840048 0.087718996561209156 0 0.028330160343379221 0.096092512071592709 0 0.051472524226887043 0.11294842204475181 0 0.04894346805059932 0.099918275759685315 0 0.038417021745327531 0.1080037420749501 0 0.04894346805059932 0.099918275759685315 0 0.038417021745327531 0.1080037420749501 0 0.043712939932840048 0.087718996561209156 0 0.038417021745327531 0.1080037420749501 0 0.043712939932840048 0.087718996561209156 0 0.038417021745327531 0.1080037420749501 0 0.028403759718925791 0.1183090902513565 0 0.03312110355781811 0.12828848758869171 0 0.038417021745327531 0.1080037420749501 0 0.03312110355781811 0.12828848758869171 0 0.038417021745327531 0.1080037420749501 0 0.045358146108277778 0.122235841909611 0 0.03312110355781811 0.12828848758869171 0 0.051472524226887043 0.11294842204475181 0 0.038417021745327531 0.1080037420749501 0 0.045358146108277778 0.122235841909611 0 0.06101355018332804 0.07564509050647375 0 0.049290572992936238 0.066355209737614357 0 0.043712939932840048 0.087718996561209156 0 0.067806688972275458 0.057854581689803772 0 0.06101355018332804 0.07564509050647375 0 0.049290572992936238 0.066355209737614357 0 0.063512377127071362 0.095578924078155048 0 0.06101355018332804 0.07564509050647375 0 0.043712939932840048 0.087718996561209156 0 0.063512377127071362 0.095578924078155048 0 0.043712939932840048 0.087718996561209156 0 0.043712939932840048 0.087718996561209156 0 0.034829185389063419 0.071995956884763276 0 0.02079066235970875 0.078619372239532512 0 0.043712939932840048 0.087718996561209156 0 0.02079066235970875 0.078619372239532512 0 0.032141493454138102 0.060275729162332752 0 0.049290572992936238 0.066355209737614357 0 0.034829185389063419 0.071995956884763276 0 0.049290572992936238 0.066355209737614357 0 0.043712939932840048 0.087718996561209156 0 0.049290572992936238 0.066355209737614357 0 0.043712939932840048 0.087718996561209156 0 0.034829185389063419 0.071995956884763276 0 0.032141493454138102 0.060275729162332752 0 0.034829185389063419 0.071995956884763276 0 0.021142096610139102 0.064673842397447556 0 0.034829185389063419 0.071995956884763276 0 0.021142096610139102 0.064673842397447556 0 0.02079066235970875 0.078619372239532512 0 0.021142096610139102 0.064673842397447556 0 0.02079066235970875 0.078619372239532512 0 0.0078113760670387236 0.068869370431613411 0 0.043712939932840048 0.087718996561209156 0 0.02079066235970875 0.078619372239532512 0 0.028330160343379221 0.096092512071592709 0 0.02079066235970875 0.078619372239532512 0 0.028330160343379221 0.096092512071592709 0 0.013121597576430799 0.098285986815611973 0 -0.0022168413230157229 0.085736250976024914 0 0.0078113760670387236 0.068869370431613411 0 0.013121597576430799 0.098285986815611973 0 0.02079066235970875 0.078619372239532512 0 0.0078113760670387236 0.068869370431613411 0 0.013121597576430799 0.098285986815611973 0 0.0078113760670387236 0.068869370431613411 0 0.013121597576430799 0.098285986815611973 0 0.021142096610139102 0.064673842397447556 0 0.0078113760670387236 0.068869370431613411 0 0.013121597576430799 0.098285986815611973 0 0.018955942675363529 0.12769885014017149 0 0.018915766464259819 0.12208814763948179 0 0.025608580102588829 0.10783446266666021 0 0.013121597576430799 0.098285986815611973 0 0.018915766464259819 0.12208814763948179 0 0.013121597576430799 0.098285986815611973 0 0.018955942675363529 0.12769885014017149 0 0.018915766464259819 0.12208814763948179 0 0.018955942675363529 0.12769885014017149 0 0.028403759718925791 0.1183090902513565 0 0.025756287217072099 0.1254558848223972 0 0.03312110355781811 0.12828848758869171 0 0.018915766464259819 0.12208814763948179 0 0.028403759718925791 0.1183090902513565 0 0.025756287217072099 0.1254558848223972 0 0.038417021745327531 0.1080037420749501 0 0.028403759718925791 0.1183090902513565 0 0.025608580102588829 0.10783446266666021 0 0.018915766464259819 0.12208814763948179 0 0.028403759718925791 0.1183090902513565 0 0.025608580102588829 0.10783446266666021 0 0.038417021745327531 0.1080037420749501 0 0.025608580102588829 0.10783446266666021 0 0.028330160343379221 0.096092512071592709 0 0.025608580102588829 0.10783446266666021 0 0.028330160343379221 0.096092512071592709 0 0.013121597576430799 0.098285986815611973 0 -0.0093267163156350585 0.10220622611456499 0 -0.0022168413230157229 0.085736250976024914 0 0.013121597576430799 0.098285986815611973 0 -0.0093267163156350585 0.10220622611456499 0 0.013121597576430799 0.098285986815611973 0 0.0088418889268726004 0.1125261115153213 0 -0.0015382865690094869 0.1195819360983075 0 0.0088418889268726004 0.1125261115153213 0 0.0068357907514690393 0.1194307534492897 0 0.013121597576430799 0.098285986815611973 0 0.0088418889268726004 0.1125261115153213 0 0.018955942675363529 0.12769885014017149 0 0.01159030187937234 0.123800118292041 0 0.0068357907514690393 0.1194307534492897 0 0.0093864348306887096 0.12963523465885829 0 0.0088418889268726004 0.1125261115153213 0 0.01159030187937234 0.123800118292041 0 0.0068357907514690393 0.1194307534492897 0 0.0088418889268726004 0.1125261115153213 0 0.01159030187937234 0.123800118292041 0 0.018955942675363529 0.12769885014017149 0 -0.0015382865690094869 0.1195819360983075 0 0.0068357907514690393 0.1194307534492897 0 0.0028297340199113529 0.12737786763030409 0 0.0068357907514690393 0.1194307534492897 0 0.0028297340199113529 0.12737786763030409 0 0.0093864348306887096 0.12963523465885829 0 0.0028297340199113529 0.12737786763030409 0 0.0012022958327204049 0.13426380270999949 0 0.0063902301850321547 0.13414384741273511 0 0.0028297340199113529 0.12737786763030409 0 0.0063902301850321547 0.13414384741273511 0 0.0093864348306887096 0.12963523465885829 0 0.000228448927285114 0.14012311706009631 0 0.0012022958327204049 0.13426380270999949 0 0.0046739851119457828 0.13844047711548191 0 0.0012022958327204049 0.13426380270999949 0 0.0063902301850321547 0.13414384741273511 0 0.0046739851119457828 0.13844047711548191 0 0.0063902301850321547 0.13414384741273511 0 0.0046739851119457828 0.13844047711548191 0 0.0087417741184536643 0.13987837293796551 0 0.0063902301850321547 0.13414384741273511 0 0.0087417741184536643 0.13987837293796551 0 0.01188448664637911 0.13630481734698929 0 0.0087417741184536643 0.13987837293796551 0 0.01188448664637911 0.13630481734698929 0 0.01238480926519909 0.14086949425419931 0 0.0063902301850321547 0.13414384741273511 0 0.01188448664637911 0.13630481734698929 0 0.0093864348306887096 0.12963523465885829 0 0.01538181754864224 0.13462442671806851 0 0.01188448664637911 0.13630481734698929 0 0.01363814740762942 0.13063558522106289 0 0.01538181754864224 0.13462442671806851 0 0.01188448664637911 0.13630481734698929 0 0.014424460637306021 0.13832412831929569 0 0.01188448664637911 0.13630481734698929 0 0.014424460637306021 0.13832412831929569 0 0.01238480926519909 0.14086949425419931 0 0.014424460637306021 0.13832412831929569 0 0.01238480926519909 0.14086949425419931 0 0.015363480448823189 0.14129096320990631 0 0.01159030187937234 0.123800118292041 0 0.0093864348306887096 0.12963523465885829 0 0.01363814740762942 0.13063558522106289 0 0.01188448664637911 0.13630481734698929 0 0.0093864348306887096 0.12963523465885829 0 0.01363814740762942 0.13063558522106289 0 0.01159030187937234 0.123800118292041 0 0.01363814740762942 0.13063558522106289 0 0.018955942675363529 0.12769885014017149 0 0.018915766464259819 0.12208814763948179 0 0.018955942675363529 0.12769885014017149 0 0.022387711081268351 0.13069146168119281 0 0.025814451866404291 0.1323851931955756 0 0.019064338777337181 0.1428366210673169 0 0.044351282800083193 0.13793169854198151 0 0.018915766464259819 0.12208814763948179 0 0.022387711081268351 0.13069146168119281 0 0.025756287217072099 0.1254558848223972 0 0.01538181754864224 0.13462442671806851 0 0.01363814740762942 0.13063558522106289 0 0.018955942675363529 0.12769885014017149 0 0.022387711081268351 0.13069146168119281 0 0.025814451866404291 0.1323851931955756 0 0.019064338777337181 0.1428366210673169 0 0.01538181754864224 0.13462442671806851 0 0.018955942675363529 0.12769885014017149 0 0.01710770927748647 0.13853094006731531 0 0.018955942675363529 0.12769885014017149 0 0.01710770927748647 0.13853094006731531 0 0.019064338777337181 0.1428366210673169 0 0.018955942675363529 0.12769885014017149 0 0.019064338777337181 0.1428366210673169 0 0.018955942675363529 0.12769885014017149 0 0.022387711081268351 0.13069146168119281 0 0.019064338777337181 0.1428366210673169 0 0.01538181754864224 0.13462442671806851 0 0.014424460637306021 0.13832412831929569 0 0.01710770927748647 0.13853094006731531 0 0.014424460637306021 0.13832412831929569 0 0.01710770927748647 0.13853094006731531 0 0.015363480448823189 0.14129096320990631 0 0.01710770927748647 0.13853094006731531 0 0.017202595513394939 0.14154074390788901 0 0.015363480448823189 0.14129096320990631 0 0.025756287217072099 0.1254558848223972 0 0.025814451866404291 0.1323851931955756 0 0.03312110355781811 0.12828848758869171 0 0.022387711081268351 0.13069146168119281 0 0.025756287217072099 0.1254558848223972 0 0.025814451866404291 0.1323851931955756 0 0.019064338777337181 0.1428366210673169 0 0.01923932509198778 0.16727387202292701 0 0.034840635627581551 0.15270641195697809 0 0.019064338777337181 0.1428366210673169 0 0.01923932509198778 0.16727387202292701 0 0.01710770927748647 0.13853094006731531 0 0.019064338777337181 0.1428366210673169 0 0.017202595513394939 0.14154074390788901 0 0.019064338777337181 0.1428366210673169 0 0.017214352546369539 0.14319546392027949 0 0.017202595513394939 0.14154074390788901 0 0.019064338777337181 0.1428366210673169 0 0.017214352546369539 0.14319546392027949 0 0.017214352546369539 0.14319546392027949 0 0.017202595513394939 0.14154074390788901 0 0.015363480448823189 0.14129096320990631 0 0.019064338777337181 0.1428366210673169 0 0.010573304973877311 0.14810099588445341 0 0.0097219217107780143 0.1605441304936322 0 0.019064338777337181 0.1428366210673169 0 0.017214352546369539 0.14319546392027949 0 0.010573304973877311 0.14810099588445341 0 0.017214352546369539 0.14319546392027949 0 0.015363480448823189 0.14129096320990631 0 0.01311844662929992 0.14341517628664141 0 0.01238480926519909 0.14086949425419931 0 0.015363480448823189 0.14129096320990631 0 0.01311844662929992 0.14341517628664141 0 0.01238480926519909 0.14086949425419931 0 0.01311844662929992 0.14341517628664141 0 0.010056285912230499 0.14361896416436881 0 0.017214352546369539 0.14319546392027949 0 0.01311844662929992 0.14341517628664141 0 0.010573304973877311 0.14810099588445341 0 0.010573304973877311 0.14810099588445341 0 0.010056285912230499 0.14361896416436881 0 0.0052711451322874966 0.14430649706712931 0 0.01311844662929992 0.14341517628664141 0 0.010573304973877311 0.14810099588445341 0 0.010056285912230499 0.14361896416436881 0 0.0087417741184536643 0.13987837293796551 0 0.010056285912230499 0.14361896416436881 0 0.0052711451322874966 0.14430649706712931 0 0.0087417741184536643 0.13987837293796551 0 0.01238480926519909 0.14086949425419931 0 0.010056285912230499 0.14361896416436881 0 0.010573304973877311 0.14810099588445341 0 0.0052711451322874966 0.14430649706712931 0 0.002037105597096525 0.15151695060409001 0 0.0046739851119457828 0.13844047711548191 0 0.0087417741184536643 0.13987837293796551 0 0.0052711451322874966 0.14430649706712931 0 -0.001932496299644968 0.1459540675981712 0 0.0052711451322874966 0.14430649706712931 0 0.002037105597096525 0.15151695060409001 0 -0.001932496299644968 0.1459540675981712 0 0.000228448927285114 0.14012311706009631 0 0.0052711451322874966 0.14430649706712931 0 0.000228448927285114 0.14012311706009631 0 0.0046739851119457828 0.13844047711548191 0 0.0052711451322874966 0.14430649706712931 0 0.010573304973877311 0.14810099588445341 0 0.002037105597096525 0.15151695060409001 0 0.0097219217107780143 0.1605441304936322 0 -0.001399927819642065 0.15853034608675531 0 9.8439874396488518e-06 0.16909653965514321 0 0.0097219217107780143 0.1605441304936322 0 9.8439874396488518e-06 0.16909653965514321 0 0.0097219217107780143 0.1605441304936322 0 0.01923932509198778 0.16727387202292701 0 -0.001399927819642065 0.15853034608675531 0 0.002037105597096525 0.15151695060409001 0 0.0097219217107780143 0.1605441304936322 0 0.0075192663374202447 0.1824792222503463 0 0.01923932509198778 0.16727387202292701 0 0.019414311406637581 0.19171112297853721 0 9.8439874396488518e-06 0.16909653965514321 0 0.0075192663374202447 0.1824792222503463 0 0.01923932509198778 0.16727387202292701 0 -0.0058150648891281392 0.18464487058732859 0 9.8439874396488518e-06 0.16909653965514321 0 0.0075192663374202447 0.1824792222503463 0 0.01923932509198778 0.16727387202292701 0 0.019414311406637581 0.19171112297853721 0 0.01923932509198778 0.16727387202292701 0 0.041253151311174942 0.18351428487242299 0 0.019414311406637581 0.19171112297853721 0 0.019064338777337181 0.1428366210673169 0 0.0097219217107780143 0.1605441304936322 0 0.01923932509198778 0.16727387202292701 0 0.01923932509198778 0.16727387202292701 0 0.045192968381937218 0.16506141320240761 0 0.034840635627581551 0.15270641195697809 0 0.01923932509198778 0.16727387202292701 0 0.045192968381937218 0.16506141320240761 0 0.041253151311174942 0.18351428487242299 0 0.041253151311174942 0.18351428487242299 0 0.056495320393279057 0.1758938039325593 0 0.06399941055398814 0.19765529411200519 0 0.045192968381937218 0.16506141320240761 0 0.041253151311174942 0.18351428487242299 0 0.056495320393279057 0.1758938039325593 0 0.045192968381937218 0.16506141320240761 0 0.058418108920392182 0.16045602069262471 0 0.053913444208845418 0.15009958673064799 0 0.045192968381937218 0.16506141320240761 0 0.056495320393279057 0.1758938039325593 0 0.058418108920392182 0.16045602069262471 0 0.058418108920392182 0.16045602069262471 0 0.053913444208845418 0.15009958673064799 0 0.071039442700249214 0.1514151999732502 0 0.053913444208845418 0.15009958673064799 0 0.044351282800083193 0.13793169854198151 0 0.069638226822829233 0.13302677601664631 0 0.044351282800083193 0.13793169854198151 0 0.069638226822829233 0.13302677601664631 0 0.056785074219297037 0.123962922715022 0 0.045358146108277778 0.122235841909611 0 0.044351282800083193 0.13793169854198151 0 0.056785074219297037 0.123962922715022 0 0.044351282800083193 0.13793169854198151 0 0.069638226822829233 0.13302677601664631 0 0.025814451866404291 0.1323851931955756 0 0.044351282800083193 0.13793169854198151 0 0.03312110355781811 0.12828848758869171 0 0.045358146108277778 0.122235841909611 0 0.044351282800083193 0.13793169854198151 0 0.03312110355781811 0.12828848758869171 0 0.019064338777337181 0.1428366210673169 0 0.044351282800083193 0.13793169854198151 0 0.053913444208845418 0.15009958673064799 0 0.044351282800083193 0.13793169854198151 0 0.034840635627581551 0.15270641195697809 0 0.045192968381937218 0.16506141320240761 0 0.053913444208845418 0.15009958673064799 0 0.034840635627581551 0.15270641195697809 0 0.019064338777337181 0.1428366210673169 0 0.044351282800083193 0.13793169854198151 0 0.034840635627581551 0.15270641195697809 0 0.019733428038529611 0.23627651218177001 0 0.032395297456559217 0.24990448186487541 0 0.01992807415890703 0.26345930130890138 0 0.019733428038529611 0.23627651218177001 0 0.01992807415890703 0.26345930130890138 0 0.019733428038529611 0.23627651218177001 0 0.032900500049065431 0.23758744706011731 0 0.032395297456559217 0.24990448186487541 0 0.019733428038529611 0.23627651218177001 0 0.032900500049065431 0.23758744706011731 0 -0.0054403593235216562 0.23377016940133941 0 0.019733428038529611 0.23627651218177001 0 -0.0054403593235216562 0.23377016940133941 0 0.019733428038529611 0.23627651218177001 0 0.0051881906427589239 0.2429023142665572 0 0.019733428038529611 0.23627651218177001 0 0.0051881906427589239 0.2429023142665572 0 0.0108212759879371 0.25143582124693198 0 -0.004361582131907446 0.25012675423618741 0 0.0051881906427589239 0.2429023142665572 0 0.0108212759879371 0.25143582124693198 0 -0.0054403593235216562 0.23377016940133941 0 0.019733428038529611 0.23627651218177001 0 0.0022205822065663882 0.22338098429998751 0 0.0022205822065663882 0.22338098429998751 0 0.019589297721289551 0.2161483739341474 0 0.019733428038529611 0.23627651218177001 0 0.0022205822065663882 0.22338098429998751 0 0.019589297721289551 0.2161483739341474 0 0.019733428038529611 0.23627651218177001 0 0.019589297721289551 0.2161483739341474 0 0.034101449494264802 0.22244897456428839 0 0.019733428038529611 0.23627651218177001 0 0.019589297721289551 0.2161483739341474 0 0.019733428038529611 0.23627651218177001 0 0.034101449494264802 0.22244897456428839 0 0.032900500049065431 0.23758744706011731 0 0.019589297721289551 0.2161483739341474 0 0.019414311406637581 0.19171112297853721 0 0.041794354137638927 0.20690183402307669 0 0.019589297721289551 0.2161483739341474 0 0.041794354137638927 0.20690183402307669 0 0.019589297721289551 0.2161483739341474 0 0.019414311406637581 0.19171112297853721 0 -0.001618838316679704 0.21186515805952549 0 0.0022205822065663882 0.22338098429998751 0 0.019589297721289551 0.2161483739341474 0 -0.001618838316679704 0.21186515805952549 0 0.019589297721289551 0.2161483739341474 0 0.0047479160901643591 0.19966970600779571 0 0.0075192663374202447 0.1824792222503463 0 0.0047479160901643591 0.19966970600779571 0 0.019414311406637581 0.19171112297853721 0 0.019589297721289551 0.2161483739341474 0 0.0047479160901643591 0.19966970600779571 0 0.019414311406637581 0.19171112297853721 0 -0.0058150648891281392 0.18464487058732859 0 0.0075192663374202447 0.1824792222503463 0 0.0047479160901643591 0.19966970600779571 0 0.041253151311174942 0.18351428487242299 0 0.019414311406637581 0.19171112297853721 0 0.041794354137638927 0.20690183402307669 0 0.041253151311174942 0.18351428487242299 0 0.041794354137638927 0.20690183402307669 0 0.06399941055398814 0.19765529411200519 0 0.041794354137638927 0.20690183402307669 0 0.06399941055398814 0.19765529411200519 0 0.061093413050727782 0.21440081318481749 0 0.041794354137638927 0.20690183402307669 0 0.06399941055398814 0.19765529411200519 0 0.061093413050727782 0.21440081318481749 0 0.041794354137638927 0.20690183402307669 0 0.049967951794046297 0.22590254710105601 0 0.019589297721289551 0.2161483739341474 0 0.041794354137638927 0.20690183402307669 0 0.034101449494264802 0.22244897456428839 0 0.041794354137638927 0.20690183402307669 0 0.034101449494264802 0.22244897456428839 0 0.049967951794046297 0.22590254710105601 0 0.034101449494264802 0.22244897456428839 0 0.049967951794046297 0.22590254710105601 0 0.032900500049065431 0.23758744706011731 0 0.049967951794046297 0.22590254710105601 0 0.049298807743375681 0.24401567068345059 0 0.070152213389441304 0.23042254488525729 0 0.061093413050727782 0.21440081318481749 0 0.049967951794046297 0.22590254710105601 0 0.070152213389441304 0.23042254488525729 0 0.049298807743375681 0.24401567068345059 0 0.032900500049065431 0.23758744706011731 0 0.032395297456559217 0.24990448186487541 0 0.049967951794046297 0.22590254710105601 0 0.049298807743375681 0.24401567068345059 0 0.032900500049065431 0.23758744706011731 0 0.081494970558903312 0.2413152449973858 0 0.068539877812152941 0.25484826761588569 0 0.094153496178737847 0.25278652485753728 0 0.081494970558903312 0.2413152449973858 0 0.092408256837057293 0.22639029288367121 0 0.094153496178737847 0.25278652485753728 0 0.081494970558903312 0.2413152449973858 0 0.070152213389441304 0.23042254488525729 0 0.068539877812152941 0.25484826761588569 0 0.049298807743375681 0.24401567068345059 0 0.070152213389441304 0.23042254488525729 0 0.068539877812152941 0.25484826761588569 0 0.070152213389441304 0.23042254488525729 0 0.079553135378524209 0.21112184580269211 0 0.081494970558903312 0.2413152449973858 0 0.070152213389441304 0.23042254488525729 0 0.092408256837057293 0.22639029288367121 0 0.070152213389441304 0.23042254488525729 0 0.092408256837057293 0.22639029288367121 0 0.079553135378524209 0.21112184580269211 0 0.092408256837057293 0.22639029288367121 0 0.090685729118578778 0.2092827598877062 0 0.079553135378524209 0.21112184580269211 0 0.090685729118578778 0.2092827598877062 0 0.079553135378524209 0.21112184580269211 0 0.088954057367607559 0.19182114672012679 0 0.061093413050727782 0.21440081318481749 0 0.070152213389441304 0.23042254488525729 0 0.079553135378524209 0.21112184580269211 0 0.061093413050727782 0.21440081318481749 0 0.079553135378524209 0.21112184580269211 0 0.06399941055398814 0.19765529411200519 0 0.079553135378524209 0.21112184580269211 0 0.06399941055398814 0.19765529411200519 0 0.086204466970337151 0.18840875420093359 0 0.06399941055398814 0.19765529411200519 0 0.086204466970337151 0.18840875420093359 0 0.079553135378524209 0.21112184580269211 0 0.088954057367607559 0.19182114672012679 0 0.079553135378524209 0.21112184580269211 0 0.086204466970337151 0.18840875420093359 0 0.088954057367607559 0.19182114672012679 0 0.088954057367607559 0.19182114672012679 0 0.091738629482519291 0.1861042405989983 0 0.086204466970337151 0.18840875420093359 0 0.088954057367607559 0.19182114672012679 0 0.091738629482519291 0.1861042405989983 0 0.086204466970337151 0.18840875420093359 0 0.088954057367607559 0.19182114672012679 0 0.10188013338443321 0.1945805347119858 0 0.1223034951297057 0.2015047654836217 0 0.1018274668911264 0.2077977541443348 0 0.090685729118578778 0.2092827598877062 0 0.088954057367607559 0.19182114672012679 0 0.1018274668911264 0.2077977541443348 0 0.088954057367607559 0.19182114672012679 0 0.10188013338443321 0.1945805347119858 0 0.1018274668911264 0.2077977541443348 0 0.088954057367607559 0.19182114672012679 0 0.1018274668911264 0.2077977541443348 0 0.088954057367607559 0.19182114672012679 0 0.10188013338443321 0.1945805347119858 0 0.091738629482519291 0.1861042405989983 0 0.10188013338443321 0.1945805347119858 0 0.1223034951297057 0.2015047654836217 0 0.1143056367611561 0.17670697857169981 0 0.1223034951297057 0.2015047654836217 0 0.1018274668911264 0.2077977541443348 0 0.11470087641464451 0.22377436156854341 0 0.1223034951297057 0.2015047654836217 0 0.11470087641464451 0.22377436156854341 0 0.12985428442346111 0.22473904082679019 0 0.092408256837057293 0.22639029288367121 0 0.090685729118578778 0.2092827598877062 0 0.1018274668911264 0.2077977541443348 0 0.1018274668911264 0.2077977541443348 0 0.11470087641464451 0.22377436156854341 0 0.092408256837057293 0.22639029288367121 0 0.11470087641464451 0.22377436156854341 0 0.1077236677954151 0.23904346403323151 0 0.092408256837057293 0.22639029288367121 0 0.1018274668911264 0.2077977541443348 0 0.11470087641464451 0.22377436156854341 0 0.11470087641464451 0.22377436156854341 0 0.12757428593816261 0.239750968992752 0 0.11470087641464451 0.22377436156854341 0 0.1077236677954151 0.23904346403323151 0 0.12757428593816261 0.239750968992752 0 0.11470087641464451 0.22377436156854341 0 0.12757428593816261 0.239750968992752 0 0.12985428442346111 0.22473904082679019 0 0.1077236677954151 0.23904346403323151 0 0.12757428593816261 0.239750968992752 0 0.1197671145453226 0.2507247820991888 0 0.1077236677954151 0.23904346403323151 0 0.1197671145453226 0.2507247820991888 0 0.094153496178737847 0.25278652485753728 0 0.092408256837057293 0.22639029288367121 0 0.1077236677954151 0.23904346403323151 0 0.094153496178737847 0.25278652485753728 0 0.089241880289002096 0.14489141207420311 0 0.071039442700249214 0.1514151999732502 0 0.087740544640930687 0.16123122417456451 0 0.08262403040743542 0.1174427642681065 0 0.069638226822829233 0.13302677601664631 0 0.094925170845575335 0.12812185349131111 0 0.069638226822829233 0.13302677601664631 0 0.094925170845575335 0.12812185349131111 0 0.089241880289002096 0.14489141207420311 0 0.069638226822829233 0.13302677601664631 0 0.094925170845575335 0.12812185349131111 0 0.053913444208845418 0.15009958673064799 0 0.069638226822829233 0.13302677601664631 0 0.071039442700249214 0.1514151999732502 0 0.089241880289002096 0.14489141207420311 0 0.069638226822829233 0.13302677601664631 0 0.071039442700249214 0.1514151999732502 0 0.058418108920392182 0.16045602069262471 0 0.071039442700249214 0.1514151999732502 0 0.073612962798902823 0.17278200678333611 0 0.071039442700249214 0.1514151999732502 0 0.073612962798902823 0.17278200678333611 0 0.087740544640930687 0.16123122417456451 0 0.056495320393279057 0.1758938039325593 0 0.058418108920392182 0.16045602069262471 0 0.073612962798902823 0.17278200678333611 0 0.06399941055398814 0.19765529411200519 0 0.086204466970337151 0.18840875420093359 0 0.073612962798902823 0.17278200678333611 0 0.056495320393279057 0.1758938039325593 0 0.06399941055398814 0.19765529411200519 0 0.073612962798902823 0.17278200678333611 0 0.086204466970337151 0.18840875420093359 0 0.073612962798902823 0.17278200678333611 0 0.086204466970337151 0.18840875420093359 0 0.073612962798902823 0.17278200678333611 0 0.087615468279621078 0.1760345128920231 0 0.087615468279621078 0.1760345128920231 0 0.091738629482519291 0.1861042405989983 0 0.098780737505415703 0.17164633870228399 0 0.086204466970337151 0.18840875420093359 0 0.087615468279621078 0.1760345128920231 0 0.091738629482519291 0.1861042405989983 0 0.086204466970337151 0.18840875420093359 0 0.091738629482519291 0.1861042405989983 0 0.073612962798902823 0.17278200678333611 0 0.087615468279621078 0.1760345128920231 0 0.087740544640930687 0.16123122417456451 0 0.087615468279621078 0.1760345128920231 0 0.087740544640930687 0.16123122417456451 0 0.098780737505415703 0.17164633870228399 0 0.087740544640930687 0.16123122417456451 0 0.098780737505415703 0.17164633870228399 0 0.10582284552831139 0.15718843680556929 0 0.098780737505415703 0.17164633870228399 0 0.1143056367611561 0.17670697857169981 0 0.11439408025226031 0.1643128731168863 0 0.098780737505415703 0.17164633870228399 0 0.10582284552831139 0.15718843680556929 0 0.11439408025226031 0.1643128731168863 0 0.098780737505415703 0.17164633870228399 0 0.10582284552831139 0.15718843680556929 0 0.091738629482519291 0.1861042405989983 0 0.1143056367611561 0.17670697857169981 0 0.10188013338443321 0.1945805347119858 0 0.091738629482519291 0.1861042405989983 0 0.1143056367611561 0.17670697857169981 0 0.091738629482519291 0.1861042405989983 0 0.098780737505415703 0.17164633870228399 0 0.1143056367611561 0.17670697857169981 0 0.091738629482519291 0.1861042405989983 0 0.098780737505415703 0.17164633870228399 0 0.1223034951297057 0.2015047654836217 0 0.1143056367611561 0.17670697857169981 0 0.12984245568560021 0.18336402612102581 0 0.10582284552831139 0.15718843680556929 0 0.11439408025226031 0.1643128731168863 0 0.118827144549028 0.15045938834785799 0 0.1143056367611561 0.17670697857169981 0 0.11439408025226031 0.1643128731168863 0 0.1269873440417035 0.1621457976822499 0 0.11439408025226031 0.1643128731168863 0 0.118827144549028 0.15045938834785799 0 0.1269873440417035 0.1621457976822499 0 0.10582284552831139 0.15718843680556929 0 0.118827144549028 0.15045938834785799 0 0.1060715668831175 0.14085190817348309 0 0.118827144549028 0.15045938834785799 0 0.1060715668831175 0.14085190817348309 0 0.12165438094055341 0.1382202250837688 0 0.089241880289002096 0.14489141207420311 0 0.10582284552831139 0.15718843680556929 0 0.1060715668831175 0.14085190817348309 0 0.089241880289002096 0.14489141207420311 0 0.087740544640930687 0.16123122417456451 0 0.10582284552831139 0.15718843680556929 0 0.1060715668831175 0.14085190817348309 0 0.094925170845575335 0.12812185349131111 0 0.11184177323789279 0.12866158262702601 0 0.10718004060487731 0.1186919078288297 0 0.094925170845575335 0.12812185349131111 0 0.11184177323789279 0.12866158262702601 0 0.089241880289002096 0.14489141207420311 0 0.1060715668831175 0.14085190817348309 0 0.094925170845575335 0.12812185349131111 0 0.11184177323789279 0.12866158262702601 0 0.12165438094055341 0.1382202250837688 0 0.12877089149896251 0.12628235461406201 0 0.1060715668831175 0.14085190817348309 0 0.11184177323789279 0.12866158262702601 0 0.12165438094055341 0.1382202250837688 0 0.12877089149896251 0.12628235461406201 0 0.13720160688724839 0.13964518263404729 0 0.14559099576285081 0.1211645137464301 0 0.12165438094055341 0.1382202250837688 0 0.13720160688724839 0.13964518263404729 0 0.12165438094055341 0.1382202250837688 0 0.12877089149896251 0.12628235461406201 0 0.13720160688724839 0.13964518263404729 0 0.13720160688724839 0.13964518263404729 0 0.15632661280319129 0.13068902382275449 0 0.14559099576285081 0.1211645137464301 0 0.13720160688724839 0.13964518263404729 0 0.14559099576285081 0.1211645137464301 0 0.13720160688724839 0.13964518263404729 0 0.15632661280319129 0.13068902382275449 0 0.16429194695006341 0.14212810690262639 0 0.13720160688724839 0.13964518263404729 0 0.16429194695006341 0.14212810690262639 0 0.13720160688724839 0.13964518263404729 0 0.14941591407077959 0.14904867938194569 0 0.13673045112737631 0.1565089734740045 0 0.13720160688724839 0.13964518263404729 0 0.14941591407077959 0.14904867938194569 0 0.16429194695006341 0.14212810690262639 0 0.14941591407077959 0.14904867938194569 0 0.13673045112737631 0.1565089734740045 0 0.15943965131843141 0.15791245451710681 0 0.118827144549028 0.15045938834785799 0 0.13720160688724839 0.13964518263404729 0 0.1269873440417035 0.1621457976822499 0 0.13720160688724839 0.13964518263404729 0 0.1269873440417035 0.1621457976822499 0 0.13720160688724839 0.13964518263404729 0 0.1269873440417035 0.1621457976822499 0 0.13673045112737631 0.1565089734740045 0 0.118827144549028 0.15045938834785799 0 0.12165438094055341 0.1382202250837688 0 0.13720160688724839 0.13964518263404729 0 0.1143056367611561 0.17670697857169981 0 0.1269873440417035 0.1621457976822499 0 0.1368726440397933 0.1673097165444021 0 0.1269873440417035 0.1621457976822499 0 0.1368726440397933 0.1673097165444021 0 0.13673045112737631 0.1565089734740045 0 0.1143056367611561 0.17670697857169981 0 0.1368726440397933 0.1673097165444021 0 0.12984245568560021 0.18336402612102581 0 0.1143056367611561 0.17670697857169981 0 0.1368726440397933 0.1673097165444021 0 0.1368726440397933 0.1673097165444021 0 0.12984245568560021 0.18336402612102581 0 0.14395995749662011 0.19046676877908139 0 0.1368726440397933 0.1673097165444021 0 0.1557014301669345 0.17418450516490519 0 0.14395995749662011 0.19046676877908139 0 0.13673045112737631 0.1565089734740045 0 0.15943965131843141 0.15791245451710681 0 0.1368726440397933 0.1673097165444021 0 0.15943965131843141 0.15791245451710681 0 0.1368726440397933 0.1673097165444021 0 0.1557014301669345 0.17418450516490519 0 0.15943965131843141 0.15791245451710681 0 0.1368726440397933 0.1673097165444021 0 0.13673045112737631 0.1565089734740045 0 0.15943965131843141 0.15791245451710681 0 0.1557014301669345 0.17418450516490519 0 0.15943965131843141 0.15791245451710681 0 0.16838221510295989 0.1692040805085635 0 0.15943965131843141 0.15791245451710681 0 0.16838221510295989 0.1692040805085635 0 0.17970147406593759 0.15916468197935521 0 0.15943965131843141 0.15791245451710681 0 0.17970147406593759 0.15916468197935521 0 0.1557014301669345 0.17418450516490519 0 0.16985268287686869 0.18602950547537461 0 0.14395995749662011 0.19046676877908139 0 0.1557014301669345 0.17418450516490519 0 0.16838221510295989 0.1692040805085635 0 0.16985268287686869 0.18602950547537461 0 0.16985268287686869 0.18602950547537461 0 0.17776577537378679 0.1717491724038096 0 0.19009851561998109 0.17546705170333859 0 0.16985268287686869 0.18602950547537461 0 0.1921007491770006 0.19413511782623061 0 0.19009851561998109 0.17546705170333859 0 0.16838221510295989 0.1692040805085635 0 0.16985268287686869 0.18602950547537461 0 0.17776577537378679 0.1717491724038096 0 0.17776577537378679 0.1717491724038096 0 0.17970147406593759 0.15916468197935521 0 0.19009851561998109 0.17546705170333859 0 0.16838221510295989 0.1692040805085635 0 0.17776577537378679 0.1717491724038096 0 0.17970147406593759 0.15916468197935521 0 0.17970147406593759 0.15916468197935521 0 0.17541096916565421 0.151261742844153 0 0.19138228701287849 0.14461103117120311 0 0.17541096916565421 0.151261742844153 0 0.19138228701287849 0.14461103117120311 0 0.17541096916565421 0.151261742844153 0 0.16429194695006341 0.14212810690262639 0 0.19138228701287849 0.14461103117120311 0 0.16429194695006341 0.14212810690262639 0 0.19138228701287849 0.14461103117120311 0 0.1826996939178501 0.134395064982826 0 0.17014020092281509 0.1303647164313487 0 0.16429194695006341 0.14212810690262639 0 0.1826996939178501 0.134395064982826 0 0.16429194695006341 0.14212810690262639 0 0.19138228701287849 0.14461103117120311 0 0.1826996939178501 0.134395064982826 0 0.19400001601888209 0.1301444430180784 0 0.18282874988353909 0.12176719670840121 0 0.1826996939178501 0.134395064982826 0 0.17014020092281509 0.1303647164313487 0 0.18282874988353909 0.12176719670840121 0 0.17014020092281509 0.1303647164313487 0 0.15632661280319129 0.13068902382275449 0 0.1644083134929788 0.12014259939932 0 0.17014020092281509 0.1303647164313487 0 0.15632661280319129 0.13068902382275449 0 0.16429194695006341 0.14212810690262639 0 0.14941591407077959 0.14904867938194569 0 0.15943965131843141 0.15791245451710681 0 0.16429194695006341 0.14212810690262639 0 0.15943965131843141 0.15791245451710681 0 0.17970147406593759 0.15916468197935521 0 0.17541096916565421 0.151261742844153 0 0.15943965131843141 0.15791245451710681 0 0.17541096916565421 0.151261742844153 0 0.15943965131843141 0.15791245451710681 0 0.17541096916565421 0.151261742844153 0 0.16429194695006341 0.14212810690262639 0 0.15269041899089261 0.24018887904249059 0 0.1453807329119074 0.24866303934084041 0 0.15466915334416509 0.25190660019890743 0 0.15269041899089261 0.24018887904249059 0 0.1453807329119074 0.24866303934084041 0 0.14060451702156199 0.2357308345711725 0 0.1453807329119074 0.24866303934084041 0 0.12757428593816261 0.239750968992752 0 0.14060451702156199 0.2357308345711725 0 0.1453807329119074 0.24866303934084041 0 0.1197671145453226 0.2507247820991888 0 0.1453807329119074 0.24866303934084041 0 0.12757428593816261 0.239750968992752 0 0.1197671145453226 0.2507247820991888 0 0.14060451702156199 0.2357308345711725 0 0.12985428442346111 0.22473904082679019 0 0.14752286284338639 0.22531224465298941 0 0.12985428442346111 0.22473904082679019 0 0.14752286284338639 0.22531224465298941 0 0.1398831682024731 0.2101323370399282 0 0.12757428593816261 0.239750968992752 0 0.14060451702156199 0.2357308345711725 0 0.12985428442346111 0.22473904082679019 0 0.15269041899089261 0.24018887904249059 0 0.14752286284338639 0.22531224465298941 0 0.16513181717874489 0.22933158445530699 0 0.14752286284338639 0.22531224465298941 0 0.155775241119192 0.20863886545715829 0 0.16513181717874489 0.22933158445530699 0 0.15269041899089261 0.24018887904249059 0 0.14060451702156199 0.2357308345711725 0 0.14752286284338639 0.22531224465298941 0 0.14752286284338639 0.22531224465298941 0 0.155775241119192 0.20863886545715829 0 0.1398831682024731 0.2101323370399282 0 0.1223034951297057 0.2015047654836217 0 0.12985428442346111 0.22473904082679019 0 0.1398831682024731 0.2101323370399282 0 0.1223034951297057 0.2015047654836217 0 0.12984245568560021 0.18336402612102581 0 0.14395995749662011 0.19046676877908139 0 0.1223034951297057 0.2015047654836217 0 0.1398831682024731 0.2101323370399282 0 0.14395995749662011 0.19046676877908139 0 0.155775241119192 0.20863886545715829 0 0.1398831682024731 0.2101323370399282 0 0.14395995749662011 0.19046676877908139 0 0.16985268287686869 0.18602950547537461 0 0.155775241119192 0.20863886545715829 0 0.17615578699577941 0.211297655888005 0 0.16985268287686869 0.18602950547537461 0 0.155775241119192 0.20863886545715829 0 0.14395995749662011 0.19046676877908139 0 0.16985268287686869 0.18602950547537461 0 0.17615578699577941 0.211297655888005 0 0.1921007491770006 0.19413511782623061 0 0.155775241119192 0.20863886545715829 0 0.17615578699577941 0.211297655888005 0 0.16513181717874489 0.22933158445530699 0 0.17615578699577941 0.211297655888005 0 0.1832321526603185 0.22988712241990911 0 0.19922996910836269 0.2206298732412626 0 0.17615578699577941 0.211297655888005 0 0.16513181717874489 0.22933158445530699 0 0.1832321526603185 0.22988712241990911 0 0.1832321526603185 0.22988712241990911 0 0.17921266192405369 0.24485401564359771 0 0.19643052809465181 0.2433224828713732 0 0.16513181717874489 0.22933158445530699 0 0.1832321526603185 0.22988712241990911 0 0.17921266192405369 0.24485401564359771 0 0.17921266192405369 0.24485401564359771 0 0.19643052809465181 0.2433224828713732 0 0.18608903078984079 0.25995697105729071 0 0.17921266192405369 0.24485401564359771 0 0.1648484701696567 0.24744362212440471 0 0.17332134199895571 0.25758983019522791 0 0.15269041899089261 0.24018887904249059 0 0.16513181717874489 0.22933158445530699 0 0.1648484701696567 0.24744362212440471 0 0.16513181717874489 0.22933158445530699 0 0.17921266192405369 0.24485401564359771 0 0.1648484701696567 0.24744362212440471 0 0.15269041899089261 0.24018887904249059 0 0.1648484701696567 0.24744362212440471 0 0.15466915334416509 0.25190660019890743 0 0.21227379049082179 0.2367256787841478 0 0.19643052809465181 0.2433224828713732 0 0.21668623523937189 0.25273648673926968 0 0.21227379049082179 0.2367256787841478 0 0.19643052809465181 0.2433224828713732 0 0.19922996910836269 0.2206298732412626 0 0.1832321526603185 0.22988712241990911 0 0.19643052809465181 0.2433224828713732 0 0.19922996910836269 0.2206298732412626 0 0.21227379049082179 0.2367256787841478 0 0.19922996910836269 0.2206298732412626 0 0.219709047837161 0.22243828454522341 0 0.19922996910836269 0.2206298732412626 0 0.21843520523288221 0.2053181895842969 0 0.1921007491770006 0.19413511782623061 0 0.19922996910836269 0.2206298732412626 0 0.21843520523288221 0.2053181895842969 0 0.219709047837161 0.22243828454522341 0 0.17615578699577941 0.211297655888005 0 0.19922996910836269 0.2206298732412626 0 0.1921007491770006 0.19413511782623061 0 0.21843520523288221 0.2053181895842969 0 0.1921007491770006 0.19413511782623061 0 0.21508853132578909 0.18630480878971589 0 0.21843520523288221 0.2053181895842969 0 0.1921007491770006 0.19413511782623061 0 0.21843520523288221 0.2053181895842969 0 0.23255597692269961 0.1986700960591046 0 0.21508853132578909 0.18630480878971589 0 0.23255597692269961 0.1986700960591046 0 0.21508853132578909 0.18630480878971589 0 0.23658713197922801 0.1849604865578777 0 0.23255597692269961 0.1986700960591046 0 0.24443808169503289 0.19165573435540739 0 0.23658713197922801 0.1849604865578777 0 0.24443808169503289 0.19165573435540739 0 0.2445919001722652 0.2027793092260104 0 0.25672659357731442 0.18931439154619459 0 0.23255597692269961 0.1986700960591046 0 0.24443808169503289 0.19165573435540739 0 0.2445919001722652 0.2027793092260104 0 0.2445919001722652 0.2027793092260104 0 0.2447696612887639 0.21650126134236319 0 0.26045320274891359 0.2075872277184421 0 0.23255597692269961 0.1986700960591046 0 0.2445919001722652 0.2027793092260104 0 0.2447696612887639 0.21650126134236319 0 0.21843520523288221 0.2053181895842969 0 0.2447696612887639 0.21650126134236319 0 0.21843520523288221 0.2053181895842969 0 0.2447696612887639 0.21650126134236319 0 0.2325803478497725 0.22060216126394189 0 0.21843520523288221 0.2053181895842969 0 0.219709047837161 0.22243828454522341 0 0.2325803478497725 0.22060216126394189 0 0.21843520523288221 0.2053181895842969 0 0.23255597692269961 0.1986700960591046 0 0.2447696612887639 0.21650126134236319 0 0.219709047837161 0.22243828454522341 0 0.2325803478497725 0.22060216126394189 0 0.2358022310961575 0.23066856374322481 0 0.21227379049082179 0.2367256787841478 0 0.219709047837161 0.22243828454522341 0 0.2358022310961575 0.23066856374322481 0 0.2325803478497725 0.22060216126394189 0 0.24210869832250451 0.2249280049623063 0 0.2358022310961575 0.23066856374322481 0 0.2447696612887639 0.21650126134236319 0 0.2325803478497725 0.22060216126394189 0 0.24210869832250451 0.2249280049623063 0 0.2447696612887639 0.21650126134236319 0 0.24210869832250451 0.2249280049623063 0 0.24965972363503919 0.22122943443424911 0 0.24210869832250451 0.2249280049623063 0 0.24965972363503919 0.22122943443424911 0 0.2477315277427897 0.2356386040277525 0 0.24210869832250451 0.2249280049623063 0 0.2358022310961575 0.23066856374322481 0 0.2477315277427897 0.2356386040277525 0 0.2477315277427897 0.2356386040277525 0 0.24791323415382371 0.2458877298954085 0 0.23190300684591059 0.2469757189771403 0 0.2358022310961575 0.23066856374322481 0 0.2477315277427897 0.2356386040277525 0 0.23190300684591059 0.2469757189771403 0 0.21227379049082179 0.2367256787841478 0 0.23190300684591059 0.2469757189771403 0 0.21227379049082179 0.2367256787841478 0 0.23190300684591059 0.2469757189771403 0 0.21668623523937189 0.25273648673926968 0 0.21227379049082179 0.2367256787841478 0 0.2358022310961575 0.23066856374322481 0 0.23190300684591059 0.2469757189771403 0 0.20748271977021249 0.138902265540051 0 0.1939758213121906 0.1435310420930529 0 0.2197013820994709 0.14720657512863261 0 0.19138228701287849 0.14461103117120311 0 0.19996329681344399 0.160416909441601 0 0.2197013820994709 0.14720657512863261 0 0.19138228701287849 0.14461103117120311 0 0.2197013820994709 0.14720657512863261 0 0.2166933327952508 0.13146831334115849 0 0.20748271977021249 0.138902265540051 0 0.2197013820994709 0.14720657512863261 0 0.2166933327952508 0.13146831334115849 0 0.20603233854846789 0.12643210165642249 0 0.20748271977021249 0.138902265540051 0 0.20603233854846789 0.12643210165642249 0 0.20748271977021249 0.138902265540051 0 0.1992161984030385 0.13597632749908109 0 0.20748271977021249 0.138902265540051 0 0.1992161984030385 0.13597632749908109 0 0.1939758213121906 0.1435310420930529 0 0.20603233854846789 0.12643210165642249 0 0.1992161984030385 0.13597632749908109 0 0.19400001601888209 0.1301444430180784 0 0.20603233854846789 0.12643210165642249 0 0.19400001601888209 0.1301444430180784 0 0.19603586944622961 0.11914225126713909 0 0.1826996939178501 0.134395064982826 0 0.19400001601888209 0.1301444430180784 0 0.19225480333296779 0.137731581752848 0 0.1826996939178501 0.134395064982826 0 0.19225480333296779 0.137731581752848 0 0.19138228701287849 0.14461103117120311 0 0.1992161984030385 0.13597632749908109 0 0.19225480333296779 0.137731581752848 0 0.1939758213121906 0.1435310420930529 0 0.1992161984030385 0.13597632749908109 0 0.19400001601888209 0.1301444430180784 0 0.19225480333296779 0.137731581752848 0 0.17970147406593759 0.15916468197935521 0 0.19138228701287849 0.14461103117120311 0 0.19996329681344399 0.160416909441601 0 0.19138228701287849 0.14461103117120311 0 0.1939758213121906 0.1435310420930529 0 0.2197013820994709 0.14720657512863261 0 0.19225480333296779 0.137731581752848 0 0.19138228701287849 0.14461103117120311 0 0.1939758213121906 0.1435310420930529 0 0.19138228701287849 0.14461103117120311 0 0.1939758213121906 0.1435310420930529 0 0.17970147406593759 0.15916468197935521 0 0.19996329681344399 0.160416909441601 0 0.19009851561998109 0.17546705170333859 0 0.19996329681344399 0.160416909441601 0 0.19009851561998109 0.17546705170333859 0 0.20950303158443601 0.17060862998040069 0 0.17970147406593759 0.15916468197935521 0 0.19996329681344399 0.160416909441601 0 0.1921007491770006 0.19413511782623061 0 0.19009851561998109 0.17546705170333859 0 0.21508853132578909 0.18630480878971589 0 0.19009851561998109 0.17546705170333859 0 0.21508853132578909 0.18630480878971589 0 0.20950303158443601 0.17060862998040069 0 0.21508853132578909 0.18630480878971589 0 0.20950303158443601 0.17060862998040069 0 0.2262564526410854 0.1725101510884221 0 0.19996329681344399 0.160416909441601 0 0.22022511956095039 0.16166913690384679 0 0.2197013820994709 0.14720657512863261 0 0.19996329681344399 0.160416909441601 0 0.22022511956095039 0.16166913690384679 0 0.20950303158443601 0.17060862998040069 0 0.22022511956095039 0.16166913690384679 0 0.2262564526410854 0.1725101510884221 0 0.19996329681344399 0.160416909441601 0 0.20950303158443601 0.17060862998040069 0 0.22022511956095039 0.16166913690384679 0 0.22022511956095039 0.16166913690384679 0 0.23219216216083469 0.16070882341124321 0 0.2197013820994709 0.14720657512863261 0 0.23219216216083469 0.16070882341124321 0 0.2262564526410854 0.1725101510884221 0 0.24394273923527451 0.1708090208874482 0 0.22022511956095039 0.16166913690384679 0 0.23219216216083469 0.16070882341124321 0 0.2262564526410854 0.1725101510884221 0 0.21508853132578909 0.18630480878971589 0 0.2262564526410854 0.1725101510884221 0 0.23658713197922801 0.1849604865578777 0 0.2262564526410854 0.1725101510884221 0 0.23658713197922801 0.1849604865578777 0 0.24394273923527451 0.1708090208874482 0 0.23658713197922801 0.1849604865578777 0 0.24394273923527451 0.1708090208874482 0 0.25069145747160237 0.17986975870422739 0 0.24443808169503289 0.19165573435540739 0 0.23658713197922801 0.1849604865578777 0 0.25069145747160237 0.17986975870422739 0 0.23219216216083469 0.16070882341124321 0 0.24394273923527451 0.1708090208874482 0 0.24802047718606329 0.14980211908606039 0 0.24802047718606329 0.14980211908606039 0 0.2197013820994709 0.14720657512863261 0 0.23748423865396681 0.1372069433891186 0 0.24802047718606329 0.14980211908606039 0 0.23748423865396681 0.1372069433891186 0 0.23219216216083469 0.16070882341124321 0 0.24802047718606329 0.14980211908606039 0 0.2197013820994709 0.14720657512863261 0 0.24802047718606329 0.14980211908606039 0 0.2197013820994709 0.14720657512863261 0 0.2166933327952508 0.13146831334115849 0 0.23748423865396681 0.1372069433891186 0 0.2269480001218708 0.1246117676921763 0 0.2166933327952508 0.13146831334115849 0 0.2197013820994709 0.14720657512863261 0 0.23748423865396681 0.1372069433891186 0 0.23748423865396681 0.1372069433891186 0 0.2269480001218708 0.1246117676921763 0 0.23748423865396681 0.1372069433891186 0 0.23787758618680691 0.12376630322824581 0 0.2269480001218708 0.1246117676921763 0 0.24802047718606329 0.14980211908606039 0 0.23748423865396681 0.1372069433891186 0 0.25370366287882878 0.1241816415692342 0 0.23748423865396681 0.1372069433891186 0 0.23787758618680691 0.12376630322824581 0 0.25370366287882878 0.1241816415692342 0 0.24537668551697431 0.097277083683747018 0 0.23337444309256139 0.1090648602624541 0 0.25370366287882878 0.1241816415692342 0 0.24537668551697431 0.097277083683747018 0 0.25370366287882878 0.1241816415692342 0 0.23787758618680691 0.12376630322824581 0 0.23337444309256139 0.1090648602624541 0 0.25370366287882878 0.1241816415692342 0 0.24537668551697431 0.097277083683747018 0 0.23337444309256139 0.1090648602624541 0 0.22484289426170589 0.086614640480542404 0 0.23337444309256139 0.1090648602624541 0 0.21826071202707401 0.1016769895838342 0 0.22484289426170589 0.086614640480542404 0 0.23337444309256139 0.1090648602624541 0 0.21899261390952071 0.1157063141952675 0 0.21826071202707401 0.1016769895838342 0 0.2166933327952508 0.13146831334115849 0 0.2269480001218708 0.1246117676921763 0 0.21899261390952071 0.1157063141952675 0 0.23787758618680691 0.12376630322824581 0 0.23337444309256139 0.1090648602624541 0 0.2269480001218708 0.1246117676921763 0 0.23337444309256139 0.1090648602624541 0 0.2269480001218708 0.1246117676921763 0 0.21899261390952071 0.1157063141952675 0 0.20603233854846789 0.12643210165642249 0 0.21899261390952071 0.1157063141952675 0 0.20619401079708341 0.1103047766005421 0 0.2166933327952508 0.13146831334115849 0 0.20603233854846789 0.12643210165642249 0 0.21899261390952071 0.1157063141952675 0 0.20619401079708341 0.1103047766005421 0 0.20469956129863859 0.094216075576966402 0 0.21826071202707401 0.1016769895838342 0 0.21899261390952071 0.1157063141952675 0 0.20619401079708341 0.1103047766005421 0 0.21826071202707401 0.1016769895838342 0 0.20469956129863859 0.094216075576966402 0 0.21826071202707401 0.1016769895838342 0 0.22484289426170589 0.086614640480542404 0 0.20469956129863859 0.094216075576966402 0 0.1920226837756919 0.1062731432897658 0 0.18562998291260069 0.083724599791867624 0 0.20619401079708341 0.1103047766005421 0 0.20469956129863859 0.094216075576966402 0 0.1920226837756919 0.1062731432897658 0 0.1920226837756919 0.1062731432897658 0 0.19603586944622961 0.11914225126713909 0 0.18282874988353909 0.12176719670840121 0 0.20603233854846789 0.12643210165642249 0 0.20619401079708341 0.1103047766005421 0 0.19603586944622961 0.11914225126713909 0 0.19400001601888209 0.1301444430180784 0 0.19603586944622961 0.11914225126713909 0 0.18282874988353909 0.12176719670840121 0 0.20619401079708341 0.1103047766005421 0 0.1920226837756919 0.1062731432897658 0 0.19603586944622961 0.11914225126713909 0 0.19477888427106471 0.068028226971776184 0 0.20783404156105389 0.078077887697304768 0 0.18562998291260069 0.083724599791867624 0 0.20469956129863859 0.094216075576966402 0 0.20783404156105389 0.078077887697304768 0 0.18562998291260069 0.083724599791867624 0 0.20469956129863859 0.094216075576966402 0 0.20783404156105389 0.078077887697304768 0 0.22484289426170589 0.086614640480542404 0 0.20783404156105389 0.078077887697304768 0 0.2213202312424721 0.066581526905057059 0 0.20805697342917059 0.059178341543759817 0 0.20783404156105389 0.078077887697304768 0 0.2213202312424721 0.066581526905057059 0 0.22484289426170589 0.086614640480542404 0 0.19477888427106471 0.068028226971776184 0 0.20783404156105389 0.078077887697304768 0 0.20805697342917059 0.059178341543759817 0 0.2213202312424721 0.066581526905057059 0 0.23704970815511969 0.070372525798259866 0 0.2300545306497668 0.055557326715756347 0 0.2213202312424721 0.066581526905057059 0 0.22484289426170589 0.086614640480542404 0 0.23704970815511969 0.070372525798259866 0 0.24537668551697431 0.097277083683747018 0 0.22484289426170589 0.086614640480542404 0 0.23704970815511969 0.070372525798259866 0 0.24537668551697431 0.097277083683747018 0 0.23704970815511969 0.070372525798259866 0 0.25923100858263742 0.079351551944828513 0 0.24537668551697431 0.097277083683747018 0 0.23704970815511969 0.070372525798259866 0 0.23704970815511969 0.070372525798259866 0 0.24612717135886061 0.053158967820149818 0 0.25923100858263742 0.079351551944828513 0 0.23704970815511969 0.070372525798259866 0 0.24612717135886061 0.053158967820149818 0 0.2300545306497668 0.055557326715756347 0 0.24612717135886061 0.053158967820149818 0 0.22874243829254329 0.043439904086905012 0 0.2300545306497668 0.055557326715756347 0 0.24612717135886061 0.053158967820149818 0 0.24915942417082321 0.043562136642382059 0 0.25194780840825542 0.047502886957762752 0 0.24612717135886061 0.053158967820149818 0 0.2330233341350838 0.026966383695471149 0 0.24915942417082321 0.043562136642382059 0 0.24442705739527931 0.034620488068712277 0 0.25585841565974538 0.042233258010133973 0 0.24442705739527931 0.034620488068712277 0 0.2489069739425 0.021637400389674748 0 0.25585841565974538 0.042233258010133973 0 0.24612717135886061 0.053158967820149818 0 0.24442705739527931 0.034620488068712277 0 0.2330233341350838 0.026966383695471149 0 0.24612717135886061 0.053158967820149818 0 0.24915942417082321 0.043562136642382059 0 0.24442705739527931 0.034620488068712277 0 0.24612717135886061 0.053158967820149818 0 0.22874243829254329 0.043439904086905012 0 0.2330233341350838 0.026966383695471149 0 0.22874243829254329 0.043439904086905012 0 0.2330233341350838 0.026966383695471149 0 0.21578861999574539 0.032179983081358873 0 0.22874243829254329 0.043439904086905012 0 0.21871853532325961 0.049336859121788867 0 0.21578861999574539 0.032179983081358873 0 0.22874243829254329 0.043439904086905012 0 0.2300545306497668 0.055557326715756347 0 0.21871853532325961 0.049336859121788867 0 0.2213202312424721 0.066581526905057059 0 0.2300545306497668 0.055557326715756347 0 0.21871853532325961 0.049336859121788867 0 0.2489069739425 0.021637400389674748 0 0.2403210271001277 -0.0038011986657945939 0 0.2489069739425 0.021637400389674748 0 0.25900523844679291 0.0090906536209348996 0 0.2403210271001277 -0.0038011986657945939 0 0.23441323542690259 0.011205599980234709 0 0.2489069739425 0.021637400389674748 0 0.2403210271001277 -0.0038011986657945939 0 0.23441323542690259 0.011205599980234709 0 0.24019265022494121 0.023607468033523541 0 0.2330233341350838 0.026966383695471149 0 0.23441323542690259 0.011205599980234709 0 0.2489069739425 0.021637400389674748 0 0.23441323542690259 0.011205599980234709 0 0.2489069739425 0.021637400389674748 0 0.24019265022494121 0.023607468033523541 0 0.24442705739527931 0.034620488068712277 0 0.2489069739425 0.021637400389674748 0 0.24019265022494121 0.023607468033523541 0 0.24442705739527931 0.034620488068712277 0 0.24019265022494121 0.023607468033523541 0 0.2330233341350838 0.026966383695471149 0 0.2330233341350838 0.026966383695471149 0 0.2171386306806895 0.017395263111216398 0 0.21578861999574539 0.032179983081358873 0 0.23441323542690259 0.011205599980234709 0 0.2330233341350838 0.026966383695471149 0 0.21991949691130641 0.00077379957079282309 0 0.2330233341350838 0.026966383695471149 0 0.21991949691130641 0.00077379957079282309 0 0.2171386306806895 0.017395263111216398 0 0.2330233341350838 0.026966383695471149 0 0.21991949691130641 0.00077379957079282309 0 0.23441323542690259 0.011205599980234709 0 0.21991949691130641 0.00077379957079282309 0 0.2403210271001277 -0.0038011986657945939 0 0.23441323542690259 0.011205599980234709 0 0.21991949691130641 0.00077379957079282309 0 0.21991949691130641 0.00077379957079282309 0 0.21233724185039379 0.0083260795074358591 0 0.2171386306806895 0.017395263111216398 0 0.1913914811785945 0.0015479160267864781 0 0.21709144706251299 -0.0012616760615819459 0 0.21233724185039379 0.0083260795074358591 0 0.1913914811785945 0.0015479160267864781 0 0.21709144706251299 -0.0012616760615819459 0 0.21991949691130641 0.00077379957079282309 0 0.21233724185039379 0.0083260795074358591 0 0.21709144706251299 -0.0012616760615819459 0 0.21233724185039379 0.0083260795074358591 0 0.20462446051091829 0.018730069701022731 0 0.2171386306806895 0.017395263111216398 0 0.20462446051091829 0.018730069701022731 0 0.21578861999574539 0.032179983081358873 0 0.19600975553610309 0.033109727657073172 0 0.20462446051091829 0.018730069701022731 0 0.2171386306806895 0.017395263111216398 0 0.21578861999574539 0.032179983081358873 0 0.20462446051091829 0.018730069701022731 0 0.18949896143577891 0.016667400663256809 0 0.19600975553610309 0.033109727657073172 0 0.18949896143577891 0.016667400663256809 0 0.19600975553610309 0.033109727657073172 0 0.17707217964719771 0.025267716345226881 0 0.20462446051091829 0.018730069701022731 0 0.18949896143577891 0.016667400663256809 0 0.1913914811785945 0.0015479160267864781 0 0.21233724185039379 0.0083260795074358591 0 0.20462446051091829 0.018730069701022731 0 0.1913914811785945 0.0015479160267864781 0 0.2213202312424721 0.066581526905057059 0 0.20805697342917059 0.059178341543759817 0 0.21871853532325961 0.049336859121788867 0 0.20805697342917059 0.059178341543759817 0 0.2071731341036451 0.043988411023532258 0 0.1951942265281848 0.052365244609145413 0 0.20805697342917059 0.059178341543759817 0 0.21871853532325961 0.049336859121788867 0 0.2071731341036451 0.043988411023532258 0 0.21578861999574539 0.032179983081358873 0 0.2071731341036451 0.043988411023532258 0 0.19600975553610309 0.033109727657073172 0 0.21871853532325961 0.049336859121788867 0 0.21578861999574539 0.032179983081358873 0 0.2071731341036451 0.043988411023532258 0 0.19600975553610309 0.033109727657073172 0 0.1951942265281848 0.052365244609145413 0 0.18205947828297289 0.04260924739081328 0 0.2071731341036451 0.043988411023532258 0 0.19600975553610309 0.033109727657073172 0 0.1951942265281848 0.052365244609145413 0 0.19477888427106471 0.068028226971776184 0 0.20805697342917059 0.059178341543759817 0 0.1951942265281848 0.052365244609145413 0 0.19477888427106471 0.068028226971776184 0 0.1951942265281848 0.052365244609145413 0 0.1764837945120816 0.061910742511003793 0 0.1951942265281848 0.052365244609145413 0 0.1764837945120816 0.061910742511003793 0 0.18205947828297289 0.04260924739081328 0 0.1764837945120816 0.061910742511003793 0 0.18205947828297289 0.04260924739081328 0 0.16553743519129729 0.040392805831617133 0 0.18205947828297289 0.04260924739081328 0 0.16553743519129729 0.040392805831617133 0 0.17707217964719771 0.025267716345226881 0 0.19600975553610309 0.033109727657073172 0 0.18205947828297289 0.04260924739081328 0 0.17707217964719771 0.025267716345226881 0 0.16553743519129729 0.040392805831617133 0 0.1613139894326964 0.024121653580078981 0 0.1482006011997502 0.031747138067586222 0 0.1764837945120816 0.061910742511003793 0 0.16553743519129729 0.040392805831617133 0 0.15002216982279071 0.058334232048501217 0 0.177795833794237 0.0058736288592868176 0 0.17707217964719771 0.025267716345226881 0 0.16471785852727919 0.01090484445761932 0 0.18949896143577891 0.016667400663256809 0 0.1913914811785945 0.0015479160267864781 0 0.177795833794237 0.0058736288592868176 0 0.18949896143577891 0.016667400663256809 0 0.177795833794237 0.0058736288592868176 0 0.17707217964719771 0.025267716345226881 0 0.16553743519129729 0.040392805831617133 0 0.17707217964719771 0.025267716345226881 0 0.1613139894326964 0.024121653580078981 0 0.17707217964719771 0.025267716345226881 0 0.1613139894326964 0.024121653580078981 0 0.16471785852727919 0.01090484445761932 0 0.1613139894326964 0.024121653580078981 0 0.16471785852727919 0.01090484445761932 0 0.1510418725979574 0.012295763198345371 0 0.16471785852727919 0.01090484445761932 0 0.15628357420278671 0.003810722324721363 0 0.1510418725979574 0.012295763198345371 0 0.16471785852727919 0.01090484445761932 0 0.15628357420278671 0.003810722324721363 0 0.16638725000284621 -0.0041024332455818144 0 0.177795833794237 0.0058736288592868176 0 0.16471785852727919 0.01090484445761932 0 0.16638725000284621 -0.0041024332455818144 0 0.15628357420278671 0.003810722324721363 0 0.1463790325767105 0.0051600440866713393 0 0.1510418725979574 0.012295763198345371 0 0.15628357420278671 0.003810722324721363 0 0.1463790325767105 0.0051600440866713393 0 0.15462421245165581 -0.0058893527151400796 0 0.1463790325767105 0.0051600440866713393 0 0.1510418725979574 0.012295763198345371 0 0.1613139894326964 0.024121653580078981 0 0.1510418725979574 0.012295763198345371 0 0.1482006011997502 0.031747138067586222 0 0.1463790325767105 0.0051600440866713393 0 0.1482006011997502 0.031747138067586222 0 0.1463790325767105 0.0051600440866713393 0 0.1510418725979574 0.012295763198345371 0 0.1482006011997502 0.031747138067586222 0 0.1463790325767105 0.0051600440866713393 0 0.13437116548480091 0.018926778797625429 0 0.1482006011997502 0.031747138067586222 0 0.11744308668179609 0.017774871344802521 0 0.13437116548480091 0.018926778797625429 0 0.12506256882025399 0.035699134337412737 0 0.13437116548480091 0.018926778797625429 0 0.1482006011997502 0.031747138067586222 0 0.12506256882025399 0.035699134337412737 0 0.11744308668179609 0.017774871344802521 0 0.13437116548480091 0.018926778797625429 0 0.12681727907172599 0.0028609529651058472 0 0.1463790325767105 0.0051600440866713393 0 0.13437116548480091 0.018926778797625429 0 0.12681727907172599 0.0028609529651058472 0 0.15002216982279071 0.058334232048501217 0 0.1482006011997502 0.031747138067586222 0 0.13318341665519781 0.054736537254868822 0 0.16553743519129729 0.040392805831617133 0 0.15002216982279071 0.058334232048501217 0 0.1482006011997502 0.031747138067586222 0 0.15002216982279071 0.058334232048501217 0 0.1482006011997502 0.031747138067586222 0 0.1482006011997502 0.031747138067586222 0 0.12506256882025399 0.035699134337412737 0 0.13318341665519781 0.054736537254868822 0 0.1220245952479405 0.07004619687739172 0 0.13318341665519781 0.054736537254868822 0 0.140451324603005 0.079388379798429956 0 0.15002216982279071 0.058334232048501217 0 0.13318341665519781 0.054736537254868822 0 0.140451324603005 0.079388379798429956 0 0.15002216982279071 0.058334232048501217 0 0.140451324603005 0.079388379798429956 0 0.16236977351405571 0.08420317597119574 0 0.140451324603005 0.079388379798429956 0 0.13376660142800201 0.097128283387147629 0 0.1539803846384532 0.10268384485881291 0 0.140451324603005 0.079388379798429956 0 0.1539803846384532 0.10268384485881291 0 0.16236977351405571 0.08420317597119574 0 0.1175203890912727 0.086079419998433368 0 0.140451324603005 0.079388379798429956 0 0.13376660142800201 0.097128283387147629 0 0.1175203890912727 0.086079419998433368 0 0.1220245952479405 0.07004619687739172 0 0.140451324603005 0.079388379798429956 0 0.13376660142800201 0.097128283387147629 0 0.13278919984088661 0.11230677671938701 0 0.1539803846384532 0.10268384485881291 0 0.1204523462490521 0.10350528248164099 0 0.13376660142800201 0.097128283387147629 0 0.13278919984088661 0.11230677671938701 0 0.12877089149896251 0.12628235461406201 0 0.13278919984088661 0.11230677671938701 0 0.14559099576285081 0.1211645137464301 0 0.11923934643535521 0.1171320194813406 0 0.12877089149896251 0.12628235461406201 0 0.13278919984088661 0.11230677671938701 0 0.14559099576285081 0.1211645137464301 0 0.1539803846384532 0.10268384485881291 0 0.15632661280319129 0.13068902382275449 0 0.14559099576285081 0.1211645137464301 0 0.1644083134929788 0.12014259939932 0 0.13278919984088661 0.11230677671938701 0 0.14559099576285081 0.1211645137464301 0 0.1539803846384532 0.10268384485881291 0 0.14559099576285081 0.1211645137464301 0 0.1539803846384532 0.10268384485881291 0 0.1644083134929788 0.12014259939932 0 0.1539803846384532 0.10268384485881291 0 0.1644083134929788 0.12014259939932 0 0.1735399813695532 0.1031324266698939 0 0.1539803846384532 0.10268384485881291 0 0.1735399813695532 0.1031324266698939 0 0.16236977351405571 0.08420317597119574 0 0.1644083134929788 0.12014259939932 0 0.18282874988353909 0.12176719670840121 0 0.1735399813695532 0.1031324266698939 0 0.17014020092281509 0.1303647164313487 0 0.1644083134929788 0.12014259939932 0 0.18282874988353909 0.12176719670840121 0 0.1920226837756919 0.1062731432897658 0 0.18282874988353909 0.12176719670840121 0 0.1735399813695532 0.1031324266698939 0 0.1920226837756919 0.1062731432897658 0 0.1735399813695532 0.1031324266698939 0 0.18562998291260069 0.083724599791867624 0 0.1735399813695532 0.1031324266698939 0 0.18562998291260069 0.083724599791867624 0 0.16236977351405571 0.08420317597119574 0 0.1764837945120816 0.061910742511003793 0 0.18562998291260069 0.083724599791867624 0 0.16236977351405571 0.08420317597119574 0 0.19477888427106471 0.068028226971776184 0 0.1764837945120816 0.061910742511003793 0 0.18562998291260069 0.083724599791867624 0 0.1764837945120816 0.061910742511003793 0 0.15002216982279071 0.058334232048501217 0 0.16236977351405571 0.08420317597119574 0 0.1539803846384532 0.10268384485881291 0 0.16236977351405571 0.08420317597119574 0 0.1048222847563673 0.4786668097115272 0 0.091479988498646442 0.48354315307299939 0 0.09327677099031946 0.46903920507515112 0 0.1048222847563673 0.4786668097115272 0 0.10316008329641591 0.49260778903299252 0 0.092978519966910561 0.49654355170423659 0 0.1048222847563673 0.4786668097115272 0 0.092978519966910561 0.49654355170423659 0 0.1048222847563673 0.4786668097115272 0 0.091479988498646442 0.48354315307299939 0 0.092978519966910561 0.49654355170423659 0 0.10316008329641591 0.49260778903299252 0 0.10312521592474901 0.5 0 0.092978519966910561 0.49654355170423659 0 0.10316008329641591 0.49260778903299252 0 0.10312521592474901 0.5 0 0.1137569863567818 0.48891352741171218 0 0.1048222847563673 0.4786668097115272 0 0.10316008329641591 0.49260778903299252 0 0.1137569863567818 0.48891352741171218 0 0.1048222847563673 0.4786668097115272 0 0.10316008329641591 0.49260778903299252 0 0.1137569863567818 0.48891352741171218 0 0.12567845600013469 0.47929569400969452 0 0.1306299125622308 0.5 0 0.10312521592474901 0.5 0 0.1137569863567818 0.48891352741171218 0 0.1306299125622308 0.5 0 0.1048222847563673 0.4786668097115272 0 0.11648320602364499 0.46106604807885698 0 0.12567845600013469 0.47929569400969452 0 0.1048222847563673 0.4786668097115272 0 0.1137569863567818 0.48891352741171218 0 0.12567845600013469 0.47929569400969452 0 0.1048222847563673 0.4786668097115272 0 0.11648320602364499 0.46106604807885698 0 0.1048222847563673 0.4786668097115272 0 0.11648320602364499 0.46106604807885698 0 0.1073203574995146 0.45771532982499841 0 0.1119099515656637 0.4541769576285038 0 0.11648320602364499 0.46106604807885698 0 0.1073203574995146 0.45771532982499841 0 0.1119099515656637 0.4541769576285038 0 0.11648320602364499 0.46106604807885698 0 0.128144127290927 0.44346528644618949 0 0.1119099515656637 0.4541769576285038 0 0.1098184302426566 0.43676384993846878 0 0.128144127290927 0.44346528644618949 0 0.1119099515656637 0.4541769576285038 0 0.1073203574995146 0.45771532982499841 0 0.1098184302426566 0.43676384993846878 0 0.11648320602364499 0.46106604807885698 0 0.128144127290927 0.44346528644618949 0 0.1119099515656637 0.4541769576285038 0 0.1098184302426566 0.43676384993846878 0 0.1007171253458153 0.44820701469258212 0 0.1073203574995146 0.45771532982499841 0 0.1098184302426566 0.43676384993846878 0 0.1073203574995146 0.45771532982499841 0 0.1098184302426566 0.43676384993846878 0 0.1007171253458153 0.44820701469258212 0 0.097642268156116166 0.44157878137516282 0 0.1098184302426566 0.43676384993846878 0 0.097642268156116166 0.44157878137516282 0 0.1020591419526216 0.43422428691783338 0 0.1098184302426566 0.43676384993846878 0 0.097642268156116166 0.44157878137516282 0 0.1098184302426566 0.43676384993846878 0 0.09475968248970798 0.44694335582238792 0 0.1007171253458153 0.44820701469258212 0 0.092889002414179245 0.45276651635374332 0 0.1007171253458153 0.44820701469258212 0 0.096868601935243229 0.45789063626048049 0 0.092889002414179245 0.45276651635374332 0 0.09475968248970798 0.44694335582238792 0 0.1007171253458153 0.44820701469258212 0 0.097642268156116166 0.44157878137516282 0 0.09475968248970798 0.44694335582238792 0 0.097642268156116166 0.44157878137516282 0 0.088987703810336438 0.44500113512203671 0 0.1007171253458153 0.44820701469258212 0 0.097642268156116166 0.44157878137516282 0 0.1048222847563673 0.4786668097115272 0 0.1073203574995146 0.45771532982499841 0 0.09327677099031946 0.46903920507515112 0 0.1048222847563673 0.4786668097115272 0 0.1073203574995146 0.45771532982499841 0 0.1007171253458153 0.44820701469258212 0 0.1073203574995146 0.45771532982499841 0 0.096868601935243229 0.45789063626048049 0 0.1073203574995146 0.45771532982499841 0 0.096868601935243229 0.45789063626048049 0 0.09327677099031946 0.46903920507515112 0 0.090139753426387581 0.46172511535592747 0 0.079256630923375745 0.46616111205340521 0 0.09327677099031946 0.46903920507515112 0 0.096868601935243229 0.45789063626048049 0 0.090139753426387581 0.46172511535592747 0 0.09327677099031946 0.46903920507515112 0 0.090139753426387581 0.46172511535592747 0 0.092889002414179245 0.45276651635374332 0 0.081384578054001289 0.45283886102268139 0 0.096868601935243229 0.45789063626048049 0 0.090139753426387581 0.46172511535592747 0 0.092889002414179245 0.45276651635374332 0 0.090139753426387581 0.46172511535592747 0 0.079256630923375745 0.46616111205340521 0 0.081384578054001289 0.45283886102268139 0 0.088987703810336438 0.44500113512203671 0 0.082419728037930629 0.44071508101891732 0 0.08961571608665983 0.43565438773200948 0 0.097642268156116166 0.44157878137516282 0 0.088987703810336438 0.44500113512203671 0 0.097642268156116166 0.44157878137516282 0 0.088987703810336438 0.44500113512203671 0 0.08961571608665983 0.43565438773200948 0 0.088987703810336438 0.44500113512203671 0 0.092889002414179245 0.45276651635374332 0 0.081384578054001289 0.45283886102268139 0 0.09475968248970798 0.44694335582238792 0 0.088987703810336438 0.44500113512203671 0 0.092889002414179245 0.45276651635374332 0 0.088987703810336438 0.44500113512203671 0 0.081384578054001289 0.45283886102268139 0 0.082419728037930629 0.44071508101891732 0 0.067599685253138281 0.45287595272104653 0 0.081892131328371143 0.4314429342789402 0 0.067599685253138281 0.45287595272104653 0 0.066001473138610989 0.43632828312433408 0 0.081892131328371143 0.4314429342789402 0 0.082419728037930629 0.44071508101891732 0 0.067599685253138281 0.45287595272104653 0 0.081892131328371143 0.4314429342789402 0 0.081384578054001289 0.45283886102268139 0 0.082419728037930629 0.44071508101891732 0 0.067599685253138281 0.45287595272104653 0 0.079256630923375745 0.46616111205340521 0 0.067599685253138281 0.45287595272104653 0 0.069001794002684108 0.47224329730437981 0 0.067599685253138281 0.45287595272104653 0 0.069001794002684108 0.47224329730437981 0 0.053307239177905349 0.47430897116315313 0 0.079256630923375745 0.46616111205340521 0 0.081384578054001289 0.45283886102268139 0 0.067599685253138281 0.45287595272104653 0 0.069001794002684108 0.47224329730437981 0 0.079794243665170225 0.47979706117662119 0 0.065051170993830898 0.48807338940767292 0 0.079256630923375745 0.46616111205340521 0 0.069001794002684108 0.47224329730437981 0 0.079794243665170225 0.47979706117662119 0 0.079256630923375745 0.46616111205340521 0 0.079794243665170225 0.47979706117662119 0 0.09327677099031946 0.46903920507515112 0 0.079794243665170225 0.47979706117662119 0 0.091479988498646442 0.48354315307299939 0 0.09327677099031946 0.46903920507515112 0 0.092978519966910561 0.49654355170423659 0 0.084553660660575528 0.49009386622585083 0 0.075620519287267318 0.5 0 0.10312521592474901 0.5 0 0.092978519966910561 0.49654355170423659 0 0.075620519287267318 0.5 0 0.091479988498646442 0.48354315307299939 0 0.092978519966910561 0.49654355170423659 0 0.084553660660575528 0.49009386622585083 0 0.079794243665170225 0.47979706117662119 0 0.091479988498646442 0.48354315307299939 0 0.084553660660575528 0.49009386622585083 0 0.079794243665170225 0.47979706117662119 0 0.084553660660575528 0.49009386622585083 0 0.065051170993830898 0.48807338940767292 0 0.065051170993830898 0.48807338940767292 0 0.075620519287267318 0.5 0 0.048115822649785527 0.5 0 0.084553660660575528 0.49009386622585083 0 0.065051170993830898 0.48807338940767292 0 0.075620519287267318 0.5 0 0.065051170993830898 0.48807338940767292 0 0.048115822649785527 0.5 0 0.053307239177905349 0.47430897116315313 0 0.069001794002684108 0.47224329730437981 0 0.065051170993830898 0.48807338940767292 0 0.053307239177905349 0.47430897116315313 0 0.053307239177905349 0.47430897116315313 0 0.036467756559221701 0.47774208688151631 0 0.038707058205945111 0.46145460703462421 0 0.036467756559221701 0.47774208688151631 0 0.024551868698660679 0.47115282030446087 0 0.038707058205945111 0.46145460703462421 0 0.053307239177905349 0.47430897116315313 0 0.036467756559221701 0.47774208688151631 0 0.039014793102672522 0.49574198960525939 0 0.053307239177905349 0.47430897116315313 0 0.039014793102672522 0.49574198960525939 0 0.048115822649785527 0.5 0 0.053307239177905349 0.47430897116315313 0 0.039014793102672522 0.49574198960525939 0 0.048115822649785527 0.5 0 0.039014793102672522 0.49574198960525939 0 0.020611126012303801 0.5 0 0.036467756559221701 0.47774208688151631 0 0.039014793102672522 0.49574198960525939 0 0.026757823610924832 0.48605204630008392 0 0.039014793102672522 0.49574198960525939 0 0.020611126012303801 0.5 0 0.026757823610924832 0.48605204630008392 0 0.020611126012303801 0.5 0 0.026757823610924832 0.48605204630008392 0 0.01184792134048173 0.48364435332619582 0 0.036467756559221701 0.47774208688151631 0 0.026757823610924832 0.48605204630008392 0 0.024551868698660679 0.47115282030446087 0 0.024551868698660679 0.47115282030446087 0 0.01184792134048173 0.48364435332619582 0 0.0113986727330041 0.46548394976725249 0 0.026757823610924832 0.48605204630008392 0 0.024551868698660679 0.47115282030446087 0 0.01184792134048173 0.48364435332619582 0 -0.003089566724048357 0.47326761514296101 0 0.01184792134048173 0.48364435332619582 0 0.0113986727330041 0.46548394976725249 0 -0.0068935706251778139 0.5 0 -0.003089566724048357 0.47326761514296101 0 0.01184792134048173 0.48364435332619582 0 -0.0068935706251778139 0.5 0 0.020611126012303801 0.5 0 0.01184792134048173 0.48364435332619582 0 -0.0072392309157056894 0.43649428994281841 0 0.0026031304198410629 0.45131346537392758 0 0.017959463550051329 0.43401198815683267 0 0.0026031304198410629 0.45131346537392758 0 0.021372524407465811 0.45253342051953771 0 0.017959463550051329 0.43401198815683267 0 0.0026031304198410629 0.45131346537392758 0 0.0113986727330041 0.46548394976725249 0 0.021372524407465811 0.45253342051953771 0 -0.003089566724048357 0.47326761514296101 0 0.0026031304198410629 0.45131346537392758 0 0.0113986727330041 0.46548394976725249 0 0.024551868698660679 0.47115282030446087 0 0.0113986727330041 0.46548394976725249 0 0.021372524407465811 0.45253342051953771 0 0.024551868698660679 0.47115282030446087 0 0.021372524407465811 0.45253342051953771 0 0.038707058205945111 0.46145460703462421 0 0.021372524407465811 0.45253342051953771 0 0.037958531274121507 0.44366308696102769 0 0.017959463550051329 0.43401198815683267 0 0.037958531274121507 0.44366308696102769 0 0.05227214254911447 0.45021359508833869 0 0.050058868244965561 0.43265066952584708 0 0.021372524407465811 0.45253342051953771 0 0.037958531274121507 0.44366308696102769 0 0.038707058205945111 0.46145460703462421 0 0.037958531274121507 0.44366308696102769 0 0.038707058205945111 0.46145460703462421 0 0.05227214254911447 0.45021359508833869 0 0.067599685253138281 0.45287595272104653 0 0.053307239177905349 0.47430897116315313 0 0.053307239177905349 0.47430897116315313 0 0.038707058205945111 0.46145460703462421 0 0.05227214254911447 0.45021359508833869 0 0.067599685253138281 0.45287595272104653 0 0.053307239177905349 0.47430897116315313 0 0.05227214254911447 0.45021359508833869 0 0.05227214254911447 0.45021359508833869 0 0.050058868244965561 0.43265066952584708 0 0.066001473138610989 0.43632828312433408 0 0.067599685253138281 0.45287595272104653 0 0.05227214254911447 0.45021359508833869 0 0.066001473138610989 0.43632828312433408 0 0.050058868244965561 0.43265066952584708 0 0.068804754243522781 0.41994166461739918 0 0.066001473138610989 0.43632828312433408 0 0.050058868244965561 0.43265066952584708 0 0.048852687291388877 0.41459777654824598 0 0.068804754243522781 0.41994166461739918 0 0.048852687291388877 0.41459777654824598 0 0.061313779414970418 0.39987885693449271 0 0.068804754243522781 0.41994166461739918 0 0.048852687291388877 0.41459777654824598 0 0.068804754243522781 0.41994166461739918 0 0.048852687291388877 0.41459777654824598 0 0.036746034139956453 0.42683548193420928 0 0.028900620339254991 0.40925388847909272 0 0.048852687291388877 0.41459777654824598 0 0.028900620339254991 0.40925388847909272 0 0.048852687291388877 0.41459777654824598 0 0.028900620339254991 0.40925388847909272 0 0.042007131815748507 0.39655655075565333 0 0.050058868244965561 0.43265066952584708 0 0.048852687291388877 0.41459777654824598 0 0.036746034139956453 0.42683548193420928 0 0.037958531274121507 0.44366308696102769 0 0.050058868244965561 0.43265066952584708 0 0.036746034139956453 0.42683548193420928 0 0.037958531274121507 0.44366308696102769 0 0.036746034139956453 0.42683548193420928 0 0.017959463550051329 0.43401198815683267 0 0.036746034139956453 0.42683548193420928 0 0.017959463550051329 0.43401198815683267 0 0.028900620339254991 0.40925388847909272 0 0.017959463550051329 0.43401198815683267 0 0.028900620339254991 0.40925388847909272 0 0.0059488009041311612 0.41735624870114602 0 0.028900620339254991 0.40925388847909272 0 0.0059488009041311612 0.41735624870114602 0 0.0058412231562265226 0.39891749499975832 0 -0.0081246324890641812 0.40805065625530412 0 0.0059488009041311612 0.41735624870114602 0 0.0058412231562265226 0.39891749499975832 0 -0.0072392309157056894 0.43649428994281841 0 0.017959463550051329 0.43401198815683267 0 0.0059488009041311612 0.41735624870114602 0 -0.0036227877329230301 0.37947700469323042 0 0.0058412231562265226 0.39891749499975832 0 0.017841208666312069 0.37762534579018298 0 0.028900620339254991 0.40925388847909272 0 0.0058412231562265226 0.39891749499975832 0 0.024450360446550148 0.39274026509825583 0 0.024450360446550148 0.39274026509825583 0 0.017841208666312069 0.37762534579018298 0 0.035089121590226528 0.38253825820529852 0 0.0058412231562265226 0.39891749499975832 0 0.024450360446550148 0.39274026509825583 0 0.017841208666312069 0.37762534579018298 0 0.035089121590226528 0.38253825820529852 0 0.042007131815748507 0.39655655075565333 0 0.051605655867250001 0.38149668432143541 0 0.035089121590226528 0.38253825820529852 0 0.051605655867250001 0.38149668432143541 0 0.039541251155271878 0.36427244506096468 0 0.024450360446550148 0.39274026509825583 0 0.035089121590226528 0.38253825820529852 0 0.042007131815748507 0.39655655075565333 0 0.028900620339254991 0.40925388847909272 0 0.024450360446550148 0.39274026509825583 0 0.042007131815748507 0.39655655075565333 0 0.048852687291388877 0.41459777654824598 0 0.042007131815748507 0.39655655075565333 0 0.061313779414970418 0.39987885693449271 0 0.042007131815748507 0.39655655075565333 0 0.061313779414970418 0.39987885693449271 0 0.051605655867250001 0.38149668432143541 0 0.051605655867250001 0.38149668432143541 0 0.071205150989249344 0.38459031979425368 0 0.062117748859898458 0.36500130546073062 0 0.061313779414970418 0.39987885693449271 0 0.051605655867250001 0.38149668432143541 0 0.071205150989249344 0.38459031979425368 0 0.071205150989249344 0.38459031979425368 0 0.082619379705498486 0.3760424233717975 0 0.075022727430642186 0.36942391052545742 0 0.082619379705498486 0.3760424233717975 0 0.089989672908486834 0.38531380646189939 0 0.096111415589441723 0.36906918257109511 0 0.071205150989249344 0.38459031979425368 0 0.082619379705498486 0.3760424233717975 0 0.089989672908486834 0.38531380646189939 0 0.071205150989249344 0.38459031979425368 0 0.089989672908486834 0.38531380646189939 0 0.080292553118600216 0.40417933412777668 0 0.089989672908486834 0.38531380646189939 0 0.080292553118600216 0.40417933412777668 0 0.098794269534858231 0.4008464147916751 0 0.071205150989249344 0.38459031979425368 0 0.080292553118600216 0.40417933412777668 0 0.061313779414970418 0.39987885693449271 0 0.071205150989249344 0.38459031979425368 0 0.080292553118600216 0.40417933412777668 0 0.061313779414970418 0.39987885693449271 0 0.080292553118600216 0.40417933412777668 0 0.068804754243522781 0.41994166461739918 0 0.068804754243522781 0.41994166461739918 0 0.066001473138610989 0.43632828312433408 0 0.081892131328371143 0.4314429342789402 0 0.068804754243522781 0.41994166461739918 0 0.088756821195656727 0.42528555268655249 0 0.089379955247950782 0.42376834846129979 0 0.068804754243522781 0.41994166461739918 0 0.081892131328371143 0.4314429342789402 0 0.088756821195656727 0.42528555268655249 0 0.068804754243522781 0.41994166461739918 0 0.088756821195656727 0.42528555268655249 0 0.097642268156116166 0.44157878137516282 0 0.090272059233259302 0.42569138845737808 0 0.08961571608665983 0.43565438773200948 0 0.082419728037930629 0.44071508101891732 0 0.088756821195656727 0.42528555268655249 0 0.082419728037930629 0.44071508101891732 0 0.081892131328371143 0.4314429342789402 0 0.088756821195656727 0.42528555268655249 0 0.088756821195656727 0.42528555268655249 0 0.090272059233259302 0.42569138845737808 0 0.08961571608665983 0.43565438773200948 0 0.089379955247950782 0.42376834846129979 0 0.090272059233259302 0.42569138845737808 0 0.100849049247472 0.42323949502706593 0 0.088756821195656727 0.42528555268655249 0 0.089379955247950782 0.42376834846129979 0 0.090272059233259302 0.42569138845737808 0 0.088756821195656727 0.42528555268655249 0 0.090272059233259302 0.42569138845737808 0 0.089379955247950782 0.42376834846129979 0 0.090272059233259302 0.42569138845737808 0 0.088756821195656727 0.42528555268655249 0 0.089379955247950782 0.42376834846129979 0 0.082419728037930629 0.44071508101891732 0 0.088756821195656727 0.42528555268655249 0 0.08961571608665983 0.43565438773200948 0 0.080292553118600216 0.40417933412777668 0 0.089379955247950782 0.42376834846129979 0 0.080292553118600216 0.40417933412777668 0 0.068804754243522781 0.41994166461739918 0 0.089379955247950782 0.42376834846129979 0 0.080292553118600216 0.40417933412777668 0 0.089379955247950782 0.42376834846129979 0 0.098794269534858231 0.4008464147916751 0 0.089379955247950782 0.42376834846129979 0 0.10179294521624289 0.41380452076605601 0 0.098794269534858231 0.4008464147916751 0 0.089379955247950782 0.42376834846129979 0 0.098794269534858231 0.4008464147916751 0 0.10179294521624289 0.41380452076605601 0 0.1107041231999616 0.42933549212480232 0 0.10945635351086461 0.40362998662342647 0 0.089379955247950782 0.42376834846129979 0 0.10179294521624289 0.41380452076605601 0 0.100849049247472 0.42323949502706593 0 0.097642268156116166 0.44157878137516282 0 0.090272059233259302 0.42569138845737808 0 0.1020591419526216 0.43422428691783338 0 0.090272059233259302 0.42569138845737808 0 0.1020591419526216 0.43422428691783338 0 0.1093682320879097 0.430806037006286 0 0.090272059233259302 0.42569138845737808 0 0.1093682320879097 0.430806037006286 0 0.090272059233259302 0.42569138845737808 0 0.100849049247472 0.42323949502706593 0 0.1093682320879097 0.430806037006286 0 0.097642268156116166 0.44157878137516282 0 0.090272059233259302 0.42569138845737808 0 0.100849049247472 0.42323949502706593 0 0.1093682320879097 0.430806037006286 0 0.1107041231999616 0.42933549212480232 0 0.10179294521624289 0.41380452076605601 0 0.100849049247472 0.42323949502706593 0 0.1107041231999616 0.42933549212480232 0 0.1020591419526216 0.43422428691783338 0 0.1093682320879097 0.430806037006286 0 0.1103398931765668 0.43239031029619718 0 0.1020591419526216 0.43422428691783338 0 0.1098184302426566 0.43676384993846878 0 0.1103398931765668 0.43239031029619718 0 0.1020591419526216 0.43422428691783338 0 0.1103398931765668 0.43239031029619718 0 0.1103398931765668 0.43239031029619718 0 0.1206950902667107 0.42206632785564402 0 0.13429496844172059 0.42708486797366702 0 0.1098184302426566 0.43676384993846878 0 0.1103398931765668 0.43239031029619718 0 0.13429496844172059 0.42708486797366702 0 0.1098184302426566 0.43676384993846878 0 0.13429496844172059 0.42708486797366702 0 0.128144127290927 0.44346528644618949 0 0.1103398931765668 0.43239031029619718 0 0.13429496844172059 0.42708486797366702 0 0.1098184302426566 0.43676384993846878 0 0.13429496844172059 0.42708486797366702 0 0.1098184302426566 0.43676384993846878 0 0.1103398931765668 0.43239031029619718 0 0.1093682320879097 0.430806037006286 0 0.1103398931765668 0.43239031029619718 0 0.1107041231999616 0.42933549212480232 0 0.1103398931765668 0.43239031029619718 0 0.1107041231999616 0.42933549212480232 0 0.1103398931765668 0.43239031029619718 0 0.1107041231999616 0.42933549212480232 0 0.1206950902667107 0.42206632785564402 0 0.1107041231999616 0.42933549212480232 0 0.10945635351086461 0.40362998662342647 0 0.1107041231999616 0.42933549212480232 0 0.1127079119913361 0.41252960019287183 0 0.10945635351086461 0.40362998662342647 0 0.1107041231999616 0.42933549212480232 0 0.1206950902667107 0.42206632785564402 0 0.1127079119913361 0.41252960019287183 0 0.1107041231999616 0.42933549212480232 0 0.1127079119913361 0.41252960019287183 0 0.1127079119913361 0.41252960019287183 0 0.11966152561727041 0.40521647558469348 0 0.10945635351086461 0.40362998662342647 0 0.1206950902667107 0.42206632785564402 0 0.1127079119913361 0.41252960019287183 0 0.1238244133614653 0.41259348140785829 0 0.1127079119913361 0.41252960019287183 0 0.1238244133614653 0.41259348140785829 0 0.11966152561727041 0.40521647558469348 0 0.10945635351086461 0.40362998662342647 0 0.12302526621810631 0.39483339242702431 0 0.1082085838217669 0.37792448112205068 0 0.11966152561727041 0.40521647558469348 0 0.12302526621810631 0.39483339242702431 0 0.1317921164680903 0.40545952647836342 0 0.11966152561727041 0.40521647558469348 0 0.10945635351086461 0.40362998662342647 0 0.12302526621810631 0.39483339242702431 0 0.12302526621810631 0.39483339242702431 0 0.1082085838217669 0.37792448112205068 0 0.12936302614305781 0.3806702380723882 0 0.1082085838217669 0.37792448112205068 0 0.1269429757455281 0.3700741961410311 0 0.12936302614305781 0.3806702380723882 0 0.089989672908486834 0.38531380646189939 0 0.1082085838217669 0.37792448112205068 0 0.098794269534858231 0.4008464147916751 0 0.089989672908486834 0.38531380646189939 0 0.1082085838217669 0.37792448112205068 0 0.096111415589441723 0.36906918257109511 0 0.1082085838217669 0.37792448112205068 0 0.098794269534858231 0.4008464147916751 0 0.10945635351086461 0.40362998662342647 0 0.1082085838217669 0.37792448112205068 0 0.098794269534858231 0.4008464147916751 0 0.10945635351086461 0.40362998662342647 0 0.1082085838217669 0.37792448112205068 0 0.10179294521624289 0.41380452076605601 0 0.10945635351086461 0.40362998662342647 0 0.098794269534858231 0.4008464147916751 0 0.1071786794515654 0.3567072543489932 0 0.10614877508136331 0.33549002757593549 0 0.1071786794515654 0.3567072543489932 0 0.113306419652784 0.34577619835524942 0 0.10614877508136331 0.33549002757593549 0 0.1071786794515654 0.3567072543489932 0 0.095546341163152998 0.34721348103654748 0 0.10614877508136331 0.33549002757593549 0 0.1071786794515654 0.3567072543489932 0 0.095546341163152998 0.34721348103654748 0 0.095306363846323322 0.35760506086541671 0 0.1082085838217669 0.37792448112205068 0 0.1071786794515654 0.3567072543489932 0 0.096111415589441723 0.36906918257109511 0 0.1082085838217669 0.37792448112205068 0 0.1071786794515654 0.3567072543489932 0 0.1071786794515654 0.3567072543489932 0 0.095306363846323322 0.35760506086541671 0 0.096111415589441723 0.36906918257109511 0 0.1082085838217669 0.37792448112205068 0 0.1071786794515654 0.3567072543489932 0 0.1164276567709608 0.35791271614101089 0 0.1082085838217669 0.37792448112205068 0 0.1207019799918789 0.36117572882690419 0 0.1269429757455281 0.3700741961410311 0 0.1082085838217669 0.37792448112205068 0 0.1207019799918789 0.36117572882690419 0 0.1164276567709608 0.35791271614101089 0 0.1082085838217669 0.37792448112205068 0 0.1164276567709608 0.35791271614101089 0 0.1207019799918789 0.36117572882690419 0 0.12020614592151201 0.35183052892485178 0 0.1164276567709608 0.35791271614101089 0 0.1207019799918789 0.36117572882690419 0 0.12020614592151201 0.35183052892485178 0 0.1327104347709552 0.34833671648866182 0 0.1071786794515654 0.3567072543489932 0 0.1164276567709608 0.35791271614101089 0 0.1142797254492055 0.35305667444252631 0 0.1071786794515654 0.3567072543489932 0 0.1142797254492055 0.35305667444252631 0 0.113306419652784 0.34577619835524942 0 0.12020614592151201 0.35183052892485178 0 0.1164276567709608 0.35791271614101089 0 0.1142797254492055 0.35305667444252631 0 0.12020614592151201 0.35183052892485178 0 0.1142797254492055 0.35305667444252631 0 0.113306419652784 0.34577619835524942 0 0.12020614592151201 0.35183052892485178 0 0.113306419652784 0.34577619835524942 0 0.12565642337597641 0.34531162420386119 0 0.113306419652784 0.34577619835524942 0 0.10614877508136331 0.33549002757593549 0 0.12728204636342119 0.33264440370185788 0 0.113306419652784 0.34577619835524942 0 0.12728204636342119 0.33264440370185788 0 0.12565642337597641 0.34531162420386119 0 0.1046413786221535 0.32421374287331212 0 0.10614877508136331 0.33549002757593549 0 0.12728204636342119 0.33264440370185788 0 0.1046413786221535 0.32421374287331212 0 0.12728204636342119 0.33264440370185788 0 0.1167242617350734 0.31677866348064548 0 0.1046413786221535 0.32421374287331212 0 0.12728204636342119 0.33264440370185788 0 0.1167242617350734 0.31677866348064548 0 0.1046413786221535 0.32421374287331212 0 0.1046413786221535 0.32421374287331212 0 0.077692308094581719 0.31417877058986282 0 0.103629968386694 0.31192557858664272 0 0.1167242617350734 0.31677866348064548 0 0.1046413786221535 0.32421374287331212 0 0.103629968386694 0.31192557858664272 0 0.1046413786221535 0.32421374287331212 0 0.08294133613319174 0.33756664360252769 0 0.1046413786221535 0.32421374287331212 0 0.10614877508136331 0.33549002757593549 0 0.08294133613319174 0.33756664360252769 0 0.095546341163152998 0.34721348103654748 0 0.10614877508136331 0.33549002757593549 0 0.08294133613319174 0.33756664360252769 0 0.1046413786221535 0.32421374287331212 0 0.077692308094581719 0.31417877058986282 0 0.1046413786221535 0.32421374287331212 0 0.08294133613319174 0.33756664360252769 0 0.077692308094581719 0.31417877058986282 0 0.077692308094581719 0.31417877058986282 0 0.067976715374811009 0.32361441744144559 0 0.058789612577710128 0.31476722793512929 0 0.08294133613319174 0.33756664360252769 0 0.077692308094581719 0.31417877058986282 0 0.067976715374811009 0.32361441744144559 0 0.08294133613319174 0.33756664360252769 0 0.067976715374811009 0.32361441744144559 0 0.060135280265193262 0.33376627043538171 0 0.08294133613319174 0.33756664360252769 0 0.061241293644231747 0.35091954433174621 0 0.060135280265193262 0.33376627043538171 0 0.08294133613319174 0.33756664360252769 0 0.061241293644231747 0.35091954433174621 0 0.08294133613319174 0.33756664360252769 0 0.074215767858206258 0.35718016320722129 0 0.061241293644231747 0.35091954433174621 0 0.074215767858206258 0.35718016320722129 0 0.062117748859898458 0.36500130546073062 0 0.061241293644231747 0.35091954433174621 0 0.08294133613319174 0.33756664360252769 0 0.074215767858206258 0.35718016320722129 0 0.086887140600208246 0.35260595290123381 0 0.074215767858206258 0.35718016320722129 0 0.086887140600208246 0.35260595290123381 0 0.085272644414092907 0.36373677956425621 0 0.095546341163152998 0.34721348103654748 0 0.095306363846323322 0.35760506086541671 0 0.086887140600208246 0.35260595290123381 0 0.095306363846323322 0.35760506086541671 0 0.086887140600208246 0.35260595290123381 0 0.085272644414092907 0.36373677956425621 0 0.095546341163152998 0.34721348103654748 0 0.08294133613319174 0.33756664360252769 0 0.086887140600208246 0.35260595290123381 0 0.082619379705498486 0.3760424233717975 0 0.096111415589441723 0.36906918257109511 0 0.085272644414092907 0.36373677956425621 0 0.095306363846323322 0.35760506086541671 0 0.096111415589441723 0.36906918257109511 0 0.085272644414092907 0.36373677956425621 0 0.074215767858206258 0.35718016320722129 0 0.085272644414092907 0.36373677956425621 0 0.075022727430642186 0.36942391052545742 0 0.082619379705498486 0.3760424233717975 0 0.085272644414092907 0.36373677956425621 0 0.075022727430642186 0.36942391052545742 0 0.071205150989249344 0.38459031979425368 0 0.075022727430642186 0.36942391052545742 0 0.062117748859898458 0.36500130546073062 0 0.071205150989249344 0.38459031979425368 0 0.062117748859898458 0.36500130546073062 0 0.074215767858206258 0.35718016320722129 0 0.075022727430642186 0.36942391052545742 0 0.062117748859898458 0.36500130546073062 0 0.062117748859898458 0.36500130546073062 0 0.061241293644231747 0.35091954433174621 0 0.039541251155271878 0.36427244506096468 0 0.051605655867250001 0.38149668432143541 0 0.062117748859898458 0.36500130546073062 0 0.039541251155271878 0.36427244506096468 0 0.061241293644231747 0.35091954433174621 0 0.039541251155271878 0.36427244506096468 0 0.061241293644231747 0.35091954433174621 0 0.044784474582475392 0.34869393697364293 0 0.052607857505341568 0.34198871306916279 0 0.061241293644231747 0.35091954433174621 0 0.044784474582475392 0.34869393697364293 0 0.039541251155271878 0.36427244506096468 0 0.044784474582475392 0.34869393697364293 0 0.039541251155271878 0.36427244506096468 0 0.023969970644136189 0.34780247639640383 0 0.017841208666312069 0.37762534579018298 0 0.039541251155271878 0.36427244506096468 0 0.022364176625033282 0.36301365865426333 0 0.017841208666312069 0.37762534579018298 0 0.035089121590226528 0.38253825820529852 0 0.039541251155271878 0.36427244506096468 0 0.017841208666312069 0.37762534579018298 0 0.039541251155271878 0.36427244506096468 0 0.017841208666312069 0.37762534579018298 0 0.022364176625033282 0.36301365865426333 0 0.0070688581490178301 0.36290469613376197 0 0.022364176625033282 0.36301365865426333 0 0.023969970644136189 0.34780247639640383 0 0.0070688581490178301 0.36290469613376197 0 0.039541251155271878 0.36427244506096468 0 0.022364176625033282 0.36301365865426333 0 0.023969970644136189 0.34780247639640383 0 0.023969970644136189 0.34780247639640383 0 0.0070688581490178301 0.36290469613376197 0 0.010160838263171251 0.33572436441868259 0 -0.0072621374188671052 0.34147004492185079 0 0.0070688581490178301 0.36290469613376197 0 0.010160838263171251 0.33572436441868259 0 -0.0036227877329230301 0.37947700469323042 0 0.017841208666312069 0.37762534579018298 0 0.0070688581490178301 0.36290469613376197 0 -0.00017254440855824261 0.32560037032276101 0 0.010160838263171251 0.33572436441868259 0 0.020336227673690289 0.32045890090113183 0 -0.0025045175740335168 0.31031314766219981 0 -0.00017254440855824261 0.32560037032276101 0 0.020336227673690289 0.32045890090113183 0 -0.0072621374188671052 0.34147004492185079 0 -0.00017254440855824261 0.32560037032276101 0 0.010160838263171251 0.33572436441868259 0 0.023969970644136189 0.34780247639640383 0 0.010160838263171251 0.33572436441868259 0 0.020336227673690289 0.32045890090113183 0 0.023969970644136189 0.34780247639640383 0 0.020336227673690289 0.32045890090113183 0 0.041998086792626607 0.33406523967628299 0 0.04333949094528719 0.3160267531553359 0 0.041998086792626607 0.33406523967628299 0 0.052729264779742331 0.32427979797466039 0 0.020336227673690289 0.32045890090113183 0 0.04333949094528719 0.3160267531553359 0 0.041998086792626607 0.33406523967628299 0 0.044784474582475392 0.34869393697364293 0 0.023969970644136189 0.34780247639640383 0 0.041998086792626607 0.33406523967628299 0 0.044784474582475392 0.34869393697364293 0 0.041998086792626607 0.33406523967628299 0 0.052607857505341568 0.34198871306916279 0 0.061241293644231747 0.35091954433174621 0 0.052607857505341568 0.34198871306916279 0 0.060135280265193262 0.33376627043538171 0 0.041998086792626607 0.33406523967628299 0 0.060135280265193262 0.33376627043538171 0 0.052729264779742331 0.32427979797466039 0 0.041998086792626607 0.33406523967628299 0 0.052607857505341568 0.34198871306916279 0 0.060135280265193262 0.33376627043538171 0 0.04333949094528719 0.3160267531553359 0 0.052729264779742331 0.32427979797466039 0 0.058789612577710128 0.31476722793512929 0 0.067976715374811009 0.32361441744144559 0 0.052729264779742331 0.32427979797466039 0 0.058789612577710128 0.31476722793512929 0 0.067976715374811009 0.32361441744144559 0 0.060135280265193262 0.33376627043538171 0 0.052729264779742331 0.32427979797466039 0 0.058789612577710128 0.31476722793512929 0 0.050743237567011198 0.30414379830640997 0 0.077692308094581719 0.31417877058986282 0 0.058789612577710128 0.31476722793512929 0 0.050743237567011198 0.30414379830640997 0 0.04333949094528719 0.3160267531553359 0 0.058789612577710128 0.31476722793512929 0 0.050743237567011198 0.30414379830640997 0 0.050743237567011198 0.30414379830640997 0 0.057014991513141711 0.27962034081982778 0 0.068251428351683213 0.29416468787043332 0 0.050743237567011198 0.30414379830640997 0 0.035335655862959579 0.28380154980765537 0 0.057014991513141711 0.27962034081982778 0 0.050743237567011198 0.30414379830640997 0 0.035335655862959579 0.28380154980765537 0 0.050743237567011198 0.30414379830640997 0 0.035335655862959579 0.28380154980765537 0 0.035440516280943121 0.29844555413839979 0 0.020336227673690289 0.32045890090113183 0 0.04333949094528719 0.3160267531553359 0 0.035440516280943121 0.29844555413839979 0 0.04333949094528719 0.3160267531553359 0 0.050743237567011198 0.30414379830640997 0 0.035440516280943121 0.29844555413839979 0 0.050743237567011198 0.30414379830640997 0 0.035440516280943121 0.29844555413839979 0 0.020336227673690289 0.32045890090113183 0 0.035440516280943121 0.29844555413839979 0 0.020137794994874249 0.2927473099703915 0 0.020336227673690289 0.32045890090113183 0 0.020137794994874249 0.2927473099703915 0 0.020336227673690289 0.32045890090113183 0 0.020137794994874249 0.2927473099703915 0 0.010209922096268529 0.3014659822355169 0 0.035335655862959579 0.28380154980765537 0 0.035440516280943121 0.29844555413839979 0 0.020137794994874249 0.2927473099703915 0 0.035440516280943121 0.29844555413839979 0 0.020137794994874249 0.2927473099703915 0 0.020137794994874249 0.2927473099703915 0 0.014388475155295941 0.29060644707198668 0 0.01992807415890703 0.26345930130890138 0 0.020137794994874249 0.2927473099703915 0 0.014388475155295941 0.29060644707198668 0 0.020137794994874249 0.2927473099703915 0 0.014388475155295941 0.29060644707198668 0 0.010209922096268529 0.3014659822355169 0 -0.001308369768482999 0.29320410557187471 0 0.014388475155295941 0.29060644707198668 0 0.010209922096268529 0.3014659822355169 0 -0.001308369768482999 0.29320410557187471 0 0.014388475155295941 0.29060644707198668 0 0.0042686616650212863 0.27440264234540929 0 -0.0025045175740335168 0.31031314766219981 0 0.020336227673690289 0.32045890090113183 0 0.010209922096268529 0.3014659822355169 0 -0.0025045175740335168 0.31031314766219981 0 -0.001308369768482999 0.29320410557187471 0 0.010209922096268529 0.3014659822355169 0 0.0108212759879371 0.25143582124693198 0 0.0045166499774289158 0.26107549289106269 0 0.01992807415890703 0.26345930130890138 0 0.0108212759879371 0.25143582124693198 0 0.01992807415890703 0.26345930130890138 0 -0.004361582131907446 0.25012675423618741 0 0.0108212759879371 0.25143582124693198 0 0.0045166499774289158 0.26107549289106269 0 -0.0080731797928139601 0.26595294531788349 0 0.0045166499774289158 0.26107549289106269 0 0.0042686616650212863 0.27440264234540929 0 0.014388475155295941 0.29060644707198668 0 0.0042686616650212863 0.27440264234540929 0 0.01992807415890703 0.26345930130890138 0 0.0045166499774289158 0.26107549289106269 0 0.0042686616650212863 0.27440264234540929 0 0.01992807415890703 0.26345930130890138 0 0.020137794994874249 0.2927473099703915 0 0.01992807415890703 0.26345930130890138 0 0.035335655862959579 0.28380154980765537 0 0.020137794994874249 0.2927473099703915 0 0.01992807415890703 0.26345930130890138 0 0.035335655862959579 0.28380154980765537 0 0.01992807415890703 0.26345930130890138 0 0.019733428038529611 0.23627651218177001 0 0.0108212759879371 0.25143582124693198 0 0.01992807415890703 0.26345930130890138 0 0.032395297456559217 0.24990448186487541 0 0.01992807415890703 0.26345930130890138 0 0.043558334625058162 0.26267399305688549 0 0.049298807743375681 0.24401567068345059 0 0.032395297456559217 0.24990448186487541 0 0.043558334625058162 0.26267399305688549 0 0.035335655862959579 0.28380154980765537 0 0.01992807415890703 0.26345930130890138 0 0.043558334625058162 0.26267399305688549 0 0.035335655862959579 0.28380154980765537 0 0.043558334625058162 0.26267399305688549 0 0.057014991513141711 0.27962034081982778 0 0.043558334625058162 0.26267399305688549 0 0.057014991513141711 0.27962034081982778 0 0.068539877812152941 0.25484826761588569 0 0.049298807743375681 0.24401567068345059 0 0.043558334625058162 0.26267399305688549 0 0.068539877812152941 0.25484826761588569 0 0.068539877812152941 0.25484826761588569 0 0.094153496178737847 0.25278652485753728 0 0.068539877812152941 0.25484826761588569 0 0.094153496178737847 0.25278652485753728 0 0.094570315268327418 0.27155612350054997 0 0.076756394676448791 0.2775889904003081 0 0.087579642181032397 0.29054902922906578 0 0.094570315268327418 0.27155612350054997 0 0.068539877812152941 0.25484826761588569 0 0.076756394676448791 0.2775889904003081 0 0.094570315268327418 0.27155612350054997 0 0.057014991513141711 0.27962034081982778 0 0.068539877812152941 0.25484826761588569 0 0.076756394676448791 0.2775889904003081 0 0.076756394676448791 0.2775889904003081 0 0.068251428351683213 0.29416468787043332 0 0.087579642181032397 0.29054902922906578 0 0.057014991513141711 0.27962034081982778 0 0.076756394676448791 0.2775889904003081 0 0.068251428351683213 0.29416468787043332 0 0.077692308094581719 0.31417877058986282 0 0.050743237567011198 0.30414379830640997 0 0.068251428351683213 0.29416468787043332 0 0.077692308094581719 0.31417877058986282 0 0.050743237567011198 0.30414379830640997 0 0.077692308094581719 0.31417877058986282 0 0.068251428351683213 0.29416468787043332 0 0.087579642181032397 0.29054902922906578 0 0.077692308094581719 0.31417877058986282 0 0.087579642181032397 0.29054902922906578 0 0.1000908984509512 0.30112340397666981 0 0.087579642181032397 0.29054902922906578 0 0.1081165082442021 0.28468219903657133 0 0.1000908984509512 0.30112340397666981 0 0.1081165082442021 0.28468219903657133 0 0.1000908984509512 0.30112340397666981 0 0.1144297267004354 0.30168664743999352 0 0.087579642181032397 0.29054902922906578 0 0.1081165082442021 0.28468219903657133 0 0.094570315268327418 0.27155612350054997 0 0.077692308094581719 0.31417877058986282 0 0.1000908984509512 0.30112340397666981 0 0.103629968386694 0.31192557858664272 0 0.1000908984509512 0.30112340397666981 0 0.103629968386694 0.31192557858664272 0 0.1144297267004354 0.30168664743999352 0 0.1167242617350734 0.31677866348064548 0 0.1144297267004354 0.30168664743999352 0 0.13022117462186741 0.30154725623692402 0 0.1167242617350734 0.31677866348064548 0 0.103629968386694 0.31192557858664272 0 0.1144297267004354 0.30168664743999352 0 0.1081165082442021 0.28468219903657133 0 0.1144297267004354 0.30168664743999352 0 0.12390947864198219 0.28542069115612873 0 0.1144297267004354 0.30168664743999352 0 0.12390947864198219 0.28542069115612873 0 0.13022117462186741 0.30154725623692402 0 0.112671388523889 0.26641905049976811 0 0.123100174820058 0.26168293397560438 0 0.12910128816626559 0.2715879755468264 0 0.1081165082442021 0.28468219903657133 0 0.12390947864198219 0.28542069115612873 0 0.112671388523889 0.26641905049976811 0 0.12390947864198219 0.28542069115612873 0 0.112671388523889 0.26641905049976811 0 0.12910128816626559 0.2715879755468264 0 0.112671388523889 0.26641905049976811 0 0.123100174820058 0.26168293397560438 0 0.1197671145453226 0.2507247820991888 0 0.112671388523889 0.26641905049976811 0 0.1197671145453226 0.2507247820991888 0 0.094153496178737847 0.25278652485753728 0 0.112671388523889 0.26641905049976811 0 0.094153496178737847 0.25278652485753728 0 0.094570315268327418 0.27155612350054997 0 0.1197671145453226 0.2507247820991888 0 0.094153496178737847 0.25278652485753728 0 0.1081165082442021 0.28468219903657133 0 0.112671388523889 0.26641905049976811 0 0.094570315268327418 0.27155612350054997 0 0.1484138213405074 0.25936399499983281 0 0.14891678559523411 0.28660101817668943 0 0.16201232330786131 0.26387346548696822 0 0.1484138213405074 0.25936399499983281 0 0.1401857002278207 0.2693725498640136 0 0.14891678559523411 0.28660101817668943 0 0.1484138213405074 0.25936399499983281 0 0.14891678559523411 0.28660101817668943 0 0.15466915334416509 0.25190660019890743 0 0.1484138213405074 0.25936399499983281 0 0.16201232330786131 0.26387346548696822 0 0.1453807329119074 0.24866303934084041 0 0.15466915334416509 0.25190660019890743 0 0.1484138213405074 0.25936399499983281 0 0.1453807329119074 0.24866303934084041 0 0.1484138213405074 0.25936399499983281 0 0.13431090580927579 0.25993721073270593 0 0.1484138213405074 0.25936399499983281 0 0.13431090580927579 0.25993721073270593 0 0.1401857002278207 0.2693725498640136 0 0.1453807329119074 0.24866303934084041 0 0.1197671145453226 0.2507247820991888 0 0.13431090580927579 0.25993721073270593 0 0.123100174820058 0.26168293397560438 0 0.1197671145453226 0.2507247820991888 0 0.13431090580927579 0.25993721073270593 0 0.123100174820058 0.26168293397560438 0 0.13431090580927579 0.25993721073270593 0 0.12910128816626559 0.2715879755468264 0 0.12910128816626559 0.2715879755468264 0 0.1401857002278207 0.2693725498640136 0 0.14891678559523411 0.28660101817668943 0 0.12390947864198219 0.28542069115612873 0 0.12910128816626559 0.2715879755468264 0 0.14891678559523411 0.28660101817668943 0 0.13431090580927579 0.25993721073270593 0 0.12910128816626559 0.2715879755468264 0 0.1401857002278207 0.2693725498640136 0 0.12390947864198219 0.28542069115612873 0 0.13022117462186741 0.30154725623692402 0 0.14891678559523411 0.28660101817668943 0 0.13022117462186741 0.30154725623692402 0 0.1494197498499607 0.31383804135354598 0 0.13362732087883861 0.31825791726589631 0 0.1167242617350734 0.31677866348064548 0 0.13022117462186741 0.30154725623692402 0 0.13362732087883861 0.31825791726589631 0 0.14891678559523411 0.28660101817668943 0 0.16502192730860321 0.29833672799327199 0 0.1494197498499607 0.31383804135354598 0 0.14891678559523411 0.28660101817668943 0 0.1494197498499607 0.31383804135354598 0 0.13022117462186741 0.30154725623692402 0 0.14891678559523411 0.28660101817668943 0 0.1494197498499607 0.31383804135354598 0 0.14891678559523411 0.28660101817668943 0 0.16502192730860321 0.29833672799327199 0 0.17258825255407231 0.27567175281796641 0 0.16502192730860321 0.29833672799327199 0 0.17750724151807151 0.31691505049664243 0 0.1494197498499607 0.31383804135354598 0 0.16502192730860321 0.29833672799327199 0 0.18306544781706219 0.29535972807124689 0 0.17750724151807151 0.31691505049664243 0 0.18306544781706219 0.29535972807124689 0 0.19825331032735899 0.30649929221888439 0 0.17750724151807151 0.31691505049664243 0 0.16502192730860321 0.29833672799327199 0 0.18306544781706219 0.29535972807124689 0 0.17258825255407231 0.27567175281796641 0 0.18306544781706219 0.29535972807124689 0 0.17258825255407231 0.27567175281796641 0 0.19225514168233229 0.27637801024750158 0 0.17258825255407231 0.27567175281796641 0 0.18608903078984079 0.25995697105729071 0 0.19225514168233229 0.27637801024750158 0 0.17258825255407231 0.27567175281796641 0 0.16201232330786131 0.26387346548696822 0 0.17332134199895571 0.25758983019522791 0 0.14891678559523411 0.28660101817668943 0 0.17258825255407231 0.27567175281796641 0 0.16201232330786131 0.26387346548696822 0 0.1648484701696567 0.24744362212440471 0 0.15466915334416509 0.25190660019890743 0 0.16201232330786131 0.26387346548696822 0 0.1648484701696567 0.24744362212440471 0 0.16201232330786131 0.26387346548696822 0 0.17332134199895571 0.25758983019522791 0 0.17921266192405369 0.24485401564359771 0 0.17332134199895571 0.25758983019522791 0 0.18608903078984079 0.25995697105729071 0 0.17258825255407231 0.27567175281796641 0 0.17332134199895571 0.25758983019522791 0 0.18608903078984079 0.25995697105729071 0 0.19643052809465181 0.2433224828713732 0 0.18608903078984079 0.25995697105729071 0 0.20272625848497891 0.26192573456807738 0 0.18608903078984079 0.25995697105729071 0 0.20272625848497891 0.26192573456807738 0 0.19225514168233229 0.27637801024750158 0 0.19225514168233229 0.27637801024750158 0 0.20931999553351249 0.2747097540570328 0 0.20479240245397259 0.28930189362021808 0 0.20272625848497891 0.26192573456807738 0 0.19225514168233229 0.27637801024750158 0 0.20931999553351249 0.2747097540570328 0 0.20272625848497891 0.26192573456807738 0 0.20931999553351249 0.2747097540570328 0 0.22276706595432569 0.26722786124429282 0 0.19643052809465181 0.2433224828713732 0 0.20272625848497891 0.26192573456807738 0 0.21668623523937189 0.25273648673926968 0 0.20272625848497891 0.26192573456807738 0 0.21668623523937189 0.25273648673926968 0 0.22276706595432569 0.26722786124429282 0 0.23190300684591059 0.2469757189771403 0 0.21668623523937189 0.25273648673926968 0 0.2340167615655426 0.26024144399058702 0 0.21668623523937189 0.25273648673926968 0 0.2340167615655426 0.26024144399058702 0 0.22276706595432569 0.26722786124429282 0 0.20931999553351249 0.2747097540570328 0 0.22276706595432569 0.26722786124429282 0 0.23407023324957901 0.28358253799766081 0 0.22276706595432569 0.26722786124429282 0 0.2428012282252888 0.27040414858390061 0 0.23407023324957901 0.28358253799766081 0 0.2340167615655426 0.26024144399058702 0 0.22276706595432569 0.26722786124429282 0 0.2428012282252888 0.27040414858390061 0 0.2428012282252888 0.27040414858390061 0 0.23407023324957901 0.28358253799766081 0 0.25491758893057909 0.27951005592881761 0 0.2428012282252888 0.27040414858390061 0 0.23407023324957901 0.28358253799766081 0 0.2428012282252888 0.27040414858390061 0 0.25153222320099622 0.25722575917013901 0 0.25536006440587672 0.26878811273571068 0 0.2428012282252888 0.27040414858390061 0 0.25153222320099622 0.25722575917013901 0 0.2340167615655426 0.26024144399058702 0 0.2428012282252888 0.27040414858390061 0 0.25153222320099622 0.25722575917013901 0 0.24791323415382371 0.2458877298954085 0 0.23190300684591059 0.2469757189771403 0 0.25153222320099622 0.25722575917013901 0 0.23190300684591059 0.2469757189771403 0 0.2340167615655426 0.26024144399058702 0 0.25153222320099622 0.25722575917013901 0 0.23190300684591059 0.2469757189771403 0 0.25153222320099622 0.25722575917013901 0 0.24543399627141721 0.29887735901603257 0 0.2199905643657564 0.30483410896799212 0 0.2412863906095909 0.31706614216088019 0 0.24543399627141721 0.29887735901603257 0 0.2412863906095909 0.31706614216088019 0 0.26071219069447599 0.31197788889560879 0 0.24543399627141721 0.29887735901603257 0 0.23407023324957901 0.28358253799766081 0 0.25491758893057909 0.27951005592881761 0 0.23407023324957901 0.28358253799766081 0 0.25491758893057909 0.27951005592881761 0 0.23407023324957901 0.28358253799766081 0 0.2199905643657564 0.30483410896799212 0 0.20479240245397259 0.28930189362021808 0 0.24543399627141721 0.29887735901603257 0 0.23407023324957901 0.28358253799766081 0 0.2199905643657564 0.30483410896799212 0 0.23407023324957901 0.28358253799766081 0 0.20479240245397259 0.28930189362021808 0 0.23407023324957901 0.28358253799766081 0 0.2199905643657564 0.30483410896799212 0 0.2199905643657564 0.30483410896799212 0 0.19825331032735899 0.30649929221888439 0 0.20591089548193209 0.32608567993832238 0 0.2199905643657564 0.30483410896799212 0 0.20479240245397259 0.28930189362021808 0 0.19825331032735899 0.30649929221888439 0 0.20931999553351249 0.2747097540570328 0 0.23407023324957901 0.28358253799766081 0 0.20479240245397259 0.28930189362021808 0 0.18306544781706219 0.29535972807124689 0 0.19225514168233229 0.27637801024750158 0 0.20479240245397259 0.28930189362021808 0 0.18306544781706219 0.29535972807124689 0 0.20479240245397259 0.28930189362021808 0 0.19825331032735899 0.30649929221888439 0 0.19825331032735899 0.30649929221888439 0 0.20591089548193209 0.32608567993832238 0 0.17750724151807151 0.31691505049664243 0 0.20591089548193209 0.32608567993832238 0 0.1834453935528689 0.33477958080273051 0 0.17750724151807151 0.31691505049664243 0 0.20591089548193209 0.32608567993832238 0 0.1918312265981009 0.34733725090864831 0 0.1834453935528689 0.33477958080273051 0 0.20591089548193209 0.32608567993832238 0 0.1918312265981009 0.34733725090864831 0 0.2120062173118393 0.34341212619813682 0 0.20591089548193209 0.32608567993832238 0 0.2241124479696345 0.32285479690430968 0 0.2120062173118393 0.34341212619813682 0 0.20591089548193209 0.32608567993832238 0 0.1918312265981009 0.34733725090864831 0 0.2199905643657564 0.30483410896799212 0 0.20591089548193209 0.32608567993832238 0 0.2199905643657564 0.30483410896799212 0 0.20591089548193209 0.32608567993832238 0 0.2241124479696345 0.32285479690430968 0 0.2199905643657564 0.30483410896799212 0 0.2241124479696345 0.32285479690430968 0 0.2412863906095909 0.31706614216088019 0 0.2241124479696345 0.32285479690430968 0 0.23218120802557979 0.3394870014876365 0 0.2412863906095909 0.31706614216088019 0 0.2120062173118393 0.34341212619813682 0 0.2241124479696345 0.32285479690430968 0 0.23218120802557979 0.3394870014876365 0 0.2120062173118393 0.34341212619813682 0 0.23218120802557979 0.3394870014876365 0 0.23218120802557979 0.3394870014876365 0 0.2412863906095909 0.31706614216088019 0 0.25235619873932041 0.33556187677713623 0 0.23218120802557979 0.3394870014876365 0 0.25235619873932041 0.33556187677713623 0 0.23218120802557979 0.3394870014876365 0 0.2438273554430464 0.34812574592335249 0 0.25235619873932041 0.33556187677713623 0 0.2412863906095909 0.31706614216088019 0 0.25496362040665271 0.32267745764425643 0 0.25235619873932041 0.33556187677713623 0 0.2444030594993066 0.36261468031945582 0 0.22630598985240971 0.37543582988375418 0 0.247713784970646 0.38075050805242922 0 0.2444030594993066 0.36261468031945582 0 0.22630598985240971 0.37543582988375418 0 0.2444030594993066 0.36261468031945582 0 0.247713784970646 0.38075050805242922 0 0.25490457918629872 0.37507349251653871 0 0.2444030594993066 0.36261468031945582 0 0.2438273554430464 0.34812574592335249 0 0.25711451900508148 0.35258648987221092 0 0.23218120802557979 0.3394870014876365 0 0.2438273554430464 0.34812574592335249 0 0.2288636426087374 0.35578594420060722 0 0.2444030594993066 0.36261468031945582 0 0.2438273554430464 0.34812574592335249 0 0.2288636426087374 0.35578594420060722 0 0.2120062173118393 0.34341212619813682 0 0.23218120802557979 0.3394870014876365 0 0.2288636426087374 0.35578594420060722 0 0.2444030594993066 0.36261468031945582 0 0.2288636426087374 0.35578594420060722 0 0.22630598985240971 0.37543582988375418 0 0.2288636426087374 0.35578594420060722 0 0.21324276167256731 0.36206450472990792 0 0.22630598985240971 0.37543582988375418 0 0.21324276167256731 0.36206450472990792 0 0.19654986060048771 0.37047802484019998 0 0.20820892020551271 0.38825697944805271 0 0.2120062173118393 0.34341212619813682 0 0.2288636426087374 0.35578594420060722 0 0.21324276167256731 0.36206450472990792 0 0.2120062173118393 0.34341212619813682 0 0.21324276167256731 0.36206450472990792 0 0.1918312265981009 0.34733725090864831 0 0.2120062173118393 0.34341212619813682 0 0.1918312265981009 0.34733725090864831 0 0.1918312265981009 0.34733725090864831 0 0.19654986060048771 0.37047802484019998 0 0.1753588575145448 0.37220031576602253 0 0.21324276167256731 0.36206450472990792 0 0.1918312265981009 0.34733725090864831 0 0.19654986060048771 0.37047802484019998 0 0.1918312265981009 0.34733725090864831 0 0.1753588575145448 0.37220031576602253 0 0.1731188016947007 0.36781558424519839 0 0.1753588575145448 0.37220031576602253 0 0.1802318714797885 0.35236122573149797 0 0.1731188016947007 0.36781558424519839 0 0.167364966647951 0.35975083588178058 0 0.1802318714797885 0.35236122573149797 0 0.1731188016947007 0.36781558424519839 0 0.1753588575145448 0.37220031576602253 0 0.1731188016947007 0.36781558424519839 0 0.1753588575145448 0.37220031576602253 0 0.16523354001105911 0.37409983959611109 0 0.1731188016947007 0.36781558424519839 0 0.16523354001105911 0.37409983959611109 0 0.1662459251842697 0.36710584608423269 0 0.167364966647951 0.35975083588178058 0 0.15926639238336801 0.36675712461384091 0 0.15018796347142391 0.35543911342959528 0 0.167364966647951 0.35975083588178058 0 0.1662459251842697 0.36710584608423269 0 0.15926639238336801 0.36675712461384091 0 0.1731188016947007 0.36781558424519839 0 0.167364966647951 0.35975083588178058 0 0.1662459251842697 0.36710584608423269 0 0.16523354001105911 0.37409983959611109 0 0.15926639238336801 0.36675712461384091 0 0.15062115634747231 0.37889780715207888 0 0.16523354001105911 0.37409983959611109 0 0.1662459251842697 0.36710584608423269 0 0.15926639238336801 0.36675712461384091 0 0.1753506460241005 0.35054361342806389 0 0.14992271410468949 0.34107506453040248 0 0.167364966647951 0.35975083588178058 0 0.1753506460241005 0.35054361342806389 0 0.15018796347142391 0.35543911342959528 0 0.1753506460241005 0.35054361342806389 0 0.14992271410468949 0.34107506453040248 0 0.15018796347142391 0.35543911342959528 0 0.1753506460241005 0.35054361342806389 0 0.15018796347142391 0.35543911342959528 0 0.1918312265981009 0.34733725090864831 0 0.1753506460241005 0.35054361342806389 0 0.1918312265981009 0.34733725090864831 0 0.1753506460241005 0.35054361342806389 0 0.1834453935528689 0.33477958080273051 0 0.1918312265981009 0.34733725090864831 0 0.1753506460241005 0.35054361342806389 0 0.1802318714797885 0.35236122573149797 0 0.1918312265981009 0.34733725090864831 0 0.1753588575145448 0.37220031576602253 0 0.1802318714797885 0.35236122573149797 0 0.1753506460241005 0.35054361342806389 0 0.1802318714797885 0.35236122573149797 0 0.167364966647951 0.35975083588178058 0 0.1753506460241005 0.35054361342806389 0 0.1802318714797885 0.35236122573149797 0 0.1753506460241005 0.35054361342806389 0 0.1834453935528689 0.33477958080273051 0 0.1666269581421321 0.33301630924197367 0 0.1834453935528689 0.33477958080273051 0 0.17750724151807151 0.31691505049664243 0 0.1666269581421321 0.33301630924197367 0 0.17750724151807151 0.31691505049664243 0 0.1666269581421321 0.33301630924197367 0 0.1494197498499607 0.31383804135354598 0 0.1753506460241005 0.35054361342806389 0 0.1666269581421321 0.33301630924197367 0 0.14992271410468949 0.34107506453040248 0 0.1666269581421321 0.33301630924197367 0 0.14992271410468949 0.34107506453040248 0 0.1494197498499607 0.31383804135354598 0 0.14992271410468949 0.34107506453040248 0 0.1494197498499607 0.31383804135354598 0 0.14992271410468949 0.34107506453040248 0 0.1494197498499607 0.31383804135354598 0 0.13362732087883861 0.31825791726589631 0 0.1167242617350734 0.31677866348064548 0 0.13362732087883861 0.31825791726589631 0 0.12728204636342119 0.33264440370185788 0 0.14992271410468949 0.34107506453040248 0 0.13362732087883861 0.31825791726589631 0 0.12728204636342119 0.33264440370185788 0 0.14992271410468949 0.34107506453040248 0 0.12728204636342119 0.33264440370185788 0 0.1327104347709552 0.34833671648866182 0 0.14992271410468949 0.34107506453040248 0 0.12728204636342119 0.33264440370185788 0 0.12728204636342119 0.33264440370185788 0 0.12565642337597641 0.34531162420386119 0 0.1327104347709552 0.34833671648866182 0 0.1207019799918789 0.36117572882690419 0 0.1327104347709552 0.34833671648866182 0 0.15018796347142391 0.35543911342959528 0 0.12020614592151201 0.35183052892485178 0 0.12565642337597641 0.34531162420386119 0 0.1327104347709552 0.34833671648866182 0 0.1207019799918789 0.36117572882690419 0 0.15018796347142391 0.35543911342959528 0 0.1207019799918789 0.36117572882690419 0 0.13593835547877689 0.36822566204290602 0 0.15018796347142391 0.35543911342959528 0 0.1207019799918789 0.36117572882690419 0 0.1269429757455281 0.3700741961410311 0 0.13593835547877689 0.36822566204290602 0 0.1269429757455281 0.3700741961410311 0 0.13593835547877689 0.36822566204290602 0 0.12936302614305781 0.3806702380723882 0 0.13593835547877689 0.36822566204290602 0 0.15018796347142391 0.35543911342959528 0 0.15062115634747231 0.37889780715207888 0 0.15018796347142391 0.35543911342959528 0 0.15062115634747231 0.37889780715207888 0 0.15926639238336801 0.36675712461384091 0 0.15018796347142391 0.35543911342959528 0 0.15062115634747231 0.37889780715207888 0 0.14992271410468949 0.34107506453040248 0 0.1327104347709552 0.34833671648866182 0 0.15018796347142391 0.35543911342959528 0 0.14992271410468949 0.34107506453040248 0 0.15018796347142391 0.35543911342959528 0 0.14138495384440489 0.39322107909200571 0 0.1317921164680903 0.40545952647836342 0 0.15222999220591241 0.40711056306127658 0 0.14138495384440489 0.39322107909200571 0 0.15222999220591241 0.40711056306127658 0 0.16379442486022849 0.38965543941364961 0 0.14138495384440489 0.39322107909200571 0 0.15062115634747231 0.37889780715207888 0 0.16379442486022849 0.38965543941364961 0 0.13593835547877689 0.36822566204290602 0 0.15062115634747231 0.37889780715207888 0 0.12936302614305781 0.3806702380723882 0 0.14138495384440489 0.39322107909200571 0 0.15062115634747231 0.37889780715207888 0 0.12936302614305781 0.3806702380723882 0 0.12302526621810631 0.39483339242702431 0 0.14138495384440489 0.39322107909200571 0 0.12936302614305781 0.3806702380723882 0 0.12302526621810631 0.39483339242702431 0 0.14138495384440489 0.39322107909200571 0 0.1317921164680903 0.40545952647836342 0 0.1238244133614653 0.41259348140785829 0 0.11966152561727041 0.40521647558469348 0 0.1317921164680903 0.40545952647836342 0 0.1238244133614653 0.41259348140785829 0 0.1317921164680903 0.40545952647836342 0 0.13391702338258271 0.41648007558095218 0 0.1317921164680903 0.40545952647836342 0 0.13391702338258271 0.41648007558095218 0 0.15222999220591241 0.40711056306127658 0 0.1206950902667107 0.42206632785564402 0 0.1238244133614653 0.41259348140785829 0 0.13391702338258271 0.41648007558095218 0 0.14066555955159241 0.42456568670890099 0 0.128144127290927 0.44346528644618949 0 0.13429496844172059 0.42708486797366702 0 0.14066555955159241 0.42456568670890099 0 0.128144127290927 0.44346528644618949 0 0.14066555955159241 0.42456568670890099 0 0.1468621194973313 0.4432032004000479 0 0.128144127290927 0.44346528644618949 0 0.1206950902667107 0.42206632785564402 0 0.13391702338258271 0.41648007558095218 0 0.13429496844172059 0.42708486797366702 0 0.13391702338258271 0.41648007558095218 0 0.13429496844172059 0.42708486797366702 0 0.14066555955159241 0.42456568670890099 0 0.13429496844172059 0.42708486797366702 0 0.14066555955159241 0.42456568670890099 0 0.14066555955159241 0.42456568670890099 0 0.16808955766080291 0.41960022257260449 0 0.15915405200730839 0.43380743940711708 0 0.14066555955159241 0.42456568670890099 0 0.16808955766080291 0.41960022257260449 0 0.14066555955159241 0.42456568670890099 0 0.15915405200730839 0.43380743940711708 0 0.1468621194973313 0.4432032004000479 0 0.14066555955159241 0.42456568670890099 0 0.15222999220591241 0.40711056306127658 0 0.14066555955159241 0.42456568670890099 0 0.15222999220591241 0.40711056306127658 0 0.16201542307939579 0.41612311438285787 0 0.14066555955159241 0.42456568670890099 0 0.16201542307939579 0.41612311438285787 0 0.13391702338258271 0.41648007558095218 0 0.14066555955159241 0.42456568670890099 0 0.15222999220591241 0.40711056306127658 0 0.16201542307939579 0.41612311438285787 0 0.16941052998224071 0.40948279892878392 0 0.18336528660720119 0.40768054205682042 0 0.16808955766080291 0.41960022257260449 0 0.16201542307939579 0.41612311438285787 0 0.18336528660720119 0.40768054205682042 0 0.14066555955159241 0.42456568670890099 0 0.16808955766080291 0.41960022257260449 0 0.16201542307939579 0.41612311438285787 0 0.15222999220591241 0.40711056306127658 0 0.16201542307939579 0.41612311438285787 0 0.1623232745498161 0.40583988766108697 0 0.16201542307939579 0.41612311438285787 0 0.16941052998224071 0.40948279892878392 0 0.1623232745498161 0.40583988766108697 0 0.16808955766080291 0.41960022257260449 0 0.15915405200730839 0.43380743940711708 0 0.1766721112776041 0.43405941705504181 0 0.18398920852212189 0.42222731617319992 0 0.1766721112776041 0.43405941705504181 0 0.19310721835761019 0.42992761007563862 0 0.16808955766080291 0.41960022257260449 0 0.18398920852212189 0.42222731617319992 0 0.1766721112776041 0.43405941705504181 0 0.1766721112776041 0.43405941705504181 0 0.19310721835761019 0.42992761007563862 0 0.189468296445607 0.44161966517716561 0 0.16808955766080291 0.41960022257260449 0 0.18398920852212189 0.42222731617319992 0 0.19637406676339619 0.41333592033168631 0 0.16201542307939579 0.41612311438285787 0 0.18336528660720119 0.40768054205682042 0 0.16808955766080291 0.41960022257260449 0 0.19637406676339619 0.41333592033168631 0 0.16808955766080291 0.41960022257260449 0 0.18336528660720119 0.40768054205682042 0 0.19637406676339619 0.41333592033168631 0 0.16941052998224071 0.40948279892878392 0 0.18336528660720119 0.40768054205682042 0 0.18177969473327391 0.40698117398671069 0 0.16941052998224071 0.40948279892878392 0 0.18177969473327391 0.40698117398671069 0 0.17544170441619431 0.40324048585703531 0 0.17550339911694879 0.39641485139935639 0 0.16379442486022849 0.38965543941364961 0 0.18273535403657959 0.38663922238918558 0 0.18177969473327391 0.40698117398671069 0 0.18171278421578699 0.39924093208501849 0 0.19011185055861429 0.40107812901234902 0 0.18336528660720119 0.40768054205682042 0 0.18177969473327391 0.40698117398671069 0 0.19011185055861429 0.40107812901234902 0 0.18177969473327391 0.40698117398671069 0 0.19011185055861429 0.40107812901234902 0 0.18171278421578699 0.39924093208501849 0 0.17550339911694879 0.39641485139935639 0 0.18273535403657959 0.38663922238918558 0 0.18171278421578699 0.39924093208501849 0 0.18273535403657959 0.38663922238918558 0 0.19011185055861429 0.40107812901234902 0 0.18273535403657959 0.38663922238918558 0 0.19011185055861429 0.40107812901234902 0 0.18177969473327391 0.40698117398671069 0 0.18171278421578699 0.39924093208501849 0 0.17544170441619431 0.40324048585703531 0 0.18171278421578699 0.39924093208501849 0 0.17550339911694879 0.39641485139935639 0 0.17544170441619431 0.40324048585703531 0 0.17550339911694879 0.39641485139935639 0 0.17544170441619431 0.40324048585703531 0 0.1689722959232661 0.40169126431279728 0 0.16941052998224071 0.40948279892878392 0 0.17544170441619431 0.40324048585703531 0 0.1689722959232661 0.40169126431279728 0 0.1689722959232661 0.40169126431279728 0 0.1623232745498161 0.40583988766108697 0 0.16379442486022849 0.38965543941364961 0 0.15222999220591241 0.40711056306127658 0 0.1623232745498161 0.40583988766108697 0 0.16379442486022849 0.38965543941364961 0 0.15222999220591241 0.40711056306127658 0 0.16379442486022849 0.38965543941364961 0 0.16941052998224071 0.40948279892878392 0 0.1689722959232661 0.40169126431279728 0 0.1623232745498161 0.40583988766108697 0 0.17550339911694879 0.39641485139935639 0 0.1689722959232661 0.40169126431279728 0 0.16379442486022849 0.38965543941364961 0 0.1753588575145448 0.37220031576602253 0 0.16523354001105911 0.37409983959611109 0 0.16379442486022849 0.38965543941364961 0 0.1753588575145448 0.37220031576602253 0 0.16379442486022849 0.38965543941364961 0 0.16523354001105911 0.37409983959611109 0 0.15062115634747231 0.37889780715207888 0 0.16379442486022849 0.38965543941364961 0 0.1753588575145448 0.37220031576602253 0 0.18273535403657959 0.38663922238918558 0 0.1753588575145448 0.37220031576602253 0 0.16379442486022849 0.38965543941364961 0 0.18273535403657959 0.38663922238918558 0 0.19654986060048771 0.37047802484019998 0 0.1753588575145448 0.37220031576602253 0 0.18273535403657959 0.38663922238918558 0 0.19654986060048771 0.37047802484019998 0 0.18273535403657959 0.38663922238918558 0 0.20820892020551271 0.38825697944805271 0 0.19011185055861429 0.40107812901234902 0 0.20820892020551271 0.38825697944805271 0 0.19011185055861429 0.40107812901234902 0 0.20429538739721931 0.40183734425620671 0 0.20820892020551271 0.38825697944805271 0 0.18273535403657959 0.38663922238918558 0 0.19011185055861429 0.40107812901234902 0 0.20820892020551271 0.38825697944805271 0 0.19011185055861429 0.40107812901234902 0 0.20429538739721931 0.40183734425620671 0 0.19637406676339619 0.41333592033168631 0 0.20429538739721931 0.40183734425620671 0 0.20820892020551271 0.38825697944805271 0 0.2202735525657262 0.39552406566479109 0 0.20429538739721931 0.40183734425620671 0 0.2202735525657262 0.39552406566479109 0 0.2145024493426794 0.40932094283274068 0 0.21324276167256731 0.36206450472990792 0 0.20820892020551271 0.38825697944805271 0 0.22630598985240971 0.37543582988375418 0 0.20820892020551271 0.38825697944805271 0 0.22630598985240971 0.37543582988375418 0 0.20820892020551271 0.38825697944805271 0 0.22630598985240971 0.37543582988375418 0 0.2202735525657262 0.39552406566479109 0 0.22630598985240971 0.37543582988375418 0 0.2319341774640927 0.38940141535347877 0 0.2202735525657262 0.39552406566479109 0 0.2202735525657262 0.39552406566479109 0 0.23263083192196299 0.40530596533379709 0 0.2145024493426794 0.40932094283274068 0 0.2319341774640927 0.38940141535347877 0 0.2202735525657262 0.39552406566479109 0 0.23263083192196299 0.40530596533379709 0 0.2386671862694576 0.40396906576347452 0 0.24985329529781791 0.39990667252734718 0 0.247713784970646 0.38075050805242922 0 0.2319341774640927 0.38940141535347877 0 0.23263083192196299 0.40530596533379709 0 0.247713784970646 0.38075050805242922 0 0.23263083192196299 0.40530596533379709 0 0.247713784970646 0.38075050805242922 0 0.23263083192196299 0.40530596533379709 0 0.2386671862694576 0.40396906576347452 0 0.247713784970646 0.38075050805242922 0 0.23263083192196299 0.40530596533379709 0 0.2386671862694576 0.40396906576347452 0 0.23263083192196299 0.40530596533379709 0 0.2386671862694576 0.40396906576347452 0 0.23835521004243199 0.40923349084829558 0 0.2386671862694576 0.40396906576347452 0 0.24985329529781791 0.39990667252734718 0 0.23835521004243199 0.40923349084829558 0 0.22630598985240971 0.37543582988375418 0 0.2319341774640927 0.38940141535347877 0 0.247713784970646 0.38075050805242922 0 0.2385665307870003 0.42747740564887549 0 0.25702987725108101 0.42925349536772212 0 0.2385665307870003 0.42747740564887549 0 0.2488221034234695 0.4223051763495565 0 0.25702987725108101 0.42925349536772212 0 0.2385665307870003 0.42747740564887549 0 0.2448364132796593 0.44231000148378752 0 0.25702987725108101 0.42925349536772212 0 0.2385665307870003 0.42747740564887549 0 0.2406669044851476 0.42214558790778223 0 0.2368791315523423 0.42061341875551328 0 0.2385665307870003 0.42747740564887549 0 0.2406669044851476 0.42214558790778223 0 0.2488221034234695 0.4223051763495565 0 0.24985329529781791 0.39990667252734718 0 0.2383998521777784 0.41818635087718381 0 0.24985329529781791 0.39990667252734718 0 0.23835521004243199 0.40923349084829558 0 0.2383998521777784 0.41818635087718381 0 0.24985329529781791 0.39990667252734718 0 0.2383998521777784 0.41818635087718381 0 0.25380059083303341 0.40846212201461762 0 0.2406669044851476 0.42214558790778223 0 0.2488221034234695 0.4223051763495565 0 0.2383998521777784 0.41818635087718381 0 0.23835521004243199 0.40923349084829558 0 0.2350244704201927 0.41211241555610317 0 0.2383998521777784 0.41818635087718381 0 0.23263083192196299 0.40530596533379709 0 0.23835521004243199 0.40923349084829558 0 0.2350244704201927 0.41211241555610317 0 0.2406669044851476 0.42214558790778223 0 0.2383998521777784 0.41818635087718381 0 0.2368791315523423 0.42061341875551328 0 0.2350244704201927 0.41211241555610317 0 0.2383998521777784 0.41818635087718381 0 0.23071198753859651 0.41572385516513549 0 0.2383998521777784 0.41818635087718381 0 0.2368791315523423 0.42061341875551328 0 0.2383998521777784 0.41818635087718381 0 0.2368791315523423 0.42061341875551328 0 0.22312475613875049 0.42078211493492951 0 0.23263083192196299 0.40530596533379709 0 0.2145024493426794 0.40932094283274068 0 0.23263083192196299 0.40530596533379709 0 0.22312475613875049 0.42078211493492951 0 0.2145024493426794 0.40932094283274068 0 0.2383998521777784 0.41818635087718381 0 0.22312475613875049 0.42078211493492951 0 0.2383998521777784 0.41818635087718381 0 0.23071198753859651 0.41572385516513549 0 0.22312475613875049 0.42078211493492951 0 0.23263083192196299 0.40530596533379709 0 0.2350244704201927 0.41211241555610317 0 0.23071198753859651 0.41572385516513549 0 0.23263083192196299 0.40530596533379709 0 0.23071198753859651 0.41572385516513549 0 0.22312475613875049 0.42078211493492951 0 0.23263083192196299 0.40530596533379709 0 0.22312475613875049 0.42078211493492951 0 0.2385665307870003 0.42747740564887549 0 0.2201031843229195 0.42570131593002969 0 0.2201031843229195 0.42570131593002969 0 0.21059740683120351 0.44117697990449289 0 0.23005064234993169 0.44460645584696262 0 0.2385665307870003 0.42747740564887549 0 0.22312475613875049 0.42078211493492951 0 0.2201031843229195 0.42570131593002969 0 0.22312475613875049 0.42078211493492951 0 0.2201031843229195 0.42570131593002969 0 0.2385665307870003 0.42747740564887549 0 0.2201031843229195 0.42570131593002969 0 0.23005064234993169 0.44460645584696262 0 0.2385665307870003 0.42747740564887549 0 0.2368791315523423 0.42061341875551328 0 0.22312475613875049 0.42078211493492951 0 0.22312475613875049 0.42078211493492951 0 0.2201031843229195 0.42570131593002969 0 0.20354836167302259 0.42410881749736329 0 0.20096476004407141 0.4356284052502909 0 0.202011140198494 0.4243700442839049 0 0.21059740683120351 0.44117697990449289 0 0.20354836167302259 0.42410881749736329 0 0.202011140198494 0.4243700442839049 0 0.21059740683120351 0.44117697990449289 0 0.2201031843229195 0.42570131593002969 0 0.21059740683120351 0.44117697990449289 0 0.2201031843229195 0.42570131593002969 0 0.20354836167302259 0.42410881749736329 0 0.21059740683120351 0.44117697990449289 0 0.2201031843229195 0.42570131593002969 0 0.20354836167302259 0.42410881749736329 0 0.202011140198494 0.4243700442839049 0 0.21059740683120351 0.44117697990449289 0 0.22312475613875049 0.42078211493492951 0 0.20354836167302259 0.42410881749736329 0 0.2145024493426794 0.40932094283274068 0 0.19637406676339619 0.41333592033168631 0 0.22312475613875049 0.42078211493492951 0 0.20354836167302259 0.42410881749736329 0 0.2145024493426794 0.40932094283274068 0 0.20429538739721931 0.40183734425620671 0 0.2145024493426794 0.40932094283274068 0 0.19637406676339619 0.41333592033168631 0 0.20354836167302259 0.42410881749736329 0 0.2145024493426794 0.40932094283274068 0 0.19637406676339619 0.41333592033168631 0 0.18398920852212189 0.42222731617319992 0 0.19637406676339619 0.41333592033168631 0 0.202011140198494 0.4243700442839049 0 0.20354836167302259 0.42410881749736329 0 0.19637406676339619 0.41333592033168631 0 0.202011140198494 0.4243700442839049 0 0.19637406676339619 0.41333592033168631 0 0.202011140198494 0.4243700442839049 0 0.19011185055861429 0.40107812901234902 0 0.19637406676339619 0.41333592033168631 0 0.18336528660720119 0.40768054205682042 0 0.19011185055861429 0.40107812901234902 0 0.19637406676339619 0.41333592033168631 0 0.18398920852212189 0.42222731617319992 0 0.202011140198494 0.4243700442839049 0 0.19310721835761019 0.42992761007563862 0 0.18398920852212189 0.42222731617319992 0 0.202011140198494 0.4243700442839049 0 0.20096476004407141 0.4356284052502909 0 0.19931207414017729 0.42860996549168562 0 0.19310721835761019 0.42992761007563862 0 0.19931207414017729 0.42860996549168562 0 0.202011140198494 0.4243700442839049 0 0.19310721835761019 0.42992761007563862 0 0.20096476004407141 0.4356284052502909 0 0.19931207414017729 0.42860996549168562 0 0.202011140198494 0.4243700442839049 0 0.20354836167302259 0.42410881749736329 0 0.202011140198494 0.4243700442839049 0 0.20096476004407141 0.4356284052502909 0 0.19310721835761019 0.42992761007563862 0 0.189468296445607 0.44161966517716561 0 0.189468296445607 0.44161966517716561 0 0.19808345402660399 0.44429013419941671 0 0.18816718916202771 0.45764189265325561 0 0.19808345402660399 0.44429013419941671 0 0.18816718916202771 0.45764189265325561 0 0.20509446468425149 0.45013591920339668 0 0.20096476004407141 0.4356284052502909 0 0.189468296445607 0.44161966517716561 0 0.19808345402660399 0.44429013419941671 0 0.18816718916202771 0.45764189265325561 0 0.2005182123172754 0.46504183791057307 0 0.20509446468425149 0.45013591920339668 0 0.18816718916202771 0.45764189265325561 0 0.2005182123172754 0.46504183791057307 0 0.18719455148605621 0.47613314112345201 0 0.2103116034304838 0.4602104470792151 0 0.21059740683120351 0.44117697990449289 0 0.22229140550900001 0.46406705440744211 0 0.2103116034304838 0.4602104470792151 0 0.22229140550900001 0.46406705440744211 0 0.21058997783642669 0.48154513501692131 0 0.2005182123172754 0.46504183791057307 0 0.2103116034304838 0.4602104470792151 0 0.20509446468425149 0.45013591920339668 0 0.21059740683120351 0.44117697990449289 0 0.22229140550900001 0.46406705440744211 0 0.2103116034304838 0.4602104470792151 0 0.21059740683120351 0.44117697990449289 0 0.20509446468425149 0.45013591920339668 0 0.20096476004407141 0.4356284052502909 0 0.19808345402660399 0.44429013419941671 0 0.21059740683120351 0.44117697990449289 0 0.19808345402660399 0.44429013419941671 0 0.21059740683120351 0.44117697990449289 0 0.20509446468425149 0.45013591920339668 0 0.21059740683120351 0.44117697990449289 0 0.20509446468425149 0.45013591920339668 0 0.21059740683120351 0.44117697990449289 0 0.23005064234993169 0.44460645584696262 0 0.22229140550900001 0.46406705440744211 0 0.23005064234993169 0.44460645584696262 0 0.22229140550900001 0.46406705440744211 0 0.24184120684035099 0.4581976946154846 0 0.22229140550900001 0.46406705440744211 0 0.24184120684035099 0.4581976946154846 0 0.24193409961780649 0.47367643658526698 0 0.24184120684035099 0.4581976946154846 0 0.2448364132796593 0.44231000148378752 0 0.25709847220363119 0.45283566357848187 0 0.23005064234993169 0.44460645584696262 0 0.24184120684035099 0.4581976946154846 0 0.2448364132796593 0.44231000148378752 0 0.2385665307870003 0.42747740564887549 0 0.23005064234993169 0.44460645584696262 0 0.2448364132796593 0.44231000148378752 0 0.24064869911215761 0.50000000000000244 0 0.24324303354975521 0.48909866857844392 0 0.2572356621087325 0.50000000000000155 0 0.24324303354975521 0.48909866857844392 0 0.2339854041867972 0.48695712891039089 0 0.24064869911215761 0.50000000000000244 0 0.24324303354975521 0.48909866857844392 0 0.2339854041867972 0.48695712891039089 0 0.24064869911215761 0.50000000000000244 0 0.2339854041867972 0.48695712891039089 0 0.24184120684035099 0.4581976946154846 0 0.24193409961780649 0.47367643658526698 0 0.25716706715618193 0.47641783178924169 0 0.24324303354975521 0.48909866857844392 0 0.24193409961780649 0.47367643658526698 0 0.25716706715618193 0.47641783178924169 0 0.24324303354975521 0.48909866857844392 0 0.24193409961780649 0.47367643658526698 0 0.2339854041867972 0.48695712891039089 0 0.22229140550900001 0.46406705440744211 0 0.24193409961780649 0.47367643658526698 0 0.2339854041867972 0.48695712891039089 0 0.22229140550900001 0.46406705440744211 0 0.2339854041867972 0.48695712891039089 0 0.22229140550900001 0.46406705440744211 0 0.2339854041867972 0.48695712891039089 0 0.21058997783642669 0.48154513501692131 0 0.2339854041867972 0.48695712891039089 0 0.21058997783642669 0.48154513501692131 0 0.2339854041867972 0.48695712891039089 0 0.21314400247467591 0.5 0 0.21058997783642669 0.48154513501692131 0 0.24064869911215761 0.50000000000000244 0 0.2339854041867972 0.48695712891039089 0 0.21314400247467591 0.5 0 0.21314400247467591 0.5 0 0.21058997783642669 0.48154513501692131 0 0.19841687033665559 0.48922266484742172 0 0.2005182123172754 0.46504183791057307 0 0.2103116034304838 0.4602104470792151 0 0.21058997783642669 0.48154513501692131 0 0.21058997783642669 0.48154513501692131 0 0.18719455148605621 0.47613314112345201 0 0.21058997783642669 0.48154513501692131 0 0.19841687033665559 0.48922266484742172 0 0.18719455148605621 0.47613314112345201 0 0.2005182123172754 0.46504183791057307 0 0.21058997783642669 0.48154513501692131 0 0.18719455148605621 0.47613314112345201 0 0.21314400247467591 0.5 0 0.19841687033665559 0.48922266484742172 0 0.18563930583719421 0.5 0 0.19841687033665559 0.48922266484742172 0 0.18563930583719421 0.5 0 0.18719455148605621 0.47613314112345201 0 0.18563930583719421 0.5 0 0.17133697046385701 0.48683307990629038 0 0.18719455148605621 0.47613314112345201 0 0.17133697046385701 0.48683307990629038 0 0.15813460919971251 0.5 0 0.1479106042039405 0.48283460682922269 0 0.18563930583719421 0.5 0 0.17133697046385701 0.48683307990629038 0 0.15813460919971251 0.5 0 0.17133697046385701 0.48683307990629038 0 0.16379912513568581 0.47072114722998237 0 0.1479106042039405 0.48283460682922269 0 0.17133697046385701 0.48683307990629038 0 0.16379912513568581 0.47072114722998237 0 0.18719455148605621 0.47613314112345201 0 0.16379912513568581 0.47072114722998237 0 0.18719455148605621 0.47613314112345201 0 0.18816718916202771 0.45764189265325561 0 0.16379912513568581 0.47072114722998237 0 0.18719455148605621 0.47613314112345201 0 0.18816718916202771 0.45764189265325561 0 0.16379912513568581 0.47072114722998237 0 0.1764896290127039 0.45007039086196288 0 0.1766721112776041 0.43405941705504181 0 0.1764896290127039 0.45007039086196288 0 0.16434142304259489 0.44630983219436898 0 0.189468296445607 0.44161966517716561 0 0.18816718916202771 0.45764189265325561 0 0.1764896290127039 0.45007039086196288 0 0.1766721112776041 0.43405941705504181 0 0.189468296445607 0.44161966517716561 0 0.1764896290127039 0.45007039086196288 0 0.15915405200730839 0.43380743940711708 0 0.1766721112776041 0.43405941705504181 0 0.16434142304259489 0.44630983219436898 0 0.15915405200730839 0.43380743940711708 0 0.16434142304259489 0.44630983219436898 0 0.1468621194973313 0.4432032004000479 0 0.16379912513568581 0.47072114722998237 0 0.1764896290127039 0.45007039086196288 0 0.16434142304259489 0.44630983219436898 0 0.16379912513568581 0.47072114722998237 0 0.16434142304259489 0.44630983219436898 0 0.15386760244336481 0.45613183796281243 0 0.16379912513568581 0.47072114722998237 0 0.15386760244336481 0.45613183796281243 0 0.14046774209784721 0.46429317202685039 0 0.15386760244336481 0.45613183796281243 0 0.1468621194973313 0.4432032004000479 0 0.14046774209784721 0.46429317202685039 0 0.16434142304259489 0.44630983219436898 0 0.15386760244336481 0.45613183796281243 0 0.1468621194973313 0.4432032004000479 0 0.1468621194973313 0.4432032004000479 0 0.128144127290927 0.44346528644618949 0 0.14046774209784721 0.46429317202685039 0 0.11648320602364499 0.46106604807885698 0 0.128144127290927 0.44346528644618949 0 0.14046774209784721 0.46429317202685039 0 0.11648320602364499 0.46106604807885698 0 0.14046774209784721 0.46429317202685039 0 0.12567845600013469 0.47929569400969452 0 0.14046774209784721 0.46429317202685039 0 0.12567845600013469 0.47929569400969452 0 0.1479106042039405 0.48283460682922269 0 0.12567845600013469 0.47929569400969452 0 0.1306299125622308 0.5 0 0.1479106042039405 0.48283460682922269 0 0.15813460919971251 0.5 0 0.1306299125622308 0.5 0 0.1479106042039405 0.48283460682922269 0 0.16379912513568581 0.47072114722998237 0 0.14046774209784721 0.46429317202685039 0 0.1479106042039405 0.48283460682922269 0 0.34528538451660062 0.47773379418631268 0 0.36004097027348331 0.48461391470660581 0 0.33995603526071178 0.48633656933393699 0 0.3490806650621458 0.46922782941321262 0 0.36004097027348331 0.48461391470660581 0 0.36717500093372668 0.46757054210475929 0 0.3490806650621458 0.46922782941321262 0 0.36004097027348331 0.48461391470660581 0 0.3490806650621458 0.46922782941321262 0 0.34528538451660062 0.47773379418631268 0 0.36004097027348331 0.48461391470660581 0 0.34701069105550569 0.5 0 0.36004097027348331 0.48461391470660581 0 0.33995603526071178 0.48633656933393699 0 0.34701069105550569 0.5 0 0.36004097027348331 0.48461391470660581 0 0.37100127548482031 0.49999999999999922 0 0.36004097027348331 0.48461391470660581 0 0.37100127548482031 0.49999999999999922 0 0.37501723488010369 0.48021086780116401 0 0.36004097027348331 0.48461391470660581 0 0.37100127548482031 0.49999999999999922 0 0.36004097027348331 0.48461391470660581 0 0.36717500093372668 0.46757054210475929 0 0.37501723488010369 0.48021086780116401 0 0.37143629651032872 0.45720686114999193 0 0.36367632925015653 0.45252291112370391 0 0.35567836915472589 0.45678778088016703 0 0.36415499449082389 0.46121224231392488 0 0.37143629651032872 0.45720686114999193 0 0.38198070339643708 0.45705904394289942 0 0.36415499449082389 0.46121224231392488 0 0.37143629651032872 0.45720686114999193 0 0.35567836915472589 0.45678778088016703 0 0.36415499449082389 0.46121224231392488 0 0.36717500093372668 0.46757054210475929 0 0.38198070339643708 0.45705904394289942 0 0.36415499449082389 0.46121224231392488 0 0.38198070339643708 0.45705904394289942 0 0.3490806650621458 0.46922782941321262 0 0.36415499449082389 0.46121224231392488 0 0.36717500093372668 0.46757054210475929 0 0.37143629651032872 0.45720686114999193 0 0.35567836915472589 0.45678778088016703 0 0.37143629651032872 0.45720686114999193 0 0.36657482697318761 0.446748226791508 0 0.38198070339643708 0.45705904394289942 0 0.36657482697318761 0.446748226791508 0 0.37193014631584848 0.42999924720615068 0 0.38198070339643708 0.45705904394289942 0 0.37143629651032872 0.45720686114999193 0 0.36367632925015653 0.45252291112370391 0 0.36657482697318761 0.446748226791508 0 0.36367632925015653 0.45252291112370391 0 0.36657482697318761 0.446748226791508 0 0.3562845012834378 0.4482926986491193 0 0.34808057550305938 0.44600590612250468 0 0.35567836915472589 0.45678778088016703 0 0.33992044179912329 0.45636870061034079 0 0.36657482697318761 0.446748226791508 0 0.3562845012834378 0.4482926986491193 0 0.35414098508291708 0.43540859867718368 0 0.3562845012834378 0.4482926986491193 0 0.34808057550305938 0.44600590612250468 0 0.35414098508291708 0.43540859867718368 0 0.36367632925015653 0.45252291112370391 0 0.3562845012834378 0.4482926986491193 0 0.35567836915472589 0.45678778088016703 0 0.3562845012834378 0.4482926986491193 0 0.34808057550305938 0.44600590612250468 0 0.35567836915472589 0.45678778088016703 0 0.34808057550305938 0.44600590612250468 0 0.33961570140635172 0.4362099185178574 0 0.35414098508291708 0.43540859867718368 0 0.35567836915472589 0.45678778088016703 0 0.34632928558521042 0.46536544068494828 0 0.33992044179912329 0.45636870061034079 0 0.35567836915472589 0.45678778088016703 0 0.33992044179912329 0.45636870061034079 0 0.3490806650621458 0.46922782941321262 0 0.36415499449082389 0.46121224231392488 0 0.34632928558521042 0.46536544068494828 0 0.3490806650621458 0.46922782941321262 0 0.36717500093372668 0.46757054210475929 0 0.36415499449082389 0.46121224231392488 0 0.35567836915472589 0.45678778088016703 0 0.34632928558521042 0.46536544068494828 0 0.36415499449082389 0.46121224231392488 0 0.34632928558521042 0.46536544068494828 0 0.3490806650621458 0.46922782941321262 0 0.34632928558521042 0.46536544068494828 0 0.3490806650621458 0.46922782941321262 0 0.34632928558521042 0.46536544068494828 0 0.32696081697792789 0.47125381941113659 0 0.34632928558521042 0.46536544068494828 0 0.32521862645877231 0.47028399711148339 0 0.34632928558521042 0.46536544068494828 0 0.33992044179912329 0.45636870061034079 0 0.32521862645877231 0.47028399711148339 0 0.34632928558521042 0.46536544068494828 0 0.33992044179912329 0.45636870061034079 0 0.34808057550305938 0.44600590612250468 0 0.3323541236552271 0.44574709709892307 0 0.33961570140635172 0.4362099185178574 0 0.33992044179912329 0.45636870061034079 0 0.3323541236552271 0.44574709709892307 0 0.32253421818534123 0.44684829148095362 0 0.34808057550305938 0.44600590612250468 0 0.33992044179912329 0.45636870061034079 0 0.3323541236552271 0.44574709709892307 0 0.33992044179912329 0.45636870061034079 0 0.3323541236552271 0.44574709709892307 0 0.3323541236552271 0.44574709709892307 0 0.32610359684421192 0.43678193879044119 0 0.33961570140635172 0.4362099185178574 0 0.33992044179912329 0.45636870061034079 0 0.32253421818534123 0.44684829148095362 0 0.3152464127007425 0.45571249763777588 0 0.32253421818534123 0.44684829148095362 0 0.3152464127007425 0.45571249763777588 0 0.31209623941360759 0.43776564917250638 0 0.3152464127007425 0.45571249763777588 0 0.31209623941360759 0.43776564917250638 0 0.3323541236552271 0.44574709709892307 0 0.32253421818534123 0.44684829148095362 0 0.32610359684421192 0.43678193879044119 0 0.32253421818534123 0.44684829148095362 0 0.31209623941360759 0.43776564917250638 0 0.32610359684421192 0.43678193879044119 0 0.33992044179912329 0.45636870061034079 0 0.3152464127007425 0.45571249763777588 0 0.32521862645877231 0.47028399711148339 0 0.3152464127007425 0.45571249763777588 0 0.31913325966346701 0.47785624881888772 0 0.32521862645877231 0.47028399711148339 0 0.33992044179912329 0.45636870061034079 0 0.3152464127007425 0.45571249763777588 0 0.3152464127007425 0.45571249763777588 0 0.31913325966346701 0.47785624881888772 0 0.30420975952634299 0.46947331586472302 0 0.3152464127007425 0.45571249763777588 0 0.31913325966346701 0.47785624881888772 0 0.31913325966346701 0.47785624881888772 0 0.32591742888426312 0.47548348654552591 0 0.329001796240801 0.48161473987402198 0 0.32591742888426312 0.47548348654552591 0 0.32927264508034731 0.47640862751209928 0 0.329001796240801 0.48161473987402198 0 0.31913325966346701 0.47785624881888772 0 0.32591742888426312 0.47548348654552591 0 0.32521862645877231 0.47028399711148339 0 0.32591742888426312 0.47548348654552591 0 0.32696081697792789 0.47125381941113659 0 0.32927264508034731 0.47640862751209928 0 0.32591742888426312 0.47548348654552591 0 0.32521862645877231 0.47028399711148339 0 0.32696081697792789 0.47125381941113659 0 0.3490806650621458 0.46922782941321262 0 0.32696081697792789 0.47125381941113659 0 0.33647616413196407 0.47630837646213342 0 0.34632928558521042 0.46536544068494828 0 0.32521862645877231 0.47028399711148339 0 0.32696081697792789 0.47125381941113659 0 0.32696081697792789 0.47125381941113659 0 0.32927264508034731 0.47640862751209928 0 0.33647616413196407 0.47630837646213342 0 0.3490806650621458 0.46922782941321262 0 0.32696081697792789 0.47125381941113659 0 0.32927264508034731 0.47640862751209928 0 0.329001796240801 0.48161473987402198 0 0.33647616413196407 0.47630837646213342 0 0.329001796240801 0.48161473987402198 0 0.33647616413196407 0.47630837646213342 0 0.33995603526071178 0.48633656933393699 0 0.34528538451660062 0.47773379418631268 0 0.33647616413196407 0.47630837646213342 0 0.33995603526071178 0.48633656933393699 0 0.3490806650621458 0.46922782941321262 0 0.34528538451660062 0.47773379418631268 0 0.33647616413196407 0.47630837646213342 0 0.329001796240801 0.48161473987402198 0 0.33995603526071178 0.48633656933393699 0 0.32302010662619118 0.49999999999999961 0 0.34701069105550569 0.5 0 0.33995603526071178 0.48633656933393699 0 0.32302010662619118 0.49999999999999961 0 0.31913325966346701 0.47785624881888772 0 0.32302010662619118 0.49999999999999961 0 0.30499869470741492 0.48476163660817662 0 0.31913325966346701 0.47785624881888772 0 0.329001796240801 0.48161473987402198 0 0.32302010662619118 0.49999999999999961 0 0.31913325966346701 0.47785624881888772 0 0.32302010662619118 0.49999999999999961 0 0.30109195845370501 0.5 0 0.30499869470741492 0.48476163660817662 0 0.28958375731165181 0.48005255167767952 0 0.32302010662619118 0.49999999999999961 0 0.30109195845370501 0.5 0 0.30499869470741492 0.48476163660817662 0 0.31913325966346701 0.47785624881888772 0 0.30499869470741492 0.48476163660817662 0 0.30420975952634299 0.46947331586472302 0 0.30499869470741492 0.48476163660817662 0 0.30420975952634299 0.46947331586472302 0 0.28958375731165181 0.48005255167767952 0 0.30109195845370501 0.5 0 0.28958375731165181 0.48005255167767952 0 0.27916381028121873 0.5 0 0.27916381028121873 0.5 0 0.27240166341444522 0.48425749185169831 0 0.2572356621087325 0.50000000000000155 0 0.28958375731165181 0.48005255167767952 0 0.27916381028121873 0.5 0 0.27240166341444522 0.48425749185169831 0 0.27240166341444522 0.48425749185169831 0 0.25716706715618193 0.47641783178924169 0 0.27345808637904001 0.4661952126215072 0 0.28958375731165181 0.48005255167767952 0 0.27240166341444522 0.48425749185169831 0 0.27345808637904001 0.4661952126215072 0 0.25716706715618193 0.47641783178924169 0 0.2572356621087325 0.50000000000000155 0 0.24324303354975521 0.48909866857844392 0 0.25716706715618193 0.47641783178924169 0 0.2572356621087325 0.50000000000000155 0 0.27240166341444522 0.48425749185169831 0 0.25716706715618193 0.47641783178924169 0 0.2572356621087325 0.50000000000000155 0 0.25709847220363119 0.45283566357848187 0 0.25702987725108101 0.42925349536772212 0 0.25709847220363119 0.45283566357848187 0 0.25702987725108101 0.42925349536772212 0 0.25836746492245471 0.43174768403659147 0 0.25709847220363119 0.45283566357848187 0 0.2660695066302855 0.43871015010979147 0 0.25836746492245471 0.43174768403659147 0 0.2448364132796593 0.44231000148378752 0 0.25709847220363119 0.45283566357848187 0 0.25702987725108101 0.42925349536772212 0 0.25716706715618193 0.47641783178924169 0 0.25709847220363119 0.45283566357848187 0 0.25716706715618193 0.47641783178924169 0 0.25709847220363119 0.45283566357848187 0 0.27345808637904001 0.4661952126215072 0 0.24184120684035099 0.4581976946154846 0 0.25716706715618193 0.47641783178924169 0 0.25709847220363119 0.45283566357848187 0 0.27345808637904001 0.4661952126215072 0 0.27379346358837398 0.44854793932786308 0 0.29070409459995628 0.45505979750407899 0 0.25709847220363119 0.45283566357848187 0 0.27345808637904001 0.4661952126215072 0 0.27379346358837398 0.44854793932786308 0 0.25709847220363119 0.45283566357848187 0 0.27379346358837398 0.44854793932786308 0 0.2660695066302855 0.43871015010979147 0 0.27379346358837398 0.44854793932786308 0 0.2660695066302855 0.43871015010979147 0 0.27312045032292342 0.43870088492299869 0 0.27379346358837398 0.44854793932786308 0 0.27312045032292342 0.43870088492299869 0 0.28291697042830632 0.43588410089467061 0 0.27379346358837398 0.44854793932786308 0 0.29070409459995628 0.45505979750407899 0 0.28291697042830632 0.43588410089467061 0 0.29070409459995628 0.45505979750407899 0 0.29777872383227422 0.43475991775429229 0 0.28291697042830632 0.43588410089467061 0 0.28958375731165181 0.48005255167767952 0 0.27345808637904001 0.4661952126215072 0 0.29070409459995628 0.45505979750407899 0 0.30420975952634299 0.46947331586472302 0 0.28958375731165181 0.48005255167767952 0 0.29070409459995628 0.45505979750407899 0 0.3152464127007425 0.45571249763777588 0 0.30420975952634299 0.46947331586472302 0 0.29070409459995628 0.45505979750407899 0 0.3152464127007425 0.45571249763777588 0 0.29070409459995628 0.45505979750407899 0 0.3152464127007425 0.45571249763777588 0 0.29070409459995628 0.45505979750407899 0 0.31209623941360759 0.43776564917250638 0 0.29070409459995628 0.45505979750407899 0 0.31209623941360759 0.43776564917250638 0 0.29777872383227422 0.43475991775429229 0 0.29777872383227422 0.43475991775429229 0 0.28982240375417168 0.42299913491174501 0 0.31495791781995791 0.41600820478279921 0 0.31209623941360759 0.43776564917250638 0 0.29777872383227422 0.43475991775429229 0 0.31495791781995791 0.41600820478279921 0 0.28982240375417168 0.42299913491174501 0 0.31495791781995791 0.41600820478279921 0 0.28950248352475311 0.4095022566254774 0 0.28982240375417168 0.42299913491174501 0 0.31495791781995791 0.41600820478279921 0 0.28950248352475311 0.4095022566254774 0 0.29925209770985872 0.40107025153885512 0 0.31495791781995791 0.41600820478279921 0 0.28950248352475311 0.4095022566254774 0 0.28982240375417168 0.42299913491174501 0 0.27496603255160451 0.42014298348928741 0 0.29777872383227422 0.43475991775429229 0 0.28982240375417168 0.42299913491174501 0 0.28291697042830632 0.43588410089467061 0 0.28982240375417168 0.42299913491174501 0 0.26935029905594432 0.43043866375212297 0 0.26468688968838561 0.42999006504069143 0 0.27312045032292342 0.43870088492299869 0 0.28291697042830632 0.43588410089467061 0 0.26935029905594432 0.43043866375212297 0 0.28982240375417168 0.42299913491174501 0 0.26468688968838561 0.42999006504069143 0 0.28982240375417168 0.42299913491174501 0 0.28291697042830632 0.43588410089467061 0 0.26935029905594432 0.43043866375212297 0 0.28982240375417168 0.42299913491174501 0 0.27496603255160451 0.42014298348928741 0 0.26468688968838561 0.42999006504069143 0 0.2660695066302855 0.43871015010979147 0 0.26935029905594432 0.43043866375212297 0 0.26468688968838561 0.42999006504069143 0 0.2660695066302855 0.43871015010979147 0 0.27312045032292342 0.43870088492299869 0 0.26935029905594432 0.43043866375212297 0 0.26935029905594432 0.43043866375212297 0 0.26468688968838561 0.42999006504069143 0 0.27496603255160451 0.42014298348928741 0 0.26468688968838561 0.42999006504069143 0 0.2651281327625446 0.42188031555685962 0 0.28950248352475311 0.4095022566254774 0 0.26395116785126571 0.41384430375133069 0 0.28950248352475311 0.4095022566254774 0 0.27496603255160451 0.42014298348928741 0 0.26395116785126571 0.41384430375133069 0 0.28950248352475311 0.4095022566254774 0 0.26395116785126571 0.41384430375133069 0 0.27343145984221179 0.40601604463393609 0 0.26395116785126571 0.41384430375133069 0 0.26299804800527138 0.40191116090260848 0 0.27343145984221179 0.40601604463393609 0 0.27496603255160451 0.42014298348928741 0 0.26395116785126571 0.41384430375133069 0 0.2651281327625446 0.42188031555685962 0 0.26395116785126571 0.41384430375133069 0 0.25700903327720531 0.4220875730974884 0 0.2651281327625446 0.42188031555685962 0 0.2383998521777784 0.41818635087718381 0 0.26395116785126571 0.41384430375133069 0 0.25380059083303341 0.40846212201461762 0 0.2488221034234695 0.4223051763495565 0 0.2383998521777784 0.41818635087718381 0 0.26395116785126571 0.41384430375133069 0 0.2383998521777784 0.41818635087718381 0 0.26395116785126571 0.41384430375133069 0 0.26395116785126571 0.41384430375133069 0 0.25380059083303341 0.40846212201461762 0 0.26299804800527138 0.40191116090260848 0 0.2488221034234695 0.4223051763495565 0 0.26395116785126571 0.41384430375133069 0 0.25700903327720531 0.4220875730974884 0 0.2488221034234695 0.4223051763495565 0 0.25700903327720531 0.4220875730974884 0 0.25702987725108101 0.42925349536772212 0 0.25700903327720531 0.4220875730974884 0 0.25702987725108101 0.42925349536772212 0 0.25836746492245471 0.43174768403659147 0 0.26468688968838561 0.42999006504069143 0 0.25702987725108101 0.42925349536772212 0 0.25836746492245471 0.43174768403659147 0 0.26468688968838561 0.42999006504069143 0 0.2660695066302855 0.43871015010979147 0 0.25836746492245471 0.43174768403659147 0 0.26468688968838561 0.42999006504069143 0 0.25702987725108101 0.42925349536772212 0 0.26468688968838561 0.42999006504069143 0 0.2651281327625446 0.42188031555685962 0 0.25700903327720531 0.4220875730974884 0 0.25702987725108101 0.42925349536772212 0 0.2651281327625446 0.42188031555685962 0 0.25702987725108101 0.42925349536772212 0 0.26468688968838561 0.42999006504069143 0 0.24985329529781791 0.39990667252734718 0 0.247713784970646 0.38075050805242922 0 0.26130673841785779 0.38162699417751078 0 0.26130673841785779 0.38162699417751078 0 0.25751014003425049 0.39127202551525408 0 0.26130673841785779 0.38162699417751078 0 0.25751014003425049 0.39127202551525408 0 0.26555566989124457 0.39385691981445009 0 0.247713784970646 0.38075050805242922 0 0.26130673841785779 0.38162699417751078 0 0.25490457918629872 0.37507349251653871 0 0.24985329529781791 0.39990667252734718 0 0.26130673841785779 0.38162699417751078 0 0.24985329529781791 0.39990667252734718 0 0.26130673841785779 0.38162699417751078 0 0.25751014003425049 0.39127202551525408 0 0.24985329529781791 0.39990667252734718 0 0.25751014003425049 0.39127202551525408 0 0.26299804800527138 0.40191116090260848 0 0.24985329529781791 0.39990667252734718 0 0.25380059083303341 0.40846212201461762 0 0.26299804800527138 0.40191116090260848 0 0.25751014003425049 0.39127202551525408 0 0.26299804800527138 0.40191116090260848 0 0.26555566989124457 0.39385691981445009 0 0.26555566989124457 0.39385691981445009 0 0.27430006382294309 0.39784586166294189 0 0.27120134665021761 0.38756895009831732 0 0.26299804800527138 0.40191116090260848 0 0.26555566989124457 0.39385691981445009 0 0.27430006382294309 0.39784586166294189 0 0.26299804800527138 0.40191116090260848 0 0.27343145984221179 0.40601604463393609 0 0.27430006382294309 0.39784586166294189 0 0.27343145984221179 0.40601604463393609 0 0.28106797903805247 0.40257602375425933 0 0.27430006382294309 0.39784586166294189 0 0.28106797903805247 0.40257602375425933 0 0.27430006382294309 0.39784586166294189 0 0.28703790896230208 0.39693993209468148 0 0.27430006382294309 0.39784586166294189 0 0.27993136792368678 0.39059144184020128 0 0.27120134665021761 0.38756895009831732 0 0.27430006382294309 0.39784586166294189 0 0.27993136792368678 0.39059144184020128 0 0.28703790896230208 0.39693993209468148 0 0.27993136792368678 0.39059144184020128 0 0.27120134665021761 0.38756895009831732 0 0.27779903165459169 0.3822920493098666 0 0.26130673841785779 0.38162699417751078 0 0.26555566989124457 0.39385691981445009 0 0.27120134665021761 0.38756895009831732 0 0.27120134665021761 0.38756895009831732 0 0.27107463499663109 0.37851234507980008 0 0.27779903165459169 0.3822920493098666 0 0.26130673841785779 0.38162699417751078 0 0.27120134665021761 0.38756895009831732 0 0.27107463499663109 0.37851234507980008 0 0.27107463499663109 0.37851234507980008 0 0.27779903165459169 0.3822920493098666 0 0.2766490591355068 0.37433388147839908 0 0.27779903165459169 0.3822920493098666 0 0.28390095120816711 0.37562544504190132 0 0.2766490591355068 0.37433388147839908 0 0.28390095120816711 0.37562544504190132 0 0.28652318226166418 0.38492160690775928 0 0.29373006398809498 0.37700175091789651 0 0.27779903165459169 0.3822920493098666 0 0.28390095120816711 0.37562544504190132 0 0.28652318226166418 0.38492160690775928 0 0.27993136792368678 0.39059144184020128 0 0.27779903165459169 0.3822920493098666 0 0.28652318226166418 0.38492160690775928 0 0.28652318226166418 0.38492160690775928 0 0.29667622102462171 0.38885955313607279 0 0.28703790896230208 0.39693993209468148 0 0.28652318226166418 0.38492160690775928 0 0.29667622102462171 0.38885955313607279 0 0.29373006398809498 0.37700175091789651 0 0.28950248352475311 0.4095022566254774 0 0.27343145984221179 0.40601604463393609 0 0.28106797903805247 0.40257602375425933 0 0.28950248352475311 0.4095022566254774 0 0.28106797903805247 0.40257602375425933 0 0.28703790896230208 0.39693993209468148 0 0.27993136792368678 0.39059144184020128 0 0.28652318226166418 0.38492160690775928 0 0.28703790896230208 0.39693993209468148 0 0.29667622102462171 0.38885955313607279 0 0.28703790896230208 0.39693993209468148 0 0.29925209770985872 0.40107025153885512 0 0.28950248352475311 0.4095022566254774 0 0.28703790896230208 0.39693993209468148 0 0.29925209770985872 0.40107025153885512 0 0.29925209770985872 0.40107025153885512 0 0.30808595721765852 0.39404131105524431 0 0.31495791781995791 0.41600820478279921 0 0.29667622102462171 0.38885955313607279 0 0.29925209770985872 0.40107025153885512 0 0.30808595721765852 0.39404131105524431 0 0.29667622102462171 0.38885955313607279 0 0.29373006398809498 0.37700175091789651 0 0.30704607127102962 0.37874789135054893 0 0.29667622102462171 0.38885955313607279 0 0.30808595721765852 0.39404131105524431 0 0.30704607127102962 0.37874789135054893 0 0.30808595721765852 0.39404131105524431 0 0.30704607127102962 0.37874789135054893 0 0.32845424032326143 0.38484820442882378 0 0.32845424032326143 0.38484820442882378 0 0.35182903215467742 0.3758796537326512 0 0.34790646022865218 0.39538457505576469 0 0.32845424032326143 0.38484820442882378 0 0.35182903215467742 0.3758796537326512 0 0.33494999436834533 0.36683291921078343 0 0.32845424032326143 0.38484820442882378 0 0.34009343188574281 0.40901727465384918 0 0.34790646022865218 0.39538457505576469 0 0.32845424032326143 0.38484820442882378 0 0.34009343188574281 0.40901727465384918 0 0.32845424032326143 0.38484820442882378 0 0.31495791781995791 0.41600820478279921 0 0.34009343188574281 0.40901727465384918 0 0.30808595721765852 0.39404131105524431 0 0.32845424032326143 0.38484820442882378 0 0.31495791781995791 0.41600820478279921 0 0.31495791781995791 0.41600820478279921 0 0.32365546110746413 0.42694996431045568 0 0.33527312640506091 0.41934143736272778 0 0.31495791781995791 0.41600820478279921 0 0.34009343188574281 0.40901727465384918 0 0.31209623941360759 0.43776564917250638 0 0.31495791781995791 0.41600820478279921 0 0.32365546110746413 0.42694996431045568 0 0.32365546110746413 0.42694996431045568 0 0.32610359684421192 0.43678193879044119 0 0.33309445048640007 0.42842800460629599 0 0.31209623941360759 0.43776564917250638 0 0.32365546110746413 0.42694996431045568 0 0.32610359684421192 0.43678193879044119 0 0.32610359684421192 0.43678193879044119 0 0.33309445048640007 0.42842800460629599 0 0.33961570140635172 0.4362099185178574 0 0.32365546110746413 0.42694996431045568 0 0.33309445048640007 0.42842800460629599 0 0.33527312640506091 0.41934143736272778 0 0.33309445048640007 0.42842800460629599 0 0.33527312640506091 0.41934143736272778 0 0.34392047686629479 0.42488796581179539 0 0.33309445048640007 0.42842800460629599 0 0.33961570140635172 0.4362099185178574 0 0.34392047686629479 0.42488796581179539 0 0.31495791781995791 0.41600820478279921 0 0.33527312640506091 0.41934143736272778 0 0.34009343188574281 0.40901727465384918 0 0.33527312640506091 0.41934143736272778 0 0.34212939465805281 0.41814630590263291 0 0.34392047686629479 0.42488796581179539 0 0.33527312640506091 0.41934143736272778 0 0.34212939465805281 0.41814630590263291 0 0.34186442441667098 0.41269478460960501 0 0.34212939465805281 0.41814630590263291 0 0.34186442441667098 0.41269478460960501 0 0.34552380666320143 0.41323543455967687 0 0.34186442441667098 0.41269478460960501 0 0.34009343188574281 0.40901727465384918 0 0.34552380666320143 0.41323543455967687 0 0.33527312640506091 0.41934143736272778 0 0.34186442441667098 0.41269478460960501 0 0.34009343188574281 0.40901727465384918 0 0.34186442441667098 0.41269478460960501 0 0.34009343188574281 0.40901727465384918 0 0.34009343188574281 0.40901727465384918 0 0.35091829865975332 0.41092335925812529 0 0.35727600754431599 0.40423829199409889 0 0.34009343188574281 0.40901727465384918 0 0.35727600754431599 0.40423829199409889 0 0.34009343188574281 0.40901727465384918 0 0.35091829865975332 0.41092335925812529 0 0.34552380666320143 0.41323543455967687 0 0.35091829865975332 0.41092335925812529 0 0.34552380666320143 0.41323543455967687 0 0.34772672207850669 0.4169791994607831 0 0.34212939465805281 0.41814630590263291 0 0.34772672207850669 0.4169791994607831 0 0.34392047686629479 0.42488796581179539 0 0.34212939465805281 0.41814630590263291 0 0.34552380666320143 0.41323543455967687 0 0.34772672207850669 0.4169791994607831 0 0.34772672207850669 0.4169791994607831 0 0.35532758082363769 0.41783269502340331 0 0.34392047686629479 0.42488796581179539 0 0.35091829865975332 0.41092335925812529 0 0.34772672207850669 0.4169791994607831 0 0.35532758082363769 0.41783269502340331 0 0.35091829865975332 0.41092335925812529 0 0.35532758082363769 0.41783269502340331 0 0.35727600754431599 0.40423829199409889 0 0.35532758082363769 0.41783269502340331 0 0.36187958923526292 0.40293945046940088 0 0.35727600754431599 0.40423829199409889 0 0.35532758082363769 0.41783269502340331 0 0.34392047686629479 0.42488796581179539 0 0.35414098508291708 0.43540859867718368 0 0.33961570140635172 0.4362099185178574 0 0.34392047686629479 0.42488796581179539 0 0.35414098508291708 0.43540859867718368 0 0.35532758082363769 0.41783269502340331 0 0.35414098508291708 0.43540859867718368 0 0.37193014631584848 0.42999924720615068 0 0.36657482697318761 0.446748226791508 0 0.35414098508291708 0.43540859867718368 0 0.37193014631584848 0.42999924720615068 0 0.35532758082363769 0.41783269502340331 0 0.37193014631584848 0.42999924720615068 0 0.36187958923526292 0.40293945046940088 0 0.37193014631584848 0.42999924720615068 0 0.36187958923526292 0.40293945046940088 0 0.37193014631584848 0.42999924720615068 0 0.36187958923526292 0.40293945046940088 0 0.39091832328282361 0.41087193027100549 0 0.36187958923526292 0.40293945046940088 0 0.35182903215467742 0.3758796537326512 0 0.37807898130569972 0.38198010331448301 0 0.36187958923526292 0.40293945046940088 0 0.35182903215467742 0.3758796537326512 0 0.36187958923526292 0.40293945046940088 0 0.35182903215467742 0.3758796537326512 0 0.34790646022865218 0.39538457505576469 0 0.34009343188574281 0.40901727465384918 0 0.34790646022865218 0.39538457505576469 0 0.35727600754431599 0.40423829199409889 0 0.36187958923526292 0.40293945046940088 0 0.34790646022865218 0.39538457505576469 0 0.35727600754431599 0.40423829199409889 0 0.35182903215467742 0.3758796537326512 0 0.3722477765496085 0.35016695762591221 0 0.37807898130569972 0.38198010331448301 0 0.35182903215467742 0.3758796537326512 0 0.3722477765496085 0.35016695762591221 0 0.34177847507409181 0.34881985699590151 0 0.35182903215467742 0.3758796537326512 0 0.34177847507409181 0.34881985699590151 0 0.3722477765496085 0.35016695762591221 0 0.37069175466933912 0.32875176142968793 0 0.35660426620688718 0.33158813156598749 0 0.3722477765496085 0.35016695762591221 0 0.37069175466933912 0.32875176142968793 0 0.38018026091455548 0.33583017463534492 0 0.36908544359869788 0.31711993858565868 0 0.37552929986171052 0.31147094895867028 0 0.37512131353827649 0.31993777409944391 0 0.37069175466933912 0.32875176142968793 0 0.36908544359869788 0.31711993858565868 0 0.37512131353827649 0.31993777409944391 0 0.37069175466933912 0.32875176142968793 0 0.36908544359869788 0.31711993858565868 0 0.36227265828944472 0.32102596309161863 0 0.37069175466933912 0.32875176142968793 0 0.36227265828944472 0.32102596309161863 0 0.35660426620688718 0.33158813156598749 0 0.36908544359869788 0.31711993858565868 0 0.36216199407232552 0.31421251507807352 0 0.36873564116109159 0.30732066885645792 0 0.36908544359869788 0.31711993858565868 0 0.36227265828944472 0.32102596309161863 0 0.36216199407232552 0.31421251507807352 0 0.36227265828944472 0.32102596309161863 0 0.36216199407232552 0.31421251507807352 0 0.35548040964913802 0.3182867922552447 0 0.33172791799350532 0.32176006025915199 0 0.34669185149407039 0.31235854363774268 0 0.35483192959872478 0.30892549123100937 0 0.34679263072992478 0.32222161781041447 0 0.33172791799350532 0.32176006025915199 0 0.35483192959872478 0.30892549123100937 0 0.35548040964913802 0.3182867922552447 0 0.34679263072992478 0.32222161781041447 0 0.35483192959872478 0.30892549123100937 0 0.36216199407232552 0.31421251507807352 0 0.35548040964913802 0.3182867922552447 0 0.35483192959872478 0.30892549123100937 0 0.35548040964913802 0.3182867922552447 0 0.34679263072992478 0.32222161781041447 0 0.35660426620688718 0.33158813156598749 0 0.36227265828944472 0.32102596309161863 0 0.35548040964913802 0.3182867922552447 0 0.35660426620688718 0.33158813156598749 0 0.34679263072992478 0.32222161781041447 0 0.35660426620688718 0.33158813156598749 0 0.34177847507409181 0.34881985699590151 0 0.3722477765496085 0.35016695762591221 0 0.35660426620688718 0.33158813156598749 0 0.34177847507409181 0.34881985699590151 0 0.33172791799350532 0.32176006025915199 0 0.32481653016515311 0.34395618279456119 0 0.34177847507409181 0.34881985699590151 0 0.34679263072992478 0.32222161781041447 0 0.33172791799350532 0.32176006025915199 0 0.34177847507409181 0.34881985699590151 0 0.33172791799350532 0.32176006025915199 0 0.34177847507409181 0.34881985699590151 0 0.33172791799350532 0.32176006025915199 0 0.35483192959872478 0.30892549123100937 0 0.33172791799350532 0.32176006025915199 0 0.33433715661558527 0.30915126849091529 0 0.34669185149407039 0.31235854363774268 0 0.33172791799350532 0.32176006025915199 0 0.32649517228490349 0.30767158395733452 0 0.33433715661558527 0.30915126849091529 0 0.33172791799350532 0.32176006025915199 0 0.32649517228490349 0.30767158395733452 0 0.33172791799350532 0.32176006025915199 0 0.31845188759589887 0.32913506211895882 0 0.3124215414252603 0.31463851826348332 0 0.33172791799350532 0.32176006025915199 0 0.3124215414252603 0.31463851826348332 0 0.32649517228490349 0.30767158395733452 0 0.33172791799350532 0.32176006025915199 0 0.31845188759589887 0.32913506211895882 0 0.33172791799350532 0.32176006025915199 0 0.31845188759589887 0.32913506211895882 0 0.32481653016515311 0.34395618279456119 0 0.31845188759589887 0.32913506211895882 0 0.32481653016515311 0.34395618279456119 0 0.3051758571982971 0.3365100639787737 0 0.32481653016515311 0.34395618279456119 0 0.31681504876077932 0.36067913420379871 0 0.3051758571982971 0.3365100639787737 0 0.32481653016515311 0.34395618279456119 0 0.33494999436834533 0.36683291921078343 0 0.31681504876077932 0.36067913420379871 0 0.32481653016515311 0.34395618279456119 0 0.34177847507409181 0.34881985699590151 0 0.33494999436834533 0.36683291921078343 0 0.35182903215467742 0.3758796537326512 0 0.34177847507409181 0.34881985699590151 0 0.33494999436834533 0.36683291921078343 0 0.30704607127102962 0.37874789135054893 0 0.32845424032326143 0.38484820442882378 0 0.31681504876077932 0.36067913420379871 0 0.32845424032326143 0.38484820442882378 0 0.31681504876077932 0.36067913420379871 0 0.32845424032326143 0.38484820442882378 0 0.33494999436834533 0.36683291921078343 0 0.31681504876077932 0.36067913420379871 0 0.30704607127102962 0.37874789135054893 0 0.31681504876077932 0.36067913420379871 0 0.30062517624183088 0.36676896646786628 0 0.31681504876077932 0.36067913420379871 0 0.30062517624183088 0.36676896646786628 0 0.29985560249366611 0.35416009340586768 0 0.29373006398809498 0.37700175091789651 0 0.30704607127102962 0.37874789135054893 0 0.30062517624183088 0.36676896646786628 0 0.31681504876077932 0.36067913420379871 0 0.3051758571982971 0.3365100639787737 0 0.31681504876077932 0.36067913420379871 0 0.29985560249366611 0.35416009340586768 0 0.3051758571982971 0.3365100639787737 0 0.29985560249366611 0.35416009340586768 0 0.29642893485056382 0.34373170356788069 0 0.3051758571982971 0.3365100639787737 0 0.29156997961887149 0.34921014654590388 0 0.28547266882539629 0.3430582048410174 0 0.29642893485056382 0.34373170356788069 0 0.29985560249366611 0.35416009340586768 0 0.29156997961887149 0.34921014654590388 0 0.29642893485056382 0.34373170356788069 0 0.29985560249366611 0.35416009340586768 0 0.2845227123058599 0.35589058436884952 0 0.28847801066549428 0.36644572303251932 0 0.29985560249366611 0.35416009340586768 0 0.29156997961887149 0.34921014654590388 0 0.2845227123058599 0.35589058436884952 0 0.29156997961887149 0.34921014654590388 0 0.2845227123058599 0.35589058436884952 0 0.28547266882539629 0.3430582048410174 0 0.29373006398809498 0.37700175091789651 0 0.30062517624183088 0.36676896646786628 0 0.28847801066549428 0.36644572303251932 0 0.30062517624183088 0.36676896646786628 0 0.29985560249366611 0.35416009340586768 0 0.28847801066549428 0.36644572303251932 0 0.2845227123058599 0.35589058436884952 0 0.28170395393251652 0.36324765217496502 0 0.28847801066549428 0.36644572303251932 0 0.28170395393251652 0.36324765217496502 0 0.28847801066549428 0.36644572303251932 0 0.28042538913708492 0.36831170178922717 0 0.28390095120816711 0.37562544504190132 0 0.29373006398809498 0.37700175091789651 0 0.28847801066549428 0.36644572303251932 0 0.28390095120816711 0.37562544504190132 0 0.28847801066549428 0.36644572303251932 0 0.28042538913708492 0.36831170178922717 0 0.28042538913708492 0.36831170178922717 0 0.2766490591355068 0.37433388147839908 0 0.27338970362162712 0.36234259950926417 0 0.26130673841785779 0.38162699417751078 0 0.27338970362162712 0.36234259950926417 0 0.26130673841785779 0.38162699417751078 0 0.27338970362162712 0.36234259950926417 0 0.27075156819252399 0.35763296848608189 0 0.26130673841785779 0.38162699417751078 0 0.27107463499663109 0.37851234507980008 0 0.27338970362162712 0.36234259950926417 0 0.26130673841785779 0.38162699417751078 0 0.27075156819252399 0.35763296848608189 0 0.27107463499663109 0.37851234507980008 0 0.2766490591355068 0.37433388147839908 0 0.27338970362162712 0.36234259950926417 0 0.28390095120816711 0.37562544504190132 0 0.28042538913708492 0.36831170178922717 0 0.2766490591355068 0.37433388147839908 0 0.28170395393251652 0.36324765217496502 0 0.28042538913708492 0.36831170178922717 0 0.27338970362162712 0.36234259950926417 0 0.2845227123058599 0.35589058436884952 0 0.28170395393251652 0.36324765217496502 0 0.27338970362162712 0.36234259950926417 0 0.27075156819252399 0.35763296848608189 0 0.26558463596339632 0.34150625501184179 0 0.28019639796719031 0.33363894279465311 0 0.27075156819252399 0.35763296848608189 0 0.28019639796719031 0.33363894279465311 0 0.28547266882539629 0.3430582048410174 0 0.2845227123058599 0.35589058436884952 0 0.27338970362162712 0.36234259950926417 0 0.28547266882539629 0.3430582048410174 0 0.27075156819252399 0.35763296848608189 0 0.28019639796719031 0.33363894279465311 0 0.27338970362162712 0.36234259950926417 0 0.28547266882539629 0.3430582048410174 0 0.27338970362162712 0.36234259950926417 0 0.27075156819252399 0.35763296848608189 0 0.28547266882539629 0.3430582048410174 0 0.27075156819252399 0.35763296848608189 0 0.25711451900508148 0.35258648987221092 0 0.26558463596339632 0.34150625501184179 0 0.2438273554430464 0.34812574592335249 0 0.25711451900508148 0.35258648987221092 0 0.25235619873932041 0.33556187677713623 0 0.27075156819252399 0.35763296848608189 0 0.25711451900508148 0.35258648987221092 0 0.25830082874688443 0.36636652218621663 0 0.26130673841785779 0.38162699417751078 0 0.27075156819252399 0.35763296848608189 0 0.25830082874688443 0.36636652218621663 0 0.2444030594993066 0.36261468031945582 0 0.25711451900508148 0.35258648987221092 0 0.25830082874688443 0.36636652218621663 0 0.2444030594993066 0.36261468031945582 0 0.25490457918629872 0.37507349251653871 0 0.25830082874688443 0.36636652218621663 0 0.26130673841785779 0.38162699417751078 0 0.25490457918629872 0.37507349251653871 0 0.25830082874688443 0.36636652218621663 0 0.2412863906095909 0.31706614216088019 0 0.25496362040665271 0.32267745764425643 0 0.26071219069447599 0.31197788889560879 0 0.25496362040665271 0.32267745764425643 0 0.26589958482641279 0.32752631364072038 0 0.26071219069447599 0.31197788889560879 0 0.25496362040665271 0.32267745764425643 0 0.25235619873932041 0.33556187677713623 0 0.26589958482641279 0.32752631364072038 0 0.25711451900508148 0.35258648987221092 0 0.25235619873932041 0.33556187677713623 0 0.26558463596339632 0.34150625501184179 0 0.25235619873932041 0.33556187677713623 0 0.26558463596339632 0.34150625501184179 0 0.26589958482641279 0.32752631364072038 0 0.26558463596339632 0.34150625501184179 0 0.28019639796719031 0.33363894279465311 0 0.26589958482641279 0.32752631364072038 0 0.28019639796719031 0.33363894279465311 0 0.26589958482641279 0.32752631364072038 0 0.27489680020354851 0.31780650302536112 0 0.26589958482641279 0.32752631364072038 0 0.27489680020354851 0.31780650302536112 0 0.26071219069447599 0.31197788889560879 0 0.28019639796719031 0.33363894279465311 0 0.28964122774185652 0.30964491710322428 0 0.28019639796719031 0.33363894279465311 0 0.27489680020354851 0.31780650302536112 0 0.28964122774185652 0.30964491710322428 0 0.28019639796719031 0.33363894279465311 0 0.29537221966939131 0.31615256727250862 0 0.28964122774185652 0.30964491710322428 0 0.28019639796719031 0.33363894279465311 0 0.29537221966939131 0.31615256727250862 0 0.29755563402916552 0.32377381017277068 0 0.28019639796719031 0.33363894279465311 0 0.28547266882539629 0.3430582048410174 0 0.29755563402916552 0.32377381017277068 0 0.28547266882539629 0.3430582048410174 0 0.29755563402916552 0.32377381017277068 0 0.28547266882539629 0.3430582048410174 0 0.29642893485056382 0.34373170356788069 0 0.29755563402916552 0.32377381017277068 0 0.29642893485056382 0.34373170356788069 0 0.3051758571982971 0.3365100639787737 0 0.29755563402916552 0.32377381017277068 0 0.31845188759589887 0.32913506211895882 0 0.3051758571982971 0.3365100639787737 0 0.29537221966939131 0.31615256727250862 0 0.3051758571982971 0.3365100639787737 0 0.29755563402916552 0.32377381017277068 0 0.31845188759589887 0.32913506211895882 0 0.3051758571982971 0.3365100639787737 0 0.3124215414252603 0.31463851826348332 0 0.29537221966939131 0.31615256727250862 0 0.3051758571982971 0.3365100639787737 0 0.29537221966939131 0.31615256727250862 0 0.3051758571982971 0.3365100639787737 0 0.3124215414252603 0.31463851826348332 0 0.29537221966939131 0.31615256727250862 0 0.3064038210334884 0.30067388223127611 0 0.29780590900410991 0.29124285186599119 0 0.29537221966939131 0.31615256727250862 0 0.3124215414252603 0.31463851826348332 0 0.3064038210334884 0.30067388223127611 0 0.3124215414252603 0.31463851826348332 0 0.3064038210334884 0.30067388223127611 0 0.31797064105596812 0.29669460242380358 0 0.3064038210334884 0.30067388223127611 0 0.30706453001149392 0.28545611992336922 0 0.31797064105596812 0.29669460242380358 0 0.3064038210334884 0.30067388223127611 0 0.30706453001149392 0.28545611992336922 0 0.29780590900410991 0.29124285186599119 0 0.30706453001149392 0.28545611992336922 0 0.29780590900410991 0.29124285186599119 0 0.29516751126046797 0.28001135836836077 0 0.28556858214048553 0.29579507056624349 0 0.28351082165216779 0.2739244349354083 0 0.29516751126046797 0.28001135836836077 0 0.29780590900410991 0.29124285186599119 0 0.28556858214048553 0.29579507056624349 0 0.29516751126046797 0.28001135836836077 0 0.28556858214048553 0.29579507056624349 0 0.27576494461157991 0.27543757385997852 0 0.28351082165216779 0.2739244349354083 0 0.29537221966939131 0.31615256727250862 0 0.29780590900410991 0.29124285186599119 0 0.28556858214048553 0.29579507056624349 0 0.29537221966939131 0.31615256727250862 0 0.28556858214048553 0.29579507056624349 0 0.28964122774185652 0.30964491710322428 0 0.29537221966939131 0.31615256727250862 0 0.28556858214048553 0.29579507056624349 0 0.28556858214048553 0.29579507056624349 0 0.28964122774185652 0.30964491710322428 0 0.27438759942090191 0.30337842557507938 0 0.27489680020354851 0.31780650302536112 0 0.28964122774185652 0.30964491710322428 0 0.27438759942090191 0.30337842557507938 0 0.27489680020354851 0.31780650302536112 0 0.27438759942090191 0.30337842557507938 0 0.26071219069447599 0.31197788889560879 0 0.27248032494705132 0.28939396479480628 0 0.25491758893057909 0.27951005592881761 0 0.27576494461157991 0.27543757385997852 0 0.28556858214048553 0.29579507056624349 0 0.27576494461157991 0.27543757385997852 0 0.28556858214048553 0.29579507056624349 0 0.27248032494705132 0.28939396479480628 0 0.27576494461157991 0.27543757385997852 0 0.28556858214048553 0.29579507056624349 0 0.27438759942090191 0.30337842557507938 0 0.27248032494705132 0.28939396479480628 0 0.27438759942090191 0.30337842557507938 0 0.27248032494705132 0.28939396479480628 0 0.26162700977852021 0.29629342014523508 0 0.27248032494705132 0.28939396479480628 0 0.26162700977852021 0.29629342014523508 0 0.25491758893057909 0.27951005592881761 0 0.24543399627141721 0.29887735901603257 0 0.26162700977852021 0.29629342014523508 0 0.25491758893057909 0.27951005592881761 0 0.27438759942090191 0.30337842557507938 0 0.26162700977852021 0.29629342014523508 0 0.26071219069447599 0.31197788889560879 0 0.24543399627141721 0.29887735901603257 0 0.26162700977852021 0.29629342014523508 0 0.26071219069447599 0.31197788889560879 0 0.25153222320099622 0.25722575917013901 0 0.27218921726664158 0.26801248725998528 0 0.26048617882559622 0.24371083740660091 0 0.25153222320099622 0.25722575917013901 0 0.25536006440587672 0.26878811273571068 0 0.27218921726664158 0.26801248725998528 0 0.25153222320099622 0.25722575917013901 0 0.27218921726664158 0.26801248725998528 0 0.25153222320099622 0.25722575917013901 0 0.26048617882559622 0.24371083740660091 0 0.25491758893057909 0.27951005592881761 0 0.27576494461157991 0.27543757385997852 0 0.25536006440587672 0.26878811273571068 0 0.25491758893057909 0.27951005592881761 0 0.27218921726664158 0.26801248725998528 0 0.2428012282252888 0.27040414858390061 0 0.25536006440587672 0.26878811273571068 0 0.25491758893057909 0.27951005592881761 0 0.25491758893057909 0.27951005592881761 0 0.27218921726664158 0.26801248725998528 0 0.27576494461157991 0.27543757385997852 0 0.27576494461157991 0.27543757385997852 0 0.28351082165216779 0.2739244349354083 0 0.27218921726664158 0.26801248725998528 0 0.28351082165216779 0.2739244349354083 0 0.28241209558822961 0.26632916093747078 0 0.27218921726664158 0.26801248725998528 0 0.27576494461157991 0.27543757385997852 0 0.28351082165216779 0.2739244349354083 0 0.27218921726664158 0.26801248725998528 0 0.28351082165216779 0.2739244349354083 0 0.27218921726664158 0.26801248725998528 0 0.27576494461157991 0.27543757385997852 0 0.27218921726664158 0.26801248725998528 0 0.27691591880596222 0.25729022711116639 0 0.28241209558822961 0.26632916093747078 0 0.27218921726664158 0.26801248725998528 0 0.26048617882559622 0.24371083740660091 0 0.27218921726664158 0.26801248725998528 0 0.27691591880596222 0.25729022711116639 0 0.26048617882559622 0.24371083740660091 0 0.27691591880596222 0.25729022711116639 0 0.28359094229813148 0.25448793817281579 0 0.27685630599777589 0.2478154210616699 0 0.27691591880596222 0.25729022711116639 0 0.28359094229813148 0.25448793817281579 0 0.2851673007449898 0.26023557940088332 0 0.3039173510814423 0.25972757105281219 0 0.28965918427723281 0.24218391352450211 0 0.28359094229813148 0.25448793817281579 0 0.27685630599777589 0.2478154210616699 0 0.28494106210013392 0.2498489505319901 0 0.29345893722613059 0.25129825022350127 0 0.3039173510814423 0.25972757105281219 0 0.28965918427723281 0.24218391352450211 0 0.28868459035541499 0.25311981898255947 0 0.28494106210013392 0.2498489505319901 0 0.28892582916583598 0.2492018439528669 0 0.28868459035541499 0.25311981898255947 0 0.28359094229813148 0.25448793817281579 0 0.28494106210013392 0.2498489505319901 0 0.28868459035541499 0.25311981898255947 0 0.28687158554486092 0.25569243113247692 0 0.28359094229813148 0.25448793817281579 0 0.28687158554486092 0.25569243113247692 0 0.28359094229813148 0.25448793817281579 0 0.2851673007449898 0.26023557940088332 0 0.28687158554486092 0.25569243113247692 0 0.28807077596690611 0.2581880435182905 0 0.28931157611965458 0.25623197766376038 0 0.28868459035541499 0.25311981898255947 0 0.28687158554486092 0.25569243113247692 0 0.28931157611965458 0.25623197766376038 0 0.27691591880596222 0.25729022711116639 0 0.2851673007449898 0.26023557940088332 0 0.28241209558822961 0.26632916093747078 0 0.28612348479105743 0.26557280400170857 0 0.2851673007449898 0.26023557940088332 0 0.28241209558822961 0.26632916093747078 0 0.28612348479105743 0.26557280400170857 0 0.28820153575970392 0.26340271637493412 0 0.2851673007449898 0.26023557940088332 0 0.28612348479105743 0.26557280400170857 0 0.28820153575970392 0.26340271637493412 0 0.28928435291432292 0.26627202701476832 0 0.28820153575970392 0.26340271637493412 0 0.2851673007449898 0.26023557940088332 0 0.28910030818167282 0.2606462295185657 0 0.28687158554486092 0.25569243113247692 0 0.2851673007449898 0.26023557940088332 0 0.28807077596690611 0.2581880435182905 0 0.2851673007449898 0.26023557940088332 0 0.28807077596690611 0.2581880435182905 0 0.28910030818167282 0.2606462295185657 0 0.28807077596690611 0.2581880435182905 0 0.29012458656076978 0.25822105451885852 0 0.28910030818167282 0.2606462295185657 0 0.29012458656076978 0.25822105451885852 0 0.28910030818167282 0.2606462295185657 0 0.29181146649833112 0.25980397671080041 0 0.28910030818167282 0.2606462295185657 0 0.29181146649833112 0.25980397671080041 0 0.29208830856188789 0.26336840763512592 0 0.29012458656076978 0.25822105451885852 0 0.29181146649833112 0.25980397671080041 0 0.29232880603728451 0.25623504518287532 0 0.28820153575970392 0.26340271637493412 0 0.29208830856188789 0.26336840763512592 0 0.28928435291432292 0.26627202701476832 0 0.28820153575970392 0.26340271637493412 0 0.28910030818167282 0.2606462295185657 0 0.29208830856188789 0.26336840763512592 0 0.29208830856188789 0.26336840763512592 0 0.295861748010873 0.25998823260247511 0 0.29765944308527592 0.26593032899830249 0 0.29208830856188789 0.26336840763512592 0 0.29297695870925222 0.26738919668419731 0 0.29765944308527592 0.26593032899830249 0 0.29181146649833112 0.25980397671080041 0 0.29208830856188789 0.26336840763512592 0 0.295861748010873 0.25998823260247511 0 0.29181146649833112 0.25980397671080041 0 0.295861748010873 0.25998823260247511 0 0.29232880603728451 0.25623504518287532 0 0.295861748010873 0.25998823260247511 0 0.29345893722613059 0.25129825022350127 0 0.29232880603728451 0.25623504518287532 0 0.28868459035541499 0.25311981898255947 0 0.29345893722613059 0.25129825022350127 0 0.29232880603728451 0.25623504518287532 0 0.28868459035541499 0.25311981898255947 0 0.29345893722613059 0.25129825022350127 0 0.28892582916583598 0.2492018439528669 0 0.28868459035541499 0.25311981898255947 0 0.28931157611965458 0.25623197766376038 0 0.29232880603728451 0.25623504518287532 0 0.29012458656076978 0.25822105451885852 0 0.28931157611965458 0.25623197766376038 0 0.29232880603728451 0.25623504518287532 0 0.28807077596690611 0.2581880435182905 0 0.29012458656076978 0.25822105451885852 0 0.28931157611965458 0.25623197766376038 0 0.28351082165216779 0.2739244349354083 0 0.28733438825076368 0.27108796110478978 0 0.2907816862342732 0.27306575569366948 0 0.28733438825076368 0.27108796110478978 0 0.28661589797855402 0.26840505384568097 0 0.29024227766669058 0.26954619460490381 0 0.28733438825076368 0.27108796110478978 0 0.2848684593192698 0.27078404615639318 0 0.28661589797855402 0.26840505384568097 0 0.28351082165216779 0.2739244349354083 0 0.28733438825076368 0.27108796110478978 0 0.2848684593192698 0.27078404615639318 0 0.28351082165216779 0.2739244349354083 0 0.2848684593192698 0.27078404615639318 0 0.28241209558822961 0.26632916093747078 0 0.28612348479105743 0.26557280400170857 0 0.28241209558822961 0.26632916093747078 0 0.28661589797855402 0.26840505384568097 0 0.2848684593192698 0.27078404615639318 0 0.28241209558822961 0.26632916093747078 0 0.28661589797855402 0.26840505384568097 0 0.28661589797855402 0.26840505384568097 0 0.28928435291432292 0.26627202701476832 0 0.29024227766669058 0.26954619460490381 0 0.28612348479105743 0.26557280400170857 0 0.28661589797855402 0.26840505384568097 0 0.28928435291432292 0.26627202701476832 0 0.29208830856188789 0.26336840763512592 0 0.28928435291432292 0.26627202701476832 0 0.29297695870925222 0.26738919668419731 0 0.28928435291432292 0.26627202701476832 0 0.29297695870925222 0.26738919668419731 0 0.29024227766669058 0.26954619460490381 0 0.29297695870925222 0.26738919668419731 0 0.29576201226787813 0.27118247982537402 0 0.29024227766669058 0.26954619460490381 0 0.29297695870925222 0.26738919668419731 0 0.29576201226787813 0.27118247982537402 0 0.29765944308527592 0.26593032899830249 0 0.29576201226787813 0.27118247982537402 0 0.29024227766669058 0.26954619460490381 0 0.2907816862342732 0.27306575569366948 0 0.28733438825076368 0.27108796110478978 0 0.29024227766669058 0.26954619460490381 0 0.2907816862342732 0.27306575569366948 0 0.28351082165216779 0.2739244349354083 0 0.2907816862342732 0.27306575569366948 0 0.29516751126046797 0.28001135836836077 0 0.29576201226787813 0.27118247982537402 0 0.2907816862342732 0.27306575569366948 0 0.29516751126046797 0.28001135836836077 0 0.28351082165216779 0.2739244349354083 0 0.29516751126046797 0.28001135836836077 0 0.30323688172566321 0.27316773846810899 0 0.3039173510814423 0.25972757105281219 0 0.31817551788565168 0.27727122858112241 0 0.3039173510814423 0.25972757105281219 0 0.31817551788565168 0.27727122858112241 0 0.29576201226787813 0.27118247982537402 0 0.29516751126046797 0.28001135836836077 0 0.30323688172566321 0.27316773846810899 0 0.30706453001149392 0.28545611992336922 0 0.29516751126046797 0.28001135836836077 0 0.30323688172566321 0.27316773846810899 0 0.30323688172566321 0.27316773846810899 0 0.29765944308527592 0.26593032899830249 0 0.3039173510814423 0.25972757105281219 0 0.29576201226787813 0.27118247982537402 0 0.30323688172566321 0.27316773846810899 0 0.29765944308527592 0.26593032899830249 0 0.30706453001149392 0.28545611992336922 0 0.30323688172566321 0.27316773846810899 0 0.31817551788565168 0.27727122858112241 0 0.3039173510814423 0.25972757105281219 0 0.31246354634074469 0.25301562706991498 0 0.31817551788565168 0.27727122858112241 0 0.3039173510814423 0.25972757105281219 0 0.31246354634074469 0.25301562706991498 0 0.28965918427723281 0.24218391352450211 0 0.295861748010873 0.25998823260247511 0 0.29345893722613059 0.25129825022350127 0 0.3039173510814423 0.25972757105281219 0 0.295861748010873 0.25998823260247511 0 0.29765944308527592 0.26593032899830249 0 0.3039173510814423 0.25972757105281219 0 0.31246354634074469 0.25301562706991498 0 0.33526790840425669 0.26384734061532772 0 0.31246354634074469 0.25301562706991498 0 0.33526790840425669 0.26384734061532772 0 0.32643540241908581 0.2493154440826276 0 0.31246354634074469 0.25301562706991498 0 0.33526790840425669 0.26384734061532772 0 0.31817551788565168 0.27727122858112241 0 0.33526790840425669 0.26384734061532772 0 0.3379127634661398 0.24049180221066491 0 0.32643540241908581 0.2493154440826276 0 0.33526790840425669 0.26384734061532772 0 0.35634129443021012 0.25447852924978431 0 0.3379127634661398 0.24049180221066491 0 0.33526790840425669 0.26384734061532772 0 0.31817551788565168 0.27727122858112241 0 0.34172042880505471 0.28277804546335827 0 0.31817551788565168 0.27727122858112241 0 0.31797064105596812 0.29669460242380358 0 0.33243368468986112 0.29481488610943257 0 0.31817551788565168 0.27727122858112241 0 0.33243368468986112 0.29481488610943257 0 0.30706453001149392 0.28545611992336922 0 0.31817551788565168 0.27727122858112241 0 0.31797064105596812 0.29669460242380358 0 0.3124215414252603 0.31463851826348332 0 0.31797064105596812 0.29669460242380358 0 0.32649517228490349 0.30767158395733452 0 0.31797064105596812 0.29669460242380358 0 0.32649517228490349 0.30767158395733452 0 0.33243368468986112 0.29481488610943257 0 0.33433715661558527 0.30915126849091529 0 0.33243368468986112 0.29481488610943257 0 0.34669185149407039 0.31235854363774268 0 0.33243368468986112 0.29481488610943257 0 0.34669185149407039 0.31235854363774268 0 0.34568712778571031 0.29860929543060832 0 0.33243368468986112 0.29481488610943257 0 0.34669185149407039 0.31235854363774268 0 0.32649517228490349 0.30767158395733452 0 0.33433715661558527 0.30915126849091529 0 0.33243368468986112 0.29481488610943257 0 0.31817551788565168 0.27727122858112241 0 0.34172042880505471 0.28277804546335827 0 0.33243368468986112 0.29481488610943257 0 0.34172042880505471 0.28277804546335827 0 0.33243368468986112 0.29481488610943257 0 0.34568712778571031 0.29860929543060832 0 0.35199353865369548 0.28986078273705529 0 0.36153231744840347 0.2937746187606235 0 0.35807227046776868 0.27467905416074029 0 0.34172042880505471 0.28277804546335827 0 0.35199353865369548 0.28986078273705529 0 0.35807227046776868 0.27467905416074029 0 0.34172042880505471 0.28277804546335827 0 0.35199353865369548 0.28986078273705529 0 0.34568712778571031 0.29860929543060832 0 0.35199353865369548 0.28986078273705529 0 0.34568712778571031 0.29860929543060832 0 0.35295554876154028 0.29946289986994618 0 0.35199353865369548 0.28986078273705529 0 0.35295554876154028 0.29946289986994618 0 0.36153231744840347 0.2937746187606235 0 0.34669185149407039 0.31235854363774268 0 0.350707664864299 0.30502754758011252 0 0.35483192959872478 0.30892549123100937 0 0.34669185149407039 0.31235854363774268 0 0.350707664864299 0.30502754758011252 0 0.34568712778571031 0.29860929543060832 0 0.350707664864299 0.30502754758011252 0 0.34568712778571031 0.29860929543060832 0 0.35295554876154028 0.29946289986994618 0 0.35295554876154028 0.29946289986994618 0 0.35483192959872478 0.30892549123100937 0 0.36153231744840347 0.2937746187606235 0 0.350707664864299 0.30502754758011252 0 0.35295554876154028 0.29946289986994618 0 0.35483192959872478 0.30892549123100937 0 0.35483192959872478 0.30892549123100937 0 0.36873564116109159 0.30732066885645792 0 0.37793594120394791 0.29609092220287331 0 0.35483192959872478 0.30892549123100937 0 0.36153231744840347 0.2937746187606235 0 0.37793594120394791 0.29609092220287331 0 0.35483192959872478 0.30892549123100937 0 0.37793594120394791 0.29609092220287331 0 0.36216199407232552 0.31421251507807352 0 0.35483192959872478 0.30892549123100937 0 0.36873564116109159 0.30732066885645792 0 0.36873564116109159 0.30732066885645792 0 0.37793594120394791 0.29609092220287331 0 0.37618493526913999 0.30531787431980001 0 0.36908544359869788 0.31711993858565868 0 0.36873564116109159 0.30732066885645792 0 0.37552929986171052 0.31147094895867028 0 0.36873564116109159 0.30732066885645792 0 0.37552929986171052 0.31147094895867028 0 0.37618493526913999 0.30531787431980001 0 0.36153231744840347 0.2937746187606235 0 0.3696042904128502 0.28751384070759761 0 0.37793594120394791 0.29609092220287331 0 0.3696042904128502 0.28751384070759761 0 0.35807227046776868 0.27467905416074029 0 0.38087663253128068 0.28551076770615302 0 0.36153231744840347 0.2937746187606235 0 0.3696042904128502 0.28751384070759761 0 0.35807227046776868 0.27467905416074029 0 0.35807227046776868 0.27467905416074029 0 0.38087663253128068 0.28551076770615302 0 0.35807227046776868 0.27467905416074029 0 0.37543677279847171 0.26770278157766031 0 0.38087663253128068 0.28551076770615302 0 0.35634129443021012 0.25447852924978431 0 0.35807227046776868 0.27467905416074029 0 0.37543677279847171 0.26770278157766031 0 0.35634129443021012 0.25447852924978431 0 0.37543677279847171 0.26770278157766031 0 0.37588607332036628 0.2490878796733729 0 0.33526790840425669 0.26384734061532772 0 0.35634129443021012 0.25447852924978431 0 0.35807227046776868 0.27467905416074029 0 0.33526790840425669 0.26384734061532772 0 0.34172042880505471 0.28277804546335827 0 0.35807227046776868 0.27467905416074029 0 0.33526790840425669 0.26384734061532772 0 0.35807227046776868 0.27467905416074029 0 0.39392409312874033 0.26548119861246328 0 0.41196211293711438 0.28187451755155379 0 0.39392409312874033 0.26548119861246328 0 0.38745056937483863 0.27594374287878148 0 0.39653744276239639 0.28470199660397738 0 0.39392409312874033 0.26548119861246328 0 0.39653744276239639 0.28470199660397738 0 0.41196211293711438 0.28187451755155379 0 0.39392409312874033 0.26548119861246328 0 0.41530077718395331 0.26533492563787903 0 0.40933178642478668 0.24530746794650141 0 0.39392409312874033 0.26548119861246328 0 0.37543677279847171 0.26770278157766031 0 0.37588607332036628 0.2490878796733729 0 0.39392409312874033 0.26548119861246328 0 0.37588607332036628 0.2490878796733729 0 0.39392409312874033 0.26548119861246328 0 0.39103074677198191 0.2378645478919707 0 0.37588607332036628 0.2490878796733729 0 0.39392409312874033 0.26548119861246328 0 0.38745056937483863 0.27594374287878148 0 0.37543677279847171 0.26770278157766031 0 0.38745056937483863 0.27594374287878148 0 0.37543677279847171 0.26770278157766031 0 0.38087663253128068 0.28551076770615302 0 0.38087663253128068 0.28551076770615302 0 0.39129466819619951 0.29801807429951538 0 0.39653744276239639 0.28470199660397738 0 0.38745056937483863 0.27594374287878148 0 0.38087663253128068 0.28551076770615302 0 0.39653744276239639 0.28470199660397738 0 0.3696042904128502 0.28751384070759761 0 0.38087663253128068 0.28551076770615302 0 0.37793594120394791 0.29609092220287331 0 0.38087663253128068 0.28551076770615302 0 0.37793594120394791 0.29609092220287331 0 0.39129466819619951 0.29801807429951538 0 0.37552929986171052 0.31147094895867028 0 0.38253885884981009 0.30638895726119819 0 0.38253365066345929 0.31657150904984471 0 0.37552929986171052 0.31147094895867028 0 0.37618493526913999 0.30531787431980001 0 0.38253885884981009 0.30638895726119819 0 0.37793594120394791 0.29609092220287331 0 0.37618493526913999 0.30531787431980001 0 0.38253885884981009 0.30638895726119819 0 0.37793594120394791 0.29609092220287331 0 0.38253885884981009 0.30638895726119819 0 0.39129466819619951 0.29801807429951538 0 0.38253885884981009 0.30638895726119819 0 0.39212940840629362 0.31318847352025442 0 0.38253365066345929 0.31657150904984471 0 0.38253885884981009 0.30638895726119819 0 0.39129466819619951 0.29801807429951538 0 0.39212940840629362 0.31318847352025442 0 0.39129466819619951 0.29801807429951538 0 0.40057903262284272 0.30682002081122939 0 0.39212940840629362 0.31318847352025442 0 0.39129466819619951 0.29801807429951538 0 0.40479167519220871 0.29803551582379922 0 0.40057903262284272 0.30682002081122939 0 0.40057903262284272 0.30682002081122939 0 0.40276015360382211 0.3144041531339446 0 0.39212940840629362 0.31318847352025442 0 0.40479167519220871 0.29803551582379922 0 0.40057903262284272 0.30682002081122939 0 0.40860853726765339 0.309318938863758 0 0.40057903262284272 0.30682002081122939 0 0.40860853726765339 0.309318938863758 0 0.40276015360382211 0.3144041531339446 0 0.40479167519220871 0.29803551582379922 0 0.39653744276239639 0.28470199660397738 0 0.41196211293711438 0.28187451755155379 0 0.39129466819619951 0.29801807429951538 0 0.40479167519220871 0.29803551582379922 0 0.39653744276239639 0.28470199660397738 0 0.40479167519220871 0.29803551582379922 0 0.41196211293711438 0.28187451755155379 0 0.42604734048813458 0.28838989128274578 0 0.40479167519220871 0.29803551582379922 0 0.42604734048813458 0.28838989128274578 0 0.41196211293711438 0.28187451755155379 0 0.42604734048813458 0.28838989128274578 0 0.42096165520647338 0.27640965763746961 0 0.41751736358108449 0.30523346237375532 0 0.43213625579819431 0.30543734923285137 0 0.41316086399048302 0.31918962555795088 0 0.40479167519220871 0.29803551582379922 0 0.41751736358108449 0.30523346237375532 0 0.42604734048813458 0.28838989128274578 0 0.40860853726765339 0.309318938863758 0 0.41751736358108449 0.30523346237375532 0 0.41316086399048302 0.31918962555795088 0 0.40479167519220871 0.29803551582379922 0 0.40860853726765339 0.309318938863758 0 0.41751736358108449 0.30523346237375532 0 0.41751736358108449 0.30523346237375532 0 0.43213625579819431 0.30543734923285137 0 0.42604734048813458 0.28838989128274578 0 0.43213625579819431 0.30543734923285137 0 0.41316086399048302 0.31918962555795088 0 0.43213625579819431 0.30543734923285137 0 0.44422558879226298 0.30694386780845051 0 0.43154308657343537 0.31483265104709918 0 0.42604734048813458 0.28838989128274578 0 0.44730300578406051 0.27874426674169239 0 0.43914956241907371 0.29106414504126032 0 0.43213625579819431 0.30543734923285137 0 0.42604734048813458 0.28838989128274578 0 0.43914956241907371 0.29106414504126032 0 0.42604734048813458 0.28838989128274578 0 0.44730300578406051 0.27874426674169239 0 0.42604734048813458 0.28838989128274578 0 0.43053639021669149 0.27003929607769961 0 0.44730300578406051 0.27874426674169239 0 0.42604734048813458 0.28838989128274578 0 0.43053639021669149 0.27003929607769961 0 0.42096165520647338 0.27640965763746961 0 0.43053639021669149 0.27003929607769961 0 0.42096165520647338 0.27640965763746961 0 0.41530077718395331 0.26533492563787903 0 0.39392409312874033 0.26548119861246328 0 0.41196211293711438 0.28187451755155379 0 0.41530077718395331 0.26533492563787903 0 0.41196211293711438 0.28187451755155379 0 0.42096165520647338 0.27640965763746961 0 0.41530077718395331 0.26533492563787903 0 0.41530077718395331 0.26533492563787903 0 0.42507863072368701 0.2531856777568211 0 0.40933178642478668 0.24530746794650141 0 0.43053639021669149 0.27003929607769961 0 0.42507863072368701 0.2531856777568211 0 0.43671171400039921 0.25931077911745237 0 0.43053639021669149 0.27003929607769961 0 0.41530077718395331 0.26533492563787903 0 0.42507863072368701 0.2531856777568211 0 0.43053639021669149 0.27003929607769961 0 0.43671171400039921 0.25931077911745237 0 0.4433298154441227 0.26629613073356512 0 0.42507863072368701 0.2531856777568211 0 0.43671171400039921 0.25931077911745237 0 0.43876594592942619 0.2491002947533556 0 0.48930401013157893 0.26400543771054868 0 0.5 0.30014541135995981 0 0.50000000000000078 0.23475110787519651 0 0.43671171400039921 0.25931077911745237 0 0.44893917376128722 0.25670587451621701 0 0.43876594592942619 0.2491002947533556 0 0.43671171400039921 0.25931077911745237 0 0.44893917376128722 0.25670587451621701 0 0.4433298154441227 0.26629613073356512 0 0.44893917376128722 0.25670587451621701 0 0.4433298154441227 0.26629613073356512 0 0.45470448649478412 0.26606712633996182 0 0.43053639021669149 0.27003929607769961 0 0.4433298154441227 0.26629613073356512 0 0.44730300578406051 0.27874426674169239 0 0.4433298154441227 0.26629613073356512 0 0.44730300578406051 0.27874426674169239 0 0.45470448649478412 0.26606712633996182 0 0.44730300578406051 0.27874426674169239 0 0.45470448649478412 0.26606712633996182 0 0.46855867107998628 0.26909864220063873 0 0.44730300578406051 0.27874426674169239 0 0.46855867107998628 0.26909864220063873 0 0.47008703941361663 0.27793279658265219 0 0.44730300578406051 0.27874426674169239 0 0.46855867107998628 0.26909864220063873 0 0.44893917376128722 0.25670587451621701 0 0.4657425708042397 0.25282124097232528 0 0.45444189403291402 0.2411770147019261 0 0.46855867107998628 0.26909864220063873 0 0.4657425708042397 0.25282124097232528 0 0.45470448649478412 0.26606712633996182 0 0.46855867107998628 0.26909864220063873 0 0.4657425708042397 0.25282124097232528 0 0.44893917376128722 0.25670587451621701 0 0.45470448649478412 0.26606712633996182 0 0.4657425708042397 0.25282124097232528 0 0.4657425708042397 0.25282124097232528 0 0.48060284673389919 0.263633106558882 0 0.48319944748130261 0.24680576274814439 0 0.48060284673389919 0.263633106558882 0 0.48930401013157893 0.26400543771054868 0 0.48319944748130261 0.24680576274814439 0 0.46855867107998628 0.26909864220063873 0 0.4657425708042397 0.25282124097232528 0 0.48060284673389919 0.263633106558882 0 0.47008703941361663 0.27793279658265219 0 0.48930401013157893 0.26400543771054868 0 0.46855867107998628 0.26909864220063873 0 0.48060284673389919 0.263633106558882 0 0.48060284673389919 0.263633106558882 0 0.47008703941361663 0.27793279658265219 0 0.48930401013157893 0.26400543771054868 0 0.47008703941361663 0.27793279658265219 0 0.48006412771999057 0.27905949761247589 0 0.48930401013157893 0.26400543771054868 0 0.46855867107998628 0.26909864220063873 0 0.48060284673389919 0.263633106558882 0 0.47008703941361663 0.27793279658265219 0 0.46855867107998628 0.26909864220063873 0 0.47008703941361663 0.27793279658265219 0 0.48006412771999057 0.27905949761247589 0 0.48930401013157893 0.26400543771054868 0 0.48625483393177482 0.28246926535835643 0 0.48930401013157893 0.26400543771054868 0 0.5 0.30014541135995981 0 0.48625483393177482 0.28246926535835643 0 0.5 0.30014541135995981 0 0.48970041229178968 0.29406901354624332 0 0.4885492687023667 0.31475660787172299 0 0.5 0.30014541135995981 0 0.48625483393177482 0.28246926535835643 0 0.48970041229178968 0.29406901354624332 0 0.48625483393177482 0.28246926535835643 0 0.48970041229178968 0.29406901354624332 0 0.47848665946962488 0.28859017348115529 0 0.48970041229178968 0.29406901354624332 0 0.47848665946962488 0.28859017348115529 0 0.47416262890117539 0.30149019824985379 0 0.47008703941361663 0.27793279658265219 0 0.47416262890117539 0.30149019824985379 0 0.47008703941361663 0.27793279658265219 0 0.47848665946962488 0.28859017348115529 0 0.47416262890117539 0.30149019824985379 0 0.47008703941361663 0.27793279658265219 0 0.47416262890117539 0.30149019824985379 0 0.46463260069651119 0.29140132306620031 0 0.48006412771999057 0.27905949761247589 0 0.48625483393177482 0.28246926535835643 0 0.47848665946962488 0.28859017348115529 0 0.47008703941361663 0.27793279658265219 0 0.48006412771999057 0.27905949761247589 0 0.47848665946962488 0.28859017348115529 0 0.48970041229178968 0.29406901354624332 0 0.47416262890117539 0.30149019824985379 0 0.4885492687023667 0.31475660787172299 0 0.48970041229178968 0.29406901354624332 0 0.47416262890117539 0.30149019824985379 0 0.47416262890117539 0.30149019824985379 0 0.45853060084376801 0.29977374142415342 0 0.45560674310843452 0.3103528945782269 0 0.47416262890117539 0.30149019824985379 0 0.45560674310843452 0.3103528945782269 0 0.47416262890117539 0.30149019824985379 0 0.45853060084376801 0.29977374142415342 0 0.46463260069651119 0.29140132306620031 0 0.47008703941361663 0.27793279658265219 0 0.46463260069651119 0.29140132306620031 0 0.45111164760590539 0.29168507290775181 0 0.47008703941361663 0.27793279658265219 0 0.45111164760590539 0.29168507290775181 0 0.44730300578406051 0.27874426674169239 0 0.47008703941361663 0.27793279658265219 0 0.45111164760590539 0.29168507290775181 0 0.45853060084376801 0.29977374142415342 0 0.46463260069651119 0.29140132306620031 0 0.45111164760590539 0.29168507290775181 0 0.43213625579819431 0.30543734923285137 0 0.45111164760590539 0.29168507290775181 0 0.43914956241907371 0.29106414504126032 0 0.44730300578406051 0.27874426674169239 0 0.45111164760590539 0.29168507290775181 0 0.43914956241907371 0.29106414504126032 0 0.43213625579819431 0.30543734923285137 0 0.45111164760590539 0.29168507290775181 0 0.43213625579819431 0.30543734923285137 0 0.45111164760590539 0.29168507290775181 0 0.44422558879226298 0.30694386780845051 0 0.45560674310843452 0.3103528945782269 0 0.44422558879226298 0.30694386780845051 0 0.43842966418539248 0.31774810934188358 0 0.45853060084376801 0.29977374142415342 0 0.45560674310843452 0.3103528945782269 0 0.44422558879226298 0.30694386780845051 0 0.45853060084376801 0.29977374142415342 0 0.45111164760590539 0.29168507290775181 0 0.44422558879226298 0.30694386780845051 0 0.45560674310843452 0.3103528945782269 0 0.43705085731569332 0.31921559090659912 0 0.45560674310843452 0.3103528945782269 0 0.445574462909617 0.32293984437028 0 0.43705085731569332 0.31921559090659912 0 0.45560674310843452 0.3103528945782269 0 0.445574462909617 0.32293984437028 0 0.45356547482711718 0.33018117931006491 0 0.45560674310843452 0.3103528945782269 0 0.43842966418539248 0.31774810934188358 0 0.43705085731569332 0.31921559090659912 0 0.44422558879226298 0.30694386780845051 0 0.43842966418539248 0.31774810934188358 0 0.43154308657343537 0.31483265104709918 0 0.43842966418539248 0.31774810934188358 0 0.43705085731569332 0.31921559090659912 0 0.43892997145578388 0.32563168502311662 0 0.445574462909617 0.32293984437028 0 0.44083529419097978 0.33094373067874189 0 0.43892997145578388 0.32563168502311662 0 0.445574462909617 0.32293984437028 0 0.43705085731569332 0.31921559090659912 0 0.445574462909617 0.32293984437028 0 0.44083529419097978 0.33094373067874189 0 0.45356547482711718 0.33018117931006491 0 0.44165801472227312 0.34323984209273423 0 0.45356547482711718 0.33018117931006491 0 0.45850926574073331 0.34651392194864622 0 0.44165801472227312 0.34323984209273423 0 0.44083529419097978 0.33094373067874189 0 0.43166902790598161 0.33929201054700048 0 0.43892997145578388 0.32563168502311662 0 0.44083529419097978 0.33094373067874189 0 0.43317574323615998 0.33104402243960368 0 0.44165801472227312 0.34323984209273423 0 0.44083529419097978 0.33094373067874189 0 0.45356547482711718 0.33018117931006491 0 0.45356547482711718 0.33018117931006491 0 0.47888330231886822 0.32877626329145132 0 0.45850926574073331 0.34651392194864622 0 0.45560674310843452 0.3103528945782269 0 0.45356547482711718 0.33018117931006491 0 0.47888330231886822 0.32877626329145132 0 0.5 0.30014541135995981 0 0.4885492687023667 0.31475660787172299 0 0.5 0.34930215291110689 0 0.47888330231886822 0.32877626329145132 0 0.4885492687023667 0.31475660787172299 0 0.5 0.34930215291110689 0 0.47416262890117539 0.30149019824985379 0 0.45560674310843452 0.3103528945782269 0 0.47888330231886822 0.32877626329145132 0 0.47416262890117539 0.30149019824985379 0 0.47888330231886822 0.32877626329145132 0 0.4885492687023667 0.31475660787172299 0 0.47416262890117539 0.30149019824985379 0 0.47888330231886822 0.32877626329145132 0 0.47888330231886822 0.32877626329145132 0 0.47565767627723321 0.35367653303588131 0 0.45850926574073331 0.34651392194864622 0 0.5 0.34930215291110689 0 0.47565767627723321 0.35367653303588131 0 0.47781149018510388 0.37869427749857482 0 0.47888330231886822 0.32877626329145132 0 0.5 0.34930215291110689 0 0.47565767627723321 0.35367653303588131 0 0.47565767627723321 0.35367653303588131 0 0.45733288770108432 0.36201985544527537 0 0.47781149018510388 0.37869427749857482 0 0.47565767627723321 0.35367653303588131 0 0.45733288770108432 0.36201985544527537 0 0.45850926574073331 0.34651392194864622 0 0.44165801472227312 0.34323984209273423 0 0.45850926574073331 0.34651392194864622 0 0.4413887647347946 0.35929889092681982 0 0.45733288770108432 0.36201985544527537 0 0.45850926574073331 0.34651392194864622 0 0.4413887647347946 0.35929889092681982 0 0.45733288770108432 0.36201985544527537 0 0.4413887647347946 0.35929889092681982 0 0.44153901264778062 0.37343480580038879 0 0.45733288770108432 0.36201985544527537 0 0.44153901264778062 0.37343480580038879 0 0.45482676763662039 0.38809293299633429 0 0.42640845802995259 0.36892404556868708 0 0.41557269665981 0.35954071959013117 0 0.42852438312620561 0.35190461944610102 0 0.4413887647347946 0.35929889092681982 0 0.42640845802995259 0.36892404556868708 0 0.42852438312620561 0.35190461944610102 0 0.4413887647347946 0.35929889092681982 0 0.44153901264778062 0.37343480580038879 0 0.42640845802995259 0.36892404556868708 0 0.41557269665981 0.35954071959013117 0 0.39773627330903077 0.36105859917852151 0 0.40780080352149928 0.37567923871478631 0 0.42640845802995259 0.36892404556868708 0 0.41557269665981 0.35954071959013117 0 0.40780080352149928 0.37567923871478631 0 0.41557269665981 0.35954071959013117 0 0.42852438312620561 0.35190461944610102 0 0.41739356531236188 0.34013709504256018 0 0.41557269665981 0.35954071959013117 0 0.41739356531236188 0.34013709504256018 0 0.39773627330903077 0.36105859917852151 0 0.41739356531236188 0.34013709504256018 0 0.39773627330903077 0.36105859917852151 0 0.42852438312620561 0.35190461944610102 0 0.43166902790598161 0.33929201054700048 0 0.41739356531236188 0.34013709504256018 0 0.44165801472227312 0.34323984209273423 0 0.4413887647347946 0.35929889092681982 0 0.42852438312620561 0.35190461944610102 0 0.44165801472227312 0.34323984209273423 0 0.42852438312620561 0.35190461944610102 0 0.43166902790598161 0.33929201054700048 0 0.43705085731569332 0.31921559090659912 0 0.41739356531236188 0.34013709504256018 0 0.41544983039366512 0.32953271314637039 0 0.43705085731569332 0.31921559090659912 0 0.41739356531236188 0.34013709504256018 0 0.43317574323615998 0.33104402243960368 0 0.43705085731569332 0.31921559090659912 0 0.41739356531236188 0.34013709504256018 0 0.43166902790598161 0.33929201054700048 0 0.43317574323615998 0.33104402243960368 0 0.41739356531236188 0.34013709504256018 0 0.44083529419097978 0.33094373067874189 0 0.43166902790598161 0.33929201054700048 0 0.43317574323615998 0.33104402243960368 0 0.43213625579819431 0.30543734923285137 0 0.43154308657343537 0.31483265104709918 0 0.41316086399048302 0.31918962555795088 0 0.43705085731569332 0.31921559090659912 0 0.41544983039366512 0.32953271314637039 0 0.43705085731569332 0.31921559090659912 0 0.42444684759267981 0.32028615430654062 0 0.41544983039366512 0.32953271314637039 0 0.43154308657343537 0.31483265104709918 0 0.42444684759267981 0.32028615430654062 0 0.41316086399048302 0.31918962555795088 0 0.43154308657343537 0.31483265104709918 0 0.43705085731569332 0.31921559090659912 0 0.42444684759267981 0.32028615430654062 0 0.43842966418539248 0.31774810934188358 0 0.43154308657343537 0.31483265104709918 0 0.43705085731569332 0.31921559090659912 0 0.43892997145578388 0.32563168502311662 0 0.43317574323615998 0.33104402243960368 0 0.43705085731569332 0.31921559090659912 0 0.41316086399048302 0.31918962555795088 0 0.41544983039366512 0.32953271314637039 0 0.39418547218277172 0.33294190188305062 0 0.42444684759267981 0.32028615430654062 0 0.41316086399048302 0.31918962555795088 0 0.41544983039366512 0.32953271314637039 0 0.40860853726765339 0.309318938863758 0 0.41316086399048302 0.31918962555795088 0 0.40276015360382211 0.3144041531339446 0 0.41739356531236188 0.34013709504256018 0 0.41544983039366512 0.32953271314637039 0 0.39384880347163692 0.33984983538614127 0 0.41544983039366512 0.32953271314637039 0 0.39418547218277172 0.33294190188305062 0 0.39384880347163692 0.33984983538614127 0 0.41544983039366512 0.32953271314637039 0 0.39384880347163692 0.33984983538614127 0 0.39418547218277172 0.33294190188305062 0 0.39384880347163692 0.33984983538614127 0 0.38763626903965592 0.33142256612758492 0 0.39418547218277172 0.33294190188305062 0 0.39181849880786379 0.32717555703993689 0 0.38763626903965592 0.33142256612758492 0 0.41316086399048302 0.31918962555795088 0 0.39418547218277172 0.33294190188305062 0 0.39708961803314868 0.32200780813679419 0 0.41316086399048302 0.31918962555795088 0 0.40276015360382211 0.3144041531339446 0 0.39708961803314868 0.32200780813679419 0 0.41316086399048302 0.31918962555795088 0 0.39418547218277172 0.33294190188305062 0 0.39418547218277172 0.33294190188305062 0 0.39708961803314868 0.32200780813679419 0 0.39181849880786379 0.32717555703993689 0 0.39708961803314868 0.32200780813679419 0 0.39181849880786379 0.32717555703993689 0 0.38758066886242332 0.32336225559927501 0 0.39708961803314868 0.32200780813679419 0 0.39212940840629362 0.31318847352025442 0 0.38758066886242332 0.32336225559927501 0 0.40276015360382211 0.3144041531339446 0 0.39708961803314868 0.32200780813679419 0 0.39212940840629362 0.31318847352025442 0 0.39212940840629362 0.31318847352025442 0 0.38758066886242332 0.32336225559927501 0 0.38253365066345929 0.31657150904984471 0 0.38758066886242332 0.32336225559927501 0 0.37951212113643251 0.32682582922079478 0 0.38253365066345929 0.31657150904984471 0 0.39181849880786379 0.32717555703993689 0 0.38758066886242332 0.32336225559927501 0 0.38763626903965592 0.33142256612758492 0 0.38758066886242332 0.32336225559927501 0 0.37951212113643251 0.32682582922079478 0 0.38763626903965592 0.33142256612758492 0 0.37069175466933912 0.32875176142968793 0 0.37951212113643251 0.32682582922079478 0 0.37512131353827649 0.31993777409944391 0 0.37951212113643251 0.32682582922079478 0 0.38253365066345929 0.31657150904984471 0 0.37512131353827649 0.31993777409944391 0 0.37552929986171052 0.31147094895867028 0 0.38253365066345929 0.31657150904984471 0 0.37512131353827649 0.31993777409944391 0 0.3722477765496085 0.35016695762591221 0 0.39384880347163692 0.33984983538614127 0 0.38018026091455548 0.33583017463534492 0 0.39384880347163692 0.33984983538614127 0 0.38763626903965592 0.33142256612758492 0 0.38018026091455548 0.33583017463534492 0 0.37069175466933912 0.32875176142968793 0 0.37951212113643251 0.32682582922079478 0 0.38018026091455548 0.33583017463534492 0 0.37951212113643251 0.32682582922079478 0 0.38763626903965592 0.33142256612758492 0 0.38018026091455548 0.33583017463534492 0 0.3722477765496085 0.35016695762591221 0 0.39384880347163692 0.33984983538614127 0 0.3722477765496085 0.35016695762591221 0 0.39384880347163692 0.33984983538614127 0 0.38596182216836522 0.35527606173029752 0 0.3722477765496085 0.35016695762591221 0 0.38596182216836522 0.35527606173029752 0 0.37807898130569972 0.38198010331448301 0 0.38596182216836522 0.35527606173029752 0 0.39773627330903077 0.36105859917852151 0 0.37807898130569972 0.38198010331448301 0 0.39773627330903077 0.36105859917852151 0 0.37807898130569972 0.38198010331448301 0 0.39773627330903077 0.36105859917852151 0 0.37807898130569972 0.38198010331448301 0 0.40780080352149928 0.37567923871478631 0 0.41739356531236188 0.34013709504256018 0 0.39384880347163692 0.33984983538614127 0 0.39773627330903077 0.36105859917852151 0 0.39384880347163692 0.33984983538614127 0 0.38596182216836522 0.35527606173029752 0 0.39773627330903077 0.36105859917852151 0 0.40390821143883249 0.39309141821086863 0 0.37807898130569972 0.38198010331448301 0 0.39091832328282361 0.41087193027100549 0 0.40390821143883249 0.39309141821086863 0 0.39091832328282361 0.41087193027100549 0 0.41386422373874859 0.406371997932643 0 0.40390821143883249 0.39309141821086863 0 0.37807898130569972 0.38198010331448301 0 0.40780080352149928 0.37567923871478631 0 0.36187958923526292 0.40293945046940088 0 0.37807898130569972 0.38198010331448301 0 0.39091832328282361 0.41087193027100549 0 0.37193014631584848 0.42999924720615068 0 0.39355396721594382 0.43664913910555569 0 0.39091832328282361 0.41087193027100549 0 0.39355396721594382 0.43664913910555569 0 0.4086430402520686 0.43726383809014391 0 0.41286414250946218 0.42378426033622751 0 0.39355396721594382 0.43664913910555569 0 0.39091832328282361 0.41087193027100549 0 0.41286414250946218 0.42378426033622751 0 0.39091832328282361 0.41087193027100549 0 0.41386422373874859 0.406371997932643 0 0.41286414250946218 0.42378426033622751 0 0.41386422373874859 0.406371997932643 0 0.41286414250946218 0.42378426033622751 0 0.43221705047033082 0.4090921792360791 0 0.41286414250946218 0.42378426033622751 0 0.43133933500857929 0.43201167421733949 0 0.41892553910608071 0.43791135523627978 0 0.4086430402520686 0.43726383809014391 0 0.41286414250946218 0.42378426033622751 0 0.41892553910608071 0.43791135523627978 0 0.41286414250946218 0.42378426033622751 0 0.43133933500857929 0.43201167421733949 0 0.41286414250946218 0.42378426033622751 0 0.43133933500857929 0.43201167421733949 0 0.43221705047033082 0.4090921792360791 0 0.41386422373874859 0.406371997932643 0 0.43221705047033082 0.4090921792360791 0 0.42773818513645112 0.38883830406482728 0 0.40390821143883249 0.39309141821086863 0 0.41386422373874859 0.406371997932643 0 0.42773818513645112 0.38883830406482728 0 0.40390821143883249 0.39309141821086863 0 0.40780080352149928 0.37567923871478631 0 0.42773818513645112 0.38883830406482728 0 0.42640845802995259 0.36892404556868708 0 0.40780080352149928 0.37567923871478631 0 0.42773818513645112 0.38883830406482728 0 0.44153901264778062 0.37343480580038879 0 0.42640845802995259 0.36892404556868708 0 0.42773818513645112 0.38883830406482728 0 0.44153901264778062 0.37343480580038879 0 0.42773818513645112 0.38883830406482728 0 0.45482676763662039 0.38809293299633429 0 0.5 0.34930215291110689 0 0.47781149018510388 0.37869427749857482 0 0.5 0.41423412078117261 0 0.43221705047033082 0.4090921792360791 0 0.42773818513645112 0.38883830406482728 0 0.45482676763662039 0.38809293299633429 0 0.43221705047033082 0.4090921792360791 0 0.45482676763662039 0.38809293299633429 0 0.45232064757215651 0.41416601054739322 0 0.45482676763662039 0.38809293299633429 0 0.47121798163558132 0.40484318606820219 0 0.45232064757215651 0.41416601054739322 0 0.45482676763662039 0.38809293299633429 0 0.45232064757215651 0.41416601054739322 0 0.45733288770108432 0.36201985544527537 0 0.45482676763662039 0.38809293299633429 0 0.47781149018510388 0.37869427749857482 0 0.45482676763662039 0.38809293299633429 0 0.47781149018510388 0.37869427749857482 0 0.47121798163558132 0.40484318606820219 0 0.45733288770108432 0.36201985544527537 0 0.45482676763662039 0.38809293299633429 0 0.47781149018510388 0.37869427749857482 0 0.47121798163558132 0.40484318606820219 0 0.5 0.41423412078117261 0 0.5 0.41423412078117261 0 0.47113100278402542 0.42902858851753611 0 0.48237845739663598 0.45474052989964669 0 0.47121798163558132 0.40484318606820219 0 0.5 0.41423412078117261 0 0.47113100278402542 0.42902858851753611 0 0.47113100278402542 0.42902858851753611 0 0.45232064757215651 0.41416601054739322 0 0.44981452750769602 0.44023908809845258 0 0.47121798163558132 0.40484318606820219 0 0.47113100278402542 0.42902858851753611 0 0.45232064757215651 0.41416601054739322 0 0.43133933500857929 0.43201167421733949 0 0.43221705047033082 0.4090921792360791 0 0.45232064757215651 0.41416601054739322 0 0.43133933500857929 0.43201167421733949 0 0.44981452750769602 0.44023908809845258 0 0.45232064757215651 0.41416601054739322 0 0.44981452750769602 0.44023908809845258 0 0.43133933500857929 0.43201167421733949 0 0.45232064757215651 0.41416601054739322 0 0.44981452750769602 0.44023908809845258 0 0.43133933500857929 0.43201167421733949 0 0.44981452750769602 0.44023908809845258 0 0.43647632095713862 0.44436215142212632 0 0.44981452750769602 0.44023908809845258 0 0.44828887142136431 0.4561116514361514 0 0.43647632095713862 0.44436215142212632 0 0.5 0.41423412078117261 0 0.48237845739663598 0.45474052989964669 0 0.5 0.5 0 0.44981452750769602 0.44023908809845258 0 0.44828887142136431 0.4561116514361514 0 0.44828887142136431 0.4561116514361514 0 0.46262912319994498 0.4617517767316669 0 0.44676321533503599 0.47198421477385039 0 0.44828887142136431 0.4561116514361514 0 0.44676321533503599 0.47198421477385039 0 0.44828887142136431 0.4561116514361514 0 0.44676321533503599 0.47198421477385039 0 0.43105685511778941 0.46008286853249242 0 0.44828887142136431 0.4561116514361514 0 0.43105685511778941 0.46008286853249242 0 0.43647632095713862 0.44436215142212632 0 0.44828887142136431 0.4561116514361514 0 0.46262912319994498 0.4617517767316669 0 0.46609649245216622 0.44748980899904922 0 0.44981452750769602 0.44023908809845258 0 0.46609649245216622 0.44748980899904922 0 0.47113100278402542 0.42902858851753611 0 0.44981452750769602 0.44023908809845258 0 0.46609649245216622 0.44748980899904922 0 0.44981452750769602 0.44023908809845258 0 0.44828887142136431 0.4561116514361514 0 0.46609649245216622 0.44748980899904922 0 0.46609649245216622 0.44748980899904922 0 0.48237845739663598 0.45474052989964669 0 0.47113100278402542 0.42902858851753611 0 0.46609649245216622 0.44748980899904922 0 0.48237845739663598 0.45474052989964669 0 0.46262912319994498 0.4617517767316669 0 0.46609649245216622 0.44748980899904922 0 0.48237845739663598 0.45474052989964669 0 0.46262912319994498 0.4617517767316669 0 0.48237845739663598 0.45474052989964669 0 0.46961857939452217 0.47843267854963678 0 0.5 0.5 0 0.46961857939452217 0.47843267854963678 0 0.45695651283274419 0.5 0 0.48237845739663598 0.45474052989964669 0 0.5 0.5 0 0.46961857939452217 0.47843267854963678 0 0.46262912319994498 0.4617517767316669 0 0.46961857939452217 0.47843267854963678 0 0.44676321533503599 0.47198421477385039 0 0.46961857939452217 0.47843267854963678 0 0.45695651283274419 0.5 0 0.44676321533503599 0.47198421477385039 0 0.45695651283274419 0.5 0 0.44676321533503599 0.47198421477385039 0 0.42715067833807191 0.48563837301334373 0 0.45695651283274419 0.5 0 0.42715067833807191 0.48563837301334373 0 0.39792984500105372 0.49999999999999267 0 0.42715067833807191 0.48563837301334373 0 0.40953154044098622 0.4794767255128099 0 0.39792984500105372 0.49999999999999267 0 0.40953154044098622 0.4794767255128099 0 0.41525465208730261 0.46316685488367448 0 0.40032430733366781 0.47438196319643627 0 0.42715067833807191 0.48563837301334373 0 0.40953154044098622 0.4794767255128099 0 0.42565961132635199 0.47168315798381388 0 0.40953154044098622 0.4794767255128099 0 0.42565961132635199 0.47168315798381388 0 0.41525465208730261 0.46316685488367448 0 0.44676321533503599 0.47198421477385039 0 0.42715067833807191 0.48563837301334373 0 0.42565961132635199 0.47168315798381388 0 0.42565961132635199 0.47168315798381388 0 0.43105685511778941 0.46008286853249242 0 0.41525465208730261 0.46316685488367448 0 0.44676321533503599 0.47198421477385039 0 0.42565961132635199 0.47168315798381388 0 0.43105685511778941 0.46008286853249242 0 0.43647632095713862 0.44436215142212632 0 0.4092285121767878 0.4507105976825127 0 0.43133933500857929 0.43201167421733949 0 0.43647632095713862 0.44436215142212632 0 0.41892553910608071 0.43791135523627978 0 0.43105685511778941 0.46008286853249242 0 0.43647632095713862 0.44436215142212632 0 0.4092285121767878 0.4507105976825127 0 0.43647632095713862 0.44436215142212632 0 0.41892553910608071 0.43791135523627978 0 0.4092285121767878 0.4507105976825127 0 0.4086430402520686 0.43726383809014391 0 0.41892553910608071 0.43791135523627978 0 0.4092285121767878 0.4507105976825127 0 0.43105685511778941 0.46008286853249242 0 0.4092285121767878 0.4507105976825127 0 0.41525465208730261 0.46316685488367448 0 0.41525465208730261 0.46316685488367448 0 0.38526933680530762 0.46591325479630669 0 0.40032430733366781 0.47438196319643627 0 0.4092285121767878 0.4507105976825127 0 0.41525465208730261 0.46316685488367448 0 0.38526933680530762 0.46591325479630669 0 0.4092285121767878 0.4507105976825127 0 0.38526933680530762 0.46591325479630669 0 0.38198070339643708 0.45705904394289942 0 0.4092285121767878 0.4507105976825127 0 0.38198070339643708 0.45705904394289942 0 0.41525465208730261 0.46316685488367448 0 0.38526933680530762 0.46591325479630669 0 0.39355396721594382 0.43664913910555569 0 0.4086430402520686 0.43726383809014391 0 0.4092285121767878 0.4507105976825127 0 0.39355396721594382 0.43664913910555569 0 0.4092285121767878 0.4507105976825127 0 0.38198070339643708 0.45705904394289942 0 0.37193014631584848 0.42999924720615068 0 0.39355396721594382 0.43664913910555569 0 0.38198070339643708 0.45705904394289942 0 0.37193014631584848 0.42999924720615068 0 0.38198070339643708 0.45705904394289942 0 0.36717500093372668 0.46757054210475929 0 0.38526933680530762 0.46591325479630669 0 0.36717500093372668 0.46757054210475929 0 0.38526933680530762 0.46591325479630669 0 0.38198070339643708 0.45705904394289942 0 0.38526933680530762 0.46591325479630669 0 0.38198070339643708 0.45705904394289942 0 0.36717500093372668 0.46757054210475929 0 0.38526933680530762 0.46591325479630669 0 0.37501723488010369 0.48021086780116401 0 0.38526933680530762 0.46591325479630669 0 0.39159959090318019 0.48295662739814987 0 0.38526933680530762 0.46591325479630669 0 0.37501723488010369 0.48021086780116401 0 0.39159959090318019 0.48295662739814987 0 0.37100127548482031 0.49999999999999922 0 0.39792984500105372 0.49999999999999267 0 0.39159959090318019 0.48295662739814987 0 0.37100127548482031 0.49999999999999922 0 0.37501723488010369 0.48021086780116401 0 0.39159959090318019 0.48295662739814987 0 0.40953154044098622 0.4794767255128099 0 0.39792984500105372 0.49999999999999267 0 0.39159959090318019 0.48295662739814987 0 0.39792984500105372 0.49999999999999267 0 0.39159959090318019 0.48295662739814987 0 0.38526933680530762 0.46591325479630669 0 0.39159959090318019 0.48295662739814987 0 0.40032430733366781 0.47438196319643627 0 0.40953154044098622 0.4794767255128099 0 0.39159959090318019 0.48295662739814987 0 0.40032430733366781 0.47438196319643627 0 0.33044620589452839 0.087817198709655944 0 0.34171554996877818 0.096966806733087524 0 0.34881532063442522 0.082201530692034883 0 0.33044620589452839 0.087817198709655944 0 0.32566991147381341 0.070879840112157963 0 0.34881532063442522 0.082201530692034883 0 0.32566991147381341 0.070879840112157963 0 0.34881532063442522 0.082201530692034883 0 0.34230685448842202 0.061943355546023537 0 0.32566991147381341 0.070879840112157963 0 0.31072716300308328 0.059331554637136651 0 0.31153776068034922 0.089135316111794982 0 0.33044620589452839 0.087817198709655944 0 0.32806927392538099 0.098855845298032555 0 0.31153776068034922 0.089135316111794982 0 0.33044620589452839 0.087817198709655944 0 0.32566991147381341 0.070879840112157963 0 0.31153776068034922 0.089135316111794982 0 0.32260309590447922 0.1123122165003074 0 0.31153776068034922 0.089135316111794982 0 0.31234835835761571 0.11893907758645331 0 0.32806927392538099 0.098855845298032555 0 0.32260309590447922 0.1123122165003074 0 0.31153776068034922 0.089135316111794982 0 0.32260309590447922 0.1123122165003074 0 0.33019904407723683 0.1184739086744384 0 0.31234835835761571 0.11893907758645331 0 0.33019904407723683 0.1184739086744384 0 0.31234835835761571 0.11893907758645331 0 0.33442235067943221 0.13211305649348251 0 0.32260309590447922 0.1123122165003074 0 0.33019904407723683 0.1184739086744384 0 0.33404375717876961 0.1080476884353169 0 0.33404375717876961 0.1080476884353169 0 0.343988490580944 0.1176741160108202 0 0.33019904407723683 0.1184739086744384 0 0.33404375717876961 0.1080476884353169 0 0.343988490580944 0.1176741160108202 0 0.343988490580944 0.1176741160108202 0 0.33442235067943221 0.13211305649348251 0 0.33019904407723683 0.1184739086744384 0 0.343988490580944 0.1176741160108202 0 0.33442235067943221 0.13211305649348251 0 0.33404375717876961 0.1080476884353169 0 0.34171554996877818 0.096966806733087524 0 0.35392152912869879 0.10268138604034791 0 0.33044620589452839 0.087817198709655944 0 0.32806927392538099 0.098855845298032555 0 0.34171554996877818 0.096966806733087524 0 0.32806927392538099 0.098855845298032555 0 0.33404375717876961 0.1080476884353169 0 0.34171554996877818 0.096966806733087524 0 0.32806927392538099 0.098855845298032555 0 0.32260309590447922 0.1123122165003074 0 0.33404375717876961 0.1080476884353169 0 0.35392152912869879 0.10268138604034791 0 0.35491381869304151 0.1011836439930483 0 0.34881532063442522 0.082201530692034883 0 0.34171554996877818 0.096966806733087524 0 0.35392152912869879 0.10268138604034791 0 0.34881532063442522 0.082201530692034883 0 0.35392152912869879 0.10268138604034791 0 0.35546062987876292 0.1088543734464716 0 0.35491381869304151 0.1011836439930483 0 0.35392152912869879 0.10268138604034791 0 0.35491381869304151 0.1011836439930483 0 0.35392152912869879 0.10268138604034791 0 0.35546062987876292 0.1088543734464716 0 0.33404375717876961 0.1080476884353169 0 0.35392152912869879 0.10268138604034791 0 0.343988490580944 0.1176741160108202 0 0.35546062987876292 0.1088543734464716 0 0.35491381869304151 0.1011836439930483 0 0.36234477620530581 0.12431315491142481 0 0.35491381869304151 0.1011836439930483 0 0.36234477620530581 0.12431315491142481 0 0.343988490580944 0.1176741160108202 0 0.3557614600719885 0.1290702624504714 0 0.35392152912869879 0.10268138604034791 0 0.343988490580944 0.1176741160108202 0 0.35392152912869879 0.10268138604034791 0 0.35546062987876292 0.1088543734464716 0 0.343988490580944 0.1176741160108202 0 0.35546062987876292 0.1088543734464716 0 0.343988490580944 0.1176741160108202 0 0.35889290538618501 0.1204186727105461 0 0.343988490580944 0.1176741160108202 0 0.35889290538618501 0.1204186727105461 0 0.3557614600719885 0.1290702624504714 0 0.35546062987876292 0.1088543734464716 0 0.35889290538618501 0.1204186727105461 0 0.36234477620530581 0.12431315491142481 0 0.35889290538618501 0.1204186727105461 0 0.36234477620530581 0.12431315491142481 0 0.3557614600719885 0.1290702624504714 0 0.35491381869304151 0.1011836439930483 0 0.36234477620530581 0.12431315491142481 0 0.37533236417423199 0.11575217945856781 0 0.35889290538618501 0.1204186727105461 0 0.36234477620530581 0.12431315491142481 0 0.35491381869304151 0.1011836439930483 0 0.36864505415383159 0.080457991471440893 0 0.37989514383216261 0.1008811074142211 0 0.35491381869304151 0.1011836439930483 0 0.37989514383216261 0.1008811074142211 0 0.37533236417423199 0.11575217945856781 0 0.35491381869304151 0.1011836439930483 0 0.36864505415383159 0.080457991471440893 0 0.36864505415383159 0.080457991471440893 0 0.37194242117794668 0.076772614526931793 0 0.37989514383216261 0.1008811074142211 0 0.35491381869304151 0.1011836439930483 0 0.36864505415383159 0.080457991471440893 0 0.34881532063442522 0.082201530692034883 0 0.35491381869304151 0.1011836439930483 0 0.34881532063442522 0.082201530692034883 0 0.35392152912869879 0.10268138604034791 0 0.34881532063442522 0.082201530692034883 0 0.34881532063442522 0.082201530692034883 0 0.34230685448842202 0.061943355546023537 0 0.34881532063442522 0.082201530692034883 0 0.34385440331789768 0.06230440562327498 0 0.34881532063442522 0.082201530692034883 0 0.36113142589940772 0.067155945135465897 0 0.34385440331789768 0.06230440562327498 0 0.34881532063442522 0.082201530692034883 0 0.34385440331789768 0.06230440562327498 0 0.34230685448842202 0.061943355546023537 0 0.36864505415383159 0.080457991471440893 0 0.36113142589940772 0.067155945135465897 0 0.38237628961462611 0.059732338949836518 0 0.36864505415383159 0.080457991471440893 0 0.34881532063442522 0.082201530692034883 0 0.36113142589940772 0.067155945135465897 0 0.36864505415383159 0.080457991471440893 0 0.37194242117794668 0.076772614526931793 0 0.38237628961462611 0.059732338949836518 0 0.36113142589940772 0.067155945135465897 0 0.36196606177625779 0.051083458940742198 0 0.38237628961462611 0.059732338949836518 0 0.36196606177625779 0.051083458940742198 0 0.37923500638336632 0.043068186250585699 0 0.38237628961462611 0.059732338949836518 0 0.36196606177625779 0.051083458940742198 0 0.36321924137845568 0.02934286747329215 0 0.37923500638336632 0.043068186250585699 0 0.36196606177625779 0.051083458940742198 0 0.36321924137845568 0.02934286747329215 0 0.33889348600137009 0.042407280554515127 0 0.36321924137845568 0.02934286747329215 0 0.33393256868484111 0.02251015548575569 0 0.33889348600137009 0.042407280554515127 0 0.36113142589940772 0.067155945135465897 0 0.36196606177625779 0.051083458940742198 0 0.34385440331789768 0.06230440562327498 0 0.36196606177625779 0.051083458940742198 0 0.34385440331789768 0.06230440562327498 0 0.33889348600137009 0.042407280554515127 0 0.37357914744350779 0.002440479778912224 0 0.37424442014871812 0.021820824704299101 0 0.35598292622536432 0.0074660699477739154 0 0.37424442014871812 0.021820824704299101 0 0.35598292622536432 0.0074660699477739154 0 0.36321924137845568 0.02934286747329215 0 0.37424442014871812 0.021820824704299101 0 0.35598292622536432 0.0074660699477739154 0 0.36321924137845568 0.02934286747329215 0 0.34509322139385162 0.01518667904233665 0 0.33393256868484111 0.02251015548575569 0 0.36321924137845568 0.02934286747329215 0 0.33393256868484111 0.02251015548575569 0 0.36321924137845568 0.02934286747329215 0 0.35598292622536432 0.0074660699477739154 0 0.34509322139385162 0.01518667904233665 0 0.35598292622536432 0.0074660699477739154 0 0.33772143230201052 -0.0068886848087512803 0 0.35598292622536432 0.0074660699477739154 0 0.33877017139388149 0.0064718171092321003 0 0.33772143230201052 -0.0068886848087512803 0 0.35598292622536432 0.0074660699477739154 0 0.34509322139385162 0.01518667904233665 0 0.33877017139388149 0.0064718171092321003 0 0.33877017139388149 0.0064718171092321003 0 0.32325249182581611 0.0026349705202008129 0 0.33772143230201052 -0.0068886848087512803 0 0.33877017139388149 0.0064718171092321003 0 0.33180078522236511 0.01396005084460041 0 0.32325249182581611 0.0026349705202008129 0 0.34509322139385162 0.01518667904233665 0 0.33877017139388149 0.0064718171092321003 0 0.33180078522236511 0.01396005084460041 0 0.3292899221964134 0.021427005254001569 0 0.33393256868484111 0.02251015548575569 0 0.33579838834241882 0.04168518040001222 0 0.33180078522236511 0.01396005084460041 0 0.3292899221964134 0.021427005254001569 0 0.33393256868484111 0.02251015548575569 0 0.33180078522236511 0.01396005084460041 0 0.33393256868484111 0.02251015548575569 0 0.3292899221964134 0.021427005254001569 0 0.33393256868484111 0.02251015548575569 0 0.34509322139385162 0.01518667904233665 0 0.33180078522236511 0.01396005084460041 0 0.33393256868484111 0.02251015548575569 0 0.3292899221964134 0.021427005254001569 0 0.31293781791285569 0.017611986042758699 0 0.31923969929816981 0.035830495662194838 0 0.3292899221964134 0.021427005254001569 0 0.31293781791285569 0.017611986042758699 0 0.33180078522236511 0.01396005084460041 0 0.3292899221964134 0.021427005254001569 0 0.32325249182581611 0.0026349705202008129 0 0.3292899221964134 0.021427005254001569 0 0.31293781791285569 0.017611986042758699 0 0.32325249182581611 0.0026349705202008129 0 0.3292899221964134 0.021427005254001569 0 0.32325249182581611 0.0026349705202008129 0 0.31293781791285569 0.017611986042758699 0 0.32325249182581611 0.0026349705202008129 0 0.30690038754225768 -0.0011800486910433781 0 0.34230685448842202 0.061943355546023537 0 0.33579838834241882 0.04168518040001222 0 0.33889348600137009 0.042407280554515127 0 0.34385440331789768 0.06230440562327498 0 0.34230685448842202 0.061943355546023537 0 0.33889348600137009 0.042407280554515127 0 0.32566991147381341 0.070879840112157963 0 0.34230685448842202 0.061943355546023537 0 0.33579838834241882 0.04168518040001222 0 0.34230685448842202 0.061943355546023537 0 0.33579838834241882 0.04168518040001222 0 0.34385440331789768 0.06230440562327498 0 0.33889348600137009 0.042407280554515127 0 0.3292899221964134 0.021427005254001569 0 0.33579838834241882 0.04168518040001222 0 0.33393256868484111 0.02251015548575569 0 0.33889348600137009 0.042407280554515127 0 0.33393256868484111 0.02251015548575569 0 0.33579838834241882 0.04168518040001222 0 0.33889348600137009 0.042407280554515127 0 0.33579838834241882 0.04168518040001222 0 0.31923969929816981 0.035830495662194838 0 0.31072716300308328 0.059331554637136651 0 0.3292899221964134 0.021427005254001569 0 0.33579838834241882 0.04168518040001222 0 0.31923969929816981 0.035830495662194838 0 0.32566991147381341 0.070879840112157963 0 0.33579838834241882 0.04168518040001222 0 0.31072716300308328 0.059331554637136651 0 0.31072716300308328 0.059331554637136651 0 0.30691000426459791 0.042169890293137127 0 0.29424159478151202 0.042911142587019738 0 0.31923969929816981 0.035830495662194838 0 0.30691000426459791 0.042169890293137127 0 0.30060566889494089 0.02714657897289334 0 0.30691000426459791 0.042169890293137127 0 0.29424159478151202 0.042911142587019738 0 0.30060566889494089 0.02714657897289334 0 0.31923969929816981 0.035830495662194838 0 0.31072716300308328 0.059331554637136651 0 0.30691000426459791 0.042169890293137127 0 0.29424159478151202 0.042911142587019738 0 0.30060566889494089 0.02714657897289334 0 0.28762295502011598 0.027200489278051441 0 0.29424159478151202 0.042911142587019738 0 0.28762295502011598 0.027200489278051441 0 0.27805620151387522 0.042617420402232667 0 0.31072716300308328 0.059331554637136651 0 0.29424159478151202 0.042911142587019738 0 0.28127895804124392 0.05869653450612005 0 0.29424159478151202 0.042911142587019738 0 0.28127895804124392 0.05869653450612005 0 0.27805620151387522 0.042617420402232667 0 0.31293781791285569 0.017611986042758699 0 0.29658571362929892 0.01379696683151194 0 0.30690038754225768 -0.0011800486910433781 0 0.29658571362929892 0.01379696683151194 0 0.30050921735997521 -0.004605356182754896 0 0.30690038754225768 -0.0011800486910433781 0 0.29658571362929892 0.01379696683151194 0 0.30690038754225768 -0.0011800486910433781 0 0.31293781791285569 0.017611986042758699 0 0.30060566889494089 0.02714657897289334 0 0.29658571362929892 0.01379696683151194 0 0.31293781791285569 0.017611986042758699 0 0.31923969929816981 0.035830495662194838 0 0.30060566889494089 0.02714657897289334 0 0.31293781791285569 0.017611986042758699 0 0.29658571362929892 0.01379696683151194 0 0.30060566889494089 0.02714657897289334 0 0.29500274332330728 0.016095456443948788 0 0.29658571362929892 0.01379696683151194 0 0.30060566889494089 0.02714657897289334 0 0.28762295502011598 0.027200489278051441 0 0.29289454178864649 0.022456661223579269 0 0.28762295502011598 0.027200489278051441 0 0.28116395689077539 0.015207467567734259 0 0.27775173961206168 0.02941095978416057 0 0.28762295502011598 0.027200489278051441 0 0.28836526088227099 0.018465508051837269 0 0.28116395689077539 0.015207467567734259 0 0.28762295502011598 0.027200489278051441 0 0.28116395689077539 0.015207467567734259 0 0.30060566889494089 0.02714657897289334 0 0.29289454178864649 0.022456661223579269 0 0.29500274332330728 0.016095456443948788 0 0.28836526088227099 0.018465508051837269 0 0.29289454178864649 0.022456661223579269 0 0.29500274332330728 0.016095456443948788 0 0.28762295502011598 0.027200489278051441 0 0.28836526088227099 0.018465508051837269 0 0.29289454178864649 0.022456661223579269 0 0.28514691493175248 0.01112824383243886 0 0.30050921735997521 -0.004605356182754896 0 0.29658571362929892 0.01379696683151194 0 0.28514691493175248 0.01112824383243886 0 0.30050921735997521 -0.004605356182754896 0 0.28514691493175248 0.01112824383243886 0 0.27791710391185381 -0.0010379811687957271 0 0.28512431700806451 -0.0086992195202469716 0 0.29658571362929892 0.01379696683151194 0 0.28514691493175248 0.01112824383243886 0 0.28836526088227099 0.018465508051837269 0 0.29500274332330728 0.016095456443948788 0 0.28514691493175248 0.01112824383243886 0 0.29500274332330728 0.016095456443948788 0 0.29658571362929892 0.01379696683151194 0 0.28514691493175248 0.01112824383243886 0 0.29500274332330728 0.016095456443948788 0 0.29658571362929892 0.01379696683151194 0 0.28836526088227099 0.018465508051837269 0 0.28514691493175248 0.01112824383243886 0 0.28116395689077539 0.015207467567734259 0 0.28514691493175248 0.01112824383243886 0 0.27807895442698177 0.0094792569716416024 0 0.28116395689077539 0.015207467567734259 0 0.28514691493175248 0.01112824383243886 0 0.28116395689077539 0.015207467567734259 0 0.28514691493175248 0.01112824383243886 0 0.27807895442698177 0.0094792569716416024 0 0.27127393371108272 0.0054169343353159512 0 0.27807895442698177 0.0094792569716416024 0 0.2692248172919926 -0.0069610417805164738 0 0.27807895442698177 0.0094792569716416024 0 0.2692248172919926 -0.0069610417805164738 0 0.27807895442698177 0.0094792569716416024 0 0.2692248172919926 -0.0069610417805164738 0 0.27791710391185381 -0.0010379811687957271 0 0.26701986470523431 0.0028523954276382379 0 0.27127393371108272 0.0054169343353159512 0 0.2692248172919926 -0.0069610417805164738 0 0.26701986470523431 0.0028523954276382379 0 0.27127393371108272 0.0054169343353159512 0 0.26928034954363472 0.01099432455637152 0 0.28514691493175248 0.01112824383243886 0 0.27807895442698177 0.0094792569716416024 0 0.27791710391185381 -0.0010379811687957271 0 0.27807895442698177 0.0094792569716416024 0 0.27458783582826463 0.012565755321843329 0 0.27310560452179761 0.0095674853239665035 0 0.27127393371108272 0.0054169343353159512 0 0.27807895442698177 0.0094792569716416024 0 0.27310560452179761 0.0095674853239665035 0 0.27807895442698177 0.0094792569716416024 0 0.28116395689077539 0.015207467567734259 0 0.27807895442698177 0.0094792569716416024 0 0.28116395689077539 0.015207467567734259 0 0.27458783582826463 0.012565755321843329 0 0.27458783582826463 0.012565755321843329 0 0.26928034954363472 0.01099432455637152 0 0.26815911709364498 0.019514489362225031 0 0.27458783582826463 0.012565755321843329 0 0.27310560452179761 0.0095674853239665035 0 0.26928034954363472 0.01099432455637152 0 0.27127393371108272 0.0054169343353159512 0 0.27310560452179761 0.0095674853239665035 0 0.26928034954363472 0.01099432455637152 0 0.28116395689077539 0.015207467567734259 0 0.26416384502347939 0.032618461888623121 0 0.28116395689077539 0.015207467567734259 0 0.26815911709364498 0.019514489362225031 0 0.26416384502347939 0.032618461888623121 0 0.28116395689077539 0.015207467567734259 0 0.27775173961206168 0.02941095978416057 0 0.26416384502347939 0.032618461888623121 0 0.28116395689077539 0.015207467567734259 0 0.27458783582826463 0.012565755321843329 0 0.26815911709364498 0.019514489362225031 0 0.2489069739425 0.021637400389674748 0 0.25228035847618863 0.02688679106582054 0 0.25585841565974538 0.042233258010133973 0 0.26815911709364498 0.019514489362225031 0 0.25311855338379191 0.024668664965947041 0 0.26416384502347939 0.032618461888623121 0 0.25311855338379191 0.024668664965947041 0 0.26416384502347939 0.032618461888623121 0 0.25228035847618863 0.02688679106582054 0 0.25311855338379191 0.024668664965947041 0 0.26416384502347939 0.032618461888623121 0 0.2489069739425 0.021637400389674748 0 0.25228035847618863 0.02688679106582054 0 0.25311855338379191 0.024668664965947041 0 0.25228035847618863 0.02688679106582054 0 0.25311855338379191 0.024668664965947041 0 0.2489069739425 0.021637400389674748 0 0.25311855338379191 0.024668664965947041 0 0.25900523844679291 0.0090906536209348996 0 0.25311855338379191 0.024668664965947041 0 0.25900523844679291 0.0090906536209348996 0 0.2489069739425 0.021637400389674748 0 0.25311855338379191 0.024668664965947041 0 0.26815911709364498 0.019514489362225031 0 0.25311855338379191 0.024668664965947041 0 0.25900523844679291 0.0090906536209348996 0 0.26928034954363472 0.01099432455637152 0 0.26815911709364498 0.019514489362225031 0 0.25900523844679291 0.0090906536209348996 0 0.26701986470523431 0.0028523954276382379 0 0.26928034954363472 0.01099432455637152 0 0.25900523844679291 0.0090906536209348996 0 0.25900523844679291 0.0090906536209348996 0 0.26489192350979318 -0.0064873577240775106 0 0.26701986470523431 0.0028523954276382379 0 0.25900523844679291 0.0090906536209348996 0 0.26489192350979318 -0.0064873577240775106 0 0.28127895804124392 0.05869653450612005 0 0.26794279917258279 0.048584654113773551 0 0.27805620151387522 0.042617420402232667 0 0.28127895804124392 0.05869653450612005 0 0.26794279917258279 0.048584654113773551 0 0.26429652163301431 0.061701359010517647 0 0.26794279917258279 0.048584654113773551 0 0.27805620151387522 0.042617420402232667 0 0.26416384502347939 0.032618461888623121 0 0.28762295502011598 0.027200489278051441 0 0.27775173961206168 0.02941095978416057 0 0.27805620151387522 0.042617420402232667 0 0.27805620151387522 0.042617420402232667 0 0.26416384502347939 0.032618461888623121 0 0.27775173961206168 0.02941095978416057 0 0.27805620151387522 0.042617420402232667 0 0.26416384502347939 0.032618461888623121 0 0.26794279917258279 0.048584654113773551 0 0.2611959089814877 0.042898221548277563 0 0.26416384502347939 0.032618461888623121 0 0.2611959089814877 0.042898221548277563 0 0.25585841565974538 0.042233258010133973 0 0.25799090162224952 0.051667623778106117 0 0.2489069739425 0.021637400389674748 0 0.25585841565974538 0.042233258010133973 0 0.2611959089814877 0.042898221548277563 0 0.25868336492166327 0.038231401890038208 0 0.25585841565974538 0.042233258010133973 0 0.25228035847618863 0.02688679106582054 0 0.26416384502347939 0.032618461888623121 0 0.25868336492166327 0.038231401890038208 0 0.2611959089814877 0.042898221548277563 0 0.26416384502347939 0.032618461888623121 0 0.25868336492166327 0.038231401890038208 0 0.26416384502347939 0.032618461888623121 0 0.25868336492166327 0.038231401890038208 0 0.25228035847618863 0.02688679106582054 0 0.25868336492166327 0.038231401890038208 0 0.25585841565974538 0.042233258010133973 0 0.24915942417082321 0.043562136642382059 0 0.25585841565974538 0.042233258010133973 0 0.25194780840825542 0.047502886957762752 0 0.25585841565974538 0.042233258010133973 0 0.25194780840825542 0.047502886957762752 0 0.25799090162224952 0.051667623778106117 0 0.24612717135886061 0.053158967820149818 0 0.25194780840825542 0.047502886957762752 0 0.25799090162224952 0.051667623778106117 0 0.24612717135886061 0.053158967820149818 0 0.25799090162224952 0.051667623778106117 0 0.26429652163301431 0.061701359010517647 0 0.26794279917258279 0.048584654113773551 0 0.2611959089814877 0.042898221548277563 0 0.25799090162224952 0.051667623778106117 0 0.26794279917258279 0.048584654113773551 0 0.25799090162224952 0.051667623778106117 0 0.26429652163301431 0.061701359010517647 0 0.24612717135886061 0.053158967820149818 0 0.25923100858263742 0.079351551944828513 0 0.24612717135886061 0.053158967820149818 0 0.26429652163301431 0.061701359010517647 0 0.25923100858263742 0.079351551944828513 0 0.24537668551697431 0.097277083683747018 0 0.25923100858263742 0.079351551944828513 0 0.25922747002471352 0.097974378356717087 0 0.27555977218924488 0.077439952611008278 0 0.28759873658278978 0.090030408643589632 0 0.27101928807639453 0.09427347599549088 0 0.25923100858263742 0.079351551944828513 0 0.27555977218924488 0.077439952611008278 0 0.27101928807639453 0.09427347599549088 0 0.25923100858263742 0.079351551944828513 0 0.27101928807639453 0.09427347599549088 0 0.27233484580641432 0.1055441360695072 0 0.25923100858263742 0.079351551944828513 0 0.27233484580641432 0.1055441360695072 0 0.28127895804124392 0.05869653450612005 0 0.26429652163301431 0.061701359010517647 0 0.27555977218924488 0.077439952611008278 0 0.26429652163301431 0.061701359010517647 0 0.25923100858263742 0.079351551944828513 0 0.27555977218924488 0.077439952611008278 0 0.31072716300308328 0.059331554637136651 0 0.28127895804124392 0.05869653450612005 0 0.29303234378028109 0.075428628958087107 0 0.28127895804124392 0.05869653450612005 0 0.27555977218924488 0.077439952611008278 0 0.29303234378028109 0.075428628958087107 0 0.27555977218924488 0.077439952611008278 0 0.29303234378028109 0.075428628958087107 0 0.28759873658278978 0.090030408643589632 0 0.29303234378028109 0.075428628958087107 0 0.28759873658278978 0.090030408643589632 0 0.31153776068034922 0.089135316111794982 0 0.31072716300308328 0.059331554637136651 0 0.29303234378028109 0.075428628958087107 0 0.31153776068034922 0.089135316111794982 0 0.31072716300308328 0.059331554637136651 0 0.31153776068034922 0.089135316111794982 0 0.31234835835761571 0.11893907758645331 0 0.29168382321700531 0.1066062767909717 0 0.29960507646434792 0.12683409122409009 0 0.31234835835761571 0.11893907758645331 0 0.29168382321700531 0.1066062767909717 0 0.31153776068034922 0.089135316111794982 0 0.31234835835761571 0.11893907758645331 0 0.28759873658278978 0.090030408643589632 0 0.31153776068034922 0.089135316111794982 0 0.29168382321700531 0.1066062767909717 0 0.31153776068034922 0.089135316111794982 0 0.31234835835761571 0.11893907758645331 0 0.29168382321700531 0.1066062767909717 0 0.29168382321700531 0.1066062767909717 0 0.27101928807639453 0.09427347599549088 0 0.28759873658278978 0.090030408643589632 0 0.29168382321700531 0.1066062767909717 0 0.27101928807639453 0.09427347599549088 0 0.28726560712948962 0.11768030606968879 0 0.27233484580641432 0.1055441360695072 0 0.28543868303019121 0.131736720194186 0 0.29168382321700531 0.1066062767909717 0 0.28726560712948962 0.11768030606968879 0 0.29960507646434792 0.12683409122409009 0 0.29168382321700531 0.1066062767909717 0 0.28726560712948962 0.11768030606968879 0 0.27233484580641432 0.1055441360695072 0 0.2688255279836298 0.12262400996184721 0 0.27233484580641432 0.1055441360695072 0 0.28543868303019121 0.131736720194186 0 0.2688255279836298 0.12262400996184721 0 0.27233484580641432 0.1055441360695072 0 0.25996734019282808 0.1097247417287856 0 0.27233484580641432 0.1055441360695072 0 0.28543868303019121 0.131736720194186 0 0.29168382321700531 0.1066062767909717 0 0.27101928807639453 0.09427347599549088 0 0.27233484580641432 0.1055441360695072 0 0.25923100858263742 0.079351551944828513 0 0.27233484580641432 0.1055441360695072 0 0.25922747002471352 0.097974378356717087 0 0.27233484580641432 0.1055441360695072 0 0.25922747002471352 0.097974378356717087 0 0.25996734019282808 0.1097247417287856 0 0.24537668551697431 0.097277083683747018 0 0.25922747002471352 0.097974378356717087 0 0.25996734019282808 0.1097247417287856 0 0.24537668551697431 0.097277083683747018 0 0.25996734019282808 0.1097247417287856 0 0.25370366287882878 0.1241816415692342 0 0.2688255279836298 0.12262400996184721 0 0.25996734019282808 0.1097247417287856 0 0.25370366287882878 0.1241816415692342 0 0.25370366287882878 0.1241816415692342 0 0.26203064024068312 0.15108619945472171 0 0.2688255279836298 0.12262400996184721 0 0.25370366287882878 0.1241816415692342 0 0.27163016425534958 0.13738497633274069 0 0.25370366287882878 0.1241816415692342 0 0.27163016425534958 0.13738497633274069 0 0.26203064024068312 0.15108619945472171 0 0.2688255279836298 0.12262400996184721 0 0.27163016425534958 0.13738497633274069 0 0.28543868303019121 0.131736720194186 0 0.27163016425534958 0.13738497633274069 0 0.28543868303019121 0.131736720194186 0 0.2826446853024604 0.14124270427211749 0 0.27163016425534958 0.13738497633274069 0 0.27808704382392468 0.15255782491348299 0 0.26203064024068312 0.15108619945472171 0 0.27808704382392468 0.15255782491348299 0 0.26203064024068312 0.15108619945472171 0 0.26470071343822532 0.15971323610680241 0 0.27808704382392468 0.15255782491348299 0 0.26203064024068312 0.15108619945472171 0 0.27163016425534958 0.13738497633274069 0 0.27808704382392468 0.15255782491348299 0 0.2826446853024604 0.14124270427211749 0 0.27808704382392468 0.15255782491348299 0 0.26470071343822532 0.15971323610680241 0 0.24802047718606329 0.14980211908606039 0 0.25370366287882878 0.1241816415692342 0 0.26203064024068312 0.15108619945472171 0 0.26203064024068312 0.15108619945472171 0 0.26470071343822532 0.15971323610680241 0 0.26203064024068312 0.15108619945472171 0 0.25841385897244001 0.15585338151222791 0 0.26470071343822532 0.15971323610680241 0 0.24802047718606329 0.14980211908606039 0 0.25841385897244001 0.15585338151222791 0 0.25890360502478721 0.16281197140132819 0 0.24802047718606329 0.14980211908606039 0 0.26203064024068312 0.15108619945472171 0 0.24802047718606329 0.14980211908606039 0 0.26203064024068312 0.15108619945472171 0 0.25841385897244001 0.15585338151222791 0 0.26470071343822532 0.15971323610680241 0 0.25890360502478721 0.16281197140132819 0 0.26962736994955661 0.17563131892736969 0 0.24394273923527451 0.1708090208874482 0 0.25890360502478721 0.16281197140132819 0 0.25069145747160237 0.17986975870422739 0 0.24394273923527451 0.1708090208874482 0 0.24802047718606329 0.14980211908606039 0 0.25890360502478721 0.16281197140132819 0 0.24802047718606329 0.14980211908606039 0 0.25890360502478721 0.16281197140132819 0 0.24394273923527451 0.1708090208874482 0 0.25890360502478721 0.16281197140132819 0 0.25890360502478721 0.16281197140132819 0 0.26962736994955661 0.17563131892736969 0 0.26470071343822532 0.15971323610680241 0 0.25890360502478721 0.16281197140132819 0 0.25841385897244001 0.15585338151222791 0 0.26470071343822532 0.15971323610680241 0 0.25890360502478721 0.16281197140132819 0 0.25890360502478721 0.16281197140132819 0 0.25069145747160237 0.17986975870422739 0 0.2622875918713119 0.17871532590777511 0 0.25890360502478721 0.16281197140132819 0 0.2622875918713119 0.17871532590777511 0 0.26962736994955661 0.17563131892736969 0 0.24443808169503289 0.19165573435540739 0 0.25069145747160237 0.17986975870422739 0 0.25672659357731442 0.18931439154619459 0 0.25069145747160237 0.17986975870422739 0 0.2622875918713119 0.17871532590777511 0 0.25672659357731442 0.18931439154619459 0 0.2622875918713119 0.17871532590777511 0 0.2666871346110174 0.18721551203983949 0 0.25672659357731442 0.18931439154619459 0 0.2666871346110174 0.18721551203983949 0 0.2707313294469027 0.17919822452935469 0 0.28262567674856709 0.19158292471432059 0 0.2707313294469027 0.17919822452935469 0 0.26962736994955661 0.17563131892736969 0 0.28262567674856709 0.19158292471432059 0 0.26962736994955661 0.17563131892736969 0 0.28262567674856709 0.19158292471432059 0 0.26962736994955661 0.17563131892736969 0 0.28063414626850292 0.17836588696170111 0 0.28262567674856709 0.19158292471432059 0 0.2622875918713119 0.17871532590777511 0 0.2666871346110174 0.18721551203983949 0 0.2707313294469027 0.17919822452935469 0 0.2622875918713119 0.17871532590777511 0 0.2707313294469027 0.17919822452935469 0 0.26962736994955661 0.17563131892736969 0 0.2707313294469027 0.17919822452935469 0 0.26962736994955661 0.17563131892736969 0 0.26962736994955661 0.17563131892736969 0 0.28063414626850292 0.17836588696170111 0 0.27791551735799302 0.17228039079135241 0 0.26470071343822532 0.15971323610680241 0 0.26962736994955661 0.17563131892736969 0 0.26470071343822532 0.15971323610680241 0 0.26962736994955661 0.17563131892736969 0 0.27525802885731437 0.16516718346708009 0 0.27808704382392468 0.15255782491348299 0 0.26470071343822532 0.15971323610680241 0 0.27525802885731437 0.16516718346708009 0 0.26962736994955661 0.17563131892736969 0 0.27791551735799302 0.17228039079135241 0 0.27525802885731437 0.16516718346708009 0 0.27791551735799302 0.17228039079135241 0 0.27525802885731437 0.16516718346708009 0 0.28614252435659893 0.16995717380925851 0 0.27808704382392468 0.15255782491348299 0 0.27525802885731437 0.16516718346708009 0 0.28831271101088052 0.16150411312056051 0 0.27525802885731437 0.16516718346708009 0 0.28831271101088052 0.16150411312056051 0 0.28614252435659893 0.16995717380925851 0 0.28831271101088052 0.16150411312056051 0 0.28614252435659893 0.16995717380925851 0 0.2949765541501792 0.16654736560739511 0 0.28614252435659893 0.16995717380925851 0 0.2949765541501792 0.16654736560739511 0 0.2966990425067918 0.17398076245598329 0 0.28831271101088052 0.16150411312056051 0 0.2949765541501792 0.16654736560739511 0 0.29843684607612081 0.16152557188150271 0 0.28831271101088052 0.16150411312056051 0 0.29843684607612081 0.16152557188150271 0 0.2957188317017474 0.15417383984422159 0 0.28063414626850292 0.17836588696170111 0 0.28878787233227138 0.1800597202735717 0 0.28262567674856709 0.19158292471432059 0 0.28063414626850292 0.17836588696170111 0 0.28614252435659893 0.16995717380925851 0 0.28878787233227138 0.1800597202735717 0 0.28063414626850292 0.17836588696170111 0 0.27791551735799302 0.17228039079135241 0 0.28614252435659893 0.16995717380925851 0 0.28614252435659893 0.16995717380925851 0 0.28878787233227138 0.1800597202735717 0 0.2966990425067918 0.17398076245598329 0 0.28878787233227138 0.1800597202735717 0 0.2966990425067918 0.17398076245598329 0 0.29802567422580972 0.18704947290502161 0 0.28878787233227138 0.1800597202735717 0 0.29802567422580972 0.18704947290502161 0 0.28262567674856709 0.19158292471432059 0 0.29802567422580972 0.18704947290502161 0 0.32181551132831843 0.18004621980614391 0 0.2966990425067918 0.17398076245598329 0 0.29802567422580972 0.18704947290502161 0 0.31104746434799968 0.1673946430062502 0 0.29802567422580972 0.18704947290502161 0 0.31104746434799968 0.1673946430062502 0 0.29802567422580972 0.18704947290502161 0 0.31104746434799968 0.1673946430062502 0 0.32181551132831843 0.18004621980614391 0 0.30601579003330748 0.16116038764967211 0 0.2957188317017474 0.15417383984422159 0 0.31335061957957011 0.15578985477495891 0 0.29843684607612081 0.16152557188150271 0 0.30601579003330748 0.16116038764967211 0 0.2957188317017474 0.15417383984422159 0 0.29843684607612081 0.16152557188150271 0 0.3040416986791476 0.16682267597464789 0 0.30601579003330748 0.16116038764967211 0 0.2949765541501792 0.16654736560739511 0 0.2966990425067918 0.17398076245598329 0 0.3040416986791476 0.16682267597464789 0 0.2966990425067918 0.17398076245598329 0 0.3040416986791476 0.16682267597464789 0 0.31104746434799968 0.1673946430062502 0 0.2949765541501792 0.16654736560739511 0 0.29843684607612081 0.16152557188150271 0 0.3040416986791476 0.16682267597464789 0 0.3040416986791476 0.16682267597464789 0 0.31104746434799968 0.1673946430062502 0 0.30601579003330748 0.16116038764967211 0 0.3040416986791476 0.16682267597464789 0 0.31104746434799968 0.1673946430062502 0 0.31104746434799968 0.1673946430062502 0 0.30601579003330748 0.16116038764967211 0 0.31349927981525749 0.1612557404164488 0 0.30601579003330748 0.16116038764967211 0 0.31335061957957011 0.15578985477495891 0 0.31349927981525749 0.1612557404164488 0 0.30483300733717872 0.1478702823059759 0 0.29542285010037611 0.14329129564805981 0 0.31275865637682793 0.1340247663826373 0 0.30483300733717872 0.1478702823059759 0 0.31275865637682793 0.1340247663826373 0 0.31335061957957011 0.15578985477495891 0 0.30483300733717872 0.1478702823059759 0 0.2957188317017474 0.15417383984422159 0 0.31335061957957011 0.15578985477495891 0 0.2957188317017474 0.15417383984422159 0 0.31335061957957011 0.15578985477495891 0 0.30483300733717872 0.1478702823059759 0 0.2957188317017474 0.15417383984422159 0 0.29542285010037611 0.14329129564805981 0 0.29960507646434792 0.12683409122409009 0 0.29542285010037611 0.14329129564805981 0 0.31275865637682793 0.1340247663826373 0 0.29542285010037611 0.14329129564805981 0 0.31275865637682793 0.1340247663826373 0 0.31234835835761571 0.11893907758645331 0 0.29960507646434792 0.12683409122409009 0 0.31275865637682793 0.1340247663826373 0 0.29960507646434792 0.12683409122409009 0 0.28543868303019121 0.131736720194186 0 0.29542285010037611 0.14329129564805981 0 0.28726560712948962 0.11768030606968879 0 0.29960507646434792 0.12683409122409009 0 0.28543868303019121 0.131736720194186 0 0.28543868303019121 0.131736720194186 0 0.2826446853024604 0.14124270427211749 0 0.29542285010037611 0.14329129564805981 0 0.27808704382392468 0.15255782491348299 0 0.2826446853024604 0.14124270427211749 0 0.29542285010037611 0.14329129564805981 0 0.27808704382392468 0.15255782491348299 0 0.2957188317017474 0.15417383984422159 0 0.29542285010037611 0.14329129564805981 0 0.27808704382392468 0.15255782491348299 0 0.2957188317017474 0.15417383984422159 0 0.27808704382392468 0.15255782491348299 0 0.29542285010037611 0.14329129564805981 0 0.27808704382392468 0.15255782491348299 0 0.28831271101088052 0.16150411312056051 0 0.2957188317017474 0.15417383984422159 0 0.27685630599777589 0.2478154210616699 0 0.27299157826480569 0.23766007785357521 0 0.26048617882559622 0.24371083740660091 0 0.26048617882559622 0.24371083740660091 0 0.27110411734464762 0.2276843331004246 0 0.27299157826480569 0.23766007785357521 0 0.26048617882559622 0.24371083740660091 0 0.27110411734464762 0.2276843331004246 0 0.27691591880596222 0.25729022711116639 0 0.27685630599777589 0.2478154210616699 0 0.26048617882559622 0.24371083740660091 0 0.27685630599777589 0.2478154210616699 0 0.27901295757983852 0.24225897862297641 0 0.27299157826480569 0.23766007785357521 0 0.27685630599777589 0.2478154210616699 0 0.27901295757983852 0.24225897862297641 0 0.28234947844706793 0.24570967974740021 0 0.27901295757983852 0.24225897862297641 0 0.27719652076970691 0.235876877536806 0 0.2822644445936543 0.2387958425564555 0 0.27719652076970691 0.235876877536806 0 0.28215825558210461 0.2340236887935741 0 0.2822644445936543 0.2387958425564555 0 0.27901295757983852 0.24225897862297641 0 0.27719652076970691 0.235876877536806 0 0.27299157826480569 0.23766007785357521 0 0.24791323415382371 0.2458877298954085 0 0.25153222320099622 0.25722575917013901 0 0.26048617882559622 0.24371083740660091 0 0.2477315277427897 0.2356386040277525 0 0.24791323415382371 0.2458877298954085 0 0.26048617882559622 0.24371083740660091 0 0.24965972363503919 0.22122943443424911 0 0.26048617882559622 0.24371083740660091 0 0.27110411734464762 0.2276843331004246 0 0.2447696612887639 0.21650126134236319 0 0.24965972363503919 0.22122943443424911 0 0.27110411734464762 0.2276843331004246 0 0.24965972363503919 0.22122943443424911 0 0.26048617882559622 0.24371083740660091 0 0.2447696612887639 0.21650126134236319 0 0.27110411734464762 0.2276843331004246 0 0.2447696612887639 0.21650126134236319 0 0.27110411734464762 0.2276843331004246 0 0.2677963164460333 0.2150467959949465 0 0.24965972363503919 0.22122943443424911 0 0.2477315277427897 0.2356386040277525 0 0.26048617882559622 0.24371083740660091 0 0.27110411734464762 0.2276843331004246 0 0.28456489578522731 0.2073669030027222 0 0.2860351544522664 0.22291189892421159 0 0.27299157826480569 0.23766007785357521 0 0.27110411734464762 0.2276843331004246 0 0.27329338907126849 0.2286140193929726 0 0.27110411734464762 0.2276843331004246 0 0.27329338907126849 0.2286140193929726 0 0.27329338907126849 0.2286140193929726 0 0.27769713930278977 0.2310580429220736 0 0.28096010293809309 0.2280773344569369 0 0.27719652076970691 0.235876877536806 0 0.27299157826480569 0.23766007785357521 0 0.27329338907126849 0.2286140193929726 0 0.27110411734464762 0.2276843331004246 0 0.27329338907126849 0.2286140193929726 0 0.28096010293809309 0.2280773344569369 0 0.27719652076970691 0.235876877536806 0 0.27329338907126849 0.2286140193929726 0 0.27769713930278977 0.2310580429220736 0 0.27719652076970691 0.235876877536806 0 0.27769713930278977 0.2310580429220736 0 0.28215825558210461 0.2340236887935741 0 0.27769713930278977 0.2310580429220736 0 0.28096010293809309 0.2280773344569369 0 0.28215825558210461 0.2340236887935741 0 0.27110411734464762 0.2276843331004246 0 0.28096010293809309 0.2280773344569369 0 0.2860351544522664 0.22291189892421159 0 0.27110411734464762 0.2276843331004246 0 0.2677963164460333 0.2150467959949465 0 0.28456489578522731 0.2073669030027222 0 0.27110411734464762 0.2276843331004246 0 0.28456489578522731 0.2073669030027222 0 0.272670307474219 0.206747045740371 0 0.2677963164460333 0.2150467959949465 0 0.28456489578522731 0.2073669030027222 0 0.272670307474219 0.206747045740371 0 0.2677963164460333 0.2150467959949465 0 0.26045320274891359 0.2075872277184421 0 0.2447696612887639 0.21650126134236319 0 0.2677963164460333 0.2150467959949465 0 0.26045320274891359 0.2075872277184421 0 0.2445919001722652 0.2027793092260104 0 0.26045320274891359 0.2075872277184421 0 0.27130878719903789 0.19491439106551739 0 0.2445919001722652 0.2027793092260104 0 0.27130878719903789 0.19491439106551739 0 0.2445919001722652 0.2027793092260104 0 0.25672659357731442 0.18931439154619459 0 0.27130878719903789 0.19491439106551739 0 0.2666871346110174 0.18721551203983949 0 0.25672659357731442 0.18931439154619459 0 0.27130878719903789 0.19491439106551739 0 0.2666871346110174 0.18721551203983949 0 0.27130878719903789 0.19491439106551739 0 0.28262567674856709 0.19158292471432059 0 0.27130878719903789 0.19491439106551739 0 0.28262567674856709 0.19158292471432059 0 0.28456489578522731 0.2073669030027222 0 0.272670307474219 0.206747045740371 0 0.26045320274891359 0.2075872277184421 0 0.27130878719903789 0.19491439106551739 0 0.272670307474219 0.206747045740371 0 0.27130878719903789 0.19491439106551739 0 0.28456489578522731 0.2073669030027222 0 0.27130878719903789 0.19491439106551739 0 0.28262567674856709 0.19158292471432059 0 0.29802567422580972 0.18704947290502161 0 0.30459187314032082 0.20471057237354329 0 0.28456489578522731 0.2073669030027222 0 0.29802567422580972 0.18704947290502161 0 0.28456489578522731 0.2073669030027222 0 0.29802567422580972 0.18704947290502161 0 0.28262567674856709 0.19158292471432059 0 0.28456489578522731 0.2073669030027222 0 0.29802567422580972 0.18704947290502161 0 0.28262567674856709 0.19158292471432059 0 0.29802567422580972 0.18704947290502161 0 0.30459187314032082 0.20471057237354329 0 0.31598770299826118 0.19548598602398221 0 0.29802567422580972 0.18704947290502161 0 0.31598770299826118 0.19548598602398221 0 0.32181551132831843 0.18004621980614391 0 0.30459187314032082 0.20471057237354329 0 0.3112657248503683 0.22109255247881221 0 0.32160390274705047 0.2085142031879387 0 0.30459187314032082 0.20471057237354329 0 0.29694173849475131 0.21805006650638351 0 0.3112657248503683 0.22109255247881221 0 0.30459187314032082 0.20471057237354329 0 0.29694173849475131 0.21805006650638351 0 0.28456489578522731 0.2073669030027222 0 0.29694173849475131 0.21805006650638351 0 0.28456489578522731 0.2073669030027222 0 0.2860351544522664 0.22291189892421159 0 0.28096010293809309 0.2280773344569369 0 0.2860351544522664 0.22291189892421159 0 0.28751134043047888 0.23164143954930111 0 0.2860351544522664 0.22291189892421159 0 0.28751134043047888 0.23164143954930111 0 0.29310118177853489 0.2272447710257052 0 0.28096010293809309 0.2280773344569369 0 0.28215825558210461 0.2340236887935741 0 0.28751134043047888 0.23164143954930111 0 0.28215825558210461 0.2340236887935741 0 0.28751134043047888 0.23164143954930111 0 0.28579805486088677 0.2374330691078928 0 0.29310118177853489 0.2272447710257052 0 0.30108985200492661 0.22865112575325311 0 0.2939278235102516 0.23496932439537649 0 0.28751134043047888 0.23164143954930111 0 0.29310118177853489 0.2272447710257052 0 0.2939278235102516 0.23496932439537649 0 0.29694173849475131 0.21805006650638351 0 0.2860351544522664 0.22291189892421159 0 0.29310118177853489 0.2272447710257052 0 0.29694173849475131 0.21805006650638351 0 0.3112657248503683 0.22109255247881221 0 0.30108985200492661 0.22865112575325311 0 0.29694173849475131 0.21805006650638351 0 0.29310118177853489 0.2272447710257052 0 0.30108985200492661 0.22865112575325311 0 0.3112657248503683 0.22109255247881221 0 0.30108985200492661 0.22865112575325311 0 0.30814982578715833 0.23504095730125821 0 0.30108985200492661 0.22865112575325311 0 0.30079101833485439 0.23667575875814051 0 0.30814982578715833 0.23504095730125821 0 0.30108985200492661 0.22865112575325311 0 0.30079101833485439 0.23667575875814051 0 0.2939278235102516 0.23496932439537649 0 0.31246354634074469 0.25301562706991498 0 0.28965918427723281 0.24218391352450211 0 0.30079101833485439 0.23667575875814051 0 0.29637482176907359 0.2407438087058773 0 0.2939278235102516 0.23496932439537649 0 0.31246354634074469 0.25301562706991498 0 0.30301881801219099 0.2434786808704178 0 0.28965918427723281 0.24218391352450211 0 0.30079101833485439 0.23667575875814051 0 0.30814982578715833 0.23504095730125821 0 0.30301881801219099 0.2434786808704178 0 0.30079101833485439 0.23667575875814051 0 0.30301881801219099 0.2434786808704178 0 0.29637482176907359 0.2407438087058773 0 0.30814982578715833 0.23504095730125821 0 0.30301881801219099 0.2434786808704178 0 0.31261059057147461 0.2434248305083811 0 0.31246354634074469 0.25301562706991498 0 0.30301881801219099 0.2434786808704178 0 0.31261059057147461 0.2434248305083811 0 0.29345893722613059 0.25129825022350127 0 0.29035996411889098 0.24599513786664159 0 0.28965918427723281 0.24218391352450211 0 0.29345893722613059 0.25129825022350127 0 0.29035996411889098 0.24599513786664159 0 0.28892582916583598 0.2492018439528669 0 0.29035996411889098 0.24599513786664159 0 0.28965918427723281 0.24218391352450211 0 0.28783672664197268 0.24359463822150959 0 0.30301881801219099 0.2434786808704178 0 0.29637482176907359 0.2407438087058773 0 0.28965918427723281 0.24218391352450211 0 0.29637482176907359 0.2407438087058773 0 0.2939278235102516 0.23496932439537649 0 0.29248016532158921 0.23880015382188749 0 0.2939278235102516 0.23496932439537649 0 0.28995883172979869 0.23730356866179431 0 0.29248016532158921 0.23880015382188749 0 0.28751134043047888 0.23164143954930111 0 0.2939278235102516 0.23496932439537649 0 0.28995883172979869 0.23730356866179431 0 0.29637482176907359 0.2407438087058773 0 0.29248016532158921 0.23880015382188749 0 0.28965918427723281 0.24218391352450211 0 0.28995883172979869 0.23730356866179431 0 0.29248016532158921 0.23880015382188749 0 0.28965918427723281 0.24218391352450211 0 0.28995883172979869 0.23730356866179431 0 0.28965918427723281 0.24218391352450211 0 0.28579805486088677 0.2374330691078928 0 0.28965918427723281 0.24218391352450211 0 0.28777867495787518 0.24129070115530599 0 0.28579805486088677 0.2374330691078928 0 0.28965918427723281 0.24218391352450211 0 0.28777867495787518 0.24129070115530599 0 0.28965918427723281 0.24218391352450211 0 0.28579805486088677 0.2374330691078928 0 0.28777867495787518 0.24129070115530599 0 0.28579805486088677 0.2374330691078928 0 0.28505636658832489 0.24015885991938871 0 0.28777867495787518 0.24129070115530599 0 0.28505636658832489 0.24015885991938871 0 0.28397084752209928 0.24268433257024799 0 0.28751134043047888 0.23164143954930111 0 0.28995883172979869 0.23730356866179431 0 0.28579805486088677 0.2374330691078928 0 0.28215825558210461 0.2340236887935741 0 0.28579805486088677 0.2374330691078928 0 0.2822644445936543 0.2387958425564555 0 0.27901295757983852 0.24225897862297641 0 0.2822644445936543 0.2387958425564555 0 0.28397084752209928 0.24268433257024799 0 0.28505636658832489 0.24015885991938871 0 0.2822644445936543 0.2387958425564555 0 0.28397084752209928 0.24268433257024799 0 0.28579805486088677 0.2374330691078928 0 0.28505636658832489 0.24015885991938871 0 0.2822644445936543 0.2387958425564555 0 0.27901295757983852 0.24225897862297641 0 0.28234947844706793 0.24570967974740021 0 0.28397084752209928 0.24268433257024799 0 0.27685630599777589 0.2478154210616699 0 0.28234947844706793 0.24570967974740021 0 0.28494106210013392 0.2498489505319901 0 0.28234947844706793 0.24570967974740021 0 0.28397084752209928 0.24268433257024799 0 0.2869662190354918 0.2459407159501166 0 0.28234947844706793 0.24570967974740021 0 0.28494106210013392 0.2498489505319901 0 0.2869662190354918 0.2459407159501166 0 0.28494106210013392 0.2498489505319901 0 0.28892582916583598 0.2492018439528669 0 0.2869662190354918 0.2459407159501166 0 0.29035996411889098 0.24599513786664159 0 0.28892582916583598 0.2492018439528669 0 0.2869662190354918 0.2459407159501166 0 0.29035996411889098 0.24599513786664159 0 0.28783672664197268 0.24359463822150959 0 0.2869662190354918 0.2459407159501166 0 0.28965918427723281 0.24218391352450211 0 0.28777867495787518 0.24129070115530599 0 0.28783672664197268 0.24359463822150959 0 0.28397084752209928 0.24268433257024799 0 0.28783672664197268 0.24359463822150959 0 0.2869662190354918 0.2459407159501166 0 0.28777867495787518 0.24129070115530599 0 0.28397084752209928 0.24268433257024799 0 0.28783672664197268 0.24359463822150959 0 0.3379127634661398 0.24049180221066491 0 0.32643540241908581 0.2493154440826276 0 0.31942597565379999 0.2366753470562844 0 0.31246354634074469 0.25301562706991498 0 0.32643540241908581 0.2493154440826276 0 0.31261059057147461 0.2434248305083811 0 0.32643540241908581 0.2493154440826276 0 0.31261059057147461 0.2434248305083811 0 0.31942597565379999 0.2366753470562844 0 0.30814982578715833 0.23504095730125821 0 0.31261059057147461 0.2434248305083811 0 0.31942597565379999 0.2366753470562844 0 0.3379127634661398 0.24049180221066491 0 0.31942597565379999 0.2366753470562844 0 0.32600368008419539 0.22461502934577851 0 0.3112657248503683 0.22109255247881221 0 0.30814982578715833 0.23504095730125821 0 0.31942597565379999 0.2366753470562844 0 0.3112657248503683 0.22109255247881221 0 0.31942597565379999 0.2366753470562844 0 0.32600368008419539 0.22461502934577851 0 0.3379127634661398 0.24049180221066491 0 0.32600368008419539 0.22461502934577851 0 0.3398100337036184 0.2163012417951922 0 0.3398100337036184 0.2163012417951922 0 0.32160390274705047 0.2085142031879387 0 0.33063695298837592 0.19682719513420929 0 0.32600368008419539 0.22461502934577851 0 0.3398100337036184 0.2163012417951922 0 0.32160390274705047 0.2085142031879387 0 0.3112657248503683 0.22109255247881221 0 0.32600368008419539 0.22461502934577851 0 0.32160390274705047 0.2085142031879387 0 0.30459187314032082 0.20471057237354329 0 0.32160390274705047 0.2085142031879387 0 0.31598770299826118 0.19548598602398221 0 0.32160390274705047 0.2085142031879387 0 0.31598770299826118 0.19548598602398221 0 0.33063695298837592 0.19682719513420929 0 0.31598770299826118 0.19548598602398221 0 0.33063695298837592 0.19682719513420929 0 0.32181551132831843 0.18004621980614391 0 0.3398100337036184 0.2163012417951922 0 0.33063695298837592 0.19682719513420929 0 0.34652165966209031 0.1951830619424908 0 0.33063695298837592 0.19682719513420929 0 0.34652165966209031 0.1951830619424908 0 0.33808290749091702 0.1854324580495085 0 0.34652165966209031 0.1951830619424908 0 0.33808290749091702 0.1854324580495085 0 0.34805963641287802 0.18313381139210541 0 0.34652165966209031 0.1951830619424908 0 0.35834447101042982 0.1885307986193322 0 0.34805963641287802 0.18313381139210541 0 0.34652165966209031 0.1951830619424908 0 0.35697604229412883 0.20282503597125329 0 0.35834447101042982 0.1885307986193322 0 0.35834447101042982 0.1885307986193322 0 0.36867711819290189 0.19558193609178909 0 0.37211726383392318 0.18243968588977941 0 0.36867711819290189 0.19558193609178909 0 0.37211726383392318 0.18243968588977941 0 0.37959621891343998 0.18888004806970329 0 0.35697604229412883 0.20282503597125329 0 0.35834447101042982 0.1885307986193322 0 0.36867711819290189 0.19558193609178909 0 0.35697604229412883 0.20282503597125329 0 0.36867711819290189 0.19558193609178909 0 0.36464593244806109 0.2145418940701225 0 0.36867711819290189 0.19558193609178909 0 0.36464593244806109 0.2145418940701225 0 0.38262777372413942 0.20056577775977211 0 0.3398100337036184 0.2163012417951922 0 0.35697604229412883 0.20282503597125329 0 0.36464593244806109 0.2145418940701225 0 0.3398100337036184 0.2163012417951922 0 0.34652165966209031 0.1951830619424908 0 0.35697604229412883 0.20282503597125329 0 0.3379127634661398 0.24049180221066491 0 0.3398100337036184 0.2163012417951922 0 0.35784805351199239 0.2326945607342826 0 0.3398100337036184 0.2163012417951922 0 0.36464593244806109 0.2145418940701225 0 0.35784805351199239 0.2326945607342826 0 0.3398100337036184 0.2163012417951922 0 0.35784805351199239 0.2326945607342826 0 0.36464593244806109 0.2145418940701225 0 0.35784805351199239 0.2326945607342826 0 0.37504625414522869 0.2303727958758012 0 0.35784805351199239 0.2326945607342826 0 0.37588607332036628 0.2490878796733729 0 0.35784805351199239 0.2326945607342826 0 0.37588607332036628 0.2490878796733729 0 0.37504625414522869 0.2303727958758012 0 0.35634129443021012 0.25447852924978431 0 0.35784805351199239 0.2326945607342826 0 0.37588607332036628 0.2490878796733729 0 0.35634129443021012 0.25447852924978431 0 0.3379127634661398 0.24049180221066491 0 0.35784805351199239 0.2326945607342826 0 0.33844782525489081 0.14552375979656301 0 0.33442235067943221 0.13211305649348251 0 0.31842762243075678 0.15625517981560311 0 0.33844782525489081 0.14552375979656301 0 0.31842762243075678 0.15625517981560311 0 0.3463391887874393 0.1588133723418115 0 0.343988490580944 0.1176741160108202 0 0.33926610740018709 0.13500385884312699 0 0.33442235067943221 0.13211305649348251 0 0.33844782525489081 0.14552375979656301 0 0.33926610740018709 0.13500385884312699 0 0.33442235067943221 0.13211305649348251 0 0.33926610740018709 0.13500385884312699 0 0.33442235067943221 0.13211305649348251 0 0.31234835835761571 0.11893907758645331 0 0.33442235067943221 0.13211305649348251 0 0.31795714297393313 0.13124601312364301 0 0.33442235067943221 0.13211305649348251 0 0.31795714297393313 0.13124601312364301 0 0.31842762243075678 0.15625517981560311 0 0.31795714297393313 0.13124601312364301 0 0.31275865637682793 0.1340247663826373 0 0.31842762243075678 0.15625517981560311 0 0.31234835835761571 0.11893907758645331 0 0.33442235067943221 0.13211305649348251 0 0.31234835835761571 0.11893907758645331 0 0.31795714297393313 0.13124601312364301 0 0.31275865637682793 0.1340247663826373 0 0.31234835835761571 0.11893907758645331 0 0.31275865637682793 0.1340247663826373 0 0.31795714297393313 0.13124601312364301 0 0.31275865637682793 0.1340247663826373 0 0.31275865637682793 0.1340247663826373 0 0.31335061957957011 0.15578985477495891 0 0.31275865637682793 0.1340247663826373 0 0.31335061957957011 0.15578985477495891 0 0.31842762243075678 0.15625517981560311 0 0.33442235067943221 0.13211305649348251 0 0.31842762243075678 0.15625517981560311 0 0.31335061957957011 0.15578985477495891 0 0.31842762243075678 0.15625517981560311 0 0.31104746434799968 0.1673946430062502 0 0.31842762243075678 0.15625517981560311 0 0.33486110727476232 0.16933884429702981 0 0.31104746434799968 0.1673946430062502 0 0.31842762243075678 0.15625517981560311 0 0.31349927981525749 0.1612557404164488 0 0.31335061957957011 0.15578985477495891 0 0.31349927981525749 0.1612557404164488 0 0.31104746434799968 0.1673946430062502 0 0.33486110727476232 0.16933884429702981 0 0.31104746434799968 0.1673946430062502 0 0.31842762243075678 0.15625517981560311 0 0.31335061957957011 0.15578985477495891 0 0.31842762243075678 0.15625517981560311 0 0.31349927981525749 0.1612557404164488 0 0.31104746434799968 0.1673946430062502 0 0.32181551132831843 0.18004621980614391 0 0.33486110727476232 0.16933884429702981 0 0.32181551132831843 0.18004621980614391 0 0.33808290749091702 0.1854324580495085 0 0.34560534843082608 0.17304296670726349 0 0.33063695298837592 0.19682719513420929 0 0.32181551132831843 0.18004621980614391 0 0.33808290749091702 0.1854324580495085 0 0.32181551132831843 0.18004621980614391 0 0.33486110727476232 0.16933884429702981 0 0.34560534843082608 0.17304296670726349 0 0.32181551132831843 0.18004621980614391 0 0.34560534843082608 0.17304296670726349 0 0.31842762243075678 0.15625517981560311 0 0.33486110727476232 0.16933884429702981 0 0.3463391887874393 0.1588133723418115 0 0.31842762243075678 0.15625517981560311 0 0.3463391887874393 0.1588133723418115 0 0.33486110727476232 0.16933884429702981 0 0.35867475020152417 0.1712830455878149 0 0.33486110727476232 0.16933884429702981 0 0.3463391887874393 0.1588133723418115 0 0.35867475020152417 0.1712830455878149 0 0.33486110727476232 0.16933884429702981 0 0.35867475020152417 0.1712830455878149 0 0.34560534843082608 0.17304296670726349 0 0.35834447101042982 0.1885307986193322 0 0.35867475020152417 0.1712830455878149 0 0.34805963641287802 0.18313381139210541 0 0.33808290749091702 0.1854324580495085 0 0.34805963641287802 0.18313381139210541 0 0.34560534843082608 0.17304296670726349 0 0.35867475020152417 0.1712830455878149 0 0.34805963641287802 0.18313381139210541 0 0.34560534843082608 0.17304296670726349 0 0.35834447101042982 0.1885307986193322 0 0.35867475020152417 0.1712830455878149 0 0.37211726383392318 0.18243968588977941 0 0.35867475020152417 0.1712830455878149 0 0.37211726383392318 0.18243968588977941 0 0.38248839312828642 0.17322724687860011 0 0.35867475020152417 0.1712830455878149 0 0.38248839312828642 0.17322724687860011 0 0.3463391887874393 0.1588133723418115 0 0.35867475020152417 0.1712830455878149 0 0.37425075514412182 0.1613715648680196 0 0.35867475020152417 0.1712830455878149 0 0.37425075514412182 0.1613715648680196 0 0.38248839312828642 0.17322724687860011 0 0.3463391887874393 0.1588133723418115 0 0.37425075514412182 0.1613715648680196 0 0.37425075514412182 0.1613715648680196 0 0.36753442956304122 0.14046640889011411 0 0.37911076050976511 0.15167221068913639 0 0.37425075514412182 0.1613715648680196 0 0.35378385697663972 0.14543333148879159 0 0.36753442956304122 0.14046640889011411 0 0.37425075514412182 0.1613715648680196 0 0.36753442956304122 0.14046640889011411 0 0.36753442956304122 0.14046640889011411 0 0.37911076050976511 0.15167221068913639 0 0.3463391887874393 0.1588133723418115 0 0.37425075514412182 0.1613715648680196 0 0.35378385697663972 0.14543333148879159 0 0.33844782525489081 0.14552375979656301 0 0.33926610740018709 0.13500385884312699 0 0.35378385697663972 0.14543333148879159 0 0.33844782525489081 0.14552375979656301 0 0.3463391887874393 0.1588133723418115 0 0.35378385697663972 0.14543333148879159 0 0.343988490580944 0.1176741160108202 0 0.33926610740018709 0.13500385884312699 0 0.3557614600719885 0.1290702624504714 0 0.35378385697663972 0.14543333148879159 0 0.3557614600719885 0.1290702624504714 0 0.36753442956304122 0.14046640889011411 0 0.33926610740018709 0.13500385884312699 0 0.35378385697663972 0.14543333148879159 0 0.3557614600719885 0.1290702624504714 0 0.36234477620530581 0.12431315491142481 0 0.38206466283770479 0.146561596848436 0 0.36234477620530581 0.12431315491142481 0 0.36753442956304122 0.14046640889011411 0 0.38206466283770479 0.146561596848436 0 0.36234477620530581 0.12431315491142481 0 0.3557614600719885 0.1290702624504714 0 0.36753442956304122 0.14046640889011411 0 0.36234477620530581 0.12431315491142481 0 0.36753442956304122 0.14046640889011411 0 0.3557614600719885 0.1290702624504714 0 0.36753442956304122 0.14046640889011411 0 0.36234477620530581 0.12431315491142481 0 0.38206466283770479 0.146561596848436 0 0.38784786648637848 0.12498960030151041 0 0.39580058914059452 0.1490980931887998 0 0.38206466283770479 0.146561596848436 0 0.38784786648637848 0.12498960030151041 0 0.39580058914059452 0.1490980931887998 0 0.38784786648637848 0.12498960030151041 0 0.39497711538788383 0.13620291539220281 0 0.38784786648637848 0.12498960030151041 0 0.40536034682354632 0.12481683740862159 0 0.39497711538788383 0.13620291539220281 0 0.40981053908925419 0.14123984962813549 0 0.40536034682354632 0.12481683740862159 0 0.39497711538788383 0.13620291539220281 0 0.39580058914059452 0.1490980931887998 0 0.38784786648637848 0.12498960030151041 0 0.39497711538788383 0.13620291539220281 0 0.40981053908925419 0.14123984962813549 0 0.39580058914059452 0.1490980931887998 0 0.38206466283770479 0.146561596848436 0 0.39687031602956763 0.16326568453002829 0 0.39580058914059452 0.1490980931887998 0 0.40981053908925419 0.14123984962813549 0 0.41018078742555969 0.15504633733473569 0 0.39497711538788383 0.13620291539220281 0 0.39580058914059452 0.1490980931887998 0 0.40981053908925419 0.14123984962813549 0 0.38206466283770479 0.146561596848436 0 0.37911076050976511 0.15167221068913639 0 0.39068709145648911 0.16287801248815861 0 0.38206466283770479 0.146561596848436 0 0.39687031602956763 0.16326568453002829 0 0.36753442956304122 0.14046640889011411 0 0.38206466283770479 0.146561596848436 0 0.37911076050976511 0.15167221068913639 0 0.37425075514412182 0.1613715648680196 0 0.37911076050976511 0.15167221068913639 0 0.39068709145648911 0.16287801248815861 0 0.38206466283770479 0.146561596848436 0 0.39687031602956763 0.16326568453002829 0 0.39068709145648911 0.16287801248815861 0 0.37425075514412182 0.1613715648680196 0 0.39068709145648911 0.16287801248815861 0 0.37425075514412182 0.1613715648680196 0 0.38248839312828642 0.17322724687860011 0 0.39068709145648911 0.16287801248815861 0 0.38248839312828642 0.17322724687860011 0 0.39068709145648911 0.16287801248815861 0 0.39173266295372422 0.1703821586821625 0 0.37911076050976511 0.15167221068913639 0 0.39068709145648911 0.16287801248815861 0 0.37211726383392318 0.18243968588977941 0 0.38456142671463689 0.18119341109058101 0 0.37959621891343998 0.18888004806970329 0 0.37211726383392318 0.18243968588977941 0 0.38248839312828642 0.17322724687860011 0 0.38456142671463689 0.18119341109058101 0 0.38248839312828642 0.17322724687860011 0 0.39015071041641458 0.1752968202883449 0 0.38456142671463689 0.18119341109058101 0 0.39015071041641458 0.1752968202883449 0 0.38456142671463689 0.18119341109058101 0 0.3936647719149563 0.17997510126181099 0 0.38248839312828642 0.17322724687860011 0 0.39015071041641458 0.1752968202883449 0 0.39173266295372422 0.1703821586821625 0 0.38935120208080087 0.18734156415524739 0 0.38456142671463689 0.18119341109058101 0 0.37959621891343998 0.18888004806970329 0 0.38935120208080087 0.18734156415524739 0 0.38456142671463689 0.18119341109058101 0 0.3936647719149563 0.17997510126181099 0 0.40402992335265742 0.18295193175906091 0 0.40178454947010472 0.1688100387854462 0 0.4113280318459675 0.18796372784287679 0 0.38935120208080087 0.18734156415524739 0 0.39769522389517081 0.18613352877741379 0 0.3936647719149563 0.17997510126181099 0 0.39769522389517081 0.18613352877741379 0 0.3936647719149563 0.17997510126181099 0 0.39874070762402308 0.17719757549675871 0 0.3936647719149563 0.17997510126181099 0 0.39444527572727123 0.17454960687581639 0 0.39874070762402308 0.17719757549675871 0 0.39015071041641458 0.1752968202883449 0 0.3936647719149563 0.17997510126181099 0 0.39444527572727123 0.17454960687581639 0 0.39015071041641458 0.1752968202883449 0 0.39444527572727123 0.17454960687581639 0 0.39173266295372422 0.1703821586821625 0 0.39444527572727123 0.17454960687581639 0 0.39874070762402308 0.17719757549675871 0 0.39793752572723801 0.16989637865000479 0 0.39874070762402308 0.17719757549675871 0 0.40402992335265742 0.18295193175906091 0 0.40178454947010472 0.1688100387854462 0 0.39874070762402308 0.17719757549675871 0 0.39793752572723801 0.16989637865000479 0 0.40178454947010472 0.1688100387854462 0 0.39769522389517081 0.18613352877741379 0 0.39874070762402308 0.17719757549675871 0 0.40402992335265742 0.18295193175906091 0 0.39580058914059452 0.1490980931887998 0 0.39687031602956763 0.16326568453002829 0 0.40178454947010472 0.1688100387854462 0 0.39580058914059452 0.1490980931887998 0 0.40178454947010472 0.1688100387854462 0 0.41018078742555969 0.15504633733473569 0 0.39687031602956763 0.16326568453002829 0 0.39068709145648911 0.16287801248815861 0 0.39068709145648911 0.16287801248815861 0 0.39793752572723801 0.16989637865000479 0 0.39068709145648911 0.16287801248815861 0 0.39173266295372422 0.1703821586821625 0 0.39793752572723801 0.16989637865000479 0 0.39444527572727123 0.17454960687581639 0 0.39173266295372422 0.1703821586821625 0 0.39793752572723801 0.16989637865000479 0 0.39687031602956763 0.16326568453002829 0 0.39068709145648911 0.16287801248815861 0 0.39793752572723801 0.16989637865000479 0 0.39687031602956763 0.16326568453002829 0 0.40178454947010472 0.1688100387854462 0 0.39687031602956763 0.16326568453002829 0 0.39793752572723801 0.16989637865000479 0 0.40178454947010472 0.1688100387854462 0 0.42156831075211598 0.1680848541833582 0 0.42464396279062439 0.14627678386406909 0 0.41018078742555969 0.15504633733473569 0 0.40178454947010472 0.1688100387854462 0 0.42156831075211598 0.1680848541833582 0 0.41018078742555969 0.15504633733473569 0 0.40178454947010472 0.1688100387854462 0 0.4113280318459675 0.18796372784287679 0 0.42150443610250471 0.1910584807224564 0 0.40178454947010472 0.1688100387854462 0 0.42150443610250471 0.1910584807224564 0 0.40178454947010472 0.1688100387854462 0 0.42156831075211598 0.1680848541833582 0 0.42150443610250471 0.1910584807224564 0 0.42156831075211598 0.1680848541833582 0 0.43118451961009657 0.17908750652768421 0 0.42150443610250471 0.1910584807224564 0 0.43118451961009657 0.17908750652768421 0 0.42150443610250471 0.1910584807224564 0 0.44066350929549042 0.1899546779532231 0 0.42156831075211598 0.1680848541833582 0 0.43118451961009657 0.17908750652768421 0 0.44223327263954998 0.1675638295240294 0 0.42156831075211598 0.1680848541833582 0 0.42464396279062439 0.14627678386406909 0 0.44223327263954998 0.1675638295240294 0 0.42464396279062439 0.14627678386406909 0 0.44223327263954998 0.1675638295240294 0 0.42464396279062439 0.14627678386406909 0 0.44100510488797162 0.1518324801367677 0 0.42464396279062439 0.14627678386406909 0 0.43171131441089522 0.13754306829591861 0 0.44100510488797162 0.1518324801367677 0 0.43731578770263868 0.15311191614552969 0 0.42464396279062439 0.14627678386406909 0 0.44100510488797162 0.1518324801367677 0 0.43731578770263868 0.15311191614552969 0 0.42464396279062439 0.14627678386406909 0 0.44223327263954998 0.1675638295240294 0 0.43171131441089522 0.13754306829591861 0 0.41885098875887777 0.13391820237067861 0 0.42338535559027479 0.1205090768914225 0 0.43171131441089522 0.13754306829591861 0 0.44201491538503751 0.1221884416046867 0 0.42338535559027479 0.1205090768914225 0 0.42464396279062439 0.14627678386406909 0 0.43171131441089522 0.13754306829591861 0 0.41885098875887777 0.13391820237067861 0 0.41885098875887777 0.13391820237067861 0 0.40981053908925419 0.14123984962813549 0 0.40536034682354632 0.12481683740862159 0 0.41885098875887777 0.13391820237067861 0 0.42338535559027479 0.1205090768914225 0 0.40536034682354632 0.12481683740862159 0 0.42464396279062439 0.14627678386406909 0 0.41885098875887777 0.13391820237067861 0 0.40981053908925419 0.14123984962813549 0 0.42464396279062439 0.14627678386406909 0 0.40981053908925419 0.14123984962813549 0 0.42464396279062439 0.14627678386406909 0 0.40981053908925419 0.14123984962813549 0 0.41018078742555969 0.15504633733473569 0 0.39103074677198191 0.2378645478919707 0 0.40699913865084292 0.2200073724427305 0 0.40933178642478668 0.24530746794650141 0 0.39392409312874033 0.26548119861246328 0 0.39103074677198191 0.2378645478919707 0 0.40933178642478668 0.24530746794650141 0 0.39103074677198191 0.2378645478919707 0 0.37588607332036628 0.2490878796733729 0 0.37504625414522869 0.2303727958758012 0 0.39103074677198191 0.2378645478919707 0 0.37504625414522869 0.2303727958758012 0 0.38582046467374198 0.21767509700925741 0 0.36464593244806109 0.2145418940701225 0 0.37504625414522869 0.2303727958758012 0 0.38582046467374198 0.21767509700925741 0 0.39103074677198191 0.2378645478919707 0 0.38582046467374198 0.21767509700925741 0 0.40699913865084292 0.2200073724427305 0 0.39535308900850558 0.20493870697966851 0 0.38582046467374198 0.21767509700925741 0 0.40699913865084292 0.2200073724427305 0 0.39535308900850558 0.20493870697966851 0 0.40736650267529367 0.20534760411496161 0 0.40699913865084292 0.2200073724427305 0 0.36464593244806109 0.2145418940701225 0 0.38582046467374198 0.21767509700925741 0 0.38262777372413942 0.20056577775977211 0 0.39535308900850558 0.20493870697966851 0 0.38582046467374198 0.21767509700925741 0 0.38262777372413942 0.20056577775977211 0 0.36867711819290189 0.19558193609178909 0 0.38262777372413942 0.20056577775977211 0 0.37959621891343998 0.18888004806970329 0 0.38935120208080087 0.18734156415524739 0 0.38262777372413942 0.20056577775977211 0 0.37959621891343998 0.18888004806970329 0 0.38935120208080087 0.18734156415524739 0 0.38262777372413942 0.20056577775977211 0 0.39495039075152383 0.19500119794261639 0 0.38935120208080087 0.18734156415524739 0 0.39769522389517081 0.18613352877741379 0 0.39495039075152383 0.19500119794261639 0 0.39535308900850558 0.20493870697966851 0 0.38262777372413942 0.20056577775977211 0 0.39495039075152383 0.19500119794261639 0 0.39535308900850558 0.20493870697966851 0 0.40543434764706382 0.19433380204898831 0 0.40736650267529367 0.20534760411496161 0 0.39535308900850558 0.20493870697966851 0 0.39495039075152383 0.19500119794261639 0 0.40543434764706382 0.19433380204898831 0 0.39769522389517081 0.18613352877741379 0 0.39495039075152383 0.19500119794261639 0 0.40543434764706382 0.19433380204898831 0 0.39769522389517081 0.18613352877741379 0 0.40402992335265742 0.18295193175906091 0 0.40543434764706382 0.19433380204898831 0 0.41405593538476537 0.1978098369375659 0 0.42150443610250471 0.1910584807224564 0 0.41932031768340311 0.20743549227764799 0 0.40543434764706382 0.19433380204898831 0 0.4113280318459675 0.18796372784287679 0 0.41405593538476537 0.1978098369375659 0 0.40402992335265742 0.18295193175906091 0 0.40543434764706382 0.19433380204898831 0 0.4113280318459675 0.18796372784287679 0 0.40543434764706382 0.19433380204898831 0 0.41405593538476537 0.1978098369375659 0 0.40736650267529367 0.20534760411496161 0 0.4113280318459675 0.18796372784287679 0 0.41405593538476537 0.1978098369375659 0 0.41800374937960327 0.1912601641577685 0 0.4113280318459675 0.18796372784287679 0 0.41800374937960327 0.1912601641577685 0 0.42150443610250471 0.1910584807224564 0 0.41405593538476537 0.1978098369375659 0 0.41800374937960327 0.1912601641577685 0 0.42150443610250471 0.1910584807224564 0 0.41800374937960327 0.1912601641577685 0 0.42150443610250471 0.1910584807224564 0 0.42150443610250471 0.1910584807224564 0 0.43964605568812892 0.21152628449425559 0 0.44066350929549042 0.1899546779532231 0 0.42150443610250471 0.1910584807224564 0 0.44066350929549042 0.1899546779532231 0 0.42150443610250471 0.1910584807224564 0 0.43964605568812892 0.21152628449425559 0 0.42692227912344938 0.2185749218571387 0 0.41932031768340311 0.20743549227764799 0 0.43964605568812892 0.21152628449425559 0 0.42150443610250471 0.1910584807224564 0 0.41932031768340311 0.20743549227764799 0 0.43964605568812892 0.21152628449425559 0 0.42692227912344938 0.2185749218571387 0 0.41932031768340311 0.20743549227764799 0 0.40699913865084292 0.2200073724427305 0 0.41932031768340311 0.20743549227764799 0 0.40736650267529367 0.20534760411496161 0 0.40699913865084292 0.2200073724427305 0 0.41405593538476537 0.1978098369375659 0 0.41932031768340311 0.20743549227764799 0 0.40736650267529367 0.20534760411496161 0 0.40699913865084292 0.2200073724427305 0 0.42791060214005622 0.23524578657545639 0 0.40933178642478668 0.24530746794650141 0 0.42692227912344938 0.2185749218571387 0 0.40699913865084292 0.2200073724427305 0 0.42791060214005622 0.23524578657545639 0 0.42692227912344938 0.2185749218571387 0 0.42791060214005622 0.23524578657545639 0 0.44687549402799981 0.2240274878755969 0 0.42507863072368701 0.2531856777568211 0 0.42791060214005622 0.23524578657545639 0 0.43876594592942619 0.2491002947533556 0 0.42791060214005622 0.23524578657545639 0 0.43876594592942619 0.2491002947533556 0 0.44210509291822658 0.23713285843962781 0 0.42507863072368701 0.2531856777568211 0 0.42791060214005622 0.23524578657545639 0 0.40933178642478668 0.24530746794650141 0 0.4657425708042397 0.25282124097232528 0 0.45444189403291402 0.2411770147019261 0 0.46902648610557401 0.23978031661179641 0 0.45444189403291402 0.2411770147019261 0 0.46153812927118693 0.22769678494989409 0 0.46902648610557401 0.23978031661179641 0 0.44893917376128722 0.25670587451621701 0 0.45444189403291402 0.2411770147019261 0 0.43876594592942619 0.2491002947533556 0 0.45444189403291402 0.2411770147019261 0 0.43876594592942619 0.2491002947533556 0 0.44210509291822658 0.23713285843962781 0 0.42791060214005622 0.23524578657545639 0 0.44210509291822658 0.23713285843962781 0 0.44687549402799981 0.2240274878755969 0 0.45444189403291402 0.2411770147019261 0 0.44210509291822658 0.23713285843962781 0 0.44687549402799981 0.2240274878755969 0 0.45444189403291402 0.2411770147019261 0 0.44687549402799981 0.2240274878755969 0 0.46153812927118693 0.22769678494989409 0 0.44687549402799981 0.2240274878755969 0 0.46153812927118693 0.22769678494989409 0 0.45434831412809351 0.2169717754240589 0 0.46153812927118693 0.22769678494989409 0 0.46788422009904918 0.21602458295004651 0 0.45434831412809351 0.2169717754240589 0 0.46788422009904918 0.21602458295004651 0 0.45579767155410239 0.20558373685050119 0 0.47298928242684912 0.20478556194466599 0 0.46788422009904918 0.21602458295004651 0 0.45579767155410239 0.20558373685050119 0 0.45434831412809351 0.2169717754240589 0 0.45579767155410239 0.20558373685050119 0 0.45434831412809351 0.2169717754240589 0 0.43964605568812892 0.21152628449425559 0 0.45579767155410239 0.20558373685050119 0 0.43964605568812892 0.21152628449425559 0 0.44944268158891898 0.19797959918788341 0 0.42692227912344938 0.2185749218571387 0 0.44687549402799981 0.2240274878755969 0 0.43964605568812892 0.21152628449425559 0 0.44687549402799981 0.2240274878755969 0 0.45434831412809351 0.2169717754240589 0 0.43964605568812892 0.21152628449425559 0 0.43964605568812892 0.21152628449425559 0 0.44944268158891898 0.19797959918788341 0 0.44066350929549042 0.1899546779532231 0 0.44066350929549042 0.1899546779532231 0 0.45982258248847607 0.18885087518398949 0 0.44944268158891898 0.19797959918788341 0 0.44066350929549042 0.1899546779532231 0 0.45982258248847607 0.18885087518398949 0 0.45579767155410239 0.20558373685050119 0 0.44944268158891898 0.19797959918788341 0 0.45982258248847607 0.18885087518398949 0 0.45982258248847607 0.18885087518398949 0 0.47298928242684912 0.20478556194466599 0 0.45579767155410239 0.20558373685050119 0 0.45982258248847607 0.18885087518398949 0 0.47298928242684912 0.20478556194466599 0 0.45982258248847607 0.18885087518398949 0 0.46246267395613577 0.18869877282268771 0 0.47298928242684912 0.20478556194466599 0 0.45982258248847607 0.18885087518398949 0 0.46246267395613577 0.18869877282268771 0 0.48123133697806858 0.18761746257298201 0 0.49061566848903448 0.19913054633610969 0 0.48123133697806791 0.21172494034894249 0 0.46246267395613577 0.18869877282268771 0 0.48123133697806791 0.21172494034894249 0 0.47298928242684912 0.20478556194466599 0 0.46246267395613577 0.18869877282268771 0 0.48123133697806791 0.21172494034894249 0 0.46246267395613577 0.18869877282268771 0 0.48123133697806858 0.18761746257298201 0 0.48123133697806791 0.21172494034894249 0 0.46246267395613577 0.18869877282268771 0 0.48123133697806858 0.18761746257298201 0 0.49061566848903448 0.19913054633610969 0 0.5 0.21064363009923689 0 0.50000000000000144 0.18653615232327739 0 0.48123133697806858 0.18761746257298201 0 0.49061566848903448 0.19913054633610969 0 0.50000000000000144 0.18653615232327739 0 0.49061566848903448 0.19913054633610969 0 0.5 0.21064363009923689 0 0.48123133697806791 0.21172494034894249 0 0.46788422009904918 0.21602458295004651 0 0.48123133697806791 0.21172494034894249 0 0.47298928242684912 0.20478556194466599 0 0.46153812927118693 0.22769678494989409 0 0.47761079907368659 0.22975513346519441 0 0.46902648610557401 0.23978031661179641 0 0.46153812927118693 0.22769678494989409 0 0.46788422009904918 0.21602458295004651 0 0.47761079907368659 0.22975513346519441 0 0.46788422009904918 0.21602458295004651 0 0.48123133697806791 0.21172494034894249 0 0.47761079907368659 0.22975513346519441 0 0.48123133697806791 0.21172494034894249 0 0.50000000000000078 0.23475110787519651 0 0.48123133697806791 0.21172494034894249 0 0.47761079907368659 0.22975513346519441 0 0.50000000000000078 0.23475110787519651 0 0.5 0.21064363009923689 0 0.48123133697806791 0.21172494034894249 0 0.50000000000000078 0.23475110787519651 0 0.47761079907368659 0.22975513346519441 0 0.50000000000000078 0.23475110787519651 0 0.48319944748130261 0.24680576274814439 0 0.48930401013157893 0.26400543771054868 0 0.50000000000000078 0.23475110787519651 0 0.48319944748130261 0.24680576274814439 0 0.47761079907368659 0.22975513346519441 0 0.48319944748130261 0.24680576274814439 0 0.46902648610557401 0.23978031661179641 0 0.4657425708042397 0.25282124097232528 0 0.48319944748130261 0.24680576274814439 0 0.46902648610557401 0.23978031661179641 0 0.46067006992531578 0.14501277255513739 0 0.44100510488797162 0.1518324801367677 0 0.45842061247378069 0.15774620364127601 0 0.46067006992531578 0.14501277255513739 0 0.45842061247378069 0.15774620364127601 0 0.47181417780450058 0.15130991192119209 0 0.46067006992531578 0.14501277255513739 0 0.44779797982522251 0.13591138282507809 0 0.46358849451689271 0.12298015153287919 0 0.46067006992531578 0.14501277255513739 0 0.48033503496266028 0.13819306497350831 0 0.46358849451689271 0.12298015153287919 0 0.44779797982522251 0.13591138282507809 0 0.46358849451689271 0.12298015153287919 0 0.44201491538503751 0.1221884416046867 0 0.43171131441089522 0.13754306829591861 0 0.44779797982522251 0.13591138282507809 0 0.44201491538503751 0.1221884416046867 0 0.46067006992531578 0.14501277255513739 0 0.44100510488797162 0.1518324801367677 0 0.43171131441089522 0.13754306829591861 0 0.44779797982522251 0.13591138282507809 0 0.44100510488797162 0.1518324801367677 0 0.44100510488797162 0.1518324801367677 0 0.45842061247378069 0.15774620364127601 0 0.46067006992531578 0.14501277255513739 0 0.44779797982522251 0.13591138282507809 0 0.44100510488797162 0.1518324801367677 0 0.43731578770263868 0.15311191614552969 0 0.44100510488797162 0.1518324801367677 0 0.43731578770263868 0.15311191614552969 0 0.44100510488797162 0.1518324801367677 0 0.44223327263954998 0.1675638295240294 0 0.44100510488797162 0.1518324801367677 0 0.44223327263954998 0.1675638295240294 0 0.45064745071206469 0.16407050785850311 0 0.44100510488797162 0.1518324801367677 0 0.45064745071206469 0.16407050785850311 0 0.45842061247378069 0.15774620364127601 0 0.44223327263954998 0.1675638295240294 0 0.45064745071206469 0.16407050785850311 0 0.45252365300287162 0.17650517324400131 0 0.44066350929549042 0.1899546779532231 0 0.45982258248847607 0.18885087518398949 0 0.44223327263954998 0.1675638295240294 0 0.45982258248847607 0.18885087518398949 0 0.44223327263954998 0.1675638295240294 0 0.45982258248847607 0.18885087518398949 0 0.44223327263954998 0.1675638295240294 0 0.45252365300287162 0.17650517324400131 0 0.43118451961009657 0.17908750652768421 0 0.44066350929549042 0.1899546779532231 0 0.44223327263954998 0.1675638295240294 0 0.45252365300287162 0.17650517324400131 0 0.46852950543390098 0.17564223008125701 0 0.45888445054831062 0.16819836462120771 0 0.46246267395613577 0.18869877282268771 0 0.45252365300287162 0.17650517324400131 0 0.46852950543390098 0.17564223008125701 0 0.46246267395613577 0.18869877282268771 0 0.45252365300287162 0.17650517324400131 0 0.45982258248847607 0.18885087518398949 0 0.46246267395613577 0.18869877282268771 0 0.45252365300287162 0.17650517324400131 0 0.45842061247378069 0.15774620364127601 0 0.4758361200595902 0.1636599271457834 0 0.47181417780450058 0.15130991192119209 0 0.45842061247378069 0.15774620364127601 0 0.4758361200595902 0.1636599271457834 0 0.45842061247378069 0.15774620364127601 0 0.45888445054831062 0.16819836462120771 0 0.4758361200595902 0.1636599271457834 0 0.46852950543390098 0.17564223008125701 0 0.45888445054831062 0.16819836462120771 0 0.4758361200595902 0.1636599271457834 0 0.45064745071206469 0.16407050785850311 0 0.45842061247378069 0.15774620364127601 0 0.45888445054831062 0.16819836462120771 0 0.45064745071206469 0.16407050785850311 0 0.45252365300287162 0.17650517324400131 0 0.45888445054831062 0.16819836462120771 0 0.4758361200595902 0.1636599271457834 0 0.48630368258704137 0.17140311931871249 0 0.48517032610197292 0.15232670889348399 0 0.46852950543390098 0.17564223008125701 0 0.4758361200595902 0.1636599271457834 0 0.48630368258704137 0.17140311931871249 0 0.46246267395613577 0.18869877282268771 0 0.48123133697806858 0.18761746257298201 0 0.46852950543390098 0.17564223008125701 0 0.48123133697806858 0.18761746257298201 0 0.46852950543390098 0.17564223008125701 0 0.48630368258704137 0.17140311931871249 0 0.48123133697806858 0.18761746257298201 0 0.50000000000000144 0.18653615232327739 0 0.48123133697806858 0.18761746257298201 0 0.50000000000000144 0.18653615232327739 0 0.48630368258704137 0.17140311931871249 0 0.50000000000000144 0.18653615232327739 0 0.48630368258704137 0.17140311931871249 0 0.5 0.15895475485757751 0 0.48630368258704137 0.17140311931871249 0 0.5 0.15895475485757751 0 0.48517032610197292 0.15232670889348399 0 0.48517032610197292 0.15232670889348399 0 0.48033503496266028 0.13819306497350831 0 0.50000000000000444 0.13137335739187769 0 0.5 0.15895475485757751 0 0.48517032610197292 0.15232670889348399 0 0.50000000000000444 0.13137335739187769 0 0.46067006992531578 0.14501277255513739 0 0.47181417780450058 0.15130991192119209 0 0.48033503496266028 0.13819306497350831 0 0.46067006992531578 0.14501277255513739 0 0.48033503496266028 0.13819306497350831 0 0.4758361200595902 0.1636599271457834 0 0.48517032610197292 0.15232670889348399 0 0.47181417780450058 0.15130991192119209 0 0.48517032610197292 0.15232670889348399 0 0.47181417780450058 0.15130991192119209 0 0.48033503496266028 0.13819306497350831 0 0.48033503496266028 0.13819306497350831 0 0.48287207193790682 0.119833017198512 0 0.46358849451689271 0.12298015153287919 0 0.48033503496266028 0.13819306497350831 0 0.50000000000000444 0.13137335739187769 0 0.48287207193790682 0.119833017198512 0 0.48033503496266028 0.13819306497350831 0 0.50000000000000444 0.13137335739187769 0 0.50000000000000444 0.13137335739187769 0 0.5 0.112750504140729 0 0.48287207193790682 0.119833017198512 0 0.5 0.112750504140729 0 0.47708970494047592 0.096547162644013557 0 0.48287207193790682 0.119833017198512 0 0.5 0.112750504140729 0 0.49999999999999811 0.094127650889580305 0 0.47708970494047592 0.096547162644013557 0 0.49999999999999811 0.094127650889580305 0 0.47708970494047592 0.096547162644013557 0 0.47708970494047592 0.096547162644013557 0 0.48287207193790682 0.119833017198512 0 0.46358849451689271 0.12298015153287919 0 0.49999999999999811 0.094127650889580305 0 0.5 0.065085683867034727 0 0.49030416231355511 0.073256317384286063 0 0.49030416231355511 0.073256317384286063 0 0.47714578073418512 0.066537383845565096 0 0.49228297291204992 0.059454014438704107 0 0.5 0.065085683867034727 0 0.49030416231355511 0.073256317384286063 0 0.49228297291204992 0.059454014438704107 0 0.49999999999999811 0.094127650889580305 0 0.47708970494047592 0.096547162644013557 0 0.48209205792154058 0.081076853880546043 0 0.49999999999999811 0.094127650889580305 0 0.49030416231355511 0.073256317384286063 0 0.48209205792154058 0.081076853880546043 0 0.47708970494047592 0.096547162644013557 0 0.48209205792154058 0.081076853880546043 0 0.46573084566111861 0.080721753047445138 0 0.48209205792154058 0.081076853880546043 0 0.47714578073418512 0.066537383845565096 0 0.46573084566111861 0.080721753047445138 0 0.49030416231355511 0.073256317384286063 0 0.48209205792154058 0.081076853880546043 0 0.47714578073418512 0.066537383845565096 0 0.45650324214529259 0.065280330615496637 0 0.46573084566111861 0.080721753047445138 0 0.4463318017969411 0.077534016390637867 0 0.47714578073418512 0.066537383845565096 0 0.45650324214529259 0.065280330615496637 0 0.46573084566111861 0.080721753047445138 0 0.46573084566111861 0.080721753047445138 0 0.4463318017969411 0.077534016390637867 0 0.45417940988095362 0.098966674398447016 0 0.47708970494047592 0.096547162644013557 0 0.46573084566111861 0.080721753047445138 0 0.45417940988095362 0.098966674398447016 0 0.4463318017969411 0.077534016390637867 0 0.45417940988095362 0.098966674398447016 0 0.43319821241535611 0.085947639564665793 0 0.4463318017969411 0.077534016390637867 0 0.44127530461137909 0.064432497562673663 0 0.4323056194460711 0.072068218276874901 0 0.45650324214529259 0.065280330615496637 0 0.4463318017969411 0.077534016390637867 0 0.44127530461137909 0.064432497562673663 0 0.46358849451689271 0.12298015153287919 0 0.45417940988095362 0.098966674398447016 0 0.44201491538503751 0.1221884416046867 0 0.47708970494047592 0.096547162644013557 0 0.46358849451689271 0.12298015153287919 0 0.45417940988095362 0.098966674398447016 0 0.47708970494047592 0.096547162644013557 0 0.45417940988095362 0.098966674398447016 0 0.45417940988095362 0.098966674398447016 0 0.43126911482143138 0.1013861861528805 0 0.43319821241535611 0.085947639564665793 0 0.45417940988095362 0.098966674398447016 0 0.43126911482143138 0.1013861861528805 0 0.45417940988095362 0.098966674398447016 0 0.44201491538503751 0.1221884416046867 0 0.43126911482143138 0.1013861861528805 0 0.44201491538503751 0.1221884416046867 0 0.42338535559027479 0.1205090768914225 0 0.43126911482143138 0.1013861861528805 0 0.42338535559027479 0.1205090768914225 0 0.40835881976190908 0.10380569790731391 0 0.40536034682354632 0.12481683740862159 0 0.40835881976190908 0.10380569790731391 0 0.43126911482143138 0.1013861861528805 0 0.42338535559027479 0.1205090768914225 0 0.40835881976190908 0.10380569790731391 0 0.43126911482143138 0.1013861861528805 0 0.40835881976190908 0.10380569790731391 0 0.43126911482143138 0.1013861861528805 0 0.41935522763475591 0.089699073352522835 0 0.4463318017969411 0.077534016390637867 0 0.43319821241535611 0.085947639564665793 0 0.4323056194460711 0.072068218276874901 0 0.43319821241535611 0.085947639564665793 0 0.41924297708616731 0.074654461475880396 0 0.41935522763475591 0.089699073352522835 0 0.43126911482143138 0.1013861861528805 0 0.43319821241535611 0.085947639564665793 0 0.41935522763475591 0.089699073352522835 0 0.4323056194460711 0.072068218276874901 0 0.41924297708616731 0.074654461475880396 0 0.42690609811089331 0.059013607202760512 0 0.44127530461137909 0.064432497562673663 0 0.4323056194460711 0.072068218276874901 0 0.42690609811089331 0.059013607202760512 0 0.43319821241535611 0.085947639564665793 0 0.4323056194460711 0.072068218276874901 0 0.41924297708616731 0.074654461475880396 0 0.41924297708616731 0.074654461475880396 0 0.41572401702962131 0.06154942829698281 0 0.42690609811089331 0.059013607202760512 0 0.41924297708616731 0.074654461475880396 0 0.40863285456409321 0.067745049984629005 0 0.41572401702962131 0.06154942829698281 0 0.41924297708616731 0.074654461475880396 0 0.40863285456409321 0.067745049984629005 0 0.40581890464532883 0.082285452545517224 0 0.40835881976190908 0.10380569790731391 0 0.41935522763475591 0.089699073352522835 0 0.40581890464532883 0.082285452545517224 0 0.41924297708616731 0.074654461475880396 0 0.41935522763475591 0.089699073352522835 0 0.40581890464532883 0.082285452545517224 0 0.40581890464532883 0.082285452545517224 0 0.39175039171038772 0.087168104040655559 0 0.39624558431573131 0.06624045880030964 0 0.40835881976190908 0.10380569790731391 0 0.40581890464532883 0.082285452545517224 0 0.39175039171038772 0.087168104040655559 0 0.39175039171038772 0.087168104040655559 0 0.39624558431573131 0.06624045880030964 0 0.38418619936747078 0.072555057714184676 0 0.40863285456409321 0.067745049984629005 0 0.40581890464532883 0.082285452545517224 0 0.39624558431573131 0.06624045880030964 0 0.40863285456409321 0.067745049984629005 0 0.39624558431573131 0.06624045880030964 0 0.40829937009812589 0.05445646228617778 0 0.37194242117794668 0.076772614526931793 0 0.38418619936747078 0.072555057714184676 0 0.38237628961462611 0.059732338949836518 0 0.36864505415383159 0.080457991471440893 0 0.38237628961462611 0.059732338949836518 0 0.39624558431573131 0.06624045880030964 0 0.38418619936747078 0.072555057714184676 0 0.38237628961462611 0.059732338949836518 0 0.37194242117794668 0.076772614526931793 0 0.38418619936747078 0.072555057714184676 0 0.38194353902199202 0.084344220923998292 0 0.39175039171038772 0.087168104040655559 0 0.38194353902199202 0.084344220923998292 0 0.37989514383216261 0.1008811074142211 0 0.37194242117794668 0.076772614526931793 0 0.37989514383216261 0.1008811074142211 0 0.37194242117794668 0.076772614526931793 0 0.38194353902199202 0.084344220923998292 0 0.37989514383216261 0.1008811074142211 0 0.39175039171038772 0.087168104040655559 0 0.38418619936747078 0.072555057714184676 0 0.38194353902199202 0.084344220923998292 0 0.39175039171038772 0.087168104040655559 0 0.37989514383216261 0.1008811074142211 0 0.39428450139263399 0.1099935163928351 0 0.37989514383216261 0.1008811074142211 0 0.38784786648637848 0.12498960030151041 0 0.37989514383216261 0.1008811074142211 0 0.38784786648637848 0.12498960030151041 0 0.39428450139263399 0.1099935163928351 0 0.37989514383216261 0.1008811074142211 0 0.38784786648637848 0.12498960030151041 0 0.37533236417423199 0.11575217945856781 0 0.36234477620530581 0.12431315491142481 0 0.38784786648637848 0.12498960030151041 0 0.37533236417423199 0.11575217945856781 0 0.38784786648637848 0.12498960030151041 0 0.39428450139263399 0.1099935163928351 0 0.40536034682354632 0.12481683740862159 0 0.40835881976190908 0.10380569790731391 0 0.39428450139263399 0.1099935163928351 0 0.40536034682354632 0.12481683740862159 0 0.40835881976190908 0.10380569790731391 0 0.39175039171038772 0.087168104040655559 0 0.39428450139263399 0.1099935163928351 0 0.4022109480673669 0.029794301680725051 0 0.39903054770448521 0.019764345079569041 0 0.38956197386376129 0.02112761593547402 0 0.4022109480673669 0.029794301680725051 0 0.38956197386376129 0.02112761593547402 0 0.39250591407207142 0.036175579460824843 0 0.4022109480673669 0.029794301680725051 0 0.39903054770448521 0.019764345079569041 0 0.40715192280340562 0.01462234732060084 0 0.3939873043738738 0.005606014803845533 0 0.40715192280340562 0.01462234732060084 0 0.41629264407573002 -0.006850845090226044 0 0.39903054770448521 0.019764345079569041 0 0.3939873043738738 0.005606014803845533 0 0.40715192280340562 0.01462234732060084 0 0.39903054770448521 0.019764345079569041 0 0.3939873043738738 0.005606014803845533 0 0.38956197386376129 0.02112761593547402 0 0.3939873043738738 0.005606014803845533 0 0.38284321145746519 0.01274873380563272 0 0.38956197386376129 0.02112761593547402 0 0.37357914744350779 0.002440479778912224 0 0.37424442014871812 0.021820824704299101 0 0.38284321145746519 0.01274873380563272 0 0.37357914744350779 0.002440479778912224 0 0.3939873043738738 0.005606014803845533 0 0.38284321145746519 0.01274873380563272 0 0.37424442014871812 0.021820824704299101 0 0.39250591407207142 0.036175579460824843 0 0.36321924137845568 0.02934286747329215 0 0.37424442014871812 0.021820824704299101 0 0.39250591407207142 0.036175579460824843 0 0.37424442014871812 0.021820824704299101 0 0.38956197386376129 0.02112761593547402 0 0.39250591407207142 0.036175579460824843 0 0.37424442014871812 0.021820824704299101 0 0.38284321145746519 0.01274873380563272 0 0.38956197386376129 0.02112761593547402 0 0.36321924137845568 0.02934286747329215 0 0.37923500638336632 0.043068186250585699 0 0.39250591407207142 0.036175579460824843 0 0.36321924137845568 0.02934286747329215 0 0.39250591407207142 0.036175579460824843 0 0.37923500638336632 0.043068186250585699 0 0.39610752507542107 0.039006686428232497 0 0.39250591407207142 0.036175579460824843 0 0.37923500638336632 0.043068186250585699 0 0.38237628961462611 0.059732338949836518 0 0.39610752507542107 0.039006686428232497 0 0.38237628961462611 0.059732338949836518 0 0.39610752507542107 0.039006686428232497 0 0.38237628961462611 0.059732338949836518 0 0.39498436831919048 0.053995491217328308 0 0.39610752507542107 0.039006686428232497 0 0.39624558431573131 0.06624045880030964 0 0.38237628961462611 0.059732338949836518 0 0.39498436831919048 0.053995491217328308 0 0.39624558431573131 0.06624045880030964 0 0.39498436831919048 0.053995491217328308 0 0.40127216254757908 0.052142880950221668 0 0.39498436831919048 0.053995491217328308 0 0.40127216254757908 0.052142880950221668 0 0.39610752507542107 0.039006686428232497 0 0.40127216254757908 0.052142880950221668 0 0.40829937009812589 0.05445646228617778 0 0.40647643562697111 0.047157343142538291 0 0.39624558431573131 0.06624045880030964 0 0.40127216254757908 0.052142880950221668 0 0.40829937009812589 0.05445646228617778 0 0.39624558431573131 0.06624045880030964 0 0.40829937009812589 0.05445646228617778 0 0.4022109480673669 0.029794301680725051 0 0.39724992059935432 0.037282377443883637 0 0.39250591407207142 0.036175579460824843 0 0.39724992059935432 0.037282377443883637 0 0.39250591407207142 0.036175579460824843 0 0.39610752507542107 0.039006686428232497 0 0.39724992059935432 0.037282377443883637 0 0.39250591407207142 0.036175579460824843 0 0.39610752507542107 0.039006686428232497 0 0.39724992059935432 0.037282377443883637 0 0.39610752507542107 0.039006686428232497 0 0.39250591407207142 0.036175579460824843 0 0.39610752507542107 0.039006686428232497 0 0.40647643562697111 0.047157343142538291 0 0.40127216254757908 0.052142880950221668 0 0.39610752507542107 0.039006686428232497 0 0.40647643562697111 0.047157343142538291 0 0.39610752507542107 0.039006686428232497 0 0.39724992059935432 0.037282377443883637 0 0.40647643562697111 0.047157343142538291 0 0.4022109480673669 0.029794301680725051 0 0.39724992059935432 0.037282377443883637 0 0.41056521822753728 0.033900572446116307 0 0.4022109480673669 0.029794301680725051 0 0.39724992059935432 0.037282377443883637 0 0.39724992059935432 0.037282377443883637 0 0.42035315588052052 0.042672465772045823 0 0.39724992059935432 0.037282377443883637 0 0.41056521822753728 0.033900572446116307 0 0.42035315588052052 0.042672465772045823 0 0.39724992059935432 0.037282377443883637 0 0.42035315588052052 0.042672465772045823 0 0.40647643562697111 0.047157343142538291 0 0.41056521822753728 0.033900572446116307 0 0.42035315588052052 0.042672465772045823 0 0.41918056088687422 0.025106301550984179 0 0.42035315588052052 0.042672465772045823 0 0.41807260402200452 0.053616349792940499 0 0.42690609811089331 0.059013607202760512 0 0.40863285456409321 0.067745049984629005 0 0.40829937009812589 0.05445646228617778 0 0.41572401702962131 0.06154942829698281 0 0.40829937009812589 0.05445646228617778 0 0.41807260402200452 0.053616349792940499 0 0.41572401702962131 0.06154942829698281 0 0.42035315588052052 0.042672465772045823 0 0.40829937009812589 0.05445646228617778 0 0.40647643562697111 0.047157343142538291 0 0.42035315588052052 0.042672465772045823 0 0.40829937009812589 0.05445646228617778 0 0.42035315588052052 0.042672465772045823 0 0.40829937009812589 0.05445646228617778 0 0.41807260402200452 0.053616349792940499 0 0.41807260402200452 0.053616349792940499 0 0.41572401702962131 0.06154942829698281 0 0.42690609811089331 0.059013607202760512 0 0.42035315588052052 0.042672465772045823 0 0.42690609811089331 0.059013607202760512 0 0.44432976155769699 0.048266315327598383 0 0.42035315588052052 0.042672465772045823 0 0.43671568676264189 0.026676163003921921 0 0.42035315588052052 0.042672465772045823 0 0.43671568676264189 0.026676163003921921 0 0.44432976155769699 0.048266315327598383 0 0.42035315588052052 0.042672465772045823 0 0.44432976155769699 0.048266315327598383 0 0.42035315588052052 0.042672465772045823 0 0.43671568676264189 0.026676163003921921 0 0.41918056088687422 0.025106301550984179 0 0.43671568676264189 0.026676163003921921 0 0.41918056088687422 0.025106301550984179 0 0.43085411213296282 0.0071934808399317304 0 0.4022109480673669 0.029794301680725051 0 0.41918056088687422 0.025106301550984179 0 0.40715192280340562 0.01462234732060084 0 0.41918056088687422 0.025106301550984179 0 0.40715192280340562 0.01462234732060084 0 0.43085411213296282 0.0071934808399317304 0 0.4022109480673669 0.029794301680725051 0 0.41056521822753728 0.033900572446116307 0 0.41918056088687422 0.025106301550984179 0 0.40715192280340562 0.01462234732060084 0 0.43085411213296282 0.0071934808399317304 0 0.41629264407573002 -0.006850845090226044 0 0.43085411213296282 0.0071934808399317304 0 0.45307821764476319 0.010679860235798 0 0.45275060893296981 -0.0060266252809792519 0 0.43671568676264189 0.026676163003921921 0 0.43085411213296282 0.0071934808399317304 0 0.45307821764476319 0.010679860235798 0 0.43671568676264189 0.026676163003921921 0 0.45307821764476319 0.010679860235798 0 0.45536773125663488 0.033055304065500078 0 0.43671568676264189 0.026676163003921921 0 0.45307821764476319 0.010679860235798 0 0.45307821764476319 0.010679860235798 0 0.45536773125663488 0.033055304065500078 0 0.4743220131113518 0.027463297392627269 0 0.45307821764476319 0.010679860235798 0 0.47441986059974051 0.002164373494884166 0 0.4743220131113518 0.027463297392627269 0 0.45307821764476319 0.010679860235798 0 0.47441986059974051 0.002164373494884166 0 0.45275060893296981 -0.0060266252809792519 0 0.45650324214529259 0.065280330615496637 0 0.44127530461137909 0.064432497562673663 0 0.44432976155769699 0.048266315327598383 0 0.44127530461137909 0.064432497562673663 0 0.42690609811089331 0.059013607202760512 0 0.44432976155769699 0.048266315327598383 0 0.43671568676264189 0.026676163003921921 0 0.44432976155769699 0.048266315327598383 0 0.45536773125663488 0.033055304065500078 0 0.45536773125663488 0.033055304065500078 0 0.4683063672348734 0.053860164883151249 0 0.4743220131113518 0.027463297392627269 0 0.44432976155769699 0.048266315327598383 0 0.45536773125663488 0.033055304065500078 0 0.4683063672348734 0.053860164883151249 0 0.44432976155769699 0.048266315327598383 0 0.4683063672348734 0.053860164883151249 0 0.45650324214529259 0.065280330615496637 0 0.44432976155769699 0.048266315327598383 0 0.4683063672348734 0.053860164883151249 0 0.47714578073418512 0.066537383845565096 0 0.45650324214529259 0.065280330615496637 0 0.4683063672348734 0.053860164883151249 0 0.47714578073418512 0.066537383845565096 0 0.4683063672348734 0.053860164883151249 0 0.49228297291204992 0.059454014438704107 0 0.4683063672348734 0.053860164883151249 0 0.48335627184046892 0.043534316590418197 0 0.49228297291204992 0.059454014438704107 0 0.4683063672348734 0.053860164883151249 0 0.49228297291204992 0.059454014438704107 0 0.4683063672348734 0.053860164883151249 0 0.48335627184046892 0.043534316590418197 0 0.4743220131113518 0.027463297392627269 0 0.48335627184046892 0.043534316590418197 0 0.5 0.03604371684448926 0 0.4743220131113518 0.027463297392627269 0 0.48335627184046892 0.043534316590418197 0 0.5 0.03604371684448926 0 0.49228297291204992 0.059454014438704107 0 0.5 0.065085683867034727 0 0.5 0.03604371684448926 0 0.49228297291204992 0.059454014438704107 0 0.47441986059974051 0.002164373494884166 0 0.4743220131113518 0.027463297392627269 0 0.5 0.0070017498219436813 0 0.5 0.03604371684448926 0 0.4743220131113518 0.027463297392627269 0 0.5 0.0070017498219436813 0 0.47441986059974051 0.002164373494884166 0 0.5 0.0070017498219436813 0 0.48435038112254591 -0.01295811459108822 0 0.5 0.0070017498219436813 0 0.48435038112254591 -0.01295811459108822 0 0.5 -0.022040217200601949 0 0.47441986059974051 0.002164373494884166 0 0.48435038112254591 -0.01295811459108822 0 0.46567746476080879 -0.018036067265790781 0 0.48165458025218022 -0.033880411805876212 0 0.46055892944421639 -0.034826981934293802 0 0.46567746476080879 -0.018036067265790781 0 0.48435038112254591 -0.01295811459108822 0 0.48165458025218022 -0.033880411805876212 0 0.46567746476080879 -0.018036067265790781 0 0.48435038112254591 -0.01295811459108822 0 0.5 -0.022040217200601949 0 0.48165458025218022 -0.033880411805876212 0 0.5 -0.051082184223147482 0 0.48331950433178789 -0.05028970193443566 0 0.48165458025218022 -0.033880411805876212 0 0.5 -0.022040217200601949 0 0.5 -0.051082184223147482 0 0.48165458025218022 -0.033880411805876212 0 0.5 -0.051082184223147482 0 0.48331950433178789 -0.05028970193443566 0 0.48351099524096458 -0.065188187078006596 0 0.46811244183400691 -0.051008024630712363 0 0.48351099524096458 -0.065188187078006596 0 0.46325174163611299 -0.065085723760132191 0 0.48331950433178789 -0.05028970193443566 0 0.46811244183400691 -0.051008024630712363 0 0.48351099524096458 -0.065188187078006596 0 0.48331950433178789 -0.05028970193443566 0 0.48165458025218022 -0.033880411805876212 0 0.46811244183400691 -0.051008024630712363 0 0.48165458025218022 -0.033880411805876212 0 0.46055892944421639 -0.034826981934293802 0 0.46811244183400691 -0.051008024630712363 0 0.46055892944421639 -0.034826981934293802 0 0.46811244183400691 -0.051008024630712363 0 0.44580381826440463 -0.044156532015693237 0 0.46811244183400691 -0.051008024630712363 0 0.44580381826440463 -0.044156532015693237 0 0.46325174163611299 -0.065085723760132191 0 0.44580381826440463 -0.044156532015693237 0 0.46325174163611299 -0.065085723760132191 0 0.46811244183400691 -0.051008024630712363 0 0.46325174163611299 -0.065085723760132191 0 0.44420654965085082 -0.062216100931960373 0 0.44580381826440463 -0.044156532015693237 0 0.42712667170951002 -0.058909162300086547 0 0.44420654965085082 -0.062216100931960373 0 0.44580381826440463 -0.044156532015693237 0 0.46325174163611299 -0.065085723760132191 0 0.46055892944421639 -0.034826981934293802 0 0.44580381826440463 -0.044156532015693237 0 0.43960160651246799 -0.018737423931294579 0 0.43960160651246799 -0.018737423931294579 0 0.45275060893296981 -0.0060266252809792519 0 0.46567746476080879 -0.018036067265790781 0 0.43085411213296282 0.0071934808399317304 0 0.43960160651246799 -0.018737423931294579 0 0.45275060893296981 -0.0060266252809792519 0 0.47441986059974051 0.002164373494884166 0 0.45275060893296981 -0.0060266252809792519 0 0.46567746476080879 -0.018036067265790781 0 0.46055892944421639 -0.034826981934293802 0 0.43960160651246799 -0.018737423931294579 0 0.46567746476080879 -0.018036067265790781 0 0.47818452339587708 -0.1165119508780514 0 0.50000000000000278 -0.1091661182682386 0 0.5 -0.13347981615570359 0 0.50000000000000278 -0.1091661182682386 0 0.48162587081805858 -0.087125921014184843 0 0.47818452339587708 -0.1165119508780514 0 0.50000000000000278 -0.1091661182682386 0 0.47745756082527618 -0.1021495788090297 0 0.50000000000000278 -0.1091661182682386 0 0.47745756082527618 -0.1021495788090297 0 0.48162587081805858 -0.087125921014184843 0 0.47818452339587708 -0.1165119508780514 0 0.47745756082527618 -0.1021495788090297 0 0.45929027747438272 -0.10448110762161331 0 0.47745756082527618 -0.1021495788090297 0 0.48162587081805858 -0.087125921014184843 0 0.46818713243806243 -0.093462796263060144 0 0.48162587081805858 -0.087125921014184843 0 0.46325174163611299 -0.065085723760132191 0 0.46656747462136422 -0.083363997574371698 0 0.48162587081805858 -0.087125921014184843 0 0.46656747462136422 -0.083363997574371698 0 0.46818713243806243 -0.093462796263060144 0 0.50000000000000278 -0.1091661182682386 0 0.48162587081805858 -0.087125921014184843 0 0.5 -0.080124151245693054 0 0.48162587081805858 -0.087125921014184843 0 0.5 -0.080124151245693054 0 0.48351099524096458 -0.065188187078006596 0 0.5 -0.051082184223147482 0 0.5 -0.080124151245693054 0 0.48351099524096458 -0.065188187078006596 0 0.48162587081805858 -0.087125921014184843 0 0.48351099524096458 -0.065188187078006596 0 0.46325174163611299 -0.065085723760132191 0 0.48162587081805858 -0.087125921014184843 0 0.46325174163611299 -0.065085723760132191 0 0.46325174163611299 -0.065085723760132191 0 0.44779547222269012 -0.07571174360441861 0 0.4542230721705241 -0.091234814858292518 0 0.44420654965085082 -0.062216100931960373 0 0.46325174163611299 -0.065085723760132191 0 0.44779547222269012 -0.07571174360441861 0 0.44420654965085082 -0.062216100931960373 0 0.44779547222269012 -0.07571174360441861 0 0.43605259790445722 -0.074801038719200894 0 0.44779547222269012 -0.07571174360441861 0 0.441034556727114 -0.086800976364950752 0 0.4542230721705241 -0.091234814858292518 0 0.44779547222269012 -0.07571174360441861 0 0.441034556727114 -0.086800976364950752 0 0.43605259790445722 -0.074801038719200894 0 0.441034556727114 -0.086800976364950752 0 0.4542230721705241 -0.091234814858292518 0 0.44037425786955031 -0.1001430447449046 0 0.46325174163611299 -0.065085723760132191 0 0.4542230721705241 -0.091234814858292518 0 0.46325174163611299 -0.065085723760132191 0 0.4542230721705241 -0.091234814858292518 0 0.46656747462136422 -0.083363997574371698 0 0.4542230721705241 -0.091234814858292518 0 0.46656747462136422 -0.083363997574371698 0 0.46818713243806243 -0.093462796263060144 0 0.47745756082527618 -0.1021495788090297 0 0.46818713243806243 -0.093462796263060144 0 0.45929027747438272 -0.10448110762161331 0 0.4542230721705241 -0.091234814858292518 0 0.46818713243806243 -0.093462796263060144 0 0.45929027747438272 -0.10448110762161331 0 0.4542230721705241 -0.091234814858292518 0 0.45929027747438272 -0.10448110762161331 0 0.44519440270493238 -0.1173839059564518 0 0.4542230721705241 -0.091234814858292518 0 0.44519440270493238 -0.1173839059564518 0 0.4542230721705241 -0.091234814858292518 0 0.44037425786955031 -0.1001430447449046 0 0.44519440270493238 -0.1173839059564518 0 0.45929027747438272 -0.10448110762161331 0 0.44519440270493238 -0.1173839059564518 0 0.44037425786955031 -0.1001430447449046 0 0.44519440270493238 -0.1173839059564518 0 0.43733469804818831 -0.11156713863760261 0 0.44519440270493238 -0.1173839059564518 0 0.43583674875745881 -0.11887614197332121 0 0.43733469804818831 -0.11156713863760261 0 0.44519440270493238 -0.1173839059564518 0 0.44103349219651622 -0.1294348541443999 0 0.44519440270493238 -0.1173839059564518 0 0.43473286131254663 -0.1269599813022704 0 0.44519440270493238 -0.1173839059564518 0 0.43652399803370612 -0.1266503843383173 0 0.44103349219651622 -0.1294348541443999 0 0.44519440270493238 -0.1173839059564518 0 0.43473286131254663 -0.1269599813022704 0 0.43652399803370612 -0.1266503843383173 0 0.44519440270493238 -0.1173839059564518 0 0.43583674875745881 -0.11887614197332121 0 0.43473286131254663 -0.1269599813022704 0 0.44519440270493238 -0.1173839059564518 0 0.4507048422038758 -0.1254569291466279 0 0.44103349219651622 -0.1294348541443999 0 0.44519440270493238 -0.1173839059564518 0 0.45845740270007618 -0.1179768520576317 0 0.4507048422038758 -0.1254569291466279 0 0.47818452339587708 -0.1165119508780514 0 0.45929027747438272 -0.10448110762161331 0 0.45845740270007618 -0.1179768520576317 0 0.45845740270007618 -0.1179768520576317 0 0.46233294642030121 -0.13029577410444981 0 0.4507048422038758 -0.1254569291466279 0 0.47818452339587708 -0.1165119508780514 0 0.45845740270007618 -0.1179768520576317 0 0.46233294642030121 -0.13029577410444981 0 0.45929027747438272 -0.10448110762161331 0 0.44519440270493238 -0.1173839059564518 0 0.45845740270007618 -0.1179768520576317 0 0.40724277249555002 -0.1192463337858536 0 0.41884687315735308 -0.1196411488000769 0 0.41208161927757919 -0.13087523561031761 0 0.40724277249555002 -0.1192463337858536 0 0.41698364908723728 -0.1130169343472482 0 0.41068457829189181 -0.1070723437572161 0 0.41698364908723728 -0.1130169343472482 0 0.4250766521847687 -0.1135111272305598 0 0.42274743771597889 -0.1059915359454271 0 0.41698364908723728 -0.1130169343472482 0 0.41884687315735308 -0.1196411488000769 0 0.4250766521847687 -0.1135111272305598 0 0.40724277249555002 -0.1192463337858536 0 0.41698364908723728 -0.1130169343472482 0 0.41884687315735308 -0.1196411488000769 0 0.41884687315735308 -0.1196411488000769 0 0.42661387223904329 -0.12098454377727109 0 0.41208161927757919 -0.13087523561031761 0 0.41884687315735308 -0.1196411488000769 0 0.42661387223904329 -0.12098454377727109 0 0.4250766521847687 -0.1135111272305598 0 0.42661387223904329 -0.12098454377727109 0 0.43583674875745881 -0.11887614197332121 0 0.43473286131254663 -0.1269599813022704 0 0.42661387223904329 -0.12098454377727109 0 0.43583674875745881 -0.11887614197332121 0 0.43287065052056112 -0.1145040342651165 0 0.43733469804818831 -0.11156713863760261 0 0.43287065052056112 -0.1145040342651165 0 0.43239743038843881 -0.106928566248219 0 0.43583674875745881 -0.11887614197332121 0 0.43733469804818831 -0.11156713863760261 0 0.43287065052056112 -0.1145040342651165 0 0.43287065052056112 -0.1145040342651165 0 0.4250766521847687 -0.1135111272305598 0 0.43239743038843881 -0.106928566248219 0 0.42661387223904329 -0.12098454377727109 0 0.43287065052056112 -0.1145040342651165 0 0.4250766521847687 -0.1135111272305598 0 0.4250766521847687 -0.1135111272305598 0 0.42274743771597889 -0.1059915359454271 0 0.43239743038843881 -0.106928566248219 0 0.42274743771597889 -0.1059915359454271 0 0.43239743038843881 -0.106928566248219 0 0.42854124961890733 -0.099856724000988273 0 0.44037425786955031 -0.1001430447449046 0 0.43239743038843881 -0.106928566248219 0 0.42854124961890733 -0.099856724000988273 0 0.44037425786955031 -0.1001430447449046 0 0.43733469804818831 -0.11156713863760261 0 0.43239743038843881 -0.106928566248219 0 0.44037425786955031 -0.1001430447449046 0 0.42854124961890733 -0.099856724000988273 0 0.42870758522811919 -0.089164076341860632 0 0.42274743771597889 -0.1059915359454271 0 0.42854124961890733 -0.099856724000988273 0 0.41847953689244971 -0.097056396724529995 0 0.42854124961890733 -0.099856724000988273 0 0.41847953689244971 -0.097056396724529995 0 0.42870758522811919 -0.089164076341860632 0 0.42274743771597889 -0.1059915359454271 0 0.41847953689244971 -0.097056396724529995 0 0.41068457829189181 -0.1070723437572161 0 0.41698364908723728 -0.1130169343472482 0 0.42274743771597889 -0.1059915359454271 0 0.41068457829189181 -0.1070723437572161 0 0.41847953689244971 -0.097056396724529995 0 0.41068457829189181 -0.1070723437572161 0 0.40440998182912408 -0.094196755676502056 0 0.40751187940595462 -0.08478461483936342 0 0.41476450049512009 -0.087087396641621656 0 0.40440998182912408 -0.094196755676502056 0 0.41847953689244971 -0.097056396724529995 0 0.41476450049512009 -0.087087396641621656 0 0.40440998182912408 -0.094196755676502056 0 0.40751187940595462 -0.08478461483936342 0 0.41476450049512009 -0.087087396641621656 0 0.40927176781453312 -0.077086569868640542 0 0.40751187940595462 -0.08478461483936342 0 0.40927176781453312 -0.077086569868640542 0 0.40237588567979138 -0.081472047511817525 0 0.41476450049512009 -0.087087396641621656 0 0.42870758522811919 -0.089164076341860632 0 0.42122478008006597 -0.0757594802833121 0 0.41476450049512009 -0.087087396641621656 0 0.42122478008006597 -0.0757594802833121 0 0.40927176781453312 -0.077086569868640542 0 0.41847953689244971 -0.097056396724529995 0 0.41476450049512009 -0.087087396641621656 0 0.42870758522811919 -0.089164076341860632 0 0.441034556727114 -0.086800976364950752 0 0.44037425786955031 -0.1001430447449046 0 0.42870758522811919 -0.089164076341860632 0 0.441034556727114 -0.086800976364950752 0 0.42870758522811919 -0.089164076341860632 0 0.43605259790445722 -0.074801038719200894 0 0.42870758522811919 -0.089164076341860632 0 0.43605259790445722 -0.074801038719200894 0 0.42122478008006597 -0.0757594802833121 0 0.43605259790445722 -0.074801038719200894 0 0.42122478008006597 -0.0757594802833121 0 0.42712667170951002 -0.058909162300086547 0 0.44420654965085082 -0.062216100931960373 0 0.43605259790445722 -0.074801038719200894 0 0.42712667170951002 -0.058909162300086547 0 0.42122478008006597 -0.0757594802833121 0 0.4114316245373863 -0.068167670275121897 0 0.42712667170951002 -0.058909162300086547 0 0.40927176781453312 -0.077086569868640542 0 0.4114316245373863 -0.068167670275121897 0 0.39842538017083612 -0.076484449263173909 0 0.42122478008006597 -0.0757594802833121 0 0.40927176781453312 -0.077086569868640542 0 0.4114316245373863 -0.068167670275121897 0 0.4114316245373863 -0.068167670275121897 0 0.39842538017083612 -0.076484449263173909 0 0.40640664480004829 -0.052123305293471443 0 0.39842538017083612 -0.076484449263173909 0 0.38906844471504909 -0.048791226331097663 0 0.4114316245373863 -0.068167670275121897 0 0.39842538017083612 -0.076484449263173909 0 0.39842538017083612 -0.076484449263173909 0 0.38333741963197843 -0.065496938221855289 0 0.38906844471504909 -0.048791226331097663 0 0.39842538017083612 -0.076484449263173909 0 0.38333741963197843 -0.065496938221855289 0 0.37036238702559748 -0.076146834841134659 0 0.39842538017083612 -0.076484449263173909 0 0.373127492796404 -0.092661058915291472 0 0.39842538017083612 -0.076484449263173909 0 0.37036238702559748 -0.076146834841134659 0 0.373127492796404 -0.092661058915291472 0 0.39842538017083612 -0.076484449263173909 0 0.3905434538793735 -0.094168622203984975 0 0.373127492796404 -0.092661058915291472 0 0.39842538017083612 -0.076484449263173909 0 0.40142869859064212 -0.08537321064543299 0 0.3905434538793735 -0.094168622203984975 0 0.39842538017083612 -0.076484449263173909 0 0.40142869859064212 -0.08537321064543299 0 0.40237588567979138 -0.081472047511817525 0 0.40927176781453312 -0.077086569868640542 0 0.39842538017083612 -0.076484449263173909 0 0.40237588567979138 -0.081472047511817525 0 0.39842538017083612 -0.076484449263173909 0 0.40142869859064212 -0.08537321064543299 0 0.40142869859064212 -0.08537321064543299 0 0.40237588567979138 -0.081472047511817525 0 0.40751187940595462 -0.08478461483936342 0 0.40142869859064212 -0.08537321064543299 0 0.40237588567979138 -0.081472047511817525 0 0.40751187940595462 -0.08478461483936342 0 0.40142869859064212 -0.08537321064543299 0 0.40440998182912408 -0.094196755676502056 0 0.40142869859064212 -0.08537321064543299 0 0.40440998182912408 -0.094196755676502056 0 0.40142869859064212 -0.08537321064543299 0 0.39542953791662688 -0.1100818502818986 0 0.40142869859064212 -0.08537321064543299 0 0.3905434538793735 -0.094168622203984975 0 0.39542953791662688 -0.1100818502818986 0 0.40142869859064212 -0.08537321064543299 0 0.40440998182912408 -0.094196755676502056 0 0.39542953791662688 -0.1100818502818986 0 0.41068457829189181 -0.1070723437572161 0 0.40440998182912408 -0.094196755676502056 0 0.39542953791662688 -0.1100818502818986 0 0.3905434538793735 -0.094168622203984975 0 0.38430615992235861 -0.10624254191412789 0 0.373127492796404 -0.092661058915291472 0 0.3905434538793735 -0.094168622203984975 0 0.38430615992235861 -0.10624254191412789 0 0.39542953791662688 -0.1100818502818986 0 0.38430615992235861 -0.10624254191412789 0 0.373127492796404 -0.092661058915291472 0 0.37262698081820339 -0.10985920037046069 0 0.38430615992235861 -0.10624254191412789 0 0.37980885755413418 -0.11928611433555709 0 0.39542953791662688 -0.1100818502818986 0 0.37980885755413418 -0.11928611433555709 0 0.39542953791662688 -0.1100818502818986 0 0.38943037724261159 -0.1347904899183642 0 0.38430615992235861 -0.10624254191412789 0 0.37980885755413418 -0.11928611433555709 0 0.37262698081820339 -0.10985920037046069 0 0.40724277249555002 -0.1192463337858536 0 0.39542953791662688 -0.1100818502818986 0 0.38943037724261159 -0.1347904899183642 0 0.39542953791662688 -0.1100818502818986 0 0.38943037724261159 -0.1347904899183642 0 0.40724277249555002 -0.1192463337858536 0 0.41068457829189181 -0.1070723437572161 0 0.39542953791662688 -0.1100818502818986 0 0.41629264407573002 -0.006850845090226044 0 0.42276864855888052 -0.033584784942844392 0 0.40125875037878711 -0.026146768788422061 0 0.43085411213296282 0.0071934808399317304 0 0.43960160651246799 -0.018737423931294579 0 0.41629264407573002 -0.006850845090226044 0 0.43960160651246799 -0.018737423931294579 0 0.41629264407573002 -0.006850845090226044 0 0.42276864855888052 -0.033584784942844392 0 0.44580381826440463 -0.044156532015693237 0 0.42276864855888052 -0.033584784942844392 0 0.42712667170951002 -0.058909162300086547 0 0.44580381826440463 -0.044156532015693237 0 0.43960160651246799 -0.018737423931294579 0 0.42276864855888052 -0.033584784942844392 0 0.4114316245373863 -0.068167670275121897 0 0.42712667170951002 -0.058909162300086547 0 0.40640664480004829 -0.052123305293471443 0 0.42276864855888052 -0.033584784942844392 0 0.42712667170951002 -0.058909162300086547 0 0.40640664480004829 -0.052123305293471443 0 0.42276864855888052 -0.033584784942844392 0 0.40640664480004829 -0.052123305293471443 0 0.40125875037878711 -0.026146768788422061 0 0.40640664480004829 -0.052123305293471443 0 0.38906844471504909 -0.048791226331097663 0 0.40125875037878711 -0.026146768788422061 0 0.39842538017083612 -0.076484449263173909 0 0.40640664480004829 -0.052123305293471443 0 0.38906844471504909 -0.048791226331097663 0 0.38906844471504909 -0.048791226331097663 0 0.36552082236990341 -0.042261935088275922 0 0.37096486530484057 -0.058236420929508259 0 0.38333741963197843 -0.065496938221855289 0 0.38906844471504909 -0.048791226331097663 0 0.37096486530484057 -0.058236420929508259 0 0.38906844471504909 -0.048791226331097663 0 0.37971150925926189 -0.0210980033990215 0 0.40125875037878711 -0.026146768788422061 0 0.38906844471504909 -0.048791226331097663 0 0.37971150925926189 -0.0210980033990215 0 0.36552082236990341 -0.042261935088275922 0 0.38906844471504909 -0.048791226331097663 0 0.37971150925926189 -0.0210980033990215 0 0.3939873043738738 0.005606014803845533 0 0.37971150925926189 -0.0210980033990215 0 0.40125875037878711 -0.026146768788422061 0 0.3939873043738738 0.005606014803845533 0 0.41629264407573002 -0.006850845090226044 0 0.40125875037878711 -0.026146768788422061 0 0.37357914744350779 0.002440479778912224 0 0.3939873043738738 0.005606014803845533 0 0.37971150925926189 -0.0210980033990215 0 0.37357914744350779 0.002440479778912224 0 0.35598292622536432 0.0074660699477739154 0 0.35747226134953669 -0.011539359516293059 0 0.37357914744350779 0.002440479778912224 0 0.37971150925926189 -0.0210980033990215 0 0.35747226134953669 -0.011539359516293059 0 0.37971150925926189 -0.0210980033990215 0 0.3567572465296398 -0.028300240308235611 0 0.35747226134953669 -0.011539359516293059 0 0.37971150925926189 -0.0210980033990215 0 0.3567572465296398 -0.028300240308235611 0 0.36552082236990341 -0.042261935088275922 0 0.3567572465296398 -0.028300240308235611 0 0.34108130633743572 -0.022855778308436141 0 0.34876980709143918 -0.036804132634757111 0 0.3567572465296398 -0.028300240308235611 0 0.35747226134953669 -0.011539359516293059 0 0.34108130633743572 -0.022855778308436141 0 0.35598292622536432 0.0074660699477739154 0 0.35747226134953669 -0.011539359516293059 0 0.33772143230201052 -0.0068886848087512803 0 0.35747226134953669 -0.011539359516293059 0 0.33772143230201052 -0.0068886848087512803 0 0.34108130633743572 -0.022855778308436141 0 0.33772143230201052 -0.0068886848087512803 0 0.34108130633743572 -0.022855778308436141 0 0.317215061455216 -0.016157064213598971 0 0.34108130633743572 -0.022855778308436141 0 0.317215061455216 -0.016157064213598971 0 0.33020564447161199 -0.035019528032180489 0 0.317215061455216 -0.016157064213598971 0 0.33020564447161199 -0.035019528032180489 0 0.317215061455216 -0.016157064213598971 0 0.31587151978819911 -0.020338956197947448 0 0.33020564447161199 -0.035019528032180489 0 0.31587151978819911 -0.020338956197947448 0 0.33020564447161199 -0.035019528032180489 0 0.317215061455216 -0.016157064213598971 0 0.31587151978819911 -0.020338956197947448 0 0.32325249182581611 0.0026349705202008129 0 0.317215061455216 -0.016157064213598971 0 0.32325249182581611 0.0026349705202008129 0 0.33772143230201052 -0.0068886848087512803 0 0.317215061455216 -0.016157064213598971 0 0.32325249182581611 0.0026349705202008129 0 0.317215061455216 -0.016157064213598971 0 0.30690038754225768 -0.0011800486910433781 0 0.32587161445787949 -0.051186402763021513 0 0.31829608624605688 -0.065472752473192938 0 0.30886460616181383 -0.042148593106558697 0 0.32587161445787949 -0.051186402763021513 0 0.33198766712898281 -0.064044197254424853 0 0.31829608624605688 -0.065472752473192938 0 0.31587151978819911 -0.020338956197947448 0 0.33020564447161199 -0.035019528032180489 0 0.30886460616181383 -0.042148593106558697 0 0.32587161445787949 -0.051186402763021513 0 0.33020564447161199 -0.035019528032180489 0 0.30886460616181383 -0.042148593106558697 0 0.34108130633743572 -0.022855778308436141 0 0.33020564447161199 -0.035019528032180489 0 0.34876980709143918 -0.036804132634757111 0 0.32587161445787949 -0.051186402763021513 0 0.33020564447161199 -0.035019528032180489 0 0.34000406828093183 -0.049246942948750677 0 0.33020564447161199 -0.035019528032180489 0 0.3502840157486049 -0.055583181436657553 0 0.33020564447161199 -0.035019528032180489 0 0.34000406828093183 -0.049246942948750677 0 0.33020564447161199 -0.035019528032180489 0 0.34000406828093183 -0.049246942948750677 0 0.3502840157486049 -0.055583181436657553 0 0.33020564447161199 -0.035019528032180489 0 0.3502840157486049 -0.055583181436657553 0 0.34876980709143918 -0.036804132634757111 0 0.34000406828093183 -0.049246942948750677 0 0.33198766712898281 -0.064044197254424853 0 0.34180884154053498 -0.065879049105621951 0 0.32587161445787949 -0.051186402763021513 0 0.34000406828093183 -0.049246942948750677 0 0.33198766712898281 -0.064044197254424853 0 0.34000406828093183 -0.049246942948750677 0 0.34980249209025183 -0.063474357865320699 0 0.34000406828093183 -0.049246942948750677 0 0.34980249209025183 -0.063474357865320699 0 0.34180884154053498 -0.065879049105621951 0 0.34000406828093183 -0.049246942948750677 0 0.3502840157486049 -0.055583181436657553 0 0.34980249209025183 -0.063474357865320699 0 0.3502840157486049 -0.055583181436657553 0 0.34980249209025183 -0.063474357865320699 0 0.35472253155892502 -0.068395270968063401 0 0.3502840157486049 -0.055583181436657553 0 0.34876980709143918 -0.036804132634757111 0 0.36552082236990341 -0.042261935088275922 0 0.3567572465296398 -0.028300240308235611 0 0.34876980709143918 -0.036804132634757111 0 0.36552082236990341 -0.042261935088275922 0 0.3502840157486049 -0.055583181436657553 0 0.36552082236990341 -0.042261935088275922 0 0.37096486530484057 -0.058236420929508259 0 0.3502840157486049 -0.055583181436657553 0 0.37096486530484057 -0.058236420929508259 0 0.37036238702559748 -0.076146834841134659 0 0.38333741963197843 -0.065496938221855289 0 0.37096486530484057 -0.058236420929508259 0 0.37036238702559748 -0.076146834841134659 0 0.3502840157486049 -0.055583181436657553 0 0.37036238702559748 -0.076146834841134659 0 0.37036238702559748 -0.076146834841134659 0 0.35472253155892502 -0.068395270968063401 0 0.35439705838588692 -0.077054866778644621 0 0.37036238702559748 -0.076146834841134659 0 0.36026598055858428 -0.086219317086442732 0 0.35439705838588692 -0.077054866778644621 0 0.37036238702559748 -0.076146834841134659 0 0.373127492796404 -0.092661058915291472 0 0.36026598055858428 -0.086219317086442732 0 0.373127492796404 -0.092661058915291472 0 0.36026598055858428 -0.086219317086442732 0 0.35442896873054819 -0.093899165736773108 0 0.36026598055858428 -0.086219317086442732 0 0.34819406691839527 -0.085912356067407769 0 0.35439705838588692 -0.077054866778644621 0 0.36026598055858428 -0.086219317086442732 0 0.34819406691839527 -0.085912356067407769 0 0.35442896873054819 -0.093899165736773108 0 0.34819406691839527 -0.085912356067407769 0 0.35442896873054819 -0.093899165736773108 0 0.34250823495700278 -0.096843945418323016 0 0.34819406691839527 -0.085912356067407769 0 0.35439705838588692 -0.077054866778644621 0 0.34213718893203959 -0.07422010281979162 0 0.3502840157486049 -0.055583181436657553 0 0.37036238702559748 -0.076146834841134659 0 0.35472253155892502 -0.068395270968063401 0 0.34876670454428399 -0.06971711391855949 0 0.35439705838588692 -0.077054866778644621 0 0.34213718893203959 -0.07422010281979162 0 0.34980249209025183 -0.063474357865320699 0 0.34876670454428399 -0.06971711391855949 0 0.34180884154053498 -0.065879049105621951 0 0.34876670454428399 -0.06971711391855949 0 0.34180884154053498 -0.065879049105621951 0 0.34213718893203959 -0.07422010281979162 0 0.34980249209025183 -0.063474357865320699 0 0.34876670454428399 -0.06971711391855949 0 0.35472253155892502 -0.068395270968063401 0 0.34876670454428399 -0.06971711391855949 0 0.35472253155892502 -0.068395270968063401 0 0.35439705838588692 -0.077054866778644621 0 0.36703358201424818 -0.1205643964158449 0 0.35968204517414459 -0.1107584800748472 0 0.35606369033391522 -0.1259709067163762 0 0.37980885755413418 -0.11928611433555709 0 0.36703358201424818 -0.1205643964158449 0 0.37262698081820339 -0.10985920037046069 0 0.36703358201424818 -0.1205643964158449 0 0.37262698081820339 -0.10985920037046069 0 0.35968204517414459 -0.1107584800748472 0 0.373127492796404 -0.092661058915291472 0 0.3478296054219725 -0.1088376685674099 0 0.373127492796404 -0.092661058915291472 0 0.37262698081820339 -0.10985920037046069 0 0.35968204517414459 -0.1107584800748472 0 0.373127492796404 -0.092661058915291472 0 0.35968204517414459 -0.1107584800748472 0 0.3478296054219725 -0.1088376685674099 0 0.373127492796404 -0.092661058915291472 0 0.35442896873054819 -0.093899165736773108 0 0.3478296054219725 -0.1088376685674099 0 0.35442896873054819 -0.093899165736773108 0 0.3478296054219725 -0.1088376685674099 0 0.34250823495700278 -0.096843945418323016 0 0.3478296054219725 -0.1088376685674099 0 0.34004518790650529 -0.12527848050574 0 0.35606369033391522 -0.1259709067163762 0 0.35968204517414459 -0.1107584800748472 0 0.3478296054219725 -0.1088376685674099 0 0.35606369033391522 -0.1259709067163762 0 0.35968204517414459 -0.1107584800748472 0 0.35606369033391522 -0.1259709067163762 0 0.3478296054219725 -0.1088376685674099 0 0.3336003219875231 -0.1076211020920432 0 0.32253171804754088 -0.12501427821952829 0 0.3478296054219725 -0.1088376685674099 0 0.32253171804754088 -0.12501427821952829 0 0.34004518790650529 -0.12527848050574 0 0.3478296054219725 -0.1088376685674099 0 0.32253171804754088 -0.12501427821952829 0 0.3336003219875231 -0.1076211020920432 0 0.3322859580981179 -0.098725703467523684 0 0.32284609341298121 -0.10868391478743129 0 0.3478296054219725 -0.1088376685674099 0 0.3336003219875231 -0.1076211020920432 0 0.34250823495700278 -0.096843945418323016 0 0.3336003219875231 -0.1076211020920432 0 0.34250823495700278 -0.096843945418323016 0 0.3322859580981179 -0.098725703467523684 0 0.34250823495700278 -0.096843945418323016 0 0.3322859580981179 -0.098725703467523684 0 0.33540967344911948 -0.088036983583798772 0 0.32220919005921328 -0.094454801116449272 0 0.31258915767766499 -0.1029799685902579 0 0.31246538712165289 -0.087003597160487944 0 0.3322859580981179 -0.098725703467523684 0 0.32220919005921328 -0.094454801116449272 0 0.32284609341298121 -0.10868391478743129 0 0.32220919005921328 -0.094454801116449272 0 0.31258915767766499 -0.1029799685902579 0 0.32284609341298121 -0.10868391478743129 0 0.31258915767766499 -0.1029799685902579 0 0.32284609341298121 -0.10868391478743129 0 0.30701266551867318 -0.11795202584412939 0 0.3336003219875231 -0.1076211020920432 0 0.32284609341298121 -0.10868391478743129 0 0.32253171804754088 -0.12501427821952829 0 0.32284609341298121 -0.10868391478743129 0 0.30701266551867318 -0.11795202584412939 0 0.32253171804754088 -0.12501427821952829 0 0.33198766712898281 -0.064044197254424853 0 0.34213718893203959 -0.07422010281979162 0 0.32642601186692399 -0.078569743361430744 0 0.33198766712898281 -0.064044197254424853 0 0.34180884154053498 -0.065879049105621951 0 0.34213718893203959 -0.07422010281979162 0 0.34213718893203959 -0.07422010281979162 0 0.33540967344911948 -0.088036983583798772 0 0.32642601186692399 -0.078569743361430744 0 0.34819406691839527 -0.085912356067407769 0 0.34213718893203959 -0.07422010281979162 0 0.33540967344911948 -0.088036983583798772 0 0.34819406691839527 -0.085912356067407769 0 0.34250823495700278 -0.096843945418323016 0 0.33540967344911948 -0.088036983583798772 0 0.3322859580981179 -0.098725703467523684 0 0.32220919005921328 -0.094454801116449272 0 0.33540967344911948 -0.088036983583798772 0 0.32220919005921328 -0.094454801116449272 0 0.33540967344911948 -0.088036983583798772 0 0.32642601186692399 -0.078569743361430744 0 0.32220919005921328 -0.094454801116449272 0 0.32642601186692399 -0.078569743361430744 0 0.31246538712165289 -0.087003597160487944 0 0.32642601186692399 -0.078569743361430744 0 0.31246538712165289 -0.087003597160487944 0 0.32642601186692399 -0.078569743361430744 0 0.31829608624605688 -0.065472752473192938 0 0.31246538712165289 -0.087003597160487944 0 0.33198766712898281 -0.064044197254424853 0 0.32642601186692399 -0.078569743361430744 0 0.31829608624605688 -0.065472752473192938 0 0.31829608624605688 -0.065472752473192938 0 0.30185769253542699 -0.063958230015169509 0 0.31246538712165289 -0.087003597160487944 0 0.30185769253542699 -0.063958230015169509 0 0.29485077890903838 -0.08576786692377969 0 0.31246538712165289 -0.087003597160487944 0 0.29485077890903838 -0.08576786692377969 0 0.29850476237638052 -0.095437450959542897 0 0.30185769253542699 -0.063958230015169509 0 0.31246538712165289 -0.087003597160487944 0 0.29485077890903838 -0.08576786692377969 0 0.31246538712165289 -0.087003597160487944 0 0.29850476237638052 -0.095437450959542897 0 0.29485077890903838 -0.08576786692377969 0 0.29011601486440819 -0.10050523777883651 0 0.27233191485367331 -0.086662364145387083 0 0.29485077890903838 -0.08576786692377969 0 0.29850476237638052 -0.095437450959542897 0 0.29485077890903838 -0.08576786692377969 0 0.29011601486440819 -0.10050523777883651 0 0.30185769253542699 -0.063958230015169509 0 0.29485077890903838 -0.08576786692377969 0 0.28549509337792828 -0.061009794462930381 0 0.29485077890903838 -0.08576786692377969 0 0.27233191485367331 -0.086662364145387083 0 0.28549509337792828 -0.061009794462930381 0 0.29485077890903838 -0.08576786692377969 0 0.28549509337792828 -0.061009794462930381 0 0.30701266551867318 -0.11795202584412939 0 0.29478762612759141 -0.11288625738249181 0 0.29867666688697703 -0.1272849549211697 0 0.30701266551867318 -0.11795202584412939 0 0.29850476237638052 -0.095437450959542897 0 0.29478762612759141 -0.11288625738249181 0 0.31258915767766499 -0.1029799685902579 0 0.30701266551867318 -0.11795202584412939 0 0.29850476237638052 -0.095437450959542897 0 0.30701266551867318 -0.11795202584412939 0 0.29850476237638052 -0.095437450959542897 0 0.31258915767766499 -0.1029799685902579 0 0.31246538712165289 -0.087003597160487944 0 0.29850476237638052 -0.095437450959542897 0 0.29850476237638052 -0.095437450959542897 0 0.29011601486440819 -0.10050523777883651 0 0.29478762612759141 -0.11288625738249181 0 0.29850476237638052 -0.095437450959542897 0 0.29011601486440819 -0.10050523777883651 0 0.29485077890903838 -0.08576786692377969 0 0.29850476237638052 -0.095437450959542897 0 0.29011601486440819 -0.10050523777883651 0 0.29011601486440819 -0.10050523777883651 0 0.27631136395687561 -0.10884486509677729 0 0.29011601486440819 -0.10050523777883651 0 0.28377904751550082 -0.12022960778689511 0 0.29011601486440819 -0.10050523777883651 0 0.28377904751550082 -0.12022960778689511 0 0.27631136395687561 -0.10884486509677729 0 0.29011601486440819 -0.10050523777883651 0 0.29478762612759141 -0.11288625738249181 0 0.28377904751550082 -0.12022960778689511 0 0.29478762612759141 -0.11288625738249181 0 0.28377904751550082 -0.12022960778689511 0 0.29867666688697703 -0.1272849549211697 0 0.28377904751550082 -0.12022960778689511 0 0.27500980117207829 -0.12155323577333579 0 0.27631136395687561 -0.10884486509677729 0 0.27631136395687561 -0.10884486509677729 0 0.26250671304934198 -0.1171844924147165 0 0.27500980117207829 -0.12155323577333579 0 0.27631136395687561 -0.10884486509677729 0 0.26250671304934198 -0.1171844924147165 0 0.29011601486440819 -0.10050523777883651 0 0.27631136395687561 -0.10884486509677729 0 0.27233191485367331 -0.086662364145387083 0 0.27631136395687561 -0.10884486509677729 0 0.26480060580106352 -0.1019600400236301 0 0.27233191485367331 -0.086662364145387083 0 0.27631136395687561 -0.10884486509677729 0 0.26480060580106352 -0.1019600400236301 0 0.26250671304934198 -0.1171844924147165 0 0.26480060580106352 -0.1019600400236301 0 0.27233191485367331 -0.086662364145387083 0 0.248052431344363 -0.095148438437639593 0 0.26480060580106352 -0.1019600400236301 0 0.26250671304934198 -0.1171844924147165 0 0.248052431344363 -0.095148438437639593 0 0.26250671304934198 -0.1171844924147165 0 0.248052431344363 -0.095148438437639593 0 0.26250671304934198 -0.1171844924147165 0 0.248052431344363 -0.095148438437639593 0 0.24260121657943401 -0.11258968035378961 0 0.26250671304934198 -0.1171844924147165 0 0.2441250445765018 -0.1282891748563233 0 0.27233191485367331 -0.086662364145387083 0 0.25578894406637898 -0.071814983055159112 0 0.28549509337792828 -0.061009794462930381 0 0.27233191485367331 -0.086662364145387083 0 0.25578894406637898 -0.071814983055159112 0 0.248052431344363 -0.095148438437639593 0 0.25578894406637898 -0.071814983055159112 0 0.26356106344924501 -0.050736506704392427 0 0.24466000719816181 -0.052572806154117767 0 0.27613940784681967 -0.036251722002080641 0 0.28549509337792828 -0.061009794462930381 0 0.26356106344924501 -0.050736506704392427 0 0.27613940784681967 -0.036251722002080641 0 0.28549509337792828 -0.061009794462930381 0 0.25578894406637898 -0.071814983055159112 0 0.26356106344924501 -0.050736506704392427 0 0.28549509337792828 -0.061009794462930381 0 0.26356106344924501 -0.050736506704392427 0 0.25572186475693609 -0.032033227847674262 0 0.24466000719816181 -0.052572806154117767 0 0.26356106344924501 -0.050736506704392427 0 0.27613940784681967 -0.036251722002080641 0 0.25572186475693609 -0.032033227847674262 0 0.25572186475693609 -0.032033227847674262 0 0.24466000719816181 -0.052572806154117767 0 0.25572186475693609 -0.032033227847674262 0 0.25159771702699008 -0.014371615300676641 0 0.26678372231571063 -0.011493649541230871 0 0.25572186475693609 -0.032033227847674262 0 0.26678372231571063 -0.011493649541230871 0 0.26489192350979318 -0.0064873577240775106 0 0.2403210271001277 -0.0038011986657945939 0 0.25900523844679291 0.0090906536209348996 0 0.26489192350979318 -0.0064873577240775106 0 0.2403210271001277 -0.0038011986657945939 0 0.25159771702699008 -0.014371615300676641 0 0.26489192350979318 -0.0064873577240775106 0 0.2403210271001277 -0.0038011986657945939 0 0.25159771702699008 -0.014371615300676641 0 0.26489192350979318 -0.0064873577240775106 0 0.26678372231571063 -0.011493649541230871 0 0.2692248172919926 -0.0069610417805164738 0 0.27741899960964289 -0.015799745368864509 0 0.28512431700806451 -0.0086992195202469716 0 0.2692248172919926 -0.0069610417805164738 0 0.27791710391185381 -0.0010379811687957271 0 0.28512431700806451 -0.0086992195202469716 0 0.2692248172919926 -0.0069610417805164738 0 0.28512431700806451 -0.0086992195202469716 0 0.26701986470523431 0.0028523954276382379 0 0.26489192350979318 -0.0064873577240775106 0 0.2692248172919926 -0.0069610417805164738 0 0.26489192350979318 -0.0064873577240775106 0 0.2692248172919926 -0.0069610417805164738 0 0.2692248172919926 -0.0069610417805164738 0 0.26678372231571063 -0.011493649541230871 0 0.27741899960964289 -0.015799745368864509 0 0.26489192350979318 -0.0064873577240775106 0 0.26678372231571063 -0.011493649541230871 0 0.26489192350979318 -0.0064873577240775106 0 0.2692248172919926 -0.0069610417805164738 0 0.26678372231571063 -0.011493649541230871 0 0.2692248172919926 -0.0069610417805164738 0 0.26678372231571063 -0.011493649541230871 0 0.27613940784681967 -0.036251722002080641 0 0.26678372231571063 -0.011493649541230871 0 0.27613940784681967 -0.036251722002080641 0 0.26678372231571063 -0.011493649541230871 0 0.27741899960964289 -0.015799745368864509 0 0.27613940784681967 -0.036251722002080641 0 0.25572186475693609 -0.032033227847674262 0 0.26678372231571063 -0.011493649541230871 0 0.27613940784681967 -0.036251722002080641 0 0.27741899960964289 -0.015799745368864509 0 0.29413594975842328 -0.02512550933568073 0 0.27741899960964289 -0.015799745368864509 0 0.29413594975842328 -0.02512550933568073 0 0.28512431700806451 -0.0086992195202469716 0 0.28514691493175248 0.01112824383243886 0 0.28512431700806451 -0.0086992195202469716 0 0.30050921735997521 -0.004605356182754896 0 0.29413594975842328 -0.02512550933568073 0 0.28512431700806451 -0.0086992195202469716 0 0.30050921735997521 -0.004605356182754896 0 0.317215061455216 -0.016157064213598971 0 0.31587151978819911 -0.020338956197947448 0 0.30050921735997521 -0.004605356182754896 0 0.31587151978819911 -0.020338956197947448 0 0.30050921735997521 -0.004605356182754896 0 0.317215061455216 -0.016157064213598971 0 0.30050921735997521 -0.004605356182754896 0 0.30690038754225768 -0.0011800486910433781 0 0.317215061455216 -0.016157064213598971 0 0.30690038754225768 -0.0011800486910433781 0 0.31587151978819911 -0.020338956197947448 0 0.29413594975842328 -0.02512550933568073 0 0.30886460616181383 -0.042148593106558697 0 0.31587151978819911 -0.020338956197947448 0 0.29413594975842328 -0.02512550933568073 0 0.30050921735997521 -0.004605356182754896 0 0.31587151978819911 -0.020338956197947448 0 0.30886460616181383 -0.042148593106558697 0 0.29413594975842328 -0.02512550933568073 0 0.30886460616181383 -0.042148593106558697 0 0.29329854993608251 -0.045698769784483992 0 0.31829608624605688 -0.065472752473192938 0 0.30185769253542699 -0.063958230015169509 0 0.30886460616181383 -0.042148593106558697 0 0.30185769253542699 -0.063958230015169509 0 0.30886460616181383 -0.042148593106558697 0 0.30185769253542699 -0.063958230015169509 0 0.30886460616181383 -0.042148593106558697 0 0.29329854993608251 -0.045698769784483992 0 0.27613940784681967 -0.036251722002080641 0 0.28549509337792828 -0.061009794462930381 0 0.29329854993608251 -0.045698769784483992 0 0.30185769253542699 -0.063958230015169509 0 0.28549509337792828 -0.061009794462930381 0 0.29329854993608251 -0.045698769784483992 0 0.27613940784681967 -0.036251722002080641 0 0.29413594975842328 -0.02512550933568073 0 0.29329854993608251 -0.045698769784483992 0 0.28257577117233168 -0.20518994938083851 0 0.30379191605182437 -0.20471284840499179 0 0.29252942038038049 -0.2260032745248223 0 0.28257577117233168 -0.20518994938083851 0 0.29252942038038049 -0.2260032745248223 0 0.27440370665207992 -0.22158759206732809 0 0.28257577117233168 -0.20518994938083851 0 0.29805932829815662 -0.18954203104115269 0 0.30379191605182437 -0.20471284840499179 0 0.28257577117233168 -0.20518994938083851 0 0.29805932829815662 -0.18954203104115269 0 0.28309810934824442 -0.18139531770741171 0 0.29805932829815662 -0.18954203104115269 0 0.30379191605182437 -0.20471284840499179 0 0.31670590871501719 -0.18767809548444081 0 0.30379191605182437 -0.20471284840499179 0 0.31109634377457301 -0.22154997806035029 0 0.29252942038038049 -0.2260032745248223 0 0.31109634377457301 -0.22154997806035029 0 0.30987088180634448 -0.24125362874219619 0 0.29252942038038049 -0.2260032745248223 0 0.30987088180634448 -0.24125362874219619 0 0.29250997527574701 -0.24677647679701359 0 0.29252942038038049 -0.2260032745248223 0 0.29250997527574701 -0.24677647679701359 0 0.29252942038038049 -0.2260032745248223 0 0.27462122614518292 -0.24127539045551061 0 0.29252942038038049 -0.2260032745248223 0 0.27440370665207992 -0.22158759206732809 0 0.27462122614518292 -0.24127539045551061 0 0.27440370665207992 -0.22158759206732809 0 0.27462122614518292 -0.24127539045551061 0 0.25406429941061343 -0.23112732810889039 0 0.29250997527574701 -0.24677647679701359 0 0.27462122614518292 -0.24127539045551061 0 0.27534065318434953 -0.25880162201512719 0 0.25406429941061343 -0.23112732810889039 0 0.25726365536858148 -0.25362034743760148 0 0.24146341680214309 -0.24448521489457861 0 0.27462122614518292 -0.24127539045551061 0 0.25406429941061343 -0.23112732810889039 0 0.25726365536858148 -0.25362034743760148 0 0.27440370665207992 -0.22158759206732809 0 0.25406429941061343 -0.23112732810889039 0 0.25948399805722178 -0.21095426616987389 0 0.25406429941061343 -0.23112732810889039 0 0.25948399805722178 -0.21095426616987389 0 0.23924146656863479 -0.21600942233651971 0 0.25948399805722178 -0.21095426616987389 0 0.25294493867930001 -0.1971512634910503 0 0.23924146656863479 -0.21600942233651971 0 0.28257577117233168 -0.20518994938083851 0 0.27440370665207992 -0.22158759206732809 0 0.25948399805722178 -0.21095426616987389 0 0.28257577117233168 -0.20518994938083851 0 0.26980921912182793 -0.19283345323968809 0 0.28309810934824442 -0.18139531770741171 0 0.28257577117233168 -0.20518994938083851 0 0.25948399805722178 -0.21095426616987389 0 0.26980921912182793 -0.19283345323968809 0 0.26980921912182793 -0.19283345323968809 0 0.25294493867930001 -0.1971512634910503 0 0.26076150014885863 -0.1842019471946538 0 0.25948399805722178 -0.21095426616987389 0 0.26980921912182793 -0.19283345323968809 0 0.25294493867930001 -0.1971512634910503 0 0.25294493867930001 -0.1971512634910503 0 0.25115080808597218 -0.18349252771031549 0 0.26076150014885863 -0.1842019471946538 0 0.25115080808597218 -0.18349252771031549 0 0.26076150014885863 -0.1842019471946538 0 0.25889962869698091 -0.1746028342129915 0 0.26076150014885863 -0.1842019471946538 0 0.25889962869698091 -0.1746028342129915 0 0.27017957837672091 -0.17747692395416009 0 0.25115080808597218 -0.18349252771031549 0 0.25889962869698091 -0.1746028342129915 0 0.24727016264961249 -0.1692414738038848 0 0.25889962869698091 -0.1746028342129915 0 0.26616743516329899 -0.16248611748055669 0 0.24727016264961249 -0.1692414738038848 0 0.26140577643439422 -0.14332992145424359 0 0.24727016264961249 -0.1692414738038848 0 0.26616743516329899 -0.16248611748055669 0 0.26140577643439422 -0.14332992145424359 0 0.24727016264961249 -0.1692414738038848 0 0.25889962869698091 -0.1746028342129915 0 0.26616743516329899 -0.16248611748055669 0 0.27017957837672091 -0.17747692395416009 0 0.26616743516329899 -0.16248611748055669 0 0.27825348655266058 -0.16907893574793359 0 0.27017957837672091 -0.17747692395416009 0 0.26616743516329899 -0.16248611748055669 0 0.27746834422487981 -0.157383776805052 0 0.26883056353995632 -0.15253713768717189 0 0.26616743516329899 -0.16248611748055669 0 0.27746834422487981 -0.157383776805052 0 0.27825348655266058 -0.16907893574793359 0 0.27825348655266058 -0.16907893574793359 0 0.27017957837672091 -0.17747692395416009 0 0.28309810934824442 -0.18139531770741171 0 0.26980921912182793 -0.19283345323968809 0 0.27017957837672091 -0.17747692395416009 0 0.28309810934824442 -0.18139531770741171 0 0.26980921912182793 -0.19283345323968809 0 0.26076150014885863 -0.1842019471946538 0 0.27017957837672091 -0.17747692395416009 0 0.25959792799319448 -0.13115630782849941 0 0.26140577643439422 -0.14332992145424359 0 0.2441250445765018 -0.1282891748563233 0 0.26250671304934198 -0.1171844924147165 0 0.25959792799319448 -0.13115630782849941 0 0.2441250445765018 -0.1282891748563233 0 0.26616743516329899 -0.16248611748055669 0 0.26140577643439422 -0.14332992145424359 0 0.26883056353995632 -0.15253713768717189 0 0.26140577643439422 -0.14332992145424359 0 0.2760714190023883 -0.1442202816071636 0 0.27744208016659549 -0.13995397779495439 0 0.27746834422487981 -0.157383776805052 0 0.26883056353995632 -0.15253713768717189 0 0.27327340453904758 -0.14909472247049649 0 0.27746834422487981 -0.157383776805052 0 0.27327340453904758 -0.14909472247049649 0 0.27944720334199591 -0.1510298305388795 0 0.27746834422487981 -0.157383776805052 0 0.27944720334199591 -0.1510298305388795 0 0.28543485155381138 -0.1532631785773593 0 0.27944720334199591 -0.1510298305388795 0 0.27867318395593788 -0.14678707333018209 0 0.28267306369304718 -0.14834113794059131 0 0.27327340453904758 -0.14909472247049649 0 0.27944720334199591 -0.1510298305388795 0 0.27867318395593788 -0.14678707333018209 0 0.27327340453904758 -0.14909472247049649 0 0.27867318395593788 -0.14678707333018209 0 0.2760714190023883 -0.1442202816071636 0 0.27867318395593788 -0.14678707333018209 0 0.28203705400801471 -0.14409361128278431 0 0.28267306369304718 -0.14834113794059131 0 0.27867318395593788 -0.14678707333018209 0 0.27862243637812423 -0.14384960257769991 0 0.2760714190023883 -0.1442202816071636 0 0.27867318395593788 -0.14678707333018209 0 0.27862243637812423 -0.14384960257769991 0 0.28203705400801471 -0.14409361128278431 0 0.27862243637812423 -0.14384960257769991 0 0.27744208016659549 -0.13995397779495439 0 0.28203705400801471 -0.14409361128278431 0 0.27862243637812423 -0.14384960257769991 0 0.2760714190023883 -0.1442202816071636 0 0.27744208016659549 -0.13995397779495439 0 0.2760714190023883 -0.1442202816071636 0 0.27744208016659549 -0.13995397779495439 0 0.26140577643439422 -0.14332992145424359 0 0.27327340453904758 -0.14909472247049649 0 0.2760714190023883 -0.1442202816071636 0 0.26140577643439422 -0.14332992145424359 0 0.26883056353995632 -0.15253713768717189 0 0.27327340453904758 -0.14909472247049649 0 0.26250671304934198 -0.1171844924147165 0 0.25959792799319448 -0.13115630782849941 0 0.27744208016659549 -0.13995397779495439 0 0.27500980117207829 -0.12155323577333579 0 0.26250671304934198 -0.1171844924147165 0 0.27744208016659549 -0.13995397779495439 0 0.28377904751550082 -0.12022960778689511 0 0.27500980117207829 -0.12155323577333579 0 0.27744208016659549 -0.13995397779495439 0 0.26250671304934198 -0.1171844924147165 0 0.27744208016659549 -0.13995397779495439 0 0.28377904751550082 -0.12022960778689511 0 0.27744208016659549 -0.13995397779495439 0 0.25959792799319448 -0.13115630782849941 0 0.26140577643439422 -0.14332992145424359 0 0.27744208016659549 -0.13995397779495439 0 0.28377904751550082 -0.12022960778689511 0 0.27744208016659549 -0.13995397779495439 0 0.28932323864627207 -0.13288207724771259 0 0.28377904751550082 -0.12022960778689511 0 0.28932323864627207 -0.13288207724771259 0 0.29867666688697703 -0.1272849549211697 0 0.28932323864627207 -0.13288207724771259 0 0.29298701750044082 -0.14249666764126889 0 0.28471550868115297 -0.14112277714418339 0 0.27744208016659549 -0.13995397779495439 0 0.28932323864627207 -0.13288207724771259 0 0.28471550868115297 -0.14112277714418339 0 0.28932323864627207 -0.13288207724771259 0 0.29298701750044082 -0.14249666764126889 0 0.30163685485285813 -0.1392931605370735 0 0.28932323864627207 -0.13288207724771259 0 0.30163685485285813 -0.1392931605370735 0 0.29867666688697703 -0.1272849549211697 0 0.29298701750044082 -0.14249666764126889 0 0.28777302560547591 -0.14653199597375141 0 0.29658698791447552 -0.15065635986343121 0 0.29298701750044082 -0.14249666764126889 0 0.28471550868115297 -0.14112277714418339 0 0.28777302560547591 -0.14653199597375141 0 0.28471550868115297 -0.14112277714418339 0 0.28203705400801471 -0.14409361128278431 0 0.28777302560547591 -0.14653199597375141 0 0.27744208016659549 -0.13995397779495439 0 0.28471550868115297 -0.14112277714418339 0 0.28203705400801471 -0.14409361128278431 0 0.28203705400801471 -0.14409361128278431 0 0.28267306369304718 -0.14834113794059131 0 0.28777302560547591 -0.14653199597375141 0 0.28267306369304718 -0.14834113794059131 0 0.28777302560547591 -0.14653199597375141 0 0.28543485155381138 -0.1532631785773593 0 0.27944720334199591 -0.1510298305388795 0 0.28267306369304718 -0.14834113794059131 0 0.28543485155381138 -0.1532631785773593 0 0.28543485155381138 -0.1532631785773593 0 0.29658698791447552 -0.15065635986343121 0 0.29083384063311041 -0.16291767632429169 0 0.28777302560547591 -0.14653199597375141 0 0.28543485155381138 -0.1532631785773593 0 0.29658698791447552 -0.15065635986343121 0 0.29658698791447552 -0.15065635986343121 0 0.30903803874224028 -0.154944676915485 0 0.29083384063311041 -0.16291767632429169 0 0.30903803874224028 -0.154944676915485 0 0.30163685485285813 -0.1392931605370735 0 0.31552056866096628 -0.14046660072871581 0 0.29658698791447552 -0.15065635986343121 0 0.30903803874224028 -0.154944676915485 0 0.30163685485285813 -0.1392931605370735 0 0.29298701750044082 -0.14249666764126889 0 0.29658698791447552 -0.15065635986343121 0 0.30163685485285813 -0.1392931605370735 0 0.30163685485285813 -0.1392931605370735 0 0.29867666688697703 -0.1272849549211697 0 0.31552056866096628 -0.14046660072871581 0 0.30701266551867318 -0.11795202584412939 0 0.31552056866096628 -0.14046660072871581 0 0.30701266551867318 -0.11795202584412939 0 0.29867666688697703 -0.1272849549211697 0 0.31552056866096628 -0.14046660072871581 0 0.29805932829815662 -0.18954203104115269 0 0.28309810934824442 -0.18139531770741171 0 0.30374566956112747 -0.172867968401477 0 0.28309810934824442 -0.18139531770741171 0 0.29083384063311041 -0.16291767632429169 0 0.30374566956112747 -0.172867968401477 0 0.27825348655266058 -0.16907893574793359 0 0.28309810934824442 -0.18139531770741171 0 0.29083384063311041 -0.16291767632429169 0 0.27746834422487981 -0.157383776805052 0 0.27825348655266058 -0.16907893574793359 0 0.29083384063311041 -0.16291767632429169 0 0.27746834422487981 -0.157383776805052 0 0.28543485155381138 -0.1532631785773593 0 0.29083384063311041 -0.16291767632429169 0 0.30903803874224028 -0.154944676915485 0 0.30374566956112747 -0.172867968401477 0 0.3240284718032595 -0.16298117561330211 0 0.30903803874224028 -0.154944676915485 0 0.29083384063311041 -0.16291767632429169 0 0.30374566956112747 -0.172867968401477 0 0.29805932829815662 -0.18954203104115269 0 0.30374566956112747 -0.172867968401477 0 0.31670590871501719 -0.18767809548444081 0 0.30374566956112747 -0.172867968401477 0 0.3240284718032595 -0.16298117561330211 0 0.31670590871501719 -0.18767809548444081 0 0.3240284718032595 -0.16298117561330211 0 0.33253637494555272 -0.18549575049788841 0 0.31670590871501719 -0.18767809548444081 0 0.3240284718032595 -0.16298117561330211 0 0.33799671017450289 -0.15427059616939481 0 0.34627497421775172 -0.16712500364912669 0 0.3240284718032595 -0.16298117561330211 0 0.33253637494555272 -0.18549575049788841 0 0.34627497421775172 -0.16712500364912669 0 0.34627497421775172 -0.16712500364912669 0 0.34011486294275067 -0.1930235804920396 0 0.33253637494555272 -0.18549575049788841 0 0.34627497421775172 -0.16712500364912669 0 0.34011486294275067 -0.1930235804920396 0 0.3240284718032595 -0.16298117561330211 0 0.33253637494555272 -0.18549575049788841 0 0.31552056866096628 -0.14046660072871581 0 0.32253171804754088 -0.12501427821952829 0 0.33350864076215958 -0.14068733778211151 0 0.30701266551867318 -0.11795202584412939 0 0.31552056866096628 -0.14046660072871581 0 0.32253171804754088 -0.12501427821952829 0 0.3240284718032595 -0.16298117561330211 0 0.31552056866096628 -0.14046660072871581 0 0.33350864076215958 -0.14068733778211151 0 0.3240284718032595 -0.16298117561330211 0 0.31552056866096628 -0.14046660072871581 0 0.30903803874224028 -0.154944676915485 0 0.3240284718032595 -0.16298117561330211 0 0.31552056866096628 -0.14046660072871581 0 0.3240284718032595 -0.16298117561330211 0 0.33799671017450289 -0.15427059616939481 0 0.33350864076215958 -0.14068733778211151 0 0.33799671017450289 -0.15427059616939481 0 0.33350864076215958 -0.14068733778211151 0 0.35233452294063261 -0.141202487244703 0 0.33350864076215958 -0.14068733778211151 0 0.34402529308911528 -0.13391297654823131 0 0.35233452294063261 -0.141202487244703 0 0.32253171804754088 -0.12501427821952829 0 0.33350864076215958 -0.14068733778211151 0 0.34004518790650529 -0.12527848050574 0 0.33350864076215958 -0.14068733778211151 0 0.34004518790650529 -0.12527848050574 0 0.34402529308911528 -0.13391297654823131 0 0.34004518790650529 -0.12527848050574 0 0.35606369033391522 -0.1259709067163762 0 0.34402529308911528 -0.13391297654823131 0 0.35606369033391522 -0.1259709067163762 0 0.34402529308911528 -0.13391297654823131 0 0.35233452294063261 -0.141202487244703 0 0.35606369033391522 -0.1259709067163762 0 0.35233452294063261 -0.141202487244703 0 0.33799671017450289 -0.15427059616939481 0 0.35233452294063261 -0.141202487244703 0 0.34627497421775172 -0.16712500364912669 0 0.35233452294063261 -0.141202487244703 0 0.34627497421775172 -0.16712500364912669 0 0.35233452294063261 -0.141202487244703 0 0.34627497421775172 -0.16712500364912669 0 0.36205375531824391 -0.1583193433668508 0 0.35233452294063261 -0.141202487244703 0 0.37378191529930621 -0.14944718128022591 0 0.37093785636814908 -0.13798691163813531 0 0.35233452294063261 -0.141202487244703 0 0.37378191529930621 -0.14944718128022591 0 0.36205375531824391 -0.1583193433668508 0 0.37378191529930621 -0.14944718128022591 0 0.36205375531824391 -0.1583193433668508 0 0.37308854109455708 -0.16093157526259191 0 0.35606369033391522 -0.1259709067163762 0 0.35233452294063261 -0.141202487244703 0 0.37093785636814908 -0.13798691163813531 0 0.35233452294063261 -0.141202487244703 0 0.37093785636814908 -0.13798691163813531 0 0.37980885755413418 -0.11928611433555709 0 0.36703358201424818 -0.1205643964158449 0 0.37093785636814908 -0.13798691163813531 0 0.36703358201424818 -0.1205643964158449 0 0.35606369033391522 -0.1259709067163762 0 0.37093785636814908 -0.13798691163813531 0 0.35440938842994413 -0.18403818521213361 0 0.34627497421775172 -0.16712500364912669 0 0.34011486294275067 -0.1930235804920396 0 0.35440938842994413 -0.18403818521213361 0 0.34627497421775172 -0.16712500364912669 0 0.36427806099096738 -0.1715772602872144 0 0.34627497421775172 -0.16712500364912669 0 0.36427806099096738 -0.1715772602872144 0 0.36205375531824391 -0.1583193433668508 0 0.36427806099096738 -0.1715772602872144 0 0.37308854109455708 -0.16093157526259191 0 0.38040919016197472 -0.17194589761299089 0 0.36427806099096738 -0.1715772602872144 0 0.36205375531824391 -0.1583193433668508 0 0.37308854109455708 -0.16093157526259191 0 0.36427806099096738 -0.1715772602872144 0 0.37230187155944527 -0.18410680502223259 0 0.38040919016197472 -0.17194589761299089 0 0.35440938842994413 -0.18403818521213361 0 0.36427806099096738 -0.1715772602872144 0 0.37230187155944527 -0.18410680502223259 0 0.37230187155944527 -0.18410680502223259 0 0.36943541324010287 -0.20186706000128449 0 0.35149154164174501 -0.20315574626222041 0 0.37230187155944527 -0.18410680502223259 0 0.36943541324010287 -0.20186706000128449 0 0.38044042972011022 -0.19453179374419641 0 0.37230187155944527 -0.18410680502223259 0 0.35149154164174501 -0.20315574626222041 0 0.35440938842994413 -0.18403818521213361 0 0.37230187155944527 -0.18410680502223259 0 0.35149154164174501 -0.20315574626222041 0 0.36366819524513028 -0.21031437113148671 0 0.35862104841248232 -0.2228308520016947 0 0.37925693361890289 -0.2120285714887051 0 0.36943541324010287 -0.20186706000128449 0 0.36366819524513028 -0.21031437113148671 0 0.35149154164174501 -0.20315574626222041 0 0.36943541324010287 -0.20186706000128449 0 0.36366819524513028 -0.21031437113148671 0 0.37925693361890289 -0.2120285714887051 0 0.35149154164174501 -0.20315574626222041 0 0.33068121172404469 -0.22220468750220829 0 0.35862104841248232 -0.2228308520016947 0 0.36366819524513028 -0.21031437113148671 0 0.35149154164174501 -0.20315574626222041 0 0.35862104841248232 -0.2228308520016947 0 0.35440938842994413 -0.18403818521213361 0 0.35149154164174501 -0.20315574626222041 0 0.34011486294275067 -0.1930235804920396 0 0.35149154164174501 -0.20315574626222041 0 0.34011486294275067 -0.1930235804920396 0 0.3308500388182079 -0.19477209315265531 0 0.35149154164174501 -0.20315574626222041 0 0.3308500388182079 -0.19477209315265531 0 0.32373992820587338 -0.20544181336631709 0 0.33253637494555272 -0.18549575049788841 0 0.34011486294275067 -0.1930235804920396 0 0.3308500388182079 -0.19477209315265531 0 0.35149154164174501 -0.20315574626222041 0 0.32373992820587338 -0.20544181336631709 0 0.33068121172404469 -0.22220468750220829 0 0.35149154164174501 -0.20315574626222041 0 0.33068121172404469 -0.22220468750220829 0 0.30379191605182437 -0.20471284840499179 0 0.31109634377457301 -0.22154997806035029 0 0.32373992820587338 -0.20544181336631709 0 0.31109634377457301 -0.22154997806035029 0 0.32373992820587338 -0.20544181336631709 0 0.33068121172404469 -0.22220468750220829 0 0.3308500388182079 -0.19477209315265531 0 0.32373992820587338 -0.20544181336631709 0 0.31670590871501719 -0.18767809548444081 0 0.33253637494555272 -0.18549575049788841 0 0.3308500388182079 -0.19477209315265531 0 0.31670590871501719 -0.18767809548444081 0 0.30379191605182437 -0.20471284840499179 0 0.32373992820587338 -0.20544181336631709 0 0.31670590871501719 -0.18767809548444081 0 0.30987088180634448 -0.24125362874219619 0 0.33627474799740559 -0.24529035195854479 0 0.32740146312166057 -0.2615598439342075 0 0.30987088180634448 -0.24125362874219619 0 0.33068121172404469 -0.22220468750220829 0 0.33627474799740559 -0.24529035195854479 0 0.31109634377457301 -0.22154997806035029 0 0.30987088180634448 -0.24125362874219619 0 0.33068121172404469 -0.22220468750220829 0 0.30987088180634448 -0.24125362874219619 0 0.33068121172404469 -0.22220468750220829 0 0.33068121172404469 -0.22220468750220829 0 0.33627474799740559 -0.24529035195854479 0 0.34620802689974478 -0.2341148902952345 0 0.33627474799740559 -0.24529035195854479 0 0.3592550994650468 -0.24613366971849041 0 0.34620802689974478 -0.2341148902952345 0 0.33068121172404469 -0.22220468750220829 0 0.34620802689974478 -0.2341148902952345 0 0.35862104841248232 -0.2228308520016947 0 0.3592550994650468 -0.24613366971849041 0 0.34620802689974478 -0.2341148902952345 0 0.35862104841248232 -0.2228308520016947 0 0.35862104841248232 -0.2228308520016947 0 0.37496953662933208 -0.22868277770556319 0 0.37925693361890289 -0.2120285714887051 0 0.3592550994650468 -0.24613366971849041 0 0.35862104841248232 -0.2228308520016947 0 0.37496953662933208 -0.22868277770556319 0 0.3592550994650468 -0.24613366971849041 0 0.37496953662933208 -0.22868277770556319 0 0.37997975350283419 -0.24239130628825581 0 0.3592550994650468 -0.24613366971849041 0 0.37997975350283419 -0.24239130628825581 0 0.37962897743813367 -0.25651992395937562 0 0.37997975350283419 -0.24239130628825581 0 0.39078422201957003 -0.24969070593678949 0 0.39374115574330237 -0.23275594279604889 0 0.37496953662933208 -0.22868277770556319 0 0.37997975350283419 -0.24239130628825581 0 0.39374115574330237 -0.23275594279604889 0 0.37997975350283419 -0.24239130628825581 0 0.39078422201957003 -0.24969070593678949 0 0.37962897743813367 -0.25651992395937562 0 0.39078422201957003 -0.24969070593678949 0 0.40271577749504128 -0.24808950568319249 0 0.39374115574330237 -0.23275594279604889 0 0.40271577749504128 -0.24808950568319249 0 0.39374115574330237 -0.23275594279604889 0 0.41071323046394659 -0.2405815597806012 0 0.39374115574330237 -0.23275594279604889 0 0.40098237452119001 -0.21274615241137729 0 0.41052741769560203 -0.22783696307390669 0 0.39374115574330237 -0.23275594279604889 0 0.41071323046394659 -0.2405815597806012 0 0.41052741769560203 -0.22783696307390669 0 0.39374115574330237 -0.23275594279604889 0 0.37925693361890289 -0.2120285714887051 0 0.40098237452119001 -0.21274615241137729 0 0.37496953662933208 -0.22868277770556319 0 0.39374115574330237 -0.23275594279604889 0 0.37925693361890289 -0.2120285714887051 0 0.36943541324010287 -0.20186706000128449 0 0.37925693361890289 -0.2120285714887051 0 0.38044042972011022 -0.19453179374419641 0 0.37925693361890289 -0.2120285714887051 0 0.38044042972011022 -0.19453179374419641 0 0.39584695818252569 -0.1933624959239181 0 0.38044042972011022 -0.19453179374419641 0 0.39584695818252569 -0.1933624959239181 0 0.3883302688968957 -0.18261969374673129 0 0.39584695818252569 -0.1933624959239181 0 0.40098237452119001 -0.21274615241137729 0 0.4098684358706004 -0.20142281071300391 0 0.39584695818252569 -0.1933624959239181 0 0.4098684358706004 -0.20142281071300391 0 0.41232050953237392 -0.17982343258281169 0 0.37925693361890289 -0.2120285714887051 0 0.39584695818252569 -0.1933624959239181 0 0.40098237452119001 -0.21274615241137729 0 0.41622029565463942 -0.21609362125780859 0 0.4098684358706004 -0.20142281071300391 0 0.4264315356173396 -0.20432849808395781 0 0.40098237452119001 -0.21274615241137729 0 0.41622029565463942 -0.21609362125780859 0 0.4098684358706004 -0.20142281071300391 0 0.4098684358706004 -0.20142281071300391 0 0.4264315356173396 -0.20432849808395781 0 0.41232050953237392 -0.17982343258281169 0 0.4264315356173396 -0.20432849808395781 0 0.41232050953237392 -0.17982343258281169 0 0.4264315356173396 -0.20432849808395781 0 0.43189275347364769 -0.18601108132065861 0 0.4422427041991972 -0.19293897445371649 0 0.4264315356173396 -0.20432849808395781 0 0.41232050953237392 -0.17982343258281169 0 0.43189275347364769 -0.18601108132065861 0 0.4264315356173396 -0.20432849808395781 0 0.44054256170230521 -0.22883356358510401 0 0.4264315356173396 -0.20432849808395781 0 0.42740075470870198 -0.2217522577010006 0 0.44054256170230521 -0.22883356358510401 0 0.41622029565463942 -0.21609362125780859 0 0.4264315356173396 -0.20432849808395781 0 0.42740075470870198 -0.2217522577010006 0 0.41622029565463942 -0.21609362125780859 0 0.42740075470870198 -0.2217522577010006 0 0.42211125551440248 -0.22847504556360529 0 0.42740075470870198 -0.2217522577010006 0 0.42211125551440248 -0.22847504556360529 0 0.43135414754850671 -0.23039238084196881 0 0.42211125551440248 -0.22847504556360529 0 0.42953670257014748 -0.23642300718324211 0 0.42008770906388448 -0.23759219001855961 0 0.42211125551440248 -0.22847504556360529 0 0.43135414754850671 -0.23039238084196881 0 0.42953670257014748 -0.23642300718324211 0 0.43135414754850671 -0.23039238084196881 0 0.43570292594701721 -0.2354153486954452 0 0.44054256170230521 -0.22883356358510401 0 0.42740075470870198 -0.2217522577010006 0 0.43135414754850671 -0.23039238084196881 0 0.44054256170230521 -0.22883356358510401 0 0.43135414754850671 -0.23039238084196881 0 0.43570292594701721 -0.2354153486954452 0 0.42953670257014748 -0.23642300718324211 0 0.43570292594701721 -0.2354153486954452 0 0.43468079386219632 -0.24191883787933049 0 0.44107348969050558 -0.240693309601615 0 0.43468079386219632 -0.24191883787933049 0 0.4271596561998503 -0.244205651647634 0 0.42953670257014748 -0.23642300718324211 0 0.43570292594701721 -0.2354153486954452 0 0.43468079386219632 -0.24191883787933049 0 0.42953670257014748 -0.23642300718324211 0 0.43292967301130941 -0.2488540036824014 0 0.43917511256413022 -0.2466480151322302 0 0.43871762778532231 -0.25212208882244802 0 0.43468079386219632 -0.24191883787933049 0 0.43292967301130941 -0.2488540036824014 0 0.43917511256413022 -0.2466480151322302 0 0.43468079386219632 -0.24191883787933049 0 0.43292967301130941 -0.2488540036824014 0 0.4271596561998503 -0.244205651647634 0 0.4271596561998503 -0.244205651647634 0 0.4190014546393992 -0.24696823138092139 0 0.42541254610488072 -0.25270056741268049 0 0.43292967301130941 -0.2488540036824014 0 0.4271596561998503 -0.244205651647634 0 0.42541254610488072 -0.25270056741268049 0 0.4271596561998503 -0.244205651647634 0 0.42008770906388448 -0.23759219001855961 0 0.4190014546393992 -0.24696823138092139 0 0.4271596561998503 -0.244205651647634 0 0.42953670257014748 -0.23642300718324211 0 0.42008770906388448 -0.23759219001855961 0 0.42008770906388448 -0.23759219001855961 0 0.4190014546393992 -0.24696823138092139 0 0.41071323046394659 -0.2405815597806012 0 0.4190014546393992 -0.24696823138092139 0 0.41071323046394659 -0.2405815597806012 0 0.41170531542548788 -0.25126417515390992 0 0.40271577749504128 -0.24808950568319249 0 0.41071323046394659 -0.2405815597806012 0 0.41170531542548788 -0.25126417515390992 0 0.42008770906388448 -0.23759219001855961 0 0.41071323046394659 -0.2405815597806012 0 0.41052741769560203 -0.22783696307390669 0 0.40098237452119001 -0.21274615241137729 0 0.41622029565463942 -0.21609362125780859 0 0.41052741769560203 -0.22783696307390669 0 0.41622029565463942 -0.21609362125780859 0 0.42211125551440248 -0.22847504556360529 0 0.41052741769560203 -0.22783696307390669 0 0.42211125551440248 -0.22847504556360529 0 0.42008770906388448 -0.23759219001855961 0 0.41052741769560203 -0.22783696307390669 0 0.38943037724261159 -0.1347904899183642 0 0.39869330261889507 -0.14602014112377221 0 0.41208161927757919 -0.13087523561031761 0 0.40724277249555002 -0.1192463337858536 0 0.38943037724261159 -0.1347904899183642 0 0.41208161927757919 -0.13087523561031761 0 0.38943037724261159 -0.1347904899183642 0 0.41208161927757919 -0.13087523561031761 0 0.37980885755413418 -0.11928611433555709 0 0.37093785636814908 -0.13798691163813531 0 0.38943037724261159 -0.1347904899183642 0 0.37093785636814908 -0.13798691163813531 0 0.38943037724261159 -0.1347904899183642 0 0.37378191529930621 -0.14944718128022591 0 0.38943037724261159 -0.1347904899183642 0 0.38491978370229318 -0.15336819376567751 0 0.38943037724261159 -0.1347904899183642 0 0.38491978370229318 -0.15336819376567751 0 0.37378191529930621 -0.14944718128022591 0 0.37093785636814908 -0.13798691163813531 0 0.38943037724261159 -0.1347904899183642 0 0.37378191529930621 -0.14944718128022591 0 0.37308854109455708 -0.16093157526259191 0 0.38491978370229318 -0.15336819376567751 0 0.39869330261889507 -0.14602014112377221 0 0.39311220147714548 -0.16505786378224471 0 0.41392253139484558 -0.14600892254225711 0 0.38491978370229318 -0.15336819376567751 0 0.39869330261889507 -0.14602014112377221 0 0.39311220147714548 -0.16505786378224471 0 0.38943037724261159 -0.1347904899183642 0 0.38491978370229318 -0.15336819376567751 0 0.39869330261889507 -0.14602014112377221 0 0.39311220147714548 -0.16505786378224471 0 0.41392253139484558 -0.14600892254225711 0 0.39311220147714548 -0.16505786378224471 0 0.41068030945659773 -0.16570921719709561 0 0.41392253139484558 -0.14600892254225711 0 0.39311220147714548 -0.16505786378224471 0 0.39994988354525202 -0.1760395102610646 0 0.41068030945659773 -0.16570921719709561 0 0.38491978370229318 -0.15336819376567751 0 0.39311220147714548 -0.16505786378224471 0 0.38040919016197472 -0.17194589761299089 0 0.37308854109455708 -0.16093157526259191 0 0.38491978370229318 -0.15336819376567751 0 0.38040919016197472 -0.17194589761299089 0 0.38491978370229318 -0.15336819376567751 0 0.38040919016197472 -0.17194589761299089 0 0.37230187155944527 -0.18410680502223259 0 0.39311220147714548 -0.16505786378224471 0 0.3883302688968957 -0.18261969374673129 0 0.37230187155944527 -0.18410680502223259 0 0.39311220147714548 -0.16505786378224471 0 0.38040919016197472 -0.17194589761299089 0 0.37230187155944527 -0.18410680502223259 0 0.38044042972011022 -0.19453179374419641 0 0.3883302688968957 -0.18261969374673129 0 0.37230187155944527 -0.18410680502223259 0 0.39311220147714548 -0.16505786378224471 0 0.39584695818252569 -0.1933624959239181 0 0.39994988354525202 -0.1760395102610646 0 0.41232050953237392 -0.17982343258281169 0 0.39584695818252569 -0.1933624959239181 0 0.3883302688968957 -0.18261969374673129 0 0.39994988354525202 -0.1760395102610646 0 0.39311220147714548 -0.16505786378224471 0 0.3883302688968957 -0.18261969374673129 0 0.39994988354525202 -0.1760395102610646 0 0.39994988354525202 -0.1760395102610646 0 0.41232050953237392 -0.17982343258281169 0 0.41068030945659773 -0.16570921719709561 0 0.41232050953237392 -0.17982343258281169 0 0.42257653670861861 -0.1716129151356913 0 0.41068030945659773 -0.16570921719709561 0 0.43189275347364769 -0.18601108132065861 0 0.42257653670861861 -0.1716129151356913 0 0.43412364138782639 -0.16920851808495629 0 0.43189275347364769 -0.18601108132065861 0 0.43412364138782639 -0.16920851808495629 0 0.44001273516831668 -0.1783764172762527 0 0.41232050953237392 -0.17982343258281169 0 0.43189275347364769 -0.18601108132065861 0 0.42257653670861861 -0.1716129151356913 0 0.43412364138782639 -0.16920851808495629 0 0.42386546969264721 -0.157312326492934 0 0.43988674428557012 -0.15629540566381109 0 0.42257653670861861 -0.1716129151356913 0 0.43412364138782639 -0.16920851808495629 0 0.42386546969264721 -0.157312326492934 0 0.42386546969264721 -0.157312326492934 0 0.41068030945659773 -0.16570921719709561 0 0.41392253139484558 -0.14600892254225711 0 0.42257653670861861 -0.1716129151356913 0 0.42386546969264721 -0.157312326492934 0 0.41068030945659773 -0.16570921719709561 0 0.39869330261889507 -0.14602014112377221 0 0.41392253139484558 -0.14600892254225711 0 0.41208161927757919 -0.13087523561031761 0 0.42386546969264721 -0.157312326492934 0 0.41392253139484558 -0.14600892254225711 0 0.43230421280140441 -0.1433416226119455 0 0.42386546969264721 -0.157312326492934 0 0.43230421280140441 -0.1433416226119455 0 0.43988674428557012 -0.15629540566381109 0 0.42661387223904329 -0.12098454377727109 0 0.43473286131254663 -0.1269599813022704 0 0.41208161927757919 -0.13087523561031761 0 0.41392253139484558 -0.14600892254225711 0 0.43230421280140441 -0.1433416226119455 0 0.43473286131254663 -0.1269599813022704 0 0.43230421280140441 -0.1433416226119455 0 0.43473286131254663 -0.1269599813022704 0 0.43648454183824659 -0.13175811878196239 0 0.41392253139484558 -0.14600892254225711 0 0.43473286131254663 -0.1269599813022704 0 0.43473286131254663 -0.1269599813022704 0 0.41208161927757919 -0.13087523561031761 0 0.43473286131254663 -0.1269599813022704 0 0.43652399803370612 -0.1266503843383173 0 0.43473286131254663 -0.1269599813022704 0 0.43652399803370612 -0.1266503843383173 0 0.43686479974981568 -0.1288436488615915 0 0.43473286131254663 -0.1269599813022704 0 0.43686479974981568 -0.1288436488615915 0 0.43648454183824659 -0.13175811878196239 0 0.41392253139484558 -0.14600892254225711 0 0.43473286131254663 -0.1269599813022704 0 0.41208161927757919 -0.13087523561031761 0 0.46233294642030121 -0.13029577410444981 0 0.4507048422038758 -0.1254569291466279 0 0.44969735458306581 -0.1318629992909984 0 0.46233294642030121 -0.13029577410444981 0 0.44969735458306581 -0.1318629992909984 0 0.44471813751157008 -0.14226443976851619 0 0.4507048422038758 -0.1254569291466279 0 0.44969735458306581 -0.1318629992909984 0 0.44103349219651622 -0.1294348541443999 0 0.43686479974981568 -0.1288436488615915 0 0.43648454183824659 -0.13175811878196239 0 0.44103349219651622 -0.1294348541443999 0 0.43652399803370612 -0.1266503843383173 0 0.43686479974981568 -0.1288436488615915 0 0.44103349219651622 -0.1294348541443999 0 0.44969735458306581 -0.1318629992909984 0 0.44103349219651622 -0.1294348541443999 0 0.44471813751157008 -0.14226443976851619 0 0.43648454183824659 -0.13175811878196239 0 0.44103349219651622 -0.1294348541443999 0 0.44471813751157008 -0.14226443976851619 0 0.43230421280140441 -0.1433416226119455 0 0.43648454183824659 -0.13175811878196239 0 0.44471813751157008 -0.14226443976851619 0 0.44471813751157008 -0.14226443976851619 0 0.45766723532789633 -0.15879666333412101 0 0.43988674428557012 -0.15629540566381109 0 0.43230421280140441 -0.1433416226119455 0 0.44471813751157008 -0.14226443976851619 0 0.43988674428557012 -0.15629540566381109 0 0.46233294642030121 -0.13029577410444981 0 0.45766723532789633 -0.15879666333412101 0 0.46233294642030121 -0.13029577410444981 0 0.45766723532789633 -0.15879666333412101 0 0.47903454186700689 -0.14491860817462909 0 0.46233294642030121 -0.13029577410444981 0 0.44471813751157008 -0.14226443976851619 0 0.45766723532789633 -0.15879666333412101 0 0.45766723532789633 -0.15879666333412101 0 0.43988674428557012 -0.15629540566381109 0 0.4458378175146181 -0.17411517349359901 0 0.43412364138782639 -0.16920851808495629 0 0.43988674428557012 -0.15629540566381109 0 0.4458378175146181 -0.17411517349359901 0 0.45766723532789633 -0.15879666333412101 0 0.4458378175146181 -0.17411517349359901 0 0.45300152423549178 -0.1872975525637923 0 0.43412364138782639 -0.16920851808495629 0 0.4458378175146181 -0.17411517349359901 0 0.44001273516831668 -0.1783764172762527 0 0.4458378175146181 -0.17411517349359901 0 0.44001273516831668 -0.1783764172762527 0 0.44489139372352893 -0.18154716366216431 0 0.43189275347364769 -0.18601108132065861 0 0.44001273516831668 -0.1783764172762527 0 0.4419738252115778 -0.1858134044909181 0 0.44001273516831668 -0.1783764172762527 0 0.44489139372352893 -0.18154716366216431 0 0.4419738252115778 -0.1858134044909181 0 0.4458378175146181 -0.17411517349359901 0 0.45051520093052061 -0.18628588467377419 0 0.45300152423549178 -0.1872975525637923 0 0.4458378175146181 -0.17411517349359901 0 0.44489139372352893 -0.18154716366216431 0 0.45051520093052061 -0.18628588467377419 0 0.44489139372352893 -0.18154716366216431 0 0.4419738252115778 -0.1858134044909181 0 0.45051520093052061 -0.18628588467377419 0 0.45051520093052061 -0.18628588467377419 0 0.45300152423549178 -0.1872975525637923 0 0.45766723532789633 -0.15879666333412101 0 0.45300152423549178 -0.1872975525637923 0 0.47602254605796679 -0.17263393053228049 0 0.45300152423549178 -0.1872975525637923 0 0.47602254605796679 -0.17263393053228049 0 0.47650076211774711 -0.19685923119094451 0 0.45766723532789633 -0.15879666333412101 0 0.45300152423549178 -0.1872975525637923 0 0.47602254605796679 -0.17263393053228049 0 0.5 -0.18210721193063359 0 0.47650076211774711 -0.19685923119094451 0 0.47602254605796679 -0.17263393053228049 0 0.5 -0.18210721193063359 0 0.5 -0.15779351404316869 0 0.47602254605796679 -0.17263393053228049 0 0.5 -0.15779351404316869 0 0.47903454186700689 -0.14491860817462909 0 0.45766723532789633 -0.15879666333412101 0 0.47602254605796679 -0.17263393053228049 0 0.47903454186700689 -0.14491860817462909 0 0.5 -0.15779351404316869 0 0.47903454186700689 -0.14491860817462909 0 0.5 -0.13347981615570359 0 0.47818452339587708 -0.1165119508780514 0 0.47903454186700689 -0.14491860817462909 0 0.5 -0.13347981615570359 0 0.47818452339587708 -0.1165119508780514 0 0.46233294642030121 -0.13029577410444981 0 0.47903454186700689 -0.14491860817462909 0 0.46031275976808328 -0.23316788994673901 0 0.45494703228505612 -0.22365309056703511 0 0.45215825402727128 -0.23076677405108431 0 0.46031275976808328 -0.23316788994673901 0 0.45530172715096351 -0.23784707953664069 0 0.45215825402727128 -0.23076677405108431 0 0.46031275976808328 -0.23316788994673901 0 0.45494703228505612 -0.22365309056703511 0 0.46412837801973811 -0.21929252942849389 0 0.46031275976808328 -0.23316788994673901 0 0.46412837801973811 -0.21929252942849389 0 0.47030631581894022 -0.23354799250188951 0 0.46031275976808328 -0.23316788994673901 0 0.46848515047489081 -0.24338241864882551 0 0.46066141885548939 -0.24148158248895141 0 0.46031275976808328 -0.23316788994673901 0 0.46848515047489081 -0.24338241864882551 0 0.47030631581894022 -0.23354799250188951 0 0.46848515047489081 -0.24338241864882551 0 0.47379426967759908 -0.2551161382871 0 0.45921282319897938 -0.25088534477896152 0 0.46848515047489081 -0.24338241864882551 0 0.46066141885548939 -0.24148158248895141 0 0.45921282319897938 -0.25088534477896152 0 0.46066141885548939 -0.24148158248895141 0 0.45530172715096351 -0.23784707953664069 0 0.45921282319897938 -0.25088534477896152 0 0.46031275976808328 -0.23316788994673901 0 0.46066141885548939 -0.24148158248895141 0 0.45530172715096351 -0.23784707953664069 0 0.44552755473851618 -0.24512414212957201 0 0.44054256170230521 -0.22883356358510401 0 0.45465358778727077 -0.25333862908624999 0 0.44416337990499422 -0.23293380641746719 0 0.45921282319897938 -0.25088534477896152 0 0.45465358778727077 -0.25333862908624999 0 0.45530172715096351 -0.23784707953664069 0 0.44416337990499422 -0.23293380641746719 0 0.45921282319897938 -0.25088534477896152 0 0.44054256170230521 -0.22883356358510401 0 0.44416337990499422 -0.23293380641746719 0 0.45465358778727077 -0.25333862908624999 0 0.44054256170230521 -0.22883356358510401 0 0.45465358778727077 -0.25333862908624999 0 0.44416337990499422 -0.23293380641746719 0 0.45921282319897938 -0.25088534477896152 0 0.44552755473851618 -0.24512414212957201 0 0.44107348969050558 -0.240693309601615 0 0.44054256170230521 -0.22883356358510401 0 0.44552755473851618 -0.24512414212957201 0 0.44412948591815982 -0.25166394159908168 0 0.44816248816364901 -0.25238097519102243 0 0.44247641072782801 -0.24603235211562469 0 0.43917511256413022 -0.2466480151322302 0 0.44412948591815982 -0.25166394159908168 0 0.44552755473851618 -0.24512414212957201 0 0.44247641072782801 -0.24603235211562469 0 0.44412948591815982 -0.25166394159908168 0 0.44552755473851618 -0.24512414212957201 0 0.44247641072782801 -0.24603235211562469 0 0.44107348969050558 -0.240693309601615 0 0.43468079386219632 -0.24191883787933049 0 0.43917511256413022 -0.2466480151322302 0 0.44107348969050558 -0.240693309601615 0 0.44247641072782801 -0.24603235211562469 0 0.43917511256413022 -0.2466480151322302 0 0.44107348969050558 -0.240693309601615 0 0.43570292594701721 -0.2354153486954452 0 0.44107348969050558 -0.240693309601615 0 0.44054256170230521 -0.22883356358510401 0 0.4264315356173396 -0.20432849808395781 0 0.44054256170230521 -0.22883356358510401 0 0.44673315619821857 -0.2255884067429007 0 0.44054256170230521 -0.22883356358510401 0 0.44416337990499422 -0.23293380641746719 0 0.44673315619821857 -0.2255884067429007 0 0.44416337990499422 -0.23293380641746719 0 0.45215825402727128 -0.23076677405108431 0 0.44673315619821857 -0.2255884067429007 0 0.45530172715096351 -0.23784707953664069 0 0.44416337990499422 -0.23293380641746719 0 0.45215825402727128 -0.23076677405108431 0 0.45494703228505612 -0.22365309056703511 0 0.45215825402727128 -0.23076677405108431 0 0.44673315619821857 -0.2255884067429007 0 0.4264315356173396 -0.20432849808395781 0 0.44673315619821857 -0.2255884067429007 0 0.44986734021685498 -0.20644297965334649 0 0.44673315619821857 -0.2255884067429007 0 0.44986734021685498 -0.20644297965334649 0 0.45494703228505612 -0.22365309056703511 0 0.44673315619821857 -0.2255884067429007 0 0.44986734021685498 -0.20644297965334649 0 0.45300152423549178 -0.1872975525637923 0 0.44986734021685498 -0.20644297965334649 0 0.4422427041991972 -0.19293897445371649 0 0.45300152423549178 -0.1872975525637923 0 0.44986734021685498 -0.20644297965334649 0 0.4264315356173396 -0.20432849808395781 0 0.44986734021685498 -0.20644297965334649 0 0.4422427041991972 -0.19293897445371649 0 0.43189275347364769 -0.18601108132065861 0 0.4419738252115778 -0.1858134044909181 0 0.4422427041991972 -0.19293897445371649 0 0.4419738252115778 -0.1858134044909181 0 0.45051520093052061 -0.18628588467377419 0 0.4422427041991972 -0.19293897445371649 0 0.45051520093052061 -0.18628588467377419 0 0.45300152423549178 -0.1872975525637923 0 0.4422427041991972 -0.19293897445371649 0 0.45300152423549178 -0.1872975525637923 0 0.47650076211774711 -0.19685923119094451 0 0.45300152423549178 -0.1872975525637923 0 0.44986734021685498 -0.20644297965334649 0 0.46374770476768601 -0.204378797979305 0 0.45300152423549178 -0.1872975525637923 0 0.46374770476768601 -0.204378797979305 0 0.47650076211774711 -0.19685923119094451 0 0.45494703228505612 -0.22365309056703511 0 0.46412837801973811 -0.21929252942849389 0 0.44986734021685498 -0.20644297965334649 0 0.46412837801973811 -0.21929252942849389 0 0.44986734021685498 -0.20644297965334649 0 0.46374770476768601 -0.204378797979305 0 0.46412837801973811 -0.21929252942849389 0 0.46374770476768601 -0.204378797979305 0 0.47707366821483449 -0.2120031562722216 0 0.46374770476768601 -0.204378797979305 0 0.47707366821483449 -0.2120031562722216 0 0.47650076211774711 -0.19685923119094451 0 0.47650076211774711 -0.19685923119094451 0 0.50000000000000155 -0.2064209098180986 0 0.5 -0.18210721193063359 0 0.47650076211774711 -0.19685923119094451 0 0.50000000000000155 -0.2064209098180986 0 0.50000000000000155 -0.2064209098180986 0 0.48970053883092229 -0.21844058073303951 0 0.5 -0.23051517486053599 0 0.47707366821483449 -0.2120031562722216 0 0.47650076211774711 -0.19685923119094451 0 0.50000000000000155 -0.2064209098180986 0 0.47707366821483449 -0.2120031562722216 0 0.50000000000000155 -0.2064209098180986 0 0.48970053883092229 -0.21844058073303951 0 0.48970053883092229 -0.21844058073303951 0 0.5 -0.23051517486053599 0 0.47892356359843868 -0.22663529354614381 0 0.5 -0.23051517486053599 0 0.47892356359843868 -0.22663529354614381 0 0.48037632353124621 -0.24431513348718631 0 0.47707366821483449 -0.2120031562722216 0 0.48970053883092229 -0.21844058073303951 0 0.47892356359843868 -0.22663529354614381 0 0.46412837801973811 -0.21929252942849389 0 0.47707366821483449 -0.2120031562722216 0 0.47892356359843868 -0.22663529354614381 0 0.46412837801973811 -0.21929252942849389 0 0.47892356359843868 -0.22663529354614381 0 0.47030631581894022 -0.23354799250188951 0 0.47892356359843868 -0.22663529354614381 0 0.47030631581894022 -0.23354799250188951 0 0.48037632353124621 -0.24431513348718631 0 0.46848515047489081 -0.24338241864882551 0 0.48037632353124621 -0.24431513348718631 0 0.47379426967759908 -0.2551161382871 0 0.46848515047489081 -0.24338241864882551 0 0.47030631581894022 -0.23354799250188951 0 0.48037632353124621 -0.24431513348718631 0 0.5 -0.23051517486053599 0 0.48037632353124621 -0.24431513348718631 0 0.5 -0.25460943990297341 0 0.48037632353124621 -0.24431513348718631 0 0.5 -0.25460943990297341 0 0.48801367558502928 -0.26571606475136661 0 0.50000000000000022 -0.27870370494541058 0 0.48801367558502928 -0.26571606475136661 0 0.48931170978694949 -0.28678842150195 0 0.5 -0.25460943990297341 0 0.50000000000000022 -0.27870370494541058 0 0.48801367558502928 -0.26571606475136661 0 0.47426226649296438 -0.26883688314045567 0 0.47311276962135179 -0.28508457281551508 0 0.48931170978694949 -0.28678842150195 0 0.48801367558502928 -0.26571606475136661 0 0.47426226649296438 -0.26883688314045567 0 0.48931170978694949 -0.28678842150195 0 0.47426226649296438 -0.26883688314045567 0 0.48931170978694949 -0.28678842150195 0 0.47426226649296438 -0.26883688314045567 0 0.47379426967759908 -0.2551161382871 0 0.45921282319897938 -0.25088534477896152 0 0.48037632353124621 -0.24431513348718631 0 0.48801367558502928 -0.26571606475136661 0 0.47379426967759908 -0.2551161382871 0 0.48801367558502928 -0.26571606475136661 0 0.47426226649296438 -0.26883688314045567 0 0.47379426967759908 -0.2551161382871 0 0.47426226649296438 -0.26883688314045567 0 0.45921282319897938 -0.25088534477896152 0 0.45867357026917482 -0.26750260605831883 0 0.45921282319897938 -0.25088534477896152 0 0.45465358778727077 -0.25333862908624999 0 0.45867357026917482 -0.26750260605831883 0 0.47426226649296438 -0.26883688314045567 0 0.45921282319897938 -0.25088534477896152 0 0.45465358778727077 -0.25333862908624999 0 0.45867357026917482 -0.26750260605831883 0 0.44833932421064931 -0.25939718794918609 0 0.47426226649296438 -0.26883688314045567 0 0.45867357026917482 -0.26750260605831883 0 0.47311276962135179 -0.28508457281551508 0 0.45867357026917482 -0.26750260605831883 0 0.45341190072698129 -0.28456089864454431 0 0.47311276962135179 -0.28508457281551508 0 0.45867357026917482 -0.26750260605831883 0 0.44699314029513348 -0.27052543302498011 0 0.44833932421064931 -0.25939718794918609 0 0.45867357026917482 -0.26750260605831883 0 0.44699314029513348 -0.27052543302498011 0 0.45341190072698129 -0.28456089864454431 0 0.44699314029513348 -0.27052543302498011 0 0.43919222284155002 -0.27830080619971909 0 0.45341190072698129 -0.28456089864454431 0 0.44699314029513348 -0.27052543302498011 0 0.4385944452063526 -0.26988256164274432 0 0.44171549930134968 -0.26335377754900008 0 0.44699314029513348 -0.27052543302498011 0 0.43919222284155002 -0.27830080619971909 0 0.4385944452063526 -0.26988256164274432 0 0.4385944452063526 -0.26988256164274432 0 0.44171549930134968 -0.26335377754900008 0 0.43505770238402619 -0.26461992241763038 0 0.44171549930134968 -0.26335377754900008 0 0.43505770238402619 -0.26461992241763038 0 0.43648606404966428 -0.25753784968455939 0 0.44171549930134968 -0.26335377754900008 0 0.4419947323052219 -0.25760620957214742 0 0.44833932421064931 -0.25939718794918609 0 0.44171549930134968 -0.26335377754900008 0 0.4419947323052219 -0.25760620957214742 0 0.43648606404966428 -0.25753784968455939 0 0.43871762778532231 -0.25212208882244802 0 0.4419947323052219 -0.25760620957214742 0 0.43648606404966428 -0.25753784968455939 0 0.43917511256413022 -0.2466480151322302 0 0.43871762778532231 -0.25212208882244802 0 0.44412948591815982 -0.25166394159908168 0 0.43871762778532231 -0.25212208882244802 0 0.44412948591815982 -0.25166394159908168 0 0.4419947323052219 -0.25760620957214742 0 0.44412948591815982 -0.25166394159908168 0 0.4419947323052219 -0.25760620957214742 0 0.44833932421064931 -0.25939718794918609 0 0.44552755473851618 -0.24512414212957201 0 0.45465358778727077 -0.25333862908624999 0 0.44816248816364901 -0.25238097519102243 0 0.44412948591815982 -0.25166394159908168 0 0.44816248816364901 -0.25238097519102243 0 0.44833932421064931 -0.25939718794918609 0 0.45465358778727077 -0.25333862908624999 0 0.44816248816364901 -0.25238097519102243 0 0.44833932421064931 -0.25939718794918609 0 0.44699314029513348 -0.27052543302498011 0 0.44171549930134968 -0.26335377754900008 0 0.44833932421064931 -0.25939718794918609 0 0.44647667656812801 -0.29965112561783208 0 0.45137615954030103 -0.31548320476916308 0 0.43444005925229529 -0.31032905382020182 0 0.44647667656812801 -0.29965112561783208 0 0.43234265414258233 -0.29853995875229639 0 0.43444005925229529 -0.31032905382020182 0 0.44647667656812801 -0.29965112561783208 0 0.43824437449043008 -0.28966145028223478 0 0.43234265414258233 -0.29853995875229639 0 0.43919222284155002 -0.27830080619971909 0 0.43824437449043008 -0.28966145028223478 0 0.45341190072698129 -0.28456089864454431 0 0.44647667656812801 -0.29965112561783208 0 0.43824437449043008 -0.28966145028223478 0 0.45341190072698129 -0.28456089864454431 0 0.45341190072698129 -0.28456089864454431 0 0.47034393466362562 -0.30113581313555698 0 0.47311276962135179 -0.28508457281551508 0 0.44647667656812801 -0.29965112561783208 0 0.45341190072698129 -0.28456089864454431 0 0.47034393466362562 -0.30113581313555698 0 0.44647667656812801 -0.29965112561783208 0 0.47034393466362562 -0.30113581313555698 0 0.45137615954030103 -0.31548320476916308 0 0.47034393466362562 -0.30113581313555698 0 0.45137615954030103 -0.31548320476916308 0 0.47034393466362562 -0.30113581313555698 0 0.48609801829406513 -0.30033747069297151 0 0.48569838996659448 -0.31355153071673758 0 0.47034393466362562 -0.30113581313555698 0 0.48931170978694949 -0.28678842150195 0 0.47034393466362562 -0.30113581313555698 0 0.48931170978694949 -0.28678842150195 0 0.48609801829406513 -0.30033747069297151 0 0.47034393466362562 -0.30113581313555698 0 0.47311276962135179 -0.28508457281551508 0 0.48931170978694949 -0.28678842150195 0 0.50000000000000022 -0.27870370494541058 0 0.48931170978694949 -0.28678842150195 0 0.50000000000000078 -0.29953781349142472 0 0.48931170978694949 -0.28678842150195 0 0.48609801829406513 -0.30033747069297151 0 0.50000000000000078 -0.29953781349142472 0 0.48931170978694949 -0.28678842150195 0 0.50000000000000078 -0.29953781349142472 0 0.50000000000000022 -0.27870370494541058 0 0.48931170978694949 -0.28678842150195 0 0.48609801829406513 -0.30033747069297151 0 0.50000000000000078 -0.29953781349142472 0 0.48569838996659448 -0.31355153071673758 0 0.50000000000000078 -0.29953781349142472 0 0.48569838996659448 -0.31355153071673758 0 0.5 -0.32898483254094879 0 0.48569838996659448 -0.31355153071673758 0 0.5 -0.32898483254094879 0 0.4688689480981888 -0.32767699473222389 0 0.5 -0.32898483254094879 0 0.4688689480981888 -0.32767699473222389 0 0.47786930722932619 -0.34789692042963721 0 0.47034393466362562 -0.30113581313555698 0 0.48569838996659448 -0.31355153071673758 0 0.4688689480981888 -0.32767699473222389 0 0.5 -0.35843185159047292 0 0.47350757658922271 -0.36952329647287657 0 0.48620898030354948 -0.37918006028240092 0 0.5 -0.32898483254094879 0 0.5 -0.35843185159047292 0 0.47786930722932619 -0.34789692042963721 0 0.47786930722932619 -0.34789692042963721 0 0.47350757658922271 -0.36952329647287657 0 0.4655023448943818 -0.35719392053603988 0 0.5 -0.35843185159047292 0 0.47786930722932619 -0.34789692042963721 0 0.47350757658922271 -0.36952329647287657 0 0.45861777817450511 -0.36868509019449441 0 0.46271268513135372 -0.37747780338012438 0 0.45189505467726382 -0.37680202485208381 0 0.45861777817450511 -0.36868509019449441 0 0.44976491938063418 -0.36654981963533051 0 0.45189505467726382 -0.37680202485208381 0 0.47350757658922271 -0.36952329647287657 0 0.45861777817450511 -0.36868509019449441 0 0.46271268513135372 -0.37747780338012438 0 0.47350757658922271 -0.36952329647287657 0 0.45861777817450511 -0.36868509019449441 0 0.4655023448943818 -0.35719392053603988 0 0.45861777817450511 -0.36868509019449441 0 0.45601593140111862 -0.35990106862703092 0 0.44976491938063418 -0.36654981963533051 0 0.45861777817450511 -0.36868509019449441 0 0.45601593140111862 -0.35990106862703092 0 0.4655023448943818 -0.35719392053603988 0 0.47786930722932619 -0.34789692042963721 0 0.4655023448943818 -0.35719392053603988 0 0.45483150576365328 -0.34688844598146529 0 0.45601593140111862 -0.35990106862703092 0 0.4655023448943818 -0.35719392053603988 0 0.45483150576365328 -0.34688844598146529 0 0.45483150576365328 -0.34688844598146529 0 0.44020278747438729 -0.34510251360014332 0 0.44674619010751909 -0.35809924702175239 0 0.44020278747438729 -0.34510251360014332 0 0.43833245073232718 -0.35667994920926999 0 0.44674619010751909 -0.35809924702175239 0 0.45601593140111862 -0.35990106862703092 0 0.45483150576365328 -0.34688844598146529 0 0.44674619010751909 -0.35809924702175239 0 0.44674619010751909 -0.35809924702175239 0 0.44976491938063418 -0.36654981963533051 0 0.4432564460600979 -0.36443112509465042 0 0.45601593140111862 -0.35990106862703092 0 0.44674619010751909 -0.35809924702175239 0 0.44976491938063418 -0.36654981963533051 0 0.43833245073232718 -0.35667994920926999 0 0.44674619010751909 -0.35809924702175239 0 0.4432564460600979 -0.36443112509465042 0 0.43833245073232718 -0.35667994920926999 0 0.4432564460600979 -0.36443112509465042 0 0.43792231759094602 -0.36891862507496959 0 0.44976491938063418 -0.36654981963533051 0 0.4432564460600979 -0.36443112509465042 0 0.44173316381622191 -0.37123334486501253 0 0.4432564460600979 -0.36443112509465042 0 0.43792231759094602 -0.36891862507496959 0 0.44173316381622191 -0.37123334486501253 0 0.44976491938063418 -0.36654981963533051 0 0.44173316381622191 -0.37123334486501253 0 0.45189505467726382 -0.37680202485208381 0 0.4688689480981888 -0.32767699473222389 0 0.44744827938524201 -0.33285238680196422 0 0.45137615954030103 -0.31548320476916308 0 0.47034393466362562 -0.30113581313555698 0 0.4688689480981888 -0.32767699473222389 0 0.45137615954030103 -0.31548320476916308 0 0.4688689480981888 -0.32767699473222389 0 0.45483150576365328 -0.34688844598146529 0 0.44744827938524201 -0.33285238680196422 0 0.4688689480981888 -0.32767699473222389 0 0.47786930722932619 -0.34789692042963721 0 0.45483150576365328 -0.34688844598146529 0 0.45483150576365328 -0.34688844598146529 0 0.44020278747438729 -0.34510251360014332 0 0.44744827938524201 -0.33285238680196422 0 0.44020278747438729 -0.34510251360014332 0 0.44744827938524201 -0.33285238680196422 0 0.43240838441697632 -0.3298305964027694 0 0.45137615954030103 -0.31548320476916308 0 0.43240838441697632 -0.3298305964027694 0 0.43444005925229529 -0.31032905382020182 0 0.44744827938524201 -0.33285238680196422 0 0.45137615954030103 -0.31548320476916308 0 0.43240838441697632 -0.3298305964027694 0 0.45137615954030103 -0.31548320476916308 0 0.43240838441697632 -0.3298305964027694 0 0.42213808355103849 -0.31598854483820238 0 0.43240838441697632 -0.3298305964027694 0 0.43444005925229529 -0.31032905382020182 0 0.42213808355103849 -0.31598854483820238 0 0.43240838441697632 -0.3298305964027694 0 0.42063894984562838 -0.32794228428963068 0 0.43240838441697632 -0.3298305964027694 0 0.42063894984562838 -0.32794228428963068 0 0.42353451242868528 -0.3468482352548341 0 0.44020278747438729 -0.34510251360014332 0 0.43240838441697632 -0.3298305964027694 0 0.42353451242868528 -0.3468482352548341 0 0.4091467072664246 -0.32477784543469868 0 0.42353451242868528 -0.3468482352548341 0 0.4091467072664246 -0.32477784543469868 0 0.42063894984562838 -0.32794228428963068 0 0.42353451242868528 -0.3468482352548341 0 0.41089111725139721 -0.34269856142925859 0 0.4091467072664246 -0.32477784543469868 0 0.42353451242868528 -0.3468482352548341 0 0.41089111725139721 -0.34269856142925859 0 0.4091467072664246 -0.32477784543469868 0 0.40425152475925441 -0.33267251048098129 0 0.4091467072664246 -0.32477784543469868 0 0.41500843607520332 -0.31765864762852652 0 0.40782856937156858 -0.30992265774813338 0 0.42213808355103849 -0.31598854483820238 0 0.41500843607520332 -0.31765864762852652 0 0.41528987034135628 -0.30966190583196729 0 0.4091467072664246 -0.32477784543469868 0 0.41500843607520332 -0.31765864762852652 0 0.42063894984562838 -0.32794228428963068 0 0.42213808355103849 -0.31598854483820238 0 0.41500843607520332 -0.31765864762852652 0 0.42063894984562838 -0.32794228428963068 0 0.43792231759094602 -0.36891862507496959 0 0.42718561209050382 -0.36319872422350041 0 0.42353451242868528 -0.3468482352548341 0 0.43792231759094602 -0.36891862507496959 0 0.44173316381622191 -0.37123334486501253 0 0.43018656974337233 -0.3834847830435818 0 0.43792231759094602 -0.36891862507496959 0 0.42661372489006832 -0.37330916830292271 0 0.42718561209050382 -0.36319872422350041 0 0.42661372489006832 -0.37330916830292271 0 0.42718561209050382 -0.36319872422350041 0 0.42067189345231581 -0.36371886826127509 0 0.43792231759094602 -0.36891862507496959 0 0.42353451242868528 -0.3468482352548341 0 0.42718561209050382 -0.36319872422350041 0 0.42353451242868528 -0.3468482352548341 0 0.42067189345231581 -0.36371886826127509 0 0.43833245073232718 -0.35667994920926999 0 0.43792231759094602 -0.36891862507496959 0 0.42353451242868528 -0.3468482352548341 0 0.44020278747438729 -0.34510251360014332 0 0.43833245073232718 -0.35667994920926999 0 0.42353451242868528 -0.3468482352548341 0 0.42353451242868528 -0.3468482352548341 0 0.41118608239640281 -0.35773278074769221 0 0.42067189345231581 -0.36371886826127509 0 0.41089111725139721 -0.34269856142925859 0 0.42353451242868528 -0.3468482352548341 0 0.41118608239640281 -0.35773278074769221 0 0.41089111725139721 -0.34269856142925859 0 0.41118608239640281 -0.35773278074769221 0 0.40345194384414051 -0.35159281539693271 0 0.42661372489006832 -0.37330916830292271 0 0.42067189345231581 -0.36371886826127509 0 0.40978735765452701 -0.3715350174533486 0 0.41118608239640281 -0.35773278074769221 0 0.42067189345231581 -0.36371886826127509 0 0.40978735765452701 -0.3715350174533486 0 0.39634156242657448 -0.36307978873527152 0 0.40109715774397792 -0.38275058451944882 0 0.38240798480570892 -0.37852010314408679 0 0.40978735765452701 -0.3715350174533486 0 0.39634156242657448 -0.36307978873527152 0 0.40109715774397792 -0.38275058451944882 0 0.41118608239640281 -0.35773278074769221 0 0.40978735765452701 -0.3715350174533486 0 0.39634156242657448 -0.36307978873527152 0 0.39634156242657448 -0.36307978873527152 0 0.40345194384414051 -0.35159281539693271 0 0.39209624447111568 -0.34275609473116092 0 0.41118608239640281 -0.35773278074769221 0 0.39634156242657448 -0.36307978873527152 0 0.40345194384414051 -0.35159281539693271 0 0.40345194384414051 -0.35159281539693271 0 0.40267270758147689 -0.34242999550958342 0 0.39209624447111568 -0.34275609473116092 0 0.41089111725139721 -0.34269856142925859 0 0.40345194384414051 -0.35159281539693271 0 0.40267270758147689 -0.34242999550958342 0 0.39634156242657448 -0.36307978873527152 0 0.37618485313497191 -0.35303141813195599 0 0.39209624447111568 -0.34275609473116092 0 0.39634156242657448 -0.36307978873527152 0 0.37618485313497191 -0.35303141813195599 0 0.38240798480570892 -0.37852010314408679 0 0.37618485313497191 -0.35303141813195599 0 0.38240798480570892 -0.37852010314408679 0 0.40425152475925441 -0.33267251048098129 0 0.39300241843570249 -0.3110378002903586 0 0.4091467072664246 -0.32477784543469868 0 0.39300241843570249 -0.3110378002903586 0 0.39475890210416392 -0.30270745561456308 0 0.4091467072664246 -0.32477784543469868 0 0.39475890210416392 -0.30270745561456308 0 0.4091467072664246 -0.32477784543469868 0 0.40425152475925441 -0.33267251048098129 0 0.39300241843570249 -0.3110378002903586 0 0.40425152475925441 -0.33267251048098129 0 0.38822804294015112 -0.3261114208869455 0 0.39300241843570249 -0.3110378002903586 0 0.40425152475925441 -0.33267251048098129 0 0.39209624447111568 -0.34275609473116092 0 0.38822804294015112 -0.3261114208869455 0 0.40425152475925441 -0.33267251048098129 0 0.40267270758147689 -0.34242999550958342 0 0.39209624447111568 -0.34275609473116092 0 0.41089111725139721 -0.34269856142925859 0 0.40425152475925441 -0.33267251048098129 0 0.40267270758147689 -0.34242999550958342 0 0.37618485313497191 -0.35303141813195599 0 0.39209624447111568 -0.34275609473116092 0 0.36996172146423478 -0.32754273311982529 0 0.39209624447111568 -0.34275609473116092 0 0.38822804294015112 -0.3261114208869455 0 0.36996172146423478 -0.32754273311982529 0 0.38822804294015112 -0.3261114208869455 0 0.38164260336710232 -0.31615744579396521 0 0.36996172146423478 -0.32754273311982529 0 0.38822804294015112 -0.3261114208869455 0 0.38164260336710232 -0.31615744579396521 0 0.39300241843570249 -0.3110378002903586 0 0.38177106400017391 -0.30862132669022929 0 0.38029466251644028 -0.29986647237510811 0 0.37214457168145071 -0.30742358830148531 0 0.39300241843570249 -0.3110378002903586 0 0.38175331211215058 -0.28940309009973592 0 0.38164260336710232 -0.31615744579396521 0 0.38177106400017391 -0.30862132669022929 0 0.37214457168145071 -0.30742358830148531 0 0.39300241843570249 -0.3110378002903586 0 0.39475890210416392 -0.30270745561456308 0 0.38175331211215058 -0.28940309009973592 0 0.38029466251644028 -0.29986647237510811 0 0.39300241843570249 -0.3110378002903586 0 0.38175331211215058 -0.28940309009973592 0 0.38164260336710232 -0.31615744579396521 0 0.38177106400017391 -0.30862132669022929 0 0.39300241843570249 -0.3110378002903586 0 0.38177106400017391 -0.30862132669022929 0 0.38029466251644028 -0.29986647237510811 0 0.39300241843570249 -0.3110378002903586 0 0.4091467072664246 -0.32477784543469868 0 0.39475890210416392 -0.30270745561456308 0 0.40782856937156858 -0.30992265774813338 0 0.39475890210416392 -0.30270745561456308 0 0.40429755200803852 -0.3015310211561289 0 0.40149673409666831 -0.29605944040816118 0 0.40429755200803852 -0.3015310211561289 0 0.40149673409666831 -0.29605944040816118 0 0.40808526015628949 -0.29523915444325732 0 0.39475890210416392 -0.30270745561456308 0 0.40429755200803852 -0.3015310211561289 0 0.40782856937156858 -0.30992265774813338 0 0.39475890210416392 -0.30270745561456308 0 0.39730188346755718 -0.29161135963752222 0 0.39142402894447709 -0.286435042888317 0 0.40304007274729231 -0.28920821118933449 0 0.39763996789025002 -0.28367275964584732 0 0.40506285170047662 -0.28083922749534462 0 0.40304007274729231 -0.28920821118933449 0 0.39730188346755718 -0.29161135963752222 0 0.39763996789025002 -0.28367275964584732 0 0.40304007274729231 -0.28920821118933449 0 0.40149673409666831 -0.29605944040816118 0 0.40808526015628949 -0.29523915444325732 0 0.40304007274729231 -0.28920821118933449 0 0.40149673409666831 -0.29605944040816118 0 0.39730188346755718 -0.29161135963752222 0 0.39475890210416392 -0.30270745561456308 0 0.40149673409666831 -0.29605944040816118 0 0.39730188346755718 -0.29161135963752222 0 0.39763996789025002 -0.28367275964584732 0 0.39142402894447709 -0.286435042888317 0 0.39195529533629442 -0.27806131115557092 0 0.39730188346755718 -0.29161135963752222 0 0.39763996789025002 -0.28367275964584732 0 0.39142402894447709 -0.286435042888317 0 0.39475890210416392 -0.30270745561456308 0 0.38037109694190308 -0.28063706579442749 0 0.39475890210416392 -0.30270745561456308 0 0.38175331211215058 -0.28940309009973592 0 0.38037109694190308 -0.28063706579442749 0 0.39142402894447709 -0.286435042888317 0 0.38037109694190308 -0.28063706579442749 0 0.38713910380081668 -0.27916368249890622 0 0.39475890210416392 -0.30270745561456308 0 0.39142402894447709 -0.286435042888317 0 0.38037109694190308 -0.28063706579442749 0 0.38029466251644028 -0.29986647237510811 0 0.38175331211215058 -0.28940309009973592 0 0.37093408616543422 -0.29499190654120538 0 0.38175331211215058 -0.28940309009973592 0 0.37050420578859872 -0.26776837990911312 0 0.38175331211215058 -0.28940309009973592 0 0.38037109694190308 -0.28063706579442749 0 0.37050420578859872 -0.26776837990911312 0 0.38037109694190308 -0.28063706579442749 0 0.38480599398059251 -0.27152131015730951 0 0.37050420578859872 -0.26776837990911312 0 0.38480599398059251 -0.27152131015730951 0 0.39244458987216091 -0.26161417174629581 0 0.39261010037049587 -0.27136451795379868 0 0.38037109694190308 -0.28063706579442749 0 0.38480599398059251 -0.27152131015730951 0 0.38713910380081668 -0.27916368249890622 0 0.38480599398059251 -0.27152131015730951 0 0.38713910380081668 -0.27916368249890622 0 0.39195529533629442 -0.27806131115557092 0 0.39142402894447709 -0.286435042888317 0 0.38713910380081668 -0.27916368249890622 0 0.39195529533629442 -0.27806131115557092 0 0.38480599398059251 -0.27152131015730951 0 0.39195529533629442 -0.27806131115557092 0 0.39261010037049587 -0.27136451795379868 0 0.38480599398059251 -0.27152131015730951 0 0.37962897743813367 -0.25651992395937562 0 0.37050420578859872 -0.26776837990911312 0 0.38480599398059251 -0.27152131015730951 0 0.37962897743813367 -0.25651992395937562 0 0.39244458987216091 -0.26161417174629581 0 0.39078422201957003 -0.24969070593678949 0 0.37962897743813367 -0.25651992395937562 0 0.39244458987216091 -0.26161417174629581 0 0.39078422201957003 -0.24969070593678949 0 0.39244458987216091 -0.26161417174629581 0 0.40410575785193181 -0.25828851936103481 0 0.39244458987216091 -0.26161417174629581 0 0.40410575785193181 -0.25828851936103481 0 0.39822211595326279 -0.26692182407365989 0 0.40410575785193181 -0.25828851936103481 0 0.39822211595326279 -0.26692182407365989 0 0.40492140044583741 -0.26790783212078467 0 0.40410575785193181 -0.25828851936103481 0 0.40492140044583741 -0.26790783212078467 0 0.40945290732670331 -0.26396052327947239 0 0.39078422201957003 -0.24969070593678949 0 0.40271577749504128 -0.24808950568319249 0 0.40410575785193181 -0.25828851936103481 0 0.40271577749504128 -0.24808950568319249 0 0.40410575785193181 -0.25828851936103481 0 0.41170531542548788 -0.25126417515390992 0 0.39763996789025002 -0.28367275964584732 0 0.39195529533629442 -0.27806131115557092 0 0.39894115351181969 -0.27424944313259708 0 0.39195529533629442 -0.27806131115557092 0 0.39261010037049587 -0.27136451795379868 0 0.39894115351181969 -0.27424944313259708 0 0.39244458987216091 -0.26161417174629581 0 0.39261010037049587 -0.27136451795379868 0 0.39822211595326279 -0.26692182407365989 0 0.39261010037049587 -0.27136451795379868 0 0.39822211595326279 -0.26692182407365989 0 0.39894115351181969 -0.27424944313259708 0 0.39822211595326279 -0.26692182407365989 0 0.40492140044583741 -0.26790783212078467 0 0.39894115351181969 -0.27424944313259708 0 0.40492140044583741 -0.26790783212078467 0 0.39894115351181969 -0.27424944313259708 0 0.40712920685057652 -0.27420612675110112 0 0.39763996789025002 -0.28367275964584732 0 0.39894115351181969 -0.27424944313259708 0 0.40506285170047662 -0.28083922749534462 0 0.39894115351181969 -0.27424944313259708 0 0.40506285170047662 -0.28083922749534462 0 0.40712920685057652 -0.27420612675110112 0 0.40506285170047662 -0.28083922749534462 0 0.41284697370079432 -0.2782971556212297 0 0.40712920685057652 -0.27420612675110112 0 0.41284697370079432 -0.2782971556212297 0 0.40712920685057652 -0.27420612675110112 0 0.41387365489395472 -0.26973697538554919 0 0.40492140044583741 -0.26790783212078467 0 0.41387365489395472 -0.26973697538554919 0 0.40945290732670331 -0.26396052327947239 0 0.40492140044583741 -0.26790783212078467 0 0.40712920685057652 -0.27420612675110112 0 0.41387365489395472 -0.26973697538554919 0 0.41387365489395472 -0.26973697538554919 0 0.42135307316749521 -0.27487684751024949 0 0.42100146315739412 -0.26552033609670711 0 0.41284697370079432 -0.2782971556212297 0 0.41387365489395472 -0.26973697538554919 0 0.42135307316749521 -0.27487684751024949 0 0.41284697370079432 -0.2782971556212297 0 0.42135307316749521 -0.27487684751024949 0 0.41975251852593748 -0.28445801958006911 0 0.40410575785193181 -0.25828851936103481 0 0.41170531542548788 -0.25126417515390992 0 0.41491081611508918 -0.25990876625052101 0 0.40410575785193181 -0.25828851936103481 0 0.40945290732670331 -0.26396052327947239 0 0.41491081611508918 -0.25990876625052101 0 0.41387365489395472 -0.26973697538554919 0 0.40945290732670331 -0.26396052327947239 0 0.41491081611508918 -0.25990876625052101 0 0.41387365489395472 -0.26973697538554919 0 0.42100146315739412 -0.26552033609670711 0 0.41491081611508918 -0.25990876625052101 0 0.42100146315739412 -0.26552033609670711 0 0.42163465399116667 -0.25872199059074641 0 0.41491081611508918 -0.25990876625052101 0 0.41170531542548788 -0.25126417515390992 0 0.41491081611508918 -0.25990876625052101 0 0.41853295725520467 -0.25391274615775578 0 0.42163465399116667 -0.25872199059074641 0 0.41491081611508918 -0.25990876625052101 0 0.41853295725520467 -0.25391274615775578 0 0.42163465399116667 -0.25872199059074641 0 0.41853295725520467 -0.25391274615775578 0 0.42541254610488072 -0.25270056741268049 0 0.4190014546393992 -0.24696823138092139 0 0.41853295725520467 -0.25391274615775578 0 0.42541254610488072 -0.25270056741268049 0 0.4190014546393992 -0.24696823138092139 0 0.41170531542548788 -0.25126417515390992 0 0.41853295725520467 -0.25391274615775578 0 0.42163465399116667 -0.25872199059074641 0 0.42541254610488072 -0.25270056741268049 0 0.42845093672784768 -0.26136295507116752 0 0.42541254610488072 -0.25270056741268049 0 0.42845093672784768 -0.26136295507116752 0 0.43126889086453951 -0.25455984543500237 0 0.42100146315739412 -0.26552033609670711 0 0.42163465399116667 -0.25872199059074641 0 0.42845093672784768 -0.26136295507116752 0 0.42845093672784768 -0.26136295507116752 0 0.43505770238402619 -0.26461992241763038 0 0.43648606404966428 -0.25753784968455939 0 0.42845093672784768 -0.26136295507116752 0 0.43505770238402619 -0.26461992241763038 0 0.43027170394141367 -0.27054512142908671 0 0.42845093672784768 -0.26136295507116752 0 0.43126889086453951 -0.25455984543500237 0 0.43648606404966428 -0.25753784968455939 0 0.43871762778532231 -0.25212208882244802 0 0.43126889086453951 -0.25455984543500237 0 0.43648606404966428 -0.25753784968455939 0 0.43292967301130941 -0.2488540036824014 0 0.43871762778532231 -0.25212208882244802 0 0.43126889086453951 -0.25455984543500237 0 0.43292967301130941 -0.2488540036824014 0 0.42541254610488072 -0.25270056741268049 0 0.43126889086453951 -0.25455984543500237 0 0.42135307316749521 -0.27487684751024949 0 0.42956799811030638 -0.28148515248710693 0 0.41975251852593748 -0.28445801958006911 0 0.42135307316749521 -0.27487684751024949 0 0.43027170394141367 -0.27054512142908671 0 0.42956799811030638 -0.28148515248710693 0 0.42135307316749521 -0.27487684751024949 0 0.42100146315739412 -0.26552033609670711 0 0.43027170394141367 -0.27054512142908671 0 0.42100146315739412 -0.26552033609670711 0 0.42845093672784768 -0.26136295507116752 0 0.43027170394141367 -0.27054512142908671 0 0.43919222284155002 -0.27830080619971909 0 0.4385944452063526 -0.26988256164274432 0 0.43027170394141367 -0.27054512142908671 0 0.4385944452063526 -0.26988256164274432 0 0.43505770238402619 -0.26461992241763038 0 0.43027170394141367 -0.27054512142908671 0 0.43919222284155002 -0.27830080619971909 0 0.43027170394141367 -0.27054512142908671 0 0.42956799811030638 -0.28148515248710693 0 0.43824437449043008 -0.28966145028223478 0 0.42956799811030638 -0.28148515248710693 0 0.42651213435721103 -0.29151489344350012 0 0.43919222284155002 -0.27830080619971909 0 0.43824437449043008 -0.28966145028223478 0 0.42956799811030638 -0.28148515248710693 0 0.42956799811030638 -0.28148515248710693 0 0.42651213435721103 -0.29151489344350012 0 0.41975251852593748 -0.28445801958006911 0 0.42651213435721103 -0.29151489344350012 0 0.42265725367426682 -0.30260234616053761 0 0.41710028749217543 -0.29373719746223742 0 0.43824437449043008 -0.28966145028223478 0 0.42651213435721103 -0.29151489344350012 0 0.43234265414258233 -0.29853995875229639 0 0.43234265414258233 -0.29853995875229639 0 0.43444005925229529 -0.31032905382020182 0 0.42265725367426682 -0.30260234616053761 0 0.42213808355103849 -0.31598854483820238 0 0.43444005925229529 -0.31032905382020182 0 0.42265725367426682 -0.30260234616053761 0 0.42651213435721103 -0.29151489344350012 0 0.43234265414258233 -0.29853995875229639 0 0.42265725367426682 -0.30260234616053761 0 0.42265725367426682 -0.30260234616053761 0 0.41237795257390419 -0.3022181237121867 0 0.41710028749217543 -0.29373719746223742 0 0.42213808355103849 -0.31598854483820238 0 0.42265725367426682 -0.30260234616053761 0 0.41528987034135628 -0.30966190583196729 0 0.42265725367426682 -0.30260234616053761 0 0.41528987034135628 -0.30966190583196729 0 0.41237795257390419 -0.3022181237121867 0 0.41500843607520332 -0.31765864762852652 0 0.41528987034135628 -0.30966190583196729 0 0.40782856937156858 -0.30992265774813338 0 0.41528987034135628 -0.30966190583196729 0 0.40782856937156858 -0.30992265774813338 0 0.41237795257390419 -0.3022181237121867 0 0.40429755200803852 -0.3015310211561289 0 0.41237795257390419 -0.3022181237121867 0 0.40808526015628949 -0.29523915444325732 0 0.41237795257390419 -0.3022181237121867 0 0.40808526015628949 -0.29523915444325732 0 0.41710028749217543 -0.29373719746223742 0 0.40429755200803852 -0.3015310211561289 0 0.40782856937156858 -0.30992265774813338 0 0.41237795257390419 -0.3022181237121867 0 0.40808526015628949 -0.29523915444325732 0 0.41113464432764291 -0.28683687095609128 0 0.41710028749217543 -0.29373719746223742 0 0.40304007274729231 -0.28920821118933449 0 0.40808526015628949 -0.29523915444325732 0 0.41113464432764291 -0.28683687095609128 0 0.40304007274729231 -0.28920821118933449 0 0.40506285170047662 -0.28083922749534462 0 0.41113464432764291 -0.28683687095609128 0 0.40506285170047662 -0.28083922749534462 0 0.41284697370079432 -0.2782971556212297 0 0.41113464432764291 -0.28683687095609128 0 0.41284697370079432 -0.2782971556212297 0 0.41113464432764291 -0.28683687095609128 0 0.41975251852593748 -0.28445801958006911 0 0.41113464432764291 -0.28683687095609128 0 0.41975251852593748 -0.28445801958006911 0 0.41710028749217543 -0.29373719746223742 0 0.42651213435721103 -0.29151489344350012 0 0.41975251852593748 -0.28445801958006911 0 0.41710028749217543 -0.29373719746223742 0 0.44904225237101492 -0.50000000000000033 0 0.45004401508161579 -0.4787570704506926 0 0.43421240961939139 -0.49999999999999972 0 0.44904225237101492 -0.50000000000000033 0 0.45004401508161579 -0.4787570704506926 0 0.45004401508161579 -0.4787570704506926 0 0.43065669488015018 -0.48070599894378141 0 0.43421240961939139 -0.49999999999999972 0 0.45004401508161579 -0.4787570704506926 0 0.43566071353235342 -0.46355264343579089 0 0.43065669488015018 -0.48070599894378141 0 0.45004401508161579 -0.4787570704506926 0 0.47115653038696198 -0.47458122981084161 0 0.46628057992027361 -0.46016057875321997 0 0.44904225237101492 -0.50000000000000033 0 0.45004401508161579 -0.4787570704506926 0 0.47115653038696198 -0.47458122981084161 0 0.5 -0.5 0 0.47115653038696198 -0.47458122981084161 0 0.5 -0.45186915055015731 0 0.44904225237101492 -0.50000000000000033 0 0.5 -0.5 0 0.47115653038696198 -0.47458122981084161 0 0.47115653038696198 -0.47458122981084161 0 0.48077102025797452 -0.45549611643706822 0 0.46628057992027361 -0.46016057875321997 0 0.47115653038696198 -0.47458122981084161 0 0.48077102025797452 -0.45549611643706822 0 0.47115653038696198 -0.47458122981084161 0 0.48077102025797452 -0.45549611643706822 0 0.5 -0.45186915055015731 0 0.48077102025797452 -0.45549611643706822 0 0.47047881694724669 -0.44903457528364688 0 0.46628057992027361 -0.46016057875321997 0 0.48077102025797452 -0.45549611643706822 0 0.49038551012898701 -0.43641100306329461 0 0.48077102025797452 -0.45549611643706822 0 0.5 -0.45186915055015731 0 0.49038551012898701 -0.43641100306329461 0 0.48077102025797452 -0.45549611643706822 0 0.47754833864438551 -0.44218946840133899 0 0.49038551012898701 -0.43641100306329461 0 0.48077102025797452 -0.45549611643706822 0 0.47754833864438551 -0.44218946840133899 0 0.47047881694724669 -0.44903457528364688 0 0.47754833864438551 -0.44218946840133899 0 0.47047881694724669 -0.44903457528364688 0 0.46852552080992549 -0.44048839695443598 0 0.45926862510367472 -0.44683831587217138 0 0.45104577779221661 -0.45751414090138481 0 0.45204754050281742 -0.43627121135207708 0 0.46852552080992549 -0.44048839695443598 0 0.45926862510367472 -0.44683831587217138 0 0.46246741514551631 -0.43660855176593799 0 0.45926862510367472 -0.44683831587217138 0 0.45204754050281742 -0.43627121135207708 0 0.46246741514551631 -0.43660855176593799 0 0.47047881694724669 -0.44903457528364688 0 0.46852552080992549 -0.44048839695443598 0 0.45926862510367472 -0.44683831587217138 0 0.47047881694724669 -0.44903457528364688 0 0.45926862510367472 -0.44683831587217138 0 0.46628057992027361 -0.46016057875321997 0 0.45004401508161579 -0.4787570704506926 0 0.46628057992027361 -0.46016057875321997 0 0.45104577779221661 -0.45751414090138481 0 0.45926862510367472 -0.44683831587217138 0 0.46628057992027361 -0.46016057875321997 0 0.45104577779221661 -0.45751414090138481 0 0.45004401508161579 -0.4787570704506926 0 0.45104577779221661 -0.45751414090138481 0 0.43566071353235342 -0.46355264343579089 0 0.45004401508161579 -0.4787570704506926 0 0.45104577779221661 -0.45751414090138481 0 0.45104577779221661 -0.45751414090138481 0 0.43823690162582152 -0.442656551615 0 0.43566071353235342 -0.46355264343579089 0 0.45104577779221661 -0.45751414090138481 0 0.45204754050281742 -0.43627121135207708 0 0.45104577779221661 -0.45751414090138481 0 0.43823690162582152 -0.442656551615 0 0.45204754050281742 -0.43627121135207708 0 0.45430136434918972 -0.42968477721519488 0 0.43040870373640522 -0.42960949699457918 0 0.4445886017928069 -0.41946726592624312 0 0.45430136434918972 -0.42968477721519488 0 0.43040870373640522 -0.42960949699457918 0 0.43823690162582152 -0.442656551615 0 0.45204754050281742 -0.43627121135207708 0 0.43040870373640522 -0.42960949699457918 0 0.45204754050281742 -0.43627121135207708 0 0.45430136434918972 -0.42968477721519488 0 0.43040870373640522 -0.42960949699457918 0 0.4445886017928069 -0.41946726592624312 0 0.45626400488001012 -0.41852232274223139 0 0.45430136434918972 -0.42968477721519488 0 0.4445886017928069 -0.41946726592624312 0 0.45030067759957459 -0.40920304056939583 0 0.43607093377631329 -0.40042142092979582 0 0.4445886017928069 -0.41946726592624312 0 0.45030067759957459 -0.40920304056939583 0 0.45626400488001012 -0.41852232274223139 0 0.45030067759957459 -0.40920304056939583 0 0.45626400488001012 -0.41852232274223139 0 0.46461227738567717 -0.40399461877989912 0 0.45626400488001012 -0.41852232274223139 0 0.46727733630446061 -0.4192115361233813 0 0.46461227738567717 -0.40399461877989912 0 0.45430136434918972 -0.42968477721519488 0 0.47819402496197411 -0.42976005743581058 0 0.46727733630446061 -0.4192115361233813 0 0.45430136434918972 -0.42968477721519488 0 0.47819402496197411 -0.42976005743581058 0 0.45430136434918972 -0.42968477721519488 0 0.46246741514551631 -0.43660855176593799 0 0.47819402496197411 -0.42976005743581058 0 0.45626400488001012 -0.41852232274223139 0 0.46727733630446061 -0.4192115361233813 0 0.45430136434918972 -0.42968477721519488 0 0.45204754050281742 -0.43627121135207708 0 0.45430136434918972 -0.42968477721519488 0 0.46246741514551631 -0.43660855176593799 0 0.5 -0.45186915055015731 0 0.49038551012898701 -0.43641100306329461 0 0.49999999999999978 -0.41732588968952122 0 0.47754833864438551 -0.44218946840133899 0 0.46852552080992549 -0.44048839695443598 0 0.47819402496197411 -0.42976005743581058 0 0.46852552080992549 -0.44048839695443598 0 0.46246741514551631 -0.43660855176593799 0 0.47819402496197411 -0.42976005743581058 0 0.47754833864438551 -0.44218946840133899 0 0.47819402496197411 -0.42976005743581058 0 0.49038551012898701 -0.43641100306329461 0 0.47819402496197411 -0.42976005743581058 0 0.49038551012898701 -0.43641100306329461 0 0.49999999999999978 -0.41732588968952122 0 0.49038551012898701 -0.43641100306329461 0 0.49999999999999978 -0.41732588968952122 0 0.49999999999999978 -0.41732588968952122 0 0.47803026485536992 -0.41388491951904732 0 0.48349128744616809 -0.3981477611786608 0 0.47819402496197411 -0.42976005743581058 0 0.49999999999999978 -0.41732588968952122 0 0.47803026485536992 -0.41388491951904732 0 0.46727733630446061 -0.4192115361233813 0 0.47819402496197411 -0.42976005743581058 0 0.47803026485536992 -0.41388491951904732 0 0.46727733630446061 -0.4192115361233813 0 0.47803026485536992 -0.41388491951904732 0 0.46461227738567717 -0.40399461877989912 0 0.47803026485536992 -0.41388491951904732 0 0.48349128744616809 -0.3981477611786608 0 0.46461227738567717 -0.40399461877989912 0 0.48349128744616809 -0.3981477611786608 0 0.47209620213241288 -0.38662220816109938 0 0.46461227738567717 -0.40399461877989912 0 0.49999999999999978 -0.41732588968952122 0 0.48349128744616809 -0.3981477611786608 0 0.5 -0.38787887063999699 0 0.48349128744616809 -0.3981477611786608 0 0.48620898030354948 -0.37918006028240092 0 0.5 -0.38787887063999699 0 0.5 -0.35843185159047292 0 0.48620898030354948 -0.37918006028240092 0 0.5 -0.38787887063999699 0 0.47350757658922271 -0.36952329647287657 0 0.47209620213241288 -0.38662220816109938 0 0.46271268513135372 -0.37747780338012438 0 0.48349128744616809 -0.3981477611786608 0 0.48620898030354948 -0.37918006028240092 0 0.47209620213241288 -0.38662220816109938 0 0.47350757658922271 -0.36952329647287657 0 0.48620898030354948 -0.37918006028240092 0 0.47209620213241288 -0.38662220816109938 0 0.46271268513135372 -0.37747780338012438 0 0.45744681408336407 -0.38575639722006821 0 0.45189505467726382 -0.37680202485208381 0 0.47209620213241288 -0.38662220816109938 0 0.46271268513135372 -0.37747780338012438 0 0.45744681408336407 -0.38575639722006821 0 0.47209620213241288 -0.38662220816109938 0 0.45744681408336407 -0.38575639722006821 0 0.46461227738567717 -0.40399461877989912 0 0.45744681408336407 -0.38575639722006821 0 0.46461227738567717 -0.40399461877989912 0 0.45184219469928433 -0.39789486874989249 0 0.45030067759957459 -0.40920304056939583 0 0.46461227738567717 -0.40399461877989912 0 0.45184219469928433 -0.39789486874989249 0 0.45030067759957459 -0.40920304056939583 0 0.45184219469928433 -0.39789486874989249 0 0.43607093377631329 -0.40042142092979582 0 0.45184219469928433 -0.39789486874989249 0 0.44708058619903079 -0.38729405048447457 0 0.43607093377631329 -0.40042142092979582 0 0.44173316381622191 -0.37123334486501253 0 0.45189505467726382 -0.37680202485208381 0 0.44708058619903079 -0.38729405048447457 0 0.44173316381622191 -0.37123334486501253 0 0.44708058619903079 -0.38729405048447457 0 0.43607093377631329 -0.40042142092979582 0 0.44173316381622191 -0.37123334486501253 0 0.43607093377631329 -0.40042142092979582 0 0.45744681408336407 -0.38575639722006821 0 0.45189505467726382 -0.37680202485208381 0 0.44708058619903079 -0.38729405048447457 0 0.45744681408336407 -0.38575639722006821 0 0.45184219469928433 -0.39789486874989249 0 0.44708058619903079 -0.38729405048447457 0 0.44173316381622191 -0.37123334486501253 0 0.43018656974337233 -0.3834847830435818 0 0.43607093377631329 -0.40042142092979582 0 0.42661372489006832 -0.37330916830292271 0 0.43018656974337233 -0.3834847830435818 0 0.41571052833623512 -0.38186572013688852 0 0.43792231759094602 -0.36891862507496959 0 0.42661372489006832 -0.37330916830292271 0 0.43018656974337233 -0.3834847830435818 0 0.43607093377631329 -0.40042142092979582 0 0.41370439676437609 -0.3974940894908795 0 0.41981869584763148 -0.41440516100429259 0 0.43018656974337233 -0.3834847830435818 0 0.43607093377631329 -0.40042142092979582 0 0.41370439676437609 -0.3974940894908795 0 0.43018656974337233 -0.3834847830435818 0 0.41370439676437609 -0.3974940894908795 0 0.41571052833623512 -0.38186572013688852 0 0.41370439676437609 -0.3974940894908795 0 0.41571052833623512 -0.38186572013688852 0 0.40109715774397792 -0.38275058451944882 0 0.42661372489006832 -0.37330916830292271 0 0.40978735765452701 -0.3715350174533486 0 0.41571052833623512 -0.38186572013688852 0 0.40978735765452701 -0.3715350174533486 0 0.41571052833623512 -0.38186572013688852 0 0.40109715774397792 -0.38275058451944882 0 0.40109715774397792 -0.38275058451944882 0 0.38240798480570892 -0.37852010314408679 0 0.38863111647644599 -0.40400878815621749 0 0.38240798480570892 -0.37852010314408679 0 0.38863111647644599 -0.40400878815621749 0 0.38863111647644599 -0.40400878815621749 0 0.37176003243497441 -0.40998872043702711 0 0.36795612070160122 -0.3943037227883871 0 0.38240798480570892 -0.37852010314408679 0 0.38863111647644599 -0.40400878815621749 0 0.36795612070160122 -0.3943037227883871 0 0.41370439676437609 -0.3974940894908795 0 0.38863111647644599 -0.40400878815621749 0 0.4062779690192711 -0.41494731252474337 0 0.41370439676437609 -0.3974940894908795 0 0.40109715774397792 -0.38275058451944882 0 0.38863111647644599 -0.40400878815621749 0 0.38863111647644599 -0.40400878815621749 0 0.39485424814717818 -0.42949747316834941 0 0.4062779690192711 -0.41494731252474337 0 0.38863111647644599 -0.40400878815621749 0 0.39485424814717818 -0.42949747316834941 0 0.38863111647644599 -0.40400878815621749 0 0.38208767645140901 -0.41911042656524472 0 0.37176003243497441 -0.40998872043702711 0 0.38863111647644599 -0.40400878815621749 0 0.38208767645140901 -0.41911042656524472 0 0.39485424814717818 -0.42949747316834941 0 0.39485424814717818 -0.42949747316834941 0 0.36925590453949608 -0.42941681873704168 0 0.37665443888321409 -0.43729346785436302 0 0.3856757983069049 -0.43577025519560952 0 0.36925590453949608 -0.42941681873704168 0 0.3856757983069049 -0.43577025519560952 0 0.39485424814717818 -0.42949747316834941 0 0.36925590453949608 -0.42941681873704168 0 0.38208767645140901 -0.41911042656524472 0 0.39485424814717818 -0.42949747316834941 0 0.36925590453949608 -0.42941681873704168 0 0.39485424814717818 -0.42949747316834941 0 0.41263147594179173 -0.42955348508146501 0 0.3970599418841867 -0.43853154730823468 0 0.39485424814717818 -0.42949747316834941 0 0.41263147594179173 -0.42955348508146501 0 0.39485424814717818 -0.42949747316834941 0 0.3970599418841867 -0.43853154730823468 0 0.3856757983069049 -0.43577025519560952 0 0.39485424814717818 -0.42949747316834941 0 0.3970599418841867 -0.43853154730823468 0 0.39485424814717818 -0.42949747316834941 0 0.41263147594179173 -0.42955348508146501 0 0.4062779690192711 -0.41494731252474337 0 0.41263147594179173 -0.42955348508146501 0 0.43040870373640522 -0.42960949699457918 0 0.41263147594179173 -0.42955348508146501 0 0.43040870373640522 -0.42960949699457918 0 0.4105733347589578 -0.4439764995731092 0 0.41263147594179173 -0.42955348508146501 0 0.4105733347589578 -0.4439764995731092 0 0.3970599418841867 -0.43853154730823468 0 0.41263147594179173 -0.42955348508146501 0 0.41981869584763148 -0.41440516100429259 0 0.43040870373640522 -0.42960949699457918 0 0.41370439676437609 -0.3974940894908795 0 0.4062779690192711 -0.41494731252474337 0 0.41981869584763148 -0.41440516100429259 0 0.41263147594179173 -0.42955348508146501 0 0.4062779690192711 -0.41494731252474337 0 0.41981869584763148 -0.41440516100429259 0 0.43607093377631329 -0.40042142092979582 0 0.41981869584763148 -0.41440516100429259 0 0.43040870373640522 -0.42960949699457918 0 0.4445886017928069 -0.41946726592624312 0 0.43607093377631329 -0.40042142092979582 0 0.43040870373640522 -0.42960949699457918 0 0.43607093377631329 -0.40042142092979582 0 0.43040870373640522 -0.42960949699457918 0 0.43040870373640522 -0.42960949699457918 0 0.42609808641601882 -0.45183018130920338 0 0.43823690162582152 -0.442656551615 0 0.43040870373640522 -0.42960949699457918 0 0.42609808641601882 -0.45183018130920338 0 0.43040870373640522 -0.42960949699457918 0 0.42609808641601882 -0.45183018130920338 0 0.4105733347589578 -0.4439764995731092 0 0.43823690162582152 -0.442656551615 0 0.42609808641601882 -0.45183018130920338 0 0.43566071353235342 -0.46355264343579089 0 0.42609808641601882 -0.45183018130920338 0 0.43566071353235342 -0.46355264343579089 0 0.41788280539829797 -0.46985191739468413 0 0.42609808641601882 -0.45183018130920338 0 0.40695414576950523 -0.45771744581404522 0 0.41788280539829797 -0.46985191739468413 0 0.42609808641601882 -0.45183018130920338 0 0.40695414576950523 -0.45771744581404522 0 0.4105733347589578 -0.4439764995731092 0 0.4105733347589578 -0.4439764995731092 0 0.39721761528731692 -0.45119552741579683 0 0.3970599418841867 -0.43853154730823468 0 0.40695414576950523 -0.45771744581404522 0 0.4105733347589578 -0.4439764995731092 0 0.39721761528731692 -0.45119552741579683 0 0.39721761528731692 -0.45119552741579683 0 0.3970599418841867 -0.43853154730823468 0 0.3848034700195111 -0.44451211479328562 0 0.3856757983069049 -0.43577025519560952 0 0.3970599418841867 -0.43853154730823468 0 0.3848034700195111 -0.44451211479328562 0 0.37665443888321409 -0.43729346785436302 0 0.3856757983069049 -0.43577025519560952 0 0.3848034700195111 -0.44451211479328562 0 0.3848034700195111 -0.44451211479328562 0 0.39015981315766812 -0.47191920641734841 0 0.36813351492680652 -0.4578788096260229 0 0.39015981315766812 -0.47191920641734841 0 0.36813351492680652 -0.4578788096260229 0 0.39721761528731692 -0.45119552741579683 0 0.3848034700195111 -0.44451211479328562 0 0.39015981315766812 -0.47191920641734841 0 0.40695414576950523 -0.45771744581404522 0 0.39721761528731692 -0.45119552741579683 0 0.39015981315766812 -0.47191920641734841 0 0.40695414576950523 -0.45771744581404522 0 0.39015981315766812 -0.47191920641734841 0 0.41788280539829797 -0.46985191739468413 0 0.39015981315766812 -0.47191920641734841 0 0.39617150827203812 -0.48844435240108153 0 0.41218611138852979 -0.48595960320867387 0 0.39015981315766812 -0.47191920641734841 0 0.41218611138852979 -0.48595960320867387 0 0.39015981315766812 -0.47191920641734841 0 0.37999710445162738 -0.5 0 0.36111942344273912 -0.48004186837267743 0 0.39015981315766812 -0.47191920641734841 0 0.37999710445162738 -0.5 0 0.39617150827203812 -0.48844435240108153 0 0.37999710445162738 -0.5 0 0.39617150827203812 -0.48844435240108153 0 0.40710475703550941 -0.5 0 0.39617150827203812 -0.48844435240108153 0 0.40710475703550941 -0.5 0 0.41218611138852979 -0.48595960320867387 0 0.40710475703550941 -0.5 0 0.41218611138852979 -0.48595960320867387 0 0.43421240961939139 -0.49999999999999972 0 0.41218611138852979 -0.48595960320867387 0 0.41788280539829797 -0.46985191739468413 0 0.43065669488015018 -0.48070599894378141 0 0.39015981315766812 -0.47191920641734841 0 0.41218611138852979 -0.48595960320867387 0 0.41788280539829797 -0.46985191739468413 0 0.43566071353235342 -0.46355264343579089 0 0.41788280539829797 -0.46985191739468413 0 0.43065669488015018 -0.48070599894378141 0 0.41218611138852979 -0.48595960320867387 0 0.43421240961939139 -0.49999999999999972 0 0.41218611138852979 -0.48595960320867387 0 0.43065669488015018 -0.48070599894378141 0 0.43421240961939139 -0.49999999999999972 0 0.32562102085959999 -0.49962517918909338 0 0.3188650930646052 -0.49384015059516778 0 0.30906313459206908 -0.49999999999999822 0 0.3188650930646052 -0.49384015059516778 0 0.31537357137569311 -0.47573542319158041 0 0.30906313459206908 -0.49999999999999822 0 0.32562102085959999 -0.49962517918909338 0 0.3188650930646052 -0.49384015059516778 0 0.31537357137569311 -0.47573542319158041 0 0.32562102085959999 -0.49962517918909338 0 0.31537357137569311 -0.47573542319158041 0 0.32562102085959999 -0.49962517918909338 0 0.32705189356582531 -0.47758756671950892 0 0.31537357137569311 -0.47573542319158041 0 0.32705189356582531 -0.47758756671950892 0 0.31537357137569311 -0.47573542319158041 0 0.32731070687432662 -0.45987691031431599 0 0.32705189356582531 -0.47758756671950892 0 0.33990227515368221 -0.47511275418304622 0 0.32731070687432662 -0.45987691031431599 0 0.32562102085959999 -0.49962517918909338 0 0.32705189356582531 -0.47758756671950892 0 0.33990227515368221 -0.47511275418304622 0 0.32562102085959999 -0.49962517918909338 0 0.33990227515368221 -0.47511275418304622 0 0.32562102085959999 -0.49962517918909338 0 0.33990227515368221 -0.47511275418304622 0 0.33937333261091801 -0.49122101923177458 0 0.32562102085959999 -0.49962517918909338 0 0.33937333261091801 -0.49122101923177458 0 0.35288945186774517 -0.5 0 0.33937333261091801 -0.49122101923177458 0 0.35288945186774517 -0.5 0 0.36111942344273912 -0.48004186837267743 0 0.37999710445162738 -0.5 0 0.35288945186774517 -0.5 0 0.36111942344273912 -0.48004186837267743 0 0.39015981315766812 -0.47191920641734841 0 0.36111942344273912 -0.48004186837267743 0 0.36813351492680652 -0.4578788096260229 0 0.33990227515368221 -0.47511275418304622 0 0.33937333261091801 -0.49122101923177458 0 0.36111942344273912 -0.48004186837267743 0 0.33990227515368221 -0.47511275418304622 0 0.36111942344273912 -0.48004186837267743 0 0.35583468574274812 -0.46590844033968648 0 0.33990227515368221 -0.47511275418304622 0 0.35418352944776488 -0.45060032917699938 0 0.33990227515368221 -0.47511275418304622 0 0.35418352944776488 -0.45060032917699938 0 0.340093026771697 -0.45737760876331679 0 0.33990227515368221 -0.47511275418304622 0 0.35583468574274812 -0.46590844033968648 0 0.35418352944776488 -0.45060032917699938 0 0.36111942344273912 -0.48004186837267743 0 0.35583468574274812 -0.46590844033968648 0 0.36813351492680652 -0.4578788096260229 0 0.35583468574274812 -0.46590844033968648 0 0.36813351492680652 -0.4578788096260229 0 0.35418352944776488 -0.45060032917699938 0 0.3848034700195111 -0.44451211479328562 0 0.36813351492680652 -0.4578788096260229 0 0.36188953281526259 -0.44421627808609571 0 0.3848034700195111 -0.44451211479328562 0 0.36188953281526259 -0.44421627808609571 0 0.37665443888321409 -0.43729346785436302 0 0.3848034700195111 -0.44451211479328562 0 0.36188953281526259 -0.44421627808609571 0 0.36813351492680652 -0.4578788096260229 0 0.36188953281526259 -0.44421627808609571 0 0.35418352944776488 -0.45060032917699938 0 0.36188953281526259 -0.44421627808609571 0 0.33897559561101431 -0.44392044137890579 0 0.34365756093181399 -0.42933616430573279 0 0.36188953281526259 -0.44421627808609571 0 0.33897559561101431 -0.44392044137890579 0 0.36188953281526259 -0.44421627808609571 0 0.35418352944776488 -0.45060032917699938 0 0.33897559561101431 -0.44392044137890579 0 0.35418352944776488 -0.45060032917699938 0 0.33897559561101431 -0.44392044137890579 0 0.340093026771697 -0.45737760876331679 0 0.33990227515368221 -0.47511275418304622 0 0.340093026771697 -0.45737760876331679 0 0.32731070687432662 -0.45987691031431599 0 0.33897559561101431 -0.44392044137890579 0 0.340093026771697 -0.45737760876331679 0 0.32731070687432662 -0.45987691031431599 0 0.31537357137569311 -0.47573542319158041 0 0.32731070687432662 -0.45987691031431599 0 0.31637589709399738 -0.45542627657340667 0 0.33897559561101431 -0.44392044137890579 0 0.31606165840676581 -0.44362460467171588 0 0.31637589709399738 -0.45542627657340667 0 0.31606165840676581 -0.44362460467171588 0 0.30512612189178517 -0.45184566719406782 0 0.33897559561101431 -0.44392044137890579 0 0.32731070687432662 -0.45987691031431599 0 0.31606165840676581 -0.44362460467171588 0 0.33897559561101431 -0.44392044137890579 0 0.31606165840676581 -0.44362460467171588 0 0.32817533568345891 -0.437405088827024 0 0.32731070687432662 -0.45987691031431599 0 0.31637589709399738 -0.45542627657340667 0 0.31606165840676581 -0.44362460467171588 0 0.31606165840676581 -0.44362460467171588 0 0.31805921732413212 -0.42925550987442379 0 0.32817533568345891 -0.437405088827024 0 0.31606165840676581 -0.44362460467171588 0 0.31805921732413212 -0.42925550987442379 0 0.30493236766246812 -0.436345934488445 0 0.31985940292529941 -0.41295447671329732 0 0.31075796009052831 -0.39572085063997808 0 0.30888278388740348 -0.41521004381282178 0 0.31805921732413212 -0.42925550987442379 0 0.31985940292529941 -0.41295447671329732 0 0.33113555781690102 -0.41904522338276579 0 0.31805921732413212 -0.42925550987442379 0 0.31985940292529941 -0.41295447671329732 0 0.30888278388740348 -0.41521004381282178 0 0.31985940292529941 -0.41295447671329732 0 0.33113555781690102 -0.41904522338276579 0 0.33046149550753229 -0.40554075585649679 0 0.33113555781690102 -0.41904522338276579 0 0.34241547994114269 -0.41362446478144221 0 0.34365756093181399 -0.42933616430573279 0 0.33113555781690102 -0.41904522338276579 0 0.34241547994114269 -0.41362446478144221 0 0.33046149550753229 -0.40554075585649679 0 0.31805921732413212 -0.42925550987442379 0 0.34365756093181399 -0.42933616430573279 0 0.32817533568345891 -0.437405088827024 0 0.31805921732413212 -0.42925550987442379 0 0.33113555781690102 -0.41904522338276579 0 0.34365756093181399 -0.42933616430573279 0 0.31805921732413212 -0.42925550987442379 0 0.34365756093181399 -0.42933616430573279 0 0.33897559561101431 -0.44392044137890579 0 0.34365756093181399 -0.42933616430573279 0 0.32817533568345891 -0.437405088827024 0 0.34365756093181399 -0.42933616430573279 0 0.36925590453949608 -0.42941681873704168 0 0.35674230937501078 -0.41217086121041902 0 0.34365756093181399 -0.42933616430573279 0 0.36925590453949608 -0.42941681873704168 0 0.36188953281526259 -0.44421627808609571 0 0.34365756093181399 -0.42933616430573279 0 0.36925590453949608 -0.42941681873704168 0 0.37665443888321409 -0.43729346785436302 0 0.36188953281526259 -0.44421627808609571 0 0.36925590453949608 -0.42941681873704168 0 0.38208767645140901 -0.41911042656524472 0 0.36925590453949608 -0.42941681873704168 0 0.37176003243497441 -0.40998872043702711 0 0.36925590453949608 -0.42941681873704168 0 0.37176003243497441 -0.40998872043702711 0 0.35674230937501078 -0.41217086121041902 0 0.34241547994114269 -0.41362446478144221 0 0.35674230937501078 -0.41217086121041902 0 0.34647936393220441 -0.39402114553103817 0 0.34241547994114269 -0.41362446478144221 0 0.34365756093181399 -0.42933616430573279 0 0.35674230937501078 -0.41217086121041902 0 0.35674230937501078 -0.41217086121041902 0 0.34647936393220441 -0.39402114553103817 0 0.36795612070160122 -0.3943037227883871 0 0.37176003243497441 -0.40998872043702711 0 0.35674230937501078 -0.41217086121041902 0 0.36795612070160122 -0.3943037227883871 0 0.38240798480570892 -0.37852010314408679 0 0.36795612070160122 -0.3943037227883871 0 0.3567457423339877 -0.37092962175819427 0 0.34647936393220441 -0.39402114553103817 0 0.33846966771265258 -0.37695460337982112 0 0.3567457423339877 -0.37092962175819427 0 0.34647936393220441 -0.39402114553103817 0 0.36795612070160122 -0.3943037227883871 0 0.3567457423339877 -0.37092962175819427 0 0.34647936393220441 -0.39402114553103817 0 0.33846966771265258 -0.37695460337982112 0 0.3263508617172054 -0.38750488125084709 0 0.34241547994114269 -0.41362446478144221 0 0.34647936393220441 -0.39402114553103817 0 0.33046149550753229 -0.40554075585649679 0 0.34647936393220441 -0.39402114553103817 0 0.33046149550753229 -0.40554075585649679 0 0.3263508617172054 -0.38750488125084709 0 0.33046149550753229 -0.40554075585649679 0 0.3263508617172054 -0.38750488125084709 0 0.31075796009052831 -0.39572085063997808 0 0.31985940292529941 -0.41295447671329732 0 0.33046149550753229 -0.40554075585649679 0 0.31075796009052831 -0.39572085063997808 0 0.3263508617172054 -0.38750488125084709 0 0.3096773386499212 -0.3813243078888065 0 0.31075796009052831 -0.39572085063997808 0 0.33846966771265258 -0.37695460337982112 0 0.3263508617172054 -0.38750488125084709 0 0.31915821050206972 -0.37043664262910392 0 0.3263508617172054 -0.38750488125084709 0 0.3096773386499212 -0.3813243078888065 0 0.31915821050206972 -0.37043664262910392 0 0.3096773386499212 -0.3813243078888065 0 0.29526372343335222 -0.38214642848390951 0 0.29938815419514908 -0.36235191135060729 0 0.3096773386499212 -0.3813243078888065 0 0.31075796009052831 -0.39572085063997808 0 0.29526372343335222 -0.38214642848390951 0 0.31075796009052831 -0.39572085063997808 0 0.29178274806564442 -0.41520067436951369 0 0.31075796009052831 -0.39572085063997808 0 0.29113929267155558 -0.40194094561721161 0 0.29526372343335222 -0.38214642848390951 0 0.31075796009052831 -0.39572085063997808 0 0.29113929267155558 -0.40194094561721161 0 0.29178274806564442 -0.41520067436951369 0 0.29113929267155558 -0.40194094561721161 0 0.29526372343335222 -0.38214642848390951 0 0.29096903481361719 -0.39843243044280019 0 0.28318981538834798 -0.39262896962206201 0 0.29526372343335222 -0.38214642848390951 0 0.29096903481361719 -0.39843243044280019 0 0.29113929267155558 -0.40194094561721161 0 0.29526372343335222 -0.38214642848390951 0 0.29096903481361719 -0.39843243044280019 0 0.29113929267155558 -0.40194094561721161 0 0.28502919674291388 -0.40062006331372729 0 0.27798512017272892 -0.40082089003652099 0 0.28264635626051132 -0.40952105626625152 0 0.29113929267155558 -0.40194094561721161 0 0.28502919674291388 -0.40062006331372729 0 0.28264635626051132 -0.40952105626625152 0 0.29096903481361719 -0.39843243044280019 0 0.29113929267155558 -0.40194094561721161 0 0.28502919674291388 -0.40062006331372729 0 0.28502919674291388 -0.40062006331372729 0 0.28318981538834798 -0.39262896962206201 0 0.27798512017272892 -0.40082089003652099 0 0.29096903481361719 -0.39843243044280019 0 0.28502919674291388 -0.40062006331372729 0 0.28318981538834798 -0.39262896962206201 0 0.28318981538834798 -0.39262896962206201 0 0.29526372343335222 -0.38214642848390951 0 0.27569670368188232 -0.38326726020642471 0 0.29526372343335222 -0.38214642848390951 0 0.27569670368188232 -0.38326726020642471 0 0.2822483272805178 -0.36575990941074382 0 0.28318981538834798 -0.39262896962206201 0 0.27569670368188232 -0.38326726020642471 0 0.27140133813572248 -0.39438652514112071 0 0.27569670368188232 -0.38326726020642471 0 0.26161541147981399 -0.38825456187999341 0 0.27140133813572248 -0.39438652514112071 0 0.27569670368188232 -0.38326726020642471 0 0.26161541147981399 -0.38825456187999341 0 0.26273855981799532 -0.37402085189451678 0 0.26161541147981399 -0.38825456187999341 0 0.26273855981799532 -0.37402085189451678 0 0.2462658744323834 -0.38197959250061342 0 0.26161541147981399 -0.38825456187999341 0 0.25113336278303172 -0.39639034007073559 0 0.2462658744323834 -0.38197959250061342 0 0.25113336278303172 -0.39639034007073559 0 0.25834465052961392 -0.41196496969487773 0 0.2415255849161019 -0.40609463635975013 0 0.25113336278303172 -0.39639034007073559 0 0.26281084462470111 -0.3998352336856334 0 0.25834465052961392 -0.41196496969487773 0 0.26161541147981399 -0.38825456187999341 0 0.25113336278303172 -0.39639034007073559 0 0.26281084462470111 -0.3998352336856334 0 0.26161541147981399 -0.38825456187999341 0 0.26281084462470111 -0.3998352336856334 0 0.27140133813572248 -0.39438652514112071 0 0.26281084462470111 -0.3998352336856334 0 0.27081663500811198 -0.40520008615658132 0 0.25834465052961392 -0.41196496969487773 0 0.27081663500811198 -0.40520008615658132 0 0.27140133813572248 -0.39438652514112071 0 0.27798512017272892 -0.40082089003652099 0 0.26281084462470111 -0.3998352336856334 0 0.27081663500811198 -0.40520008615658132 0 0.27140133813572248 -0.39438652514112071 0 0.28318981538834798 -0.39262896962206201 0 0.27140133813572248 -0.39438652514112071 0 0.27798512017272892 -0.40082089003652099 0 0.27081663500811198 -0.40520008615658132 0 0.27798512017272892 -0.40082089003652099 0 0.28264635626051132 -0.40952105626625152 0 0.27081663500811198 -0.40520008615658132 0 0.27206571492222681 -0.41502427433416672 0 0.28264635626051132 -0.40952105626625152 0 0.27844475086434628 -0.42008249968918893 0 0.27206571492222681 -0.41502427433416672 0 0.28264635626051132 -0.40952105626625152 0 0.26660164492473198 -0.42150218520744809 0 0.27206571492222681 -0.41502427433416672 0 0.25834465052961392 -0.41196496969487773 0 0.27844475086434628 -0.42008249968918893 0 0.26660164492473198 -0.42150218520744809 0 0.27206571492222681 -0.41502427433416672 0 0.27081663500811198 -0.40520008615658132 0 0.27206571492222681 -0.41502427433416672 0 0.25834465052961392 -0.41196496969487773 0 0.25834465052961392 -0.41196496969487773 0 0.25675938249820729 -0.42906236834179229 0 0.24471655788437549 -0.41836465708289111 0 0.26660164492473198 -0.42150218520744809 0 0.25834465052961392 -0.41196496969487773 0 0.25675938249820729 -0.42906236834179229 0 0.25675938249820729 -0.42906236834179229 0 0.26225826081895931 -0.43553163761717179 0 0.24937758952868769 -0.43582476186075059 0 0.25675938249820729 -0.42906236834179229 0 0.26225826081895931 -0.43553163761717179 0 0.26930167735914629 -0.4333880303452663 0 0.25675938249820729 -0.42906236834179229 0 0.27821428364315981 -0.42912996774889278 0 0.26930167735914629 -0.4333880303452663 0 0.27111210296809168 -0.43642101817110968 0 0.27821428364315981 -0.42912996774889278 0 0.25675938249820729 -0.42906236834179229 0 0.26930167735914629 -0.4333880303452663 0 0.27821428364315981 -0.42912996774889278 0 0.26660164492473198 -0.42150218520744809 0 0.25675938249820729 -0.42906236834179229 0 0.27821428364315981 -0.42912996774889278 0 0.26225826081895931 -0.43553163761717179 0 0.26930167735914629 -0.4333880303452663 0 0.27111210296809168 -0.43642101817110968 0 0.26930167735914629 -0.4333880303452663 0 0.27111210296809168 -0.43642101817110968 0 0.27844475086434628 -0.42008249968918893 0 0.26660164492473198 -0.42150218520744809 0 0.27821428364315981 -0.42912996774889278 0 0.27111210296809168 -0.43642101817110968 0 0.27821428364315981 -0.42912996774889278 0 0.27851784514164207 -0.43605140350369348 0 0.27111210296809168 -0.43642101817110968 0 0.27821428364315981 -0.42912996774889278 0 0.27821428364315981 -0.42912996774889278 0 0.27851784514164207 -0.43605140350369348 0 0.28546936300596981 -0.42915282681778749 0 0.28546936300596981 -0.42915282681778749 0 0.28269717206150108 -0.44245749461713091 0 0.27851784514164207 -0.43605140350369348 0 0.28546936300596981 -0.42915282681778749 0 0.28269717206150108 -0.44245749461713091 0 0.28844378249660962 -0.43602848621063972 0 0.28546936300596981 -0.42915282681778749 0 0.28269717206150108 -0.44245749461713091 0 0.28844378249660962 -0.43602848621063972 0 0.29246087371645019 -0.42917485544311462 0 0.28546936300596981 -0.42915282681778749 0 0.28844378249660962 -0.43602848621063972 0 0.29246087371645019 -0.42917485544311462 0 0.29314772120251731 -0.44332876796452603 0 0.29246087371645019 -0.42917485544311462 0 0.29314772120251731 -0.44332876796452603 0 0.29246087371645019 -0.42917485544311462 0 0.30493236766246812 -0.436345934488445 0 0.29314772120251731 -0.44332876796452603 0 0.29246087371645019 -0.42917485544311462 0 0.29178274806564442 -0.41520067436951369 0 0.29246087371645019 -0.42917485544311462 0 0.29178274806564442 -0.41520067436951369 0 0.30279640574840933 -0.42221027087496837 0 0.27821428364315981 -0.42912996774889278 0 0.28546936300596981 -0.42915282681778749 0 0.28744958810085658 -0.4196490669458563 0 0.28546936300596981 -0.42915282681778749 0 0.28744958810085658 -0.4196490669458563 0 0.29246087371645019 -0.42917485544311462 0 0.28546936300596981 -0.42915282681778749 0 0.28744958810085658 -0.4196490669458563 0 0.27821428364315981 -0.42912996774889278 0 0.28744958810085658 -0.4196490669458563 0 0.27844475086434628 -0.42008249968918893 0 0.27821428364315981 -0.42912996774889278 0 0.28744958810085658 -0.4196490669458563 0 0.29246087371645019 -0.42917485544311462 0 0.28546936300596981 -0.42915282681778749 0 0.27821428364315981 -0.42912996774889278 0 0.28546936300596981 -0.42915282681778749 0 0.29113929267155558 -0.40194094561721161 0 0.28744958810085658 -0.4196490669458563 0 0.28264635626051132 -0.40952105626625152 0 0.27844475086434628 -0.42008249968918893 0 0.28744958810085658 -0.4196490669458563 0 0.28264635626051132 -0.40952105626625152 0 0.29113929267155558 -0.40194094561721161 0 0.28744958810085658 -0.4196490669458563 0 0.29113929267155558 -0.40194094561721161 0 0.28744958810085658 -0.4196490669458563 0 0.29178274806564442 -0.41520067436951369 0 0.29113929267155558 -0.40194094561721161 0 0.29178274806564442 -0.41520067436951369 0 0.29246087371645019 -0.42917485544311462 0 0.28744958810085658 -0.4196490669458563 0 0.29178274806564442 -0.41520067436951369 0 0.28744958810085658 -0.4196490669458563 0 0.29178274806564442 -0.41520067436951369 0 0.29178274806564442 -0.41520067436951369 0 0.30888278388740348 -0.41521004381282178 0 0.30279640574840933 -0.42221027087496837 0 0.31075796009052831 -0.39572085063997808 0 0.29178274806564442 -0.41520067436951369 0 0.30888278388740348 -0.41521004381282178 0 0.31805921732413212 -0.42925550987442379 0 0.29246087371645019 -0.42917485544311462 0 0.31805921732413212 -0.42925550987442379 0 0.29246087371645019 -0.42917485544311462 0 0.30279640574840933 -0.42221027087496837 0 0.31805921732413212 -0.42925550987442379 0 0.29246087371645019 -0.42917485544311462 0 0.30493236766246812 -0.436345934488445 0 0.31805921732413212 -0.42925550987442379 0 0.30888278388740348 -0.41521004381282178 0 0.30279640574840933 -0.42221027087496837 0 0.31606165840676581 -0.44362460467171588 0 0.30512612189178517 -0.45184566719406782 0 0.29314772120251731 -0.44332876796452603 0 0.31606165840676581 -0.44362460467171588 0 0.30493236766246812 -0.436345934488445 0 0.29314772120251731 -0.44332876796452603 0 0.30512612189178517 -0.45184566719406782 0 0.29394025903575932 -0.45966064860657702 0 0.29314772120251731 -0.44332876796452603 0 0.31606165840676581 -0.44362460467171588 0 0.29314772120251731 -0.44332876796452603 0 0.31537357137569311 -0.47573542319158041 0 0.31637589709399738 -0.45542627657340667 0 0.30512612189178517 -0.45184566719406782 0 0.31537357137569311 -0.47573542319158041 0 0.30512612189178517 -0.45184566719406782 0 0.31537357137569311 -0.47573542319158041 0 0.30512612189178517 -0.45184566719406782 0 0.29394025903575932 -0.45966064860657702 0 0.29394025903575932 -0.45966064860657702 0 0.28491455044924457 -0.45954411970608688 0 0.29473279686900039 -0.47599252924862812 0 0.29394025903575932 -0.45966064860657702 0 0.29473279686900039 -0.47599252924862812 0 0.28491455044924457 -0.45954411970608688 0 0.29473279686900039 -0.47599252924862812 0 0.29394025903575932 -0.45966064860657702 0 0.28491455044924457 -0.45954411970608688 0 0.29314772120251731 -0.44332876796452603 0 0.29314772120251731 -0.44332876796452603 0 0.28269717206150108 -0.44245749461713091 0 0.27509630402948781 -0.44309571016354632 0 0.29314772120251731 -0.44332876796452603 0 0.27509630402948781 -0.44309571016354632 0 0.28491455044924457 -0.45954411970608688 0 0.29314772120251731 -0.44332876796452603 0 0.27509630402948781 -0.44309571016354632 0 0.29394025903575932 -0.45966064860657702 0 0.29314772120251731 -0.44332876796452603 0 0.28844378249660962 -0.43602848621063972 0 0.29314772120251731 -0.44332876796452603 0 0.28269717206150108 -0.44245749461713091 0 0.27851784514164207 -0.43605140350369348 0 0.28269717206150108 -0.44245749461713091 0 0.27509630402948781 -0.44309571016354632 0 0.28491455044924457 -0.45954411970608688 0 0.27509630402948781 -0.44309571016354632 0 0.27111210296809168 -0.43642101817110968 0 0.27851784514164207 -0.43605140350369348 0 0.27509630402948781 -0.44309571016354632 0 0.27509630402948781 -0.44309571016354632 0 0.2647405517406643 -0.44296200936694391 0 0.26894138168338477 -0.45835658674643581 0 0.27509630402948781 -0.44309571016354632 0 0.2647405517406643 -0.44296200936694391 0 0.27111210296809168 -0.43642101817110968 0 0.27509630402948781 -0.44309571016354632 0 0.2647405517406643 -0.44296200936694391 0 0.26225826081895931 -0.43553163761717179 0 0.27111210296809168 -0.43642101817110968 0 0.2647405517406643 -0.44296200936694391 0 0.27111210296809168 -0.43642101817110968 0 0.27509630402948781 -0.44309571016354632 0 0.27111210296809168 -0.43642101817110968 0 0.2647405517406643 -0.44296200936694391 0 0.2647405517406643 -0.44296200936694391 0 0.23528251899697711 -0.44258168330907049 0 0.26225826081895931 -0.43553163761717179 0 0.2647405517406643 -0.44296200936694391 0 0.24937758952868769 -0.43582476186075059 0 0.2647405517406643 -0.44296200936694391 0 0.24642569303344669 -0.46176391886762419 0 0.2647405517406643 -0.44296200936694391 0 0.26894138168338477 -0.45835658674643581 0 0.24642569303344669 -0.46176391886762419 0 0.26894138168338477 -0.45835658674643581 0 0.25460761733926612 -0.48077428153223201 0 0.24642569303344669 -0.46176391886762419 0 0.28491455044924457 -0.45954411970608688 0 0.26894138168338477 -0.45835658674643581 0 0.27481125637505999 -0.47672941046381351 0 0.28491455044924457 -0.45954411970608688 0 0.27509630402948781 -0.44309571016354632 0 0.26894138168338477 -0.45835658674643581 0 0.26894138168338477 -0.45835658674643581 0 0.27481125637505999 -0.47672941046381351 0 0.25460761733926612 -0.48077428153223201 0 0.25460761733926612 -0.48077428153223201 0 0.26992155257213829 -0.5 0 0.24394529676999099 -0.5 0 0.27481125637505999 -0.47672941046381351 0 0.25460761733926612 -0.48077428153223201 0 0.26992155257213829 -0.5 0 0.27481125637505999 -0.47672941046381351 0 0.26992155257213829 -0.5 0 0.28423504578222791 -0.48826781330302371 0 0.2958978083742857 -0.500000000000002 0 0.29473279686900039 -0.47599252924862812 0 0.28423504578222791 -0.48826781330302371 0 0.2958978083742857 -0.500000000000002 0 0.29473279686900039 -0.47599252924862812 0 0.26992155257213829 -0.5 0 0.28423504578222791 -0.48826781330302371 0 0.2958978083742857 -0.500000000000002 0 0.27481125637505999 -0.47672941046381351 0 0.28423504578222791 -0.48826781330302371 0 0.29473279686900039 -0.47599252924862812 0 0.28491455044924457 -0.45954411970608688 0 0.27481125637505999 -0.47672941046381351 0 0.29473279686900039 -0.47599252924862812 0 0.31537357137569311 -0.47573542319158041 0 0.29473279686900039 -0.47599252924862812 0 0.30906313459206908 -0.49999999999999822 0 0.31537357137569311 -0.47573542319158041 0 0.29394025903575932 -0.45966064860657702 0 0.29473279686900039 -0.47599252924862812 0 0.2958978083742857 -0.500000000000002 0 0.29473279686900039 -0.47599252924862812 0 0.30906313459206908 -0.49999999999999822 0 0.29473279686900039 -0.47599252924862812 0 0.30906313459206908 -0.49999999999999822 0 0.32957540708980337 -0.28233484169300721 0 0.33350720058453531 -0.3067582988720306 0 0.34777854009225467 -0.29092059718385621 0 0.33350720058453531 -0.3067582988720306 0 0.31940688812320073 -0.32114172553523779 0 0.31236919290445669 -0.30090688950199113 0 0.32957540708980337 -0.28233484169300721 0 0.33350720058453531 -0.3067582988720306 0 0.31236919290445669 -0.30090688950199113 0 0.32957540708980337 -0.28233484169300721 0 0.31236919290445669 -0.30090688950199113 0 0.31219288969015102 -0.27103532748113379 0 0.32957540708980337 -0.28233484169300721 0 0.32740146312166057 -0.2615598439342075 0 0.31219288969015102 -0.27103532748113379 0 0.30987088180634448 -0.24125362874219619 0 0.32740146312166057 -0.2615598439342075 0 0.31219288969015102 -0.27103532748113379 0 0.33627474799740559 -0.24529035195854479 0 0.32740146312166057 -0.2615598439342075 0 0.34280143854843398 -0.26651154424247869 0 0.32957540708980337 -0.28233484169300721 0 0.32740146312166057 -0.2615598439342075 0 0.34280143854843398 -0.26651154424247869 0 0.32957540708980337 -0.28233484169300721 0 0.34280143854843398 -0.26651154424247869 0 0.34777854009225467 -0.29092059718385621 0 0.34280143854843398 -0.26651154424247869 0 0.35666834061529479 -0.27123260863895199 0 0.34777854009225467 -0.29092059718385621 0 0.3592550994650468 -0.24613366971849041 0 0.34280143854843398 -0.26651154424247869 0 0.35666834061529479 -0.27123260863895199 0 0.33627474799740559 -0.24529035195854479 0 0.3592550994650468 -0.24613366971849041 0 0.34280143854843398 -0.26651154424247869 0 0.3592550994650468 -0.24613366971849041 0 0.37962897743813367 -0.25651992395937562 0 0.37050420578859872 -0.26776837990911312 0 0.3592550994650468 -0.24613366971849041 0 0.35666834061529479 -0.27123260863895199 0 0.37050420578859872 -0.26776837990911312 0 0.3592550994650468 -0.24613366971849041 0 0.37050420578859872 -0.26776837990911312 0 0.35666834061529479 -0.27123260863895199 0 0.37050420578859872 -0.26776837990911312 0 0.36300241918213971 -0.28482885214082171 0 0.37050420578859872 -0.26776837990911312 0 0.37154850581208082 -0.284248057172719 0 0.36300241918213971 -0.28482885214082171 0 0.38175331211215058 -0.28940309009973592 0 0.37050420578859872 -0.26776837990911312 0 0.37154850581208082 -0.284248057172719 0 0.37154850581208082 -0.284248057172719 0 0.37093408616543422 -0.29499190654120538 0 0.36300241918213971 -0.28482885214082171 0 0.38175331211215058 -0.28940309009973592 0 0.37154850581208082 -0.284248057172719 0 0.37093408616543422 -0.29499190654120538 0 0.37093408616543422 -0.29499190654120538 0 0.36300241918213971 -0.28482885214082171 0 0.36107539554114298 -0.29693991331551067 0 0.35666834061529479 -0.27123260863895199 0 0.36300241918213971 -0.28482885214082171 0 0.34777854009225467 -0.29092059718385621 0 0.36300241918213971 -0.28482885214082171 0 0.34777854009225467 -0.29092059718385621 0 0.36107539554114298 -0.29693991331551067 0 0.33350720058453531 -0.3067582988720306 0 0.35617419542099171 -0.30797258542327188 0 0.3434221482530771 -0.31898036386437462 0 0.33350720058453531 -0.3067582988720306 0 0.34777854009225467 -0.29092059718385621 0 0.35617419542099171 -0.30797258542327188 0 0.34777854009225467 -0.29092059718385621 0 0.35617419542099171 -0.30797258542327188 0 0.36107539554114298 -0.29693991331551067 0 0.35617419542099171 -0.30797258542327188 0 0.36107539554114298 -0.29693991331551067 0 0.37214457168145071 -0.30742358830148531 0 0.38029466251644028 -0.29986647237510811 0 0.37093408616543422 -0.29499190654120538 0 0.37214457168145071 -0.30742358830148531 0 0.37093408616543422 -0.29499190654120538 0 0.36107539554114298 -0.29693991331551067 0 0.37214457168145071 -0.30742358830148531 0 0.35617419542099171 -0.30797258542327188 0 0.37214457168145071 -0.30742358830148531 0 0.36996172146423478 -0.32754273311982529 0 0.35617419542099171 -0.30797258542327188 0 0.36996172146423478 -0.32754273311982529 0 0.35306648032504262 -0.33228776260873261 0 0.38164260336710232 -0.31615744579396521 0 0.37214457168145071 -0.30742358830148531 0 0.36996172146423478 -0.32754273311982529 0 0.36996172146423478 -0.32754273311982529 0 0.35306648032504262 -0.33228776260873261 0 0.35731430246447682 -0.34983201697113597 0 0.37618485313497191 -0.35303141813195599 0 0.36996172146423478 -0.32754273311982529 0 0.35731430246447682 -0.34983201697113597 0 0.37618485313497191 -0.35303141813195599 0 0.36996172146423478 -0.32754273311982529 0 0.35306648032504262 -0.33228776260873261 0 0.35731430246447682 -0.34983201697113597 0 0.34168414680625769 -0.34452156241349458 0 0.35617419542099171 -0.30797258542327188 0 0.35306648032504262 -0.33228776260873261 0 0.3434221482530771 -0.31898036386437462 0 0.37618485313497191 -0.35303141813195599 0 0.38240798480570892 -0.37852010314408679 0 0.3567457423339877 -0.37092962175819427 0 0.37618485313497191 -0.35303141813195599 0 0.35731430246447682 -0.34983201697113597 0 0.3567457423339877 -0.37092962175819427 0 0.35731430246447682 -0.34983201697113597 0 0.33741189226114721 -0.35981876257024509 0 0.34168414680625769 -0.34452156241349458 0 0.35731430246447682 -0.34983201697113597 0 0.3567457423339877 -0.37092962175819427 0 0.33741189226114721 -0.35981876257024509 0 0.33846966771265258 -0.37695460337982112 0 0.3567457423339877 -0.37092962175819427 0 0.33741189226114721 -0.35981876257024509 0 0.33846966771265258 -0.37695460337982112 0 0.33741189226114721 -0.35981876257024509 0 0.31915821050206972 -0.37043664262910392 0 0.33741189226114721 -0.35981876257024509 0 0.34168414680625769 -0.34452156241349458 0 0.32813074893442251 -0.34418371868588848 0 0.33741189226114721 -0.35981876257024509 0 0.32813074893442251 -0.34418371868588848 0 0.32201112636252999 -0.3528096981888329 0 0.32201112636252999 -0.3528096981888329 0 0.31915821050206972 -0.37043664262910392 0 0.30987318817222509 -0.34571298684785262 0 0.32813074893442251 -0.34418371868588848 0 0.32201112636252999 -0.3528096981888329 0 0.31771908807833588 -0.34170101098267841 0 0.32201112636252999 -0.3528096981888329 0 0.31771908807833588 -0.34170101098267841 0 0.30987318817222509 -0.34571298684785262 0 0.33741189226114721 -0.35981876257024509 0 0.32201112636252999 -0.3528096981888329 0 0.31915821050206972 -0.37043664262910392 0 0.35306648032504262 -0.33228776260873261 0 0.3434221482530771 -0.31898036386437462 0 0.33232496317177118 -0.32984298873849771 0 0.33350720058453531 -0.3067582988720306 0 0.3434221482530771 -0.31898036386437462 0 0.33232496317177118 -0.32984298873849771 0 0.33350720058453531 -0.3067582988720306 0 0.33232496317177118 -0.32984298873849771 0 0.31940688812320073 -0.32114172553523779 0 0.35306648032504262 -0.33228776260873261 0 0.34168414680625769 -0.34452156241349458 0 0.33232496317177118 -0.32984298873849771 0 0.34168414680625769 -0.34452156241349458 0 0.32813074893442251 -0.34418371868588848 0 0.33232496317177118 -0.32984298873849771 0 0.32813074893442251 -0.34418371868588848 0 0.33232496317177118 -0.32984298873849771 0 0.32267668596175481 -0.33341785867055518 0 0.33232496317177118 -0.32984298873849771 0 0.32267668596175481 -0.33341785867055518 0 0.31940688812320073 -0.32114172553523779 0 0.32813074893442251 -0.34418371868588848 0 0.32267668596175481 -0.33341785867055518 0 0.31771908807833588 -0.34170101098267841 0 0.32267668596175481 -0.33341785867055518 0 0.31771908807833588 -0.34170101098267841 0 0.31294298630122958 -0.33429540854302747 0 0.31771908807833588 -0.34170101098267841 0 0.31168118685013108 -0.34100175600761939 0 0.30987318817222509 -0.34571298684785262 0 0.31771908807833588 -0.34170101098267841 0 0.31294298630122958 -0.33429540854302747 0 0.31168118685013108 -0.34100175600761939 0 0.32267668596175481 -0.33341785867055518 0 0.31294298630122958 -0.33429540854302747 0 0.31940688812320073 -0.32114172553523779 0 0.31294298630122958 -0.33429540854302747 0 0.31940688812320073 -0.32114172553523779 0 0.30601167809918312 -0.32095610648709572 0 0.31940688812320073 -0.32114172553523779 0 0.30601167809918312 -0.32095610648709572 0 0.31236919290445669 -0.30090688950199113 0 0.30601167809918312 -0.32095610648709572 0 0.29267099061500118 -0.31767693215293968 0 0.29602111265001879 -0.30165816726207401 0 0.30601167809918312 -0.32095610648709572 0 0.30423517195087751 -0.34071154513897461 0 0.29267099061500118 -0.31767693215293968 0 0.31294298630122958 -0.33429540854302747 0 0.30601167809918312 -0.32095610648709572 0 0.30570887717953288 -0.34364700841230278 0 0.30423517195087751 -0.34071154513897461 0 0.29267099061500118 -0.31767693215293968 0 0.30601167809918312 -0.32095610648709572 0 0.30570887717953288 -0.34364700841230278 0 0.30423517195087751 -0.34071154513897461 0 0.31294298630122958 -0.33429540854302747 0 0.31168118685013108 -0.34100175600761939 0 0.30570887717953288 -0.34364700841230278 0 0.31168118685013108 -0.34100175600761939 0 0.30570887717953288 -0.34364700841230278 0 0.30987318817222509 -0.34571298684785262 0 0.30570887717953288 -0.34364700841230278 0 0.30423517195087751 -0.34071154513897461 0 0.30570887717953288 -0.34364700841230278 0 0.30351258495694688 -0.34255739421730541 0 0.30423517195087751 -0.34071154513897461 0 0.30570887717953288 -0.34364700841230278 0 0.30351258495694688 -0.34255739421730541 0 0.30351258495694688 -0.34255739421730541 0 0.30423517195087751 -0.34071154513897461 0 0.30423517195087751 -0.34071154513897461 0 0.29267099061500118 -0.31767693215293968 0 0.27697346549350221 -0.32939093076003212 0 0.30351258495694688 -0.34255739421730541 0 0.27697346549350221 -0.32939093076003212 0 0.30351258495694688 -0.34255739421730541 0 0.30423517195087751 -0.34071154513897461 0 0.27697346549350221 -0.32939093076003212 0 0.30351258495694688 -0.34255739421730541 0 0.28388279232808111 -0.34879423229863538 0 0.27697346549350221 -0.32939093076003212 0 0.3096773386499212 -0.3813243078888065 0 0.31915821050206972 -0.37043664262910392 0 0.29938815419514908 -0.36235191135060729 0 0.29526372343335222 -0.38214642848390951 0 0.29938815419514908 -0.36235191135060729 0 0.30570887717953288 -0.34364700841230278 0 0.30351258495694688 -0.34255739421730541 0 0.29938815419514908 -0.36235191135060729 0 0.31915821050206972 -0.37043664262910392 0 0.30570887717953288 -0.34364700841230278 0 0.30987318817222509 -0.34571298684785262 0 0.30351258495694688 -0.34255739421730541 0 0.29938815419514908 -0.36235191135060729 0 0.29225796469017368 -0.35486586181932289 0 0.31915821050206972 -0.37043664262910392 0 0.30570887717953288 -0.34364700841230278 0 0.29938815419514908 -0.36235191135060729 0 0.31915821050206972 -0.37043664262910392 0 0.30570887717953288 -0.34364700841230278 0 0.30351258495694688 -0.34255739421730541 0 0.29938815419514908 -0.36235191135060729 0 0.30570887717953288 -0.34364700841230278 0 0.30987318817222509 -0.34571298684785262 0 0.29225796469017368 -0.35486586181932289 0 0.28388279232808111 -0.34879423229863538 0 0.2822483272805178 -0.36575990941074382 0 0.30351258495694688 -0.34255739421730541 0 0.29225796469017368 -0.35486586181932289 0 0.28388279232808111 -0.34879423229863538 0 0.29526372343335222 -0.38214642848390951 0 0.29938815419514908 -0.36235191135060729 0 0.2822483272805178 -0.36575990941074382 0 0.29938815419514908 -0.36235191135060729 0 0.29225796469017368 -0.35486586181932289 0 0.2822483272805178 -0.36575990941074382 0 0.27569670368188232 -0.38326726020642471 0 0.2822483272805178 -0.36575990941074382 0 0.26273855981799532 -0.37402085189451678 0 0.2822483272805178 -0.36575990941074382 0 0.26391134377156378 -0.35745418407105078 0 0.26273855981799532 -0.37402085189451678 0 0.28388279232808111 -0.34879423229863538 0 0.2690396956517056 -0.34420120372419399 0 0.26391134377156378 -0.35745418407105078 0 0.28388279232808111 -0.34879423229863538 0 0.2822483272805178 -0.36575990941074382 0 0.26391134377156378 -0.35745418407105078 0 0.26391134377156378 -0.35745418407105078 0 0.25139118101367519 -0.34116546776705792 0 0.24725496166677341 -0.36469484034826838 0 0.2690396956517056 -0.34420120372419399 0 0.26391134377156378 -0.35745418407105078 0 0.25139118101367519 -0.34116546776705792 0 0.26391134377156378 -0.35745418407105078 0 0.26273855981799532 -0.37402085189451678 0 0.24725496166677341 -0.36469484034826838 0 0.26273855981799532 -0.37402085189451678 0 0.24725496166677341 -0.36469484034826838 0 0.2462658744323834 -0.38197959250061342 0 0.27697346549350221 -0.32939093076003212 0 0.2504343460300561 -0.31622446730276171 0 0.27399568940133018 -0.31084845435951231 0 0.29267099061500118 -0.31767693215293968 0 0.27697346549350221 -0.32939093076003212 0 0.27399568940133018 -0.31084845435951231 0 0.2690396956517056 -0.34420120372419399 0 0.27697346549350221 -0.32939093076003212 0 0.25139118101367519 -0.34116546776705792 0 0.28388279232808111 -0.34879423229863538 0 0.2690396956517056 -0.34420120372419399 0 0.27697346549350221 -0.32939093076003212 0 0.27697346549350221 -0.32939093076003212 0 0.25139118101367519 -0.34116546776705792 0 0.2504343460300561 -0.31622446730276171 0 0.27697346549350221 -0.32939093076003212 0 0.2504343460300561 -0.31622446730276171 0 0.2504343460300561 -0.31622446730276171 0 0.25790403393649142 -0.29221016043342007 0 0.26868825863076801 -0.29933442507853231 0 0.2504343460300561 -0.31622446730276171 0 0.27399568940133018 -0.31084845435951231 0 0.26868825863076801 -0.29933442507853231 0 0.25790403393649142 -0.29221016043342007 0 0.26247779924518422 -0.27455948017448001 0 0.23862998452346509 -0.28454510211497241 0 0.25790403393649142 -0.29221016043342007 0 0.27122533838754692 -0.28910882128364879 0 0.26247779924518422 -0.27455948017448001 0 0.27122533838754692 -0.28910882128364879 0 0.28742349607482037 -0.28773318483823551 0 0.26247779924518422 -0.27455948017448001 0 0.27122533838754692 -0.28910882128364879 0 0.27963310405047059 -0.29170685589357598 0 0.28742349607482037 -0.28773318483823551 0 0.25790403393649142 -0.29221016043342007 0 0.27122533838754692 -0.28910882128364879 0 0.26868825863076801 -0.29933442507853231 0 0.27122533838754692 -0.28910882128364879 0 0.27963310405047059 -0.29170685589357598 0 0.26868825863076801 -0.29933442507853231 0 0.27963310405047059 -0.29170685589357598 0 0.27399568940133018 -0.31084845435951231 0 0.26868825863076801 -0.29933442507853231 0 0.29267099061500118 -0.31767693215293968 0 0.27963310405047059 -0.29170685589357598 0 0.29267099061500118 -0.31767693215293968 0 0.27963310405047059 -0.29170685589357598 0 0.27399568940133018 -0.31084845435951231 0 0.29267099061500118 -0.31767693215293968 0 0.27963310405047059 -0.29170685589357598 0 0.29602111265001879 -0.30165816726207401 0 0.27963310405047059 -0.29170685589357598 0 0.29602111265001879 -0.30165816726207401 0 0.28742349607482037 -0.28773318483823551 0 0.28742349607482037 -0.28773318483823551 0 0.31236919290445669 -0.30090688950199113 0 0.29602111265001879 -0.30165816726207401 0 0.28742349607482037 -0.28773318483823551 0 0.31236919290445669 -0.30090688950199113 0 0.28742349607482037 -0.28773318483823551 0 0.31236919290445669 -0.30090688950199113 0 0.2973859747586714 -0.27579116796592118 0 0.31236919290445669 -0.30090688950199113 0 0.31219288969015102 -0.27103532748113379 0 0.2973859747586714 -0.27579116796592118 0 0.30601167809918312 -0.32095610648709572 0 0.29602111265001879 -0.30165816726207401 0 0.31236919290445669 -0.30090688950199113 0 0.30987088180634448 -0.24125362874219619 0 0.29250997527574701 -0.24677647679701359 0 0.31219288969015102 -0.27103532748113379 0 0.29250997527574701 -0.24677647679701359 0 0.31219288969015102 -0.27103532748113379 0 0.2896735531526361 -0.26412531454105981 0 0.31219288969015102 -0.27103532748113379 0 0.2973859747586714 -0.27579116796592118 0 0.2896735531526361 -0.26412531454105981 0 0.2973859747586714 -0.27579116796592118 0 0.28192096152604101 -0.27231994505035018 0 0.2896735531526361 -0.26412531454105981 0 0.28742349607482037 -0.28773318483823551 0 0.2973859747586714 -0.27579116796592118 0 0.28192096152604101 -0.27231994505035018 0 0.29250997527574701 -0.24677647679701359 0 0.2896735531526361 -0.26412531454105981 0 0.27534065318434953 -0.25880162201512719 0 0.28192096152604101 -0.27231994505035018 0 0.2896735531526361 -0.26412531454105981 0 0.27534065318434953 -0.25880162201512719 0 0.27462122614518292 -0.24127539045551061 0 0.27534065318434953 -0.25880162201512719 0 0.25726365536858148 -0.25362034743760148 0 0.28742349607482037 -0.28773318483823551 0 0.26247779924518422 -0.27455948017448001 0 0.28192096152604101 -0.27231994505035018 0 0.27534065318434953 -0.25880162201512719 0 0.26247779924518422 -0.27455948017448001 0 0.28742349607482037 -0.28773318483823551 0 0.28192096152604101 -0.27231994505035018 0 0.26247779924518422 -0.27455948017448001 0 0.26247779924518422 -0.27455948017448001 0 0.23753210241554801 -0.26138577551072451 0 0.26247779924518422 -0.27455948017448001 0 0.25726365536858148 -0.25362034743760148 0 0.23753210241554801 -0.26138577551072451 0 0.27534065318434953 -0.25880162201512719 0 0.26247779924518422 -0.27455948017448001 0 0.25726365536858148 -0.25362034743760148 0 0.23753210241554801 -0.26138577551072451 0 0.24146341680214309 -0.24448521489457861 0 0.2264227451730553 -0.24971222362376699 0 0.25726365536858148 -0.25362034743760148 0 0.23753210241554801 -0.26138577551072451 0 0.24146341680214309 -0.24448521489457861 0 0.26247779924518422 -0.27455948017448001 0 0.23753210241554801 -0.26138577551072451 0 0.23862998452346509 -0.28454510211497241 0 0.23753210241554801 -0.26138577551072451 0 0.2162589501465873 -0.27468266641732147 0 0.23862998452346509 -0.28454510211497241 0 0.23753210241554801 -0.26138577551072451 0 0.2162589501465873 -0.27468266641732147 0 0.2264227451730553 -0.24971222362376699 0 0.21040399342164171 -0.25176681621351038 0 0.2162589501465873 -0.27468266641732147 0 0.2264227451730553 -0.24971222362376699 0 0.21040399342164171 -0.25176681621351038 0 0.2162589501465873 -0.27468266641732147 0 0.1934777637386868 -0.26196852324515157 0 0.2162589501465873 -0.27468266641732147 0 0.1966688692062398 -0.27921476679881868 0 0.1934777637386868 -0.26196852324515157 0 0.1966688692062398 -0.27921476679881868 0 0.1934777637386868 -0.26196852324515157 0 0.177394147168592 -0.28445233252858981 0 0.21040399342164171 -0.25176681621351038 0 0.1934777637386868 -0.26196852324515157 0 0.19936230214102421 -0.2479946931896729 0 0.1934777637386868 -0.26196852324515157 0 0.18957958600208469 -0.24548130840959781 0 0.18140855909891221 -0.24875385404173869 0 0.1934777637386868 -0.26196852324515157 0 0.18957958600208469 -0.24548130840959781 0 0.19936230214102421 -0.2479946931896729 0 0.19954461577109309 -0.29575554500421197 0 0.1961972522999722 -0.32216937387389732 0 0.17947015261898311 -0.31043279954087621 0 0.1966688692062398 -0.27921476679881868 0 0.19954461577109309 -0.29575554500421197 0 0.177394147168592 -0.28445233252858981 0 0.2162589501465873 -0.27468266641732147 0 0.19954461577109309 -0.29575554500421197 0 0.22389522656661021 -0.30305800384549131 0 0.2162589501465873 -0.27468266641732147 0 0.1966688692062398 -0.27921476679881868 0 0.19954461577109309 -0.29575554500421197 0 0.19954461577109309 -0.29575554500421197 0 0.22389522656661021 -0.30305800384549131 0 0.1961972522999722 -0.32216937387389732 0 0.2504343460300561 -0.31622446730276171 0 0.25790403393649142 -0.29221016043342007 0 0.23862998452346509 -0.28454510211497241 0 0.2504343460300561 -0.31622446730276171 0 0.22389522656661021 -0.30305800384549131 0 0.23862998452346509 -0.28454510211497241 0 0.2162589501465873 -0.27468266641732147 0 0.22389522656661021 -0.30305800384549131 0 0.23862998452346509 -0.28454510211497241 0 0.2504343460300561 -0.31622446730276171 0 0.22389522656661021 -0.30305800384549131 0 0.22389522656661021 -0.30305800384549131 0 0.23204811719291779 -0.33532479601063409 0 0.2125404456115573 -0.3333426100015644 0 0.2504343460300561 -0.31622446730276171 0 0.22389522656661021 -0.30305800384549131 0 0.23204811719291779 -0.33532479601063409 0 0.25139118101367519 -0.34116546776705792 0 0.2504343460300561 -0.31622446730276171 0 0.23204811719291779 -0.33532479601063409 0 0.25139118101367519 -0.34116546776705792 0 0.23204811719291779 -0.33532479601063409 0 0.23339586826354061 -0.3539524211851004 0 0.23204811719291779 -0.33532479601063409 0 0.2148142246021956 -0.35440494078226209 0 0.2125404456115573 -0.3333426100015644 0 0.24725496166677341 -0.36469484034826838 0 0.23339586826354061 -0.3539524211851004 0 0.22607167799098421 -0.37270743793131111 0 0.24725496166677341 -0.36469484034826838 0 0.22607167799098421 -0.37270743793131111 0 0.2462658744323834 -0.38197959250061342 0 0.25139118101367519 -0.34116546776705792 0 0.24725496166677341 -0.36469484034826838 0 0.23339586826354061 -0.3539524211851004 0 0.23204811719291779 -0.33532479601063409 0 0.23339586826354061 -0.3539524211851004 0 0.2148142246021956 -0.35440494078226209 0 0.23339586826354061 -0.3539524211851004 0 0.22607167799098421 -0.37270743793131111 0 0.2148142246021956 -0.35440494078226209 0 0.22607167799098421 -0.37270743793131111 0 0.2148142246021956 -0.35440494078226209 0 0.20089624558916569 -0.37097766955135358 0 0.2148142246021956 -0.35440494078226209 0 0.196995760569282 -0.35087166092684791 0 0.2125404456115573 -0.3333426100015644 0 0.2148142246021956 -0.35440494078226209 0 0.196995760569282 -0.35087166092684791 0 0.20089624558916569 -0.37097766955135358 0 0.196995760569282 -0.35087166092684791 0 0.20089624558916569 -0.37097766955135358 0 0.1768321188753432 -0.36690628541415632 0 0.22389522656661021 -0.30305800384549131 0 0.2125404456115573 -0.3333426100015644 0 0.1961972522999722 -0.32216937387389732 0 0.196995760569282 -0.35087166092684791 0 0.2125404456115573 -0.3333426100015644 0 0.1961972522999722 -0.32216937387389732 0 0.196995760569282 -0.35087166092684791 0 0.1961972522999722 -0.32216937387389732 0 0.1815461580693743 -0.3364132665531625 0 0.1815461580693743 -0.3364132665531625 0 0.1643579081553766 -0.3243843153562348 0 0.17947015261898311 -0.31043279954087621 0 0.1815461580693743 -0.3364132665531625 0 0.17947015261898311 -0.31043279954087621 0 0.1961972522999722 -0.32216937387389732 0 0.1815461580693743 -0.3364132665531625 0 0.17947015261898311 -0.31043279954087621 0 0.1815461580693743 -0.3364132665531625 0 0.16209568629271459 -0.34050931120228572 0 0.17381591925058279 -0.35045305017024581 0 0.16209568629271459 -0.34050931120228572 0 0.1643579081553766 -0.3243843153562348 0 0.1490492594086629 -0.33054926329457512 0 0.1815461580693743 -0.3364132665531625 0 0.16209568629271459 -0.34050931120228572 0 0.1643579081553766 -0.3243843153562348 0 0.1643579081553766 -0.3243843153562348 0 0.14785798951182749 -0.31747381703923983 0 0.15879613053988581 -0.31078255386998788 0 0.1643579081553766 -0.3243843153562348 0 0.17947015261898311 -0.31043279954087621 0 0.15879613053988581 -0.31078255386998788 0 0.196995760569282 -0.35087166092684791 0 0.1815461580693743 -0.3364132665531625 0 0.17381591925058279 -0.35045305017024581 0 0.196995760569282 -0.35087166092684791 0 0.1768321188753432 -0.36690628541415632 0 0.196995760569282 -0.35087166092684791 0 0.1768321188753432 -0.36690628541415632 0 0.17381591925058279 -0.35045305017024581 0 0.16209568629271459 -0.34050931120228572 0 0.17381591925058279 -0.35045305017024581 0 0.15160987244619981 -0.35756472675477641 0 0.1768321188753432 -0.36690628541415632 0 0.17381591925058279 -0.35045305017024581 0 0.15160987244619981 -0.35756472675477641 0 0.1768321188753432 -0.36690628541415632 0 0.15160987244619981 -0.35756472675477641 0 0.15666847718140431 -0.38294090990146468 0 0.1768321188753432 -0.36690628541415632 0 0.15666847718140431 -0.38294090990146468 0 0.15160987244619981 -0.35756472675477641 0 0.13564640110034021 -0.35912784543918008 0 0.13554014667972011 -0.37371994475541209 0 0.15160987244619981 -0.35756472675477641 0 0.13554014667972011 -0.37371994475541209 0 0.15666847718140431 -0.38294090990146468 0 0.16209568629271459 -0.34050931120228572 0 0.15160987244619981 -0.35756472675477641 0 0.1475882597035684 -0.34306743954738478 0 0.15160987244619981 -0.35756472675477641 0 0.1343114121946197 -0.3455365503022883 0 0.1475882597035684 -0.34306743954738478 0 0.15160987244619981 -0.35756472675477641 0 0.1343114121946197 -0.3455365503022883 0 0.13564640110034021 -0.35912784543918008 0 0.1343114121946197 -0.3455365503022883 0 0.1218367566819203 -0.34066885685305681 0 0.1211241730808211 -0.35969015994424403 0 0.1343114121946197 -0.3455365503022883 0 0.13564640110034021 -0.35912784543918008 0 0.1211241730808211 -0.35969015994424403 0 0.13564640110034021 -0.35912784543918008 0 0.13554014667972011 -0.37371994475541209 0 0.1211241730808211 -0.35969015994424403 0 0.1643579081553766 -0.3243843153562348 0 0.14785798951182749 -0.31747381703923983 0 0.1490492594086629 -0.33054926329457512 0 0.14785798951182749 -0.31747381703923983 0 0.1490492594086629 -0.33054926329457512 0 0.13601489266483169 -0.3229904494785929 0 0.16209568629271459 -0.34050931120228572 0 0.1490492594086629 -0.33054926329457512 0 0.1475882597035684 -0.34306743954738478 0 0.1490492594086629 -0.33054926329457512 0 0.1475882597035684 -0.34306743954738478 0 0.1353950678134421 -0.33468762657073647 0 0.1490492594086629 -0.33054926329457512 0 0.1353950678134421 -0.33468762657073647 0 0.13601489266483169 -0.3229904494785929 0 0.1343114121946197 -0.3455365503022883 0 0.1475882597035684 -0.34306743954738478 0 0.1353950678134421 -0.33468762657073647 0 0.1343114121946197 -0.3455365503022883 0 0.1353950678134421 -0.33468762657073647 0 0.1218367566819203 -0.34066885685305681 0 0.1353950678134421 -0.33468762657073647 0 0.12646864396445259 -0.32771949481933838 0 0.13601489266483169 -0.3229904494785929 0 0.1353950678134421 -0.33468762657073647 0 0.12646864396445259 -0.32771949481933838 0 0.1218367566819203 -0.34066885685305681 0 0.12646864396445259 -0.32771949481933838 0 0.13601489266483169 -0.3229904494785929 0 0.1236403595102975 -0.31726182602291142 0 0.14785798951182749 -0.31747381703923983 0 0.13601489266483169 -0.3229904494785929 0 0.13602289492267541 -0.31130305695836602 0 0.13601489266483169 -0.3229904494785929 0 0.13602289492267541 -0.31130305695836602 0 0.1236403595102975 -0.31726182602291142 0 0.127428615210958 -0.30550107704066293 0 0.13602289492267541 -0.31130305695836602 0 0.1236403595102975 -0.31726182602291142 0 0.127428615210958 -0.30550107704066293 0 0.13551093200295419 -0.30168473438614679 0 0.1256525224322369 -0.29448257816376899 0 0.127428615210958 -0.30550107704066293 0 0.13551093200295419 -0.30168473438614679 0 0.13602289492267541 -0.31130305695836602 0 0.13551093200295419 -0.30168473438614679 0 0.13602289492267541 -0.31130305695836602 0 0.14563569558381231 -0.30495269920752849 0 0.14563569558381231 -0.30495269920752849 0 0.1436119925904093 -0.29293491915627751 0 0.1604468518829657 -0.29816604611383052 0 0.14785798951182749 -0.31747381703923983 0 0.13602289492267541 -0.31130305695836602 0 0.14563569558381231 -0.30495269920752849 0 0.13551093200295419 -0.30168473438614679 0 0.14563569558381231 -0.30495269920752849 0 0.1436119925904093 -0.29293491915627751 0 0.14563569558381231 -0.30495269920752849 0 0.15879613053988581 -0.31078255386998788 0 0.1604468518829657 -0.29816604611383052 0 0.14785798951182749 -0.31747381703923983 0 0.14563569558381231 -0.30495269920752849 0 0.15879613053988581 -0.31078255386998788 0 0.1436119925904093 -0.29293491915627751 0 0.1604468518829657 -0.29816604611383052 0 0.15777299279611159 -0.28544097237972332 0 0.1436119925904093 -0.29293491915627751 0 0.15114809845108379 -0.28013278059363872 0 0.15777299279611159 -0.28544097237972332 0 0.1436119925904093 -0.29293491915627751 0 0.1436168584679525 -0.2836209543501686 0 0.1357133019824012 -0.28986653681351437 0 0.1436119925904093 -0.29293491915627751 0 0.1436168584679525 -0.2836209543501686 0 0.15114809845108379 -0.28013278059363872 0 0.1436168584679525 -0.2836209543501686 0 0.12997183443900701 -0.2884276955838429 0 0.14612074404546729 -0.27464986070998659 0 0.1436168584679525 -0.2836209543501686 0 0.1357133019824012 -0.28986653681351437 0 0.12997183443900701 -0.2884276955838429 0 0.1436119925904093 -0.29293491915627751 0 0.1256525224322369 -0.29448257816376899 0 0.12997183443900701 -0.2884276955838429 0 0.14612074404546729 -0.27464986070998659 0 0.1436119925904093 -0.29293491915627751 0 0.1357133019824012 -0.28986653681351437 0 0.1256525224322369 -0.29448257816376899 0 0.13551093200295419 -0.30168473438614679 0 0.1436119925904093 -0.29293491915627751 0 0.1256525224322369 -0.29448257816376899 0 0.1357133019824012 -0.28986653681351437 0 0.1256525224322369 -0.29448257816376899 0 0.12997183443900701 -0.2884276955838429 0 0.1256525224322369 -0.29448257816376899 0 0.12997183443900701 -0.2884276955838429 0 0.1225628758501054 -0.2947488287446996 0 0.1256525224322369 -0.29448257816376899 0 0.12997183443900701 -0.2884276955838429 0 0.12997183443900701 -0.2884276955838429 0 0.1233634239504731 -0.2874855776093414 0 0.1225628758501054 -0.2947488287446996 0 0.12997183443900701 -0.2884276955838429 0 0.1225628758501054 -0.2947488287446996 0 0.12997183443900701 -0.2884276955838429 0 0.1275993617664036 -0.28112518425861122 0 0.1233634239504731 -0.2874855776093414 0 0.12997183443900701 -0.2884276955838429 0 0.1275993617664036 -0.28112518425861122 0 0.13485463758425459 -0.27391652201106309 0 0.1275993617664036 -0.28112518425861122 0 0.1280966355330338 -0.27434446718476552 0 0.12144198577599689 -0.28043819023602667 0 0.12997183443900701 -0.2884276955838429 0 0.14612074404546729 -0.27464986070998659 0 0.1420233446603141 -0.27153369043062148 0 0.12997183443900701 -0.2884276955838429 0 0.13485463758425459 -0.27391652201106309 0 0.1420233446603141 -0.27153369043062148 0 0.12997183443900701 -0.2884276955838429 0 0.1420233446603141 -0.27153369043062148 0 0.1275993617664036 -0.28112518425861122 0 0.1280966355330338 -0.27434446718476552 0 0.13485463758425459 -0.27391652201106309 0 0.1280966355330338 -0.27434446718476552 0 0.13485463758425459 -0.27391652201106309 0 0.13350735252106491 -0.26509119559065258 0 0.1280966355330338 -0.27434446718476552 0 0.13350735252106491 -0.26509119559065258 0 0.123327112510175 -0.26381005316279871 0 0.13811143923488059 -0.26777882680588339 0 0.13485463758425459 -0.27391652201106309 0 0.13350735252106491 -0.26509119559065258 0 0.13811143923488059 -0.26777882680588339 0 0.13485463758425459 -0.27391652201106309 0 0.1420233446603141 -0.27153369043062148 0 0.13350735252106491 -0.26509119559065258 0 0.1338120645475761 -0.25178135897747889 0 0.123327112510175 -0.26381005316279871 0 0.13350735252106491 -0.26509119559065258 0 0.1338120645475761 -0.25178135897747889 0 0.1420604221738889 -0.26057389919119672 0 0.13811143923488059 -0.26777882680588339 0 0.13350735252106491 -0.26509119559065258 0 0.1420604221738889 -0.26057389919119672 0 0.15407485488162029 -0.25463968527739939 0 0.1420233446603141 -0.27153369043062148 0 0.1338120645475761 -0.25178135897747889 0 0.15081333679343489 -0.24957271686280691 0 0.1504037114514421 -0.26476637401943331 0 0.15407485488162029 -0.25463968527739939 0 0.1420233446603141 -0.27153369043062148 0 0.1420604221738889 -0.26057389919119672 0 0.15407485488162029 -0.25463968527739939 0 0.1420233446603141 -0.27153369043062148 0 0.1338120645475761 -0.25178135897747889 0 0.14898820642875321 -0.25263106074458241 0 0.15081333679343489 -0.24957271686280691 0 0.1420604221738889 -0.26057389919119672 0 0.14898820642875321 -0.25263106074458241 0 0.15407485488162029 -0.25463968527739939 0 0.1338120645475761 -0.25178135897747889 0 0.14898820642875321 -0.25263106074458241 0 0.1338120645475761 -0.25178135897747889 0 0.1420604221738889 -0.26057389919119672 0 0.14898820642875321 -0.25263106074458241 0 0.1504037114514421 -0.26476637401943331 0 0.15407485488162029 -0.25463968527739939 0 0.15854298516514259 -0.2623064548534918 0 0.1504037114514421 -0.26476637401943331 0 0.15545765769127859 -0.26765705275147811 0 0.15854298516514259 -0.2623064548534918 0 0.14898820642875321 -0.25263106074458241 0 0.15407485488162029 -0.25463968527739939 0 0.16416434830993021 -0.25348076251168611 0 0.14898820642875321 -0.25263106074458241 0 0.16416434830993021 -0.25348076251168611 0 0.15081333679343489 -0.24957271686280691 0 0.1436168584679525 -0.2836209543501686 0 0.14612074404546729 -0.27464986070998659 0 0.15114809845108379 -0.28013278059363872 0 0.13811143923488059 -0.26777882680588339 0 0.1420604221738889 -0.26057389919119672 0 0.1420233446603141 -0.27153369043062148 0 0.1504037114514421 -0.26476637401943331 0 0.1420233446603141 -0.27153369043062148 0 0.14774651714261711 -0.27061417123897102 0 0.14612074404546729 -0.27464986070998659 0 0.1420233446603141 -0.27153369043062148 0 0.14774651714261711 -0.27061417123897102 0 0.15545765769127859 -0.26765705275147811 0 0.1524382684132447 -0.27150675979584271 0 0.16044566573528521 -0.27204862233714472 0 0.14612074404546729 -0.27464986070998659 0 0.14774651714261711 -0.27061417123897102 0 0.1524382684132447 -0.27150675979584271 0 0.1504037114514421 -0.26476637401943331 0 0.14774651714261711 -0.27061417123897102 0 0.1524382684132447 -0.27150675979584271 0 0.1504037114514421 -0.26476637401943331 0 0.15545765769127859 -0.26765705275147811 0 0.1524382684132447 -0.27150675979584271 0 0.1524382684132447 -0.27150675979584271 0 0.15114809845108379 -0.28013278059363872 0 0.16044566573528521 -0.27204862233714472 0 0.14612074404546729 -0.27464986070998659 0 0.1524382684132447 -0.27150675979584271 0 0.15114809845108379 -0.28013278059363872 0 0.16044566573528521 -0.27204862233714472 0 0.16717305761943019 -0.26615200754944318 0 0.177394147168592 -0.28445233252858981 0 0.16044566573528521 -0.27204862233714472 0 0.177394147168592 -0.28445233252858981 0 0.15777299279611159 -0.28544097237972332 0 0.15114809845108379 -0.28013278059363872 0 0.16044566573528521 -0.27204862233714472 0 0.15777299279611159 -0.28544097237972332 0 0.15545765769127859 -0.26765705275147811 0 0.16044566573528521 -0.27204862233714472 0 0.15854298516514259 -0.2623064548534918 0 0.16044566573528521 -0.27204862233714472 0 0.16717305761943019 -0.26615200754944318 0 0.15854298516514259 -0.2623064548534918 0 0.15407485488162029 -0.25463968527739939 0 0.15854298516514259 -0.2623064548534918 0 0.16416434830993021 -0.25348076251168611 0 0.14898820642875321 -0.25263106074458241 0 0.16416434830993021 -0.25348076251168611 0 0.16416434830993021 -0.25348076251168611 0 0.15746623258843939 -0.24717962177743169 0 0.15081333679343489 -0.24957271686280691 0 0.16717305761943019 -0.26615200754944318 0 0.15854298516514259 -0.2623064548534918 0 0.16416434830993021 -0.25348076251168611 0 0.16717305761943019 -0.26615200754944318 0 0.16416434830993021 -0.25348076251168611 0 0.17531814171820079 -0.25847186551630352 0 0.1934777637386868 -0.26196852324515157 0 0.17531814171820079 -0.25847186551630352 0 0.18140855909891221 -0.24875385404173869 0 0.16717305761943019 -0.26615200754944318 0 0.17531814171820079 -0.25847186551630352 0 0.177394147168592 -0.28445233252858981 0 0.1934777637386868 -0.26196852324515157 0 0.17531814171820079 -0.25847186551630352 0 0.177394147168592 -0.28445233252858981 0 0.17531814171820079 -0.25847186551630352 0 0.177394147168592 -0.28445233252858981 0 0.177394147168592 -0.28445233252858981 0 0.17947015261898311 -0.31043279954087621 0 0.1604468518829657 -0.29816604611383052 0 0.19954461577109309 -0.29575554500421197 0 0.177394147168592 -0.28445233252858981 0 0.17947015261898311 -0.31043279954087621 0 0.177394147168592 -0.28445233252858981 0 0.17947015261898311 -0.31043279954087621 0 0.17947015261898311 -0.31043279954087621 0 0.15879613053988581 -0.31078255386998788 0 0.1604468518829657 -0.29816604611383052 0 0.177394147168592 -0.28445233252858981 0 0.1604468518829657 -0.29816604611383052 0 0.15777299279611159 -0.28544097237972332 0 0.19199278516569629 -0.5 0 0.1900164382224285 -0.48271496941050879 0 0.20545646434069309 -0.4787017342280358 0 0.1900164382224285 -0.48271496941050879 0 0.20545646434069309 -0.4787017342280358 0 0.18613842771148381 -0.46787851807202258 0 0.20545646434069309 -0.4787017342280358 0 0.2281108343262262 -0.48056582836830158 0 0.21973600360042431 -0.45949417383294189 0 0.20545646434069309 -0.4787017342280358 0 0.21796904096784361 -0.5 0 0.2281108343262262 -0.48056582836830158 0 0.19199278516569629 -0.5 0 0.20545646434069309 -0.4787017342280358 0 0.21796904096784361 -0.5 0 0.21796904096784361 -0.5 0 0.24394529676999099 -0.5 0 0.2281108343262262 -0.48056582836830158 0 0.25460761733926612 -0.48077428153223201 0 0.24394529676999099 -0.5 0 0.2281108343262262 -0.48056582836830158 0 0.2281108343262262 -0.48056582836830158 0 0.24642569303344669 -0.46176391886762419 0 0.25460761733926612 -0.48077428153223201 0 0.2281108343262262 -0.48056582836830158 0 0.24642569303344669 -0.46176391886762419 0 0.2281108343262262 -0.48056582836830158 0 0.21973600360042431 -0.45949417383294189 0 0.2323887624892686 -0.4611014010944845 0 0.21973600360042431 -0.45949417383294189 0 0.2323887624892686 -0.4611014010944845 0 0.23528251899697711 -0.44258168330907049 0 0.2281108343262262 -0.48056582836830158 0 0.2323887624892686 -0.4611014010944845 0 0.24642569303344669 -0.46176391886762419 0 0.2323887624892686 -0.4611014010944845 0 0.24642569303344669 -0.46176391886762419 0 0.23528251899697711 -0.44258168330907049 0 0.2647405517406643 -0.44296200936694391 0 0.23528251899697711 -0.44258168330907049 0 0.24937758952868769 -0.43582476186075059 0 0.2647405517406643 -0.44296200936694391 0 0.24642569303344669 -0.46176391886762419 0 0.23528251899697711 -0.44258168330907049 0 0.21973600360042431 -0.45949417383294189 0 0.23528251899697711 -0.44258168330907049 0 0.20582448625328989 -0.44220135725120002 0 0.23528251899697711 -0.44258168330907049 0 0.20582448625328989 -0.44220135725120002 0 0.23528251899697711 -0.44258168330907049 0 0.20582448625328989 -0.44220135725120002 0 0.22256526670295609 -0.43567624475563838 0 0.20545646434069309 -0.4787017342280358 0 0.21973600360042431 -0.45949417383294189 0 0.202602484605724 -0.45942999972385479 0 0.21973600360042431 -0.45949417383294189 0 0.20582448625328989 -0.44220135725120002 0 0.202602484605724 -0.45942999972385479 0 0.202602484605724 -0.45942999972385479 0 0.19228485390892139 -0.44832807257495588 0 0.18613842771148381 -0.46787851807202258 0 0.20545646434069309 -0.4787017342280358 0 0.202602484605724 -0.45942999972385479 0 0.18613842771148381 -0.46787851807202258 0 0.20582448625328989 -0.44220135725120002 0 0.202602484605724 -0.45942999972385479 0 0.19228485390892139 -0.44832807257495588 0 0.20582448625328989 -0.44220135725120002 0 0.19228485390892139 -0.44832807257495588 0 0.1986877949313606 -0.42882383702638299 0 0.19228485390892139 -0.44832807257495588 0 0.1986877949313606 -0.42882383702638299 0 0.183200271073473 -0.43641073338783498 0 0.1986877949313606 -0.42882383702638299 0 0.1816281482625339 -0.41415137017959991 0 0.183200271073473 -0.43641073338783498 0 0.20582455939560251 -0.41258395769508027 0 0.1950935246886642 -0.40110820421824778 0 0.1816281482625339 -0.41415137017959991 0 0.1986877949313606 -0.42882383702638299 0 0.20582455939560251 -0.41258395769508027 0 0.1816281482625339 -0.41415137017959991 0 0.20582455939560251 -0.41258395769508027 0 0.21384958020830239 -0.42892716952759119 0 0.2218345854540221 -0.41854111548045619 0 0.20582455939560251 -0.41258395769508027 0 0.2218345854540221 -0.41854111548045619 0 0.2220903860499629 -0.40641314768071007 0 0.1986877949313606 -0.42882383702638299 0 0.20582455939560251 -0.41258395769508027 0 0.21384958020830239 -0.42892716952759119 0 0.20582448625328989 -0.44220135725120002 0 0.21384958020830239 -0.42892716952759119 0 0.22256526670295609 -0.43567624475563838 0 0.20582448625328989 -0.44220135725120002 0 0.1986877949313606 -0.42882383702638299 0 0.21384958020830239 -0.42892716952759119 0 0.21384958020830239 -0.42892716952759119 0 0.22256526670295609 -0.43567624475563838 0 0.23530448135325491 -0.42899476893469179 0 0.21384958020830239 -0.42892716952759119 0 0.23530448135325491 -0.42899476893469179 0 0.21384958020830239 -0.42892716952759119 0 0.23530448135325491 -0.42899476893469179 0 0.2218345854540221 -0.41854111548045619 0 0.23528251899697711 -0.44258168330907049 0 0.22256526670295609 -0.43567624475563838 0 0.23530448135325491 -0.42899476893469179 0 0.25675938249820729 -0.42906236834179229 0 0.23530448135325491 -0.42899476893469179 0 0.23528251899697711 -0.44258168330907049 0 0.23530448135325491 -0.42899476893469179 0 0.24937758952868769 -0.43582476186075059 0 0.25675938249820729 -0.42906236834179229 0 0.23530448135325491 -0.42899476893469179 0 0.24471655788437549 -0.41836465708289111 0 0.25675938249820729 -0.42906236834179229 0 0.23530448135325491 -0.42899476893469179 0 0.24937758952868769 -0.43582476186075059 0 0.25834465052961392 -0.41196496969487773 0 0.24471655788437549 -0.41836465708289111 0 0.2415255849161019 -0.40609463635975013 0 0.23530448135325491 -0.42899476893469179 0 0.24471655788437549 -0.41836465708289111 0 0.23210392026298771 -0.41578653356420769 0 0.24471655788437549 -0.41836465708289111 0 0.23210392026298771 -0.41578653356420769 0 0.2415255849161019 -0.40609463635975013 0 0.23210392026298771 -0.41578653356420769 0 0.2220903860499629 -0.40641314768071007 0 0.2415255849161019 -0.40609463635975013 0 0.23530448135325491 -0.42899476893469179 0 0.23210392026298771 -0.41578653356420769 0 0.2218345854540221 -0.41854111548045619 0 0.23210392026298771 -0.41578653356420769 0 0.2218345854540221 -0.41854111548045619 0 0.2220903860499629 -0.40641314768071007 0 0.2220903860499629 -0.40641314768071007 0 0.2325848323457651 -0.39226733923237422 0 0.2415255849161019 -0.40609463635975013 0 0.2220903860499629 -0.40641314768071007 0 0.2325848323457651 -0.39226733923237422 0 0.20793944219493879 -0.39039719718598698 0 0.25113336278303172 -0.39639034007073559 0 0.2325848323457651 -0.39226733923237422 0 0.2415255849161019 -0.40609463635975013 0 0.25113336278303172 -0.39639034007073559 0 0.2325848323457651 -0.39226733923237422 0 0.2462658744323834 -0.38197959250061342 0 0.22607167799098421 -0.37270743793131111 0 0.2325848323457651 -0.39226733923237422 0 0.2462658744323834 -0.38197959250061342 0 0.22607167799098421 -0.37270743793131111 0 0.2325848323457651 -0.39226733923237422 0 0.20793944219493879 -0.39039719718598698 0 0.22607167799098421 -0.37270743793131111 0 0.20089624558916569 -0.37097766955135358 0 0.20793944219493879 -0.39039719718598698 0 0.20582455939560251 -0.41258395769508027 0 0.2220903860499629 -0.40641314768071007 0 0.20793944219493879 -0.39039719718598698 0 0.20793944219493879 -0.39039719718598698 0 0.1950935246886642 -0.40110820421824778 0 0.18397260247544159 -0.38969422049886882 0 0.20582455939560251 -0.41258395769508027 0 0.20793944219493879 -0.39039719718598698 0 0.1950935246886642 -0.40110820421824778 0 0.20089624558916569 -0.37097766955135358 0 0.20793944219493879 -0.39039719718598698 0 0.18397260247544159 -0.38969422049886882 0 0.20089624558916569 -0.37097766955135358 0 0.1768321188753432 -0.36690628541415632 0 0.18397260247544159 -0.38969422049886882 0 0.1768321188753432 -0.36690628541415632 0 0.18397260247544159 -0.38969422049886882 0 0.15666847718140431 -0.38294090990146468 0 0.1950935246886642 -0.40110820421824778 0 0.18397260247544159 -0.38969422049886882 0 0.1816281482625339 -0.41415137017959991 0 0.18397260247544159 -0.38969422049886882 0 0.16282522567504601 -0.40076461101477862 0 0.1816281482625339 -0.41415137017959991 0 0.18397260247544159 -0.38969422049886882 0 0.16282522567504601 -0.40076461101477862 0 0.15666847718140431 -0.38294090990146468 0 0.13554014667972011 -0.37371994475541209 0 0.15666847718140431 -0.38294090990146468 0 0.13650483548746539 -0.39897553438877298 0 0.13554014667972011 -0.37371994475541209 0 0.13650483548746539 -0.39897553438877298 0 0.11257503074115451 -0.38498649823446041 0 0.16282522567504601 -0.40076461101477862 0 0.13650483548746539 -0.39897553438877298 0 0.15535206496838491 -0.41806102010518609 0 0.16282522567504601 -0.40076461101477862 0 0.15666847718140431 -0.38294090990146468 0 0.13650483548746539 -0.39897553438877298 0 0.15666847718140431 -0.38294090990146468 0 0.13650483548746539 -0.39897553438877298 0 0.13650483548746539 -0.39897553438877298 0 0.15535206496838491 -0.41806102010518609 0 0.13513029091253781 -0.42041342615249999 0 0.13650483548746539 -0.39897553438877298 0 0.1163411937935266 -0.41501015887608139 0 0.13650483548746539 -0.39897553438877298 0 0.13513029091253781 -0.42041342615249999 0 0.1163411937935266 -0.41501015887608139 0 0.13513029091253781 -0.42041342615249999 0 0.15032059054535499 -0.43467939270726969 0 0.13254635452133279 -0.44085243440563188 0 0.13513029091253781 -0.42041342615249999 0 0.13254635452133279 -0.44085243440563188 0 0.1143868512917591 -0.43285467588419202 0 0.15535206496838491 -0.41806102010518609 0 0.13513029091253781 -0.42041342615249999 0 0.15032059054535499 -0.43467939270726969 0 0.15535206496838491 -0.41806102010518609 0 0.15032059054535499 -0.43467939270726969 0 0.16908223299646141 -0.42841704329178959 0 0.15032059054535499 -0.43467939270726969 0 0.16908223299646141 -0.42841704329178959 0 0.16335318746445779 -0.4445252196366028 0 0.16282522567504601 -0.40076461101477862 0 0.15535206496838491 -0.41806102010518609 0 0.1816281482625339 -0.41415137017959991 0 0.15535206496838491 -0.41806102010518609 0 0.16908223299646141 -0.42841704329178959 0 0.1816281482625339 -0.41415137017959991 0 0.16908223299646141 -0.42841704329178959 0 0.183200271073473 -0.43641073338783498 0 0.16335318746445779 -0.4445252196366028 0 0.16908223299646141 -0.42841704329178959 0 0.1816281482625339 -0.41415137017959991 0 0.183200271073473 -0.43641073338783498 0 0.183200271073473 -0.43641073338783498 0 0.1772803827575771 -0.45352317498248768 0 0.16335318746445779 -0.4445252196366028 0 0.19228485390892139 -0.44832807257495588 0 0.183200271073473 -0.43641073338783498 0 0.1772803827575771 -0.45352317498248768 0 0.19228485390892139 -0.44832807257495588 0 0.1772803827575771 -0.45352317498248768 0 0.18613842771148381 -0.46787851807202258 0 0.1772803827575771 -0.45352317498248768 0 0.18613842771148381 -0.46787851807202258 0 0.16548752239589951 -0.46480458862744461 0 0.16548752239589951 -0.46480458862744461 0 0.16335318746445779 -0.4445252196366028 0 0.1464594124089553 -0.4558072126519076 0 0.1772803827575771 -0.45352317498248768 0 0.16548752239589951 -0.46480458862744461 0 0.16335318746445779 -0.4445252196366028 0 0.15032059054535499 -0.43467939270726969 0 0.16335318746445779 -0.4445252196366028 0 0.1464594124089553 -0.4558072126519076 0 0.15032059054535499 -0.43467939270726969 0 0.13254635452133279 -0.44085243440563188 0 0.1464594124089553 -0.4558072126519076 0 0.13254635452133279 -0.44085243440563188 0 0.1274715551183096 -0.46736641087901343 0 0.1464594124089553 -0.4558072126519076 0 0.16548752239589951 -0.46480458862744461 0 0.1464594124089553 -0.4558072126519076 0 0.1467440422409298 -0.48368320543950499 0 0.1274715551183096 -0.46736641087901343 0 0.1467440422409298 -0.48368320543950499 0 0.12445287299781339 -0.48580957524003149 0 0.1274715551183096 -0.46736641087901343 0 0.1464594124089553 -0.4558072126519076 0 0.1467440422409298 -0.48368320543950499 0 0.1274715551183096 -0.46736641087901343 0 0.1467440422409298 -0.48368320543950499 0 0.1467440422409298 -0.48368320543950499 0 0.13861342094189541 -0.5 0 0.12445287299781339 -0.48580957524003149 0 0.1467440422409298 -0.48368320543950499 0 0.13861342094189541 -0.5 0 0.16601652936354891 -0.49999999999999789 0 0.1467440422409298 -0.48368320543950499 0 0.16601652936354891 -0.49999999999999789 0 0.1742528725293658 -0.48296598532830509 0 0.1467440422409298 -0.48368320543950499 0 0.16601652936354891 -0.49999999999999789 0 0.16548752239589951 -0.46480458862744461 0 0.1467440422409298 -0.48368320543950499 0 0.1742528725293658 -0.48296598532830509 0 0.18613842771148381 -0.46787851807202258 0 0.16548752239589951 -0.46480458862744461 0 0.1742528725293658 -0.48296598532830509 0 0.1900164382224285 -0.48271496941050879 0 0.18613842771148381 -0.46787851807202258 0 0.1742528725293658 -0.48296598532830509 0 0.19199278516569629 -0.5 0 0.16601652936354891 -0.49999999999999789 0 0.1742528725293658 -0.48296598532830509 0 0.19199278516569629 -0.5 0 0.1900164382224285 -0.48271496941050879 0 0.1742528725293658 -0.48296598532830509 0 0.067672963152933252 -0.5 0 0.070479040632291823 -0.48264211959480191 0 0.053020152767299072 -0.48801933676575959 0 0.067672963152933252 -0.5 0 0.070479040632291823 -0.48264211959480191 0 0.080327064833409109 -0.49320164294834518 0 0.064630060102032719 -0.47456076603106118 0 0.075246676549625066 -0.47305272083988897 0 0.070479040632291823 -0.48264211959480191 0 0.064630060102032719 -0.47456076603106118 0 0.075246676549625066 -0.47305272083988897 0 0.061795930812101732 -0.46820781613902701 0 0.075246676549625066 -0.47305272083988897 0 0.092517011764567517 -0.47378197497117353 0 0.089959488850471461 -0.49094383163907668 0 0.075246676549625066 -0.47305272083988897 0 0.070479040632291823 -0.48264211959480191 0 0.089959488850471461 -0.49094383163907668 0 0.075246676549625066 -0.47305272083988897 0 0.092517011764567517 -0.47378197497117353 0 0.083633368414380696 -0.46621164320728742 0 0.075246676549625066 -0.47305272083988897 0 0.089959488850471461 -0.49094383163907668 0 0.067672963152933252 -0.5 0 0.080327064833409109 -0.49320164294834518 0 0.097406857924120502 -0.499999999999999 0 0.080327064833409109 -0.49320164294834518 0 0.089959488850471461 -0.49094383163907668 0 0.097406857924120502 -0.499999999999999 0 0.070479040632291823 -0.48264211959480191 0 0.080327064833409109 -0.49320164294834518 0 0.089959488850471461 -0.49094383163907668 0 0.070479040632291823 -0.48264211959480191 0 0.089959488850471461 -0.49094383163907668 0 0.089959488850471461 -0.49094383163907668 0 0.097406857924120502 -0.499999999999999 0 0.089959488850471461 -0.49094383163907668 0 0.097406857924120502 -0.499999999999999 0 0.1112103125202419 -0.50000000000000022 0 0.089959488850471461 -0.49094383163907668 0 0.1052052932537345 -0.48462989700511527 0 0.1112103125202419 -0.50000000000000022 0 0.089959488850471461 -0.49094383163907668 0 0.1112103125202419 -0.50000000000000022 0 0.1052052932537345 -0.48462989700511527 0 0.1112103125202419 -0.50000000000000022 0 0.12445287299781339 -0.48580957524003149 0 0.13861342094189541 -0.5 0 0.1112103125202419 -0.50000000000000022 0 0.12445287299781339 -0.48580957524003149 0 0.1052052932537345 -0.48462989700511527 0 0.12445287299781339 -0.48580957524003149 0 0.10908141417361709 -0.46883823252096812 0 0.1274715551183096 -0.46736641087901343 0 0.12445287299781339 -0.48580957524003149 0 0.10908141417361709 -0.46883823252096812 0 0.092517011764567517 -0.47378197497117353 0 0.089959488850471461 -0.49094383163907668 0 0.1052052932537345 -0.48462989700511527 0 0.092517011764567517 -0.47378197497117353 0 0.1052052932537345 -0.48462989700511527 0 0.10908141417361709 -0.46883823252096812 0 0.092517011764567517 -0.47378197497117353 0 0.10908141417361709 -0.46883823252096812 0 0.090724871429903375 -0.45809280890615561 0 0.10908141417361709 -0.46883823252096812 0 0.1081990679956894 -0.4510496163185217 0 0.090724871429903375 -0.45809280890615561 0 0.1274715551183096 -0.46736641087901343 0 0.10908141417361709 -0.46883823252096812 0 0.1081990679956894 -0.4510496163185217 0 0.1274715551183096 -0.46736641087901343 0 0.1081990679956894 -0.4510496163185217 0 0.13254635452133279 -0.44085243440563188 0 0.1274715551183096 -0.46736641087901343 0 0.1081990679956894 -0.4510496163185217 0 0.13254635452133279 -0.44085243440563188 0 0.1081990679956894 -0.4510496163185217 0 0.1143868512917591 -0.43285467588419202 0 0.1081990679956894 -0.4510496163185217 0 0.09424645164530171 -0.44210268425789312 0 0.090724871429903375 -0.45809280890615561 0 0.1081990679956894 -0.4510496163185217 0 0.09424645164530171 -0.44210268425789312 0 0.1143868512917591 -0.43285467588419202 0 0.09424645164530171 -0.44210268425789312 0 0.078924008128618786 -0.44927425917818692 0 0.090724871429903375 -0.45809280890615561 0 0.09424645164530171 -0.44210268425789312 0 0.078924008128618786 -0.44927425917818692 0 0.079815715379254276 -0.43713965414436617 0 0.092517011764567517 -0.47378197497117353 0 0.090724871429903375 -0.45809280890615561 0 0.083633368414380696 -0.46621164320728742 0 0.075246676549625066 -0.47305272083988897 0 0.083633368414380696 -0.46621164320728742 0 0.07604491391342684 -0.45991906811193117 0 0.090724871429903375 -0.45809280890615561 0 0.083633368414380696 -0.46621164320728742 0 0.07604491391342684 -0.45991906811193117 0 0.078924008128618786 -0.44927425917818692 0 0.090724871429903375 -0.45809280890615561 0 0.07604491391342684 -0.45991906811193117 0 0.075246676549625066 -0.47305272083988897 0 0.07604491391342684 -0.45991906811193117 0 0.060533864248779268 -0.45516161004070088 0 0.075246676549625066 -0.47305272083988897 0 0.060533864248779268 -0.45516161004070088 0 0.061795930812101732 -0.46820781613902701 0 0.078924008128618786 -0.44927425917818692 0 0.07604491391342684 -0.45991906811193117 0 0.066742638013750744 -0.45361708446569943 0 0.075246676549625066 -0.47305272083988897 0 0.060533864248779268 -0.45516161004070088 0 0.07604491391342684 -0.45991906811193117 0 0.066742638013750744 -0.45361708446569943 0 0.060533864248779268 -0.45516161004070088 0 0.066742638013750744 -0.45361708446569943 0 0.060533864248779268 -0.45516161004070088 0 0.066742638013750744 -0.45361708446569943 0 0.070851891070507364 -0.4429924727175758 0 0.060604784186928162 -0.44219524034701829 0 0.066742638013750744 -0.45361708446569943 0 0.060604784186928162 -0.44219524034701829 0 0.060533864248779268 -0.45516161004070088 0 0.070851891070507364 -0.4429924727175758 0 0.068700271916894928 -0.43290455926873739 0 0.060604784186928162 -0.44219524034701829 0 0.078924008128618786 -0.44927425917818692 0 0.070851891070507364 -0.4429924727175758 0 0.079815715379254276 -0.43713965414436617 0 0.070851891070507364 -0.4429924727175758 0 0.068700271916894928 -0.43290455926873739 0 0.079815715379254276 -0.43713965414436617 0 0.078924008128618786 -0.44927425917818692 0 0.066742638013750744 -0.45361708446569943 0 0.070851891070507364 -0.4429924727175758 0 0.068700271916894928 -0.43290455926873739 0 0.078113452497016317 -0.41994308157894578 0 0.079815715379254276 -0.43713965414436617 0 0.068700271916894928 -0.43290455926873739 0 0.078113452497016317 -0.41994308157894578 0 0.058719347470543831 -0.42372109043242612 0 0.068700271916894928 -0.43290455926873739 0 0.058719347470543831 -0.42372109043242612 0 0.060604784186928162 -0.44219524034701829 0 0.078113452497016317 -0.41994308157894578 0 0.070468827029821934 -0.40290810194725279 0 0.058719347470543831 -0.42372109043242612 0 0.078113452497016317 -0.41994308157894578 0 0.093810327587010828 -0.40408349715757252 0 0.070468827029821934 -0.40290810194725279 0 0.078113452497016317 -0.41994308157894578 0 0.096321857990668808 -0.42533267408736197 0 0.093810327587010828 -0.40408349715757252 0 0.078113452497016317 -0.41994308157894578 0 0.079815715379254276 -0.43713965414436617 0 0.096321857990668808 -0.42533267408736197 0 0.09424645164530171 -0.44210268425789312 0 0.079815715379254276 -0.43713965414436617 0 0.096321857990668808 -0.42533267408736197 0 0.09424645164530171 -0.44210268425789312 0 0.096321857990668808 -0.42533267408736197 0 0.1143868512917591 -0.43285467588419202 0 0.096321857990668808 -0.42533267408736197 0 0.1143868512917591 -0.43285467588419202 0 0.1163411937935266 -0.41501015887608139 0 0.13513029091253781 -0.42041342615249999 0 0.1143868512917591 -0.43285467588419202 0 0.1163411937935266 -0.41501015887608139 0 0.096321857990668808 -0.42533267408736197 0 0.1163411937935266 -0.41501015887608139 0 0.093810327587010828 -0.40408349715757252 0 0.1163411937935266 -0.41501015887608139 0 0.093810327587010828 -0.40408349715757252 0 0.11257503074115451 -0.38498649823446041 0 0.13650483548746539 -0.39897553438877298 0 0.1163411937935266 -0.41501015887608139 0 0.11257503074115451 -0.38498649823446041 0 0.11257503074115451 -0.38498649823446041 0 0.085185771917526548 -0.37977283474271561 0 0.10079201747098269 -0.36412242239479142 0 0.093810327587010828 -0.40408349715757252 0 0.11257503074115451 -0.38498649823446041 0 0.085185771917526548 -0.37977283474271561 0 0.093810327587010828 -0.40408349715757252 0 0.085185771917526548 -0.37977283474271561 0 0.070468827029821934 -0.40290810194725279 0 0.085185771917526548 -0.37977283474271561 0 0.070468827029821934 -0.40290810194725279 0 0.057841008155207027 -0.38245658693310142 0 0.070468827029821934 -0.40290810194725279 0 0.057841008155207027 -0.38245658693310142 0 0.049143054551627013 -0.40747152083875582 0 0.057841008155207027 -0.38245658693310142 0 0.043656632087297011 -0.39232656597616861 0 0.049143054551627013 -0.40747152083875582 0 0.043656632087297011 -0.39232656597616861 0 0.028999000949789959 -0.40147898970888801 0 0.049143054551627013 -0.40747152083875582 0 0.043656632087297011 -0.39232656597616861 0 0.028999000949789959 -0.40147898970888801 0 0.032111139506758431 -0.37191992684122582 0 0.057841008155207027 -0.38245658693310142 0 0.043656632087297011 -0.39232656597616861 0 0.032111139506758431 -0.37191992684122582 0 0.011472045166716269 -0.38952867199447438 0 0.032111139506758431 -0.37191992684122582 0 0.011472045166716269 -0.38952867199447438 0 0.028999000949789959 -0.40147898970888801 0 0.032111139506758431 -0.37191992684122582 0 0.011472045166716269 -0.38952867199447438 0 0.032111139506758431 -0.37191992684122582 0 0.0095024714850780283 -0.37458082262515818 0 -0.0042332821090469977 -0.36931681778231101 0 -0.0014384839491562609 -0.38294108750953337 0 0.0095024714850780283 -0.37458082262515818 0 -0.0014384839491562609 -0.38294108750953337 0 0.011472045166716269 -0.38952867199447438 0 0.0095024714850780283 -0.37458082262515818 0 -0.0091670491733258502 -0.407137417147723 0 0.011472045166716269 -0.38952867199447438 0 0.005108664055598287 -0.40528738143041459 0 0.011472045166716269 -0.38952867199447438 0 0.005108664055598287 -0.40528738143041459 0 0.01434864661312045 -0.40656634948070969 0 -0.0091670491733258502 -0.407137417147723 0 0.011472045166716269 -0.38952867199447438 0 0.011472045166716269 -0.38952867199447438 0 0.028999000949789959 -0.40147898970888801 0 0.01434864661312045 -0.40656634948070969 0 0.028999000949789959 -0.40147898970888801 0 0.01434864661312045 -0.40656634948070969 0 0.016816745003192791 -0.42357542462247538 0 0.028999000949789959 -0.40147898970888801 0 0.016816745003192791 -0.42357542462247538 0 0.038035624732997701 -0.42318917072202022 0 0.01434864661312045 -0.40656634948070969 0 0.0037810136158822729 -0.41791708709875131 0 0.016816745003192791 -0.42357542462247538 0 0.005108664055598287 -0.40528738143041459 0 0.01434864661312045 -0.40656634948070969 0 0.0037810136158822729 -0.41791708709875131 0 0.00079488181500260609 -0.42987501851034571 0 0.016816745003192791 -0.42357542462247538 0 0.0068165806591294316 -0.44348526320397952 0 0.0037810136158822729 -0.41791708709875131 0 0.00079488181500260609 -0.42987501851034571 0 0.016816745003192791 -0.42357542462247538 0 0.016816745003192791 -0.42357542462247538 0 0.038035624732997701 -0.42318917072202022 0 0.02666676983233552 -0.44312735458325581 0 0.016816745003192791 -0.42357542462247538 0 0.02666676983233552 -0.44312735458325581 0 0.0068165806591294316 -0.44348526320397952 0 0.038035624732997701 -0.42318917072202022 0 0.047868830590497097 -0.43976064414632088 0 0.02666676983233552 -0.44312735458325581 0 0.028999000949789959 -0.40147898970888801 0 0.038035624732997701 -0.42318917072202022 0 0.049143054551627013 -0.40747152083875582 0 0.070468827029821934 -0.40290810194725279 0 0.049143054551627013 -0.40747152083875582 0 0.058719347470543831 -0.42372109043242612 0 0.038035624732997701 -0.42318917072202022 0 0.049143054551627013 -0.40747152083875582 0 0.058719347470543831 -0.42372109043242612 0 0.058719347470543831 -0.42372109043242612 0 0.047868830590497097 -0.43976064414632088 0 0.060604784186928162 -0.44219524034701829 0 0.038035624732997701 -0.42318917072202022 0 0.058719347470543831 -0.42372109043242612 0 0.047868830590497097 -0.43976064414632088 0 0.047868830590497097 -0.43976064414632088 0 0.060533864248779268 -0.45516161004070088 0 0.03684497090434212 -0.46105457747661138 0 0.047868830590497097 -0.43976064414632088 0 0.060533864248779268 -0.45516161004070088 0 0.047868830590497097 -0.43976064414632088 0 0.060604784186928162 -0.44219524034701829 0 0.060533864248779268 -0.45516161004070088 0 0.060533864248779268 -0.45516161004070088 0 0.03684497090434212 -0.46105457747661138 0 0.060533864248779268 -0.45516161004070088 0 0.052543339594833843 -0.46469110280171649 0 0.03684497090434212 -0.46105457747661138 0 0.060533864248779268 -0.45516161004070088 0 0.061795930812101732 -0.46820781613902701 0 0.052543339594833843 -0.46469110280171649 0 0.052543339594833843 -0.46469110280171649 0 0.03684497090434212 -0.46105457747661138 0 0.050998592414112261 -0.47434040755052698 0 0.047868830590497097 -0.43976064414632088 0 0.03684497090434212 -0.46105457747661138 0 0.02666676983233552 -0.44312735458325581 0 0.02666676983233552 -0.44312735458325581 0 0.0068165806591294316 -0.44348526320397952 0 0.013156077559905371 -0.46694754491252372 0 -0.0057475739345891896 -0.4549207533069245 0 0.0068165806591294316 -0.44348526320397952 0 0.013156077559905371 -0.46694754491252372 0 0.03684497090434212 -0.46105457747661138 0 0.02666676983233552 -0.44312735458325581 0 0.013156077559905371 -0.46694754491252372 0 0.03684497090434212 -0.46105457747661138 0 0.013156077559905371 -0.46694754491252372 0 0.03684497090434212 -0.46105457747661138 0 0.013156077559905371 -0.46694754491252372 0 0.032323810821201983 -0.4810656019103603 0 0.013156077559905371 -0.46694754491252372 0 0.0082051736105589468 -0.5 0 0.032323810821201983 -0.4810656019103603 0 -0.01053281578453142 -0.47284051234843588 0 0.013156077559905371 -0.46694754491252372 0 0.0082051736105589468 -0.5 0 -0.01053281578453142 -0.47284051234843588 0 0.013156077559905371 -0.46694754491252372 0 0.0082051736105589468 -0.5 0 0.037939068381746099 -0.5 0 0.032323810821201983 -0.4810656019103603 0 0.037939068381746099 -0.5 0 0.032323810821201983 -0.4810656019103603 0 0.053020152767299072 -0.48801933676575959 0 0.032323810821201983 -0.4810656019103603 0 0.050998592414112261 -0.47434040755052698 0 0.053020152767299072 -0.48801933676575959 0 0.03684497090434212 -0.46105457747661138 0 0.032323810821201983 -0.4810656019103603 0 0.050998592414112261 -0.47434040755052698 0 0.070479040632291823 -0.48264211959480191 0 0.050998592414112261 -0.47434040755052698 0 0.064630060102032719 -0.47456076603106118 0 0.070479040632291823 -0.48264211959480191 0 0.050998592414112261 -0.47434040755052698 0 0.070479040632291823 -0.48264211959480191 0 0.050998592414112261 -0.47434040755052698 0 0.053020152767299072 -0.48801933676575959 0 0.064630060102032719 -0.47456076603106118 0 0.061795930812101732 -0.46820781613902701 0 0.050998592414112261 -0.47434040755052698 0 0.061795930812101732 -0.46820781613902701 0 0.052543339594833843 -0.46469110280171649 0 0.050998592414112261 -0.47434040755052698 0 0.067672963152933252 -0.5 0 0.037939068381746099 -0.5 0 0.053020152767299072 -0.48801933676575959 0 0.087473163936891085 -0.29777268792509082 0 0.081564451789839787 -0.2785545792295161 0 0.1018918429625556 -0.28221661660282987 0 0.087473163936891085 -0.29777268792509082 0 0.081564451789839787 -0.2785545792295161 0 0.087473163936891085 -0.29777268792509082 0 0.067853695646582016 -0.28620356249784679 0 0.081564451789839787 -0.2785545792295161 0 0.087473163936891085 -0.29777268792509082 0 0.071339674350402019 -0.30608447369461589 0 0.075597518235181557 -0.31257595346091949 0 0.087473163936891085 -0.29777268792509082 0 0.098187962191818287 -0.30489187491565878 0 0.094028422526884897 -0.31909369138147992 0 0.087473163936891085 -0.29777268792509082 0 0.094028422526884897 -0.31909369138147992 0 0.075597518235181557 -0.31257595346091949 0 0.087473163936891085 -0.29777268792509082 0 0.094028422526884897 -0.31909369138147992 0 0.087473163936891085 -0.29777268792509082 0 0.071339674350402019 -0.30608447369461589 0 0.060560524715249003 -0.30009188710746898 0 0.087473163936891085 -0.29777268792509082 0 0.060560524715249003 -0.30009188710746898 0 0.071339674350402019 -0.30608447369461589 0 0.075597518235181557 -0.31257595346091949 0 0.061727490514286158 -0.31389736628498438 0 0.071339674350402019 -0.30608447369461589 0 0.061727490514286158 -0.31389736628498438 0 0.060560524715249003 -0.30009188710746898 0 0.067853695646582016 -0.28620356249784679 0 0.059116804960237683 -0.29062940211096661 0 0.060560524715249003 -0.30009188710746898 0 0.087473163936891085 -0.29777268792509082 0 0.067853695646582016 -0.28620356249784679 0 0.060560524715249003 -0.30009188710746898 0 0.066214989649419603 -0.27316028682740479 0 0.075655739642787975 -0.2593364705339416 0 0.081564451789839787 -0.2785545792295161 0 0.067853695646582016 -0.28620356249784679 0 0.066214989649419603 -0.27316028682740479 0 0.081564451789839787 -0.2785545792295161 0 0.066214989649419603 -0.27316028682740479 0 0.075655739642787975 -0.2593364705339416 0 0.05341834128670471 -0.26222533989734959 0 0.075655739642787975 -0.2593364705339416 0 0.05341834128670471 -0.26222533989734959 0 0.071841433176306951 -0.24693042426755701 0 0.075655739642787975 -0.2593364705339416 0 0.05341834128670471 -0.26222533989734959 0 0.075655739642787975 -0.2593364705339416 0 0.071841433176306951 -0.24693042426755701 0 0.075655739642787975 -0.2593364705339416 0 0.097033033634931737 -0.25655933767435479 0 0.087503871482331325 -0.24918859503345439 0 0.075655739642787975 -0.2593364705339416 0 0.087704679779763817 -0.26614109232216421 0 0.097033033634931737 -0.25655933767435479 0 0.075655739642787975 -0.2593364705339416 0 0.071841433176306951 -0.24693042426755701 0 0.087503871482331325 -0.24918859503345439 0 0.075655739642787975 -0.2593364705339416 0 0.097033033634931737 -0.25655933767435479 0 0.075655739642787975 -0.2593364705339416 0 0.081564451789839787 -0.2785545792295161 0 0.081564451789839787 -0.2785545792295161 0 0.096565494051495782 -0.27011398185084429 0 0.1018918429625556 -0.28221661660282987 0 0.075655739642787975 -0.2593364705339416 0 0.081564451789839787 -0.2785545792295161 0 0.087704679779763817 -0.26614109232216421 0 0.081564451789839787 -0.2785545792295161 0 0.087704679779763817 -0.26614109232216421 0 0.096565494051495782 -0.27011398185084429 0 0.11343381581407461 -0.27807896693227868 0 0.1097056353048949 -0.26812745810770261 0 0.1018918429625556 -0.28221661660282987 0 0.096565494051495782 -0.27011398185084429 0 0.1097056353048949 -0.26812745810770261 0 0.1018918429625556 -0.28221661660282987 0 0.097033033634931737 -0.25655933767435479 0 0.11542254909125391 -0.25417034832591701 0 0.09726841460880753 -0.24973530510077291 0 0.097033033634931737 -0.25655933767435479 0 0.11542254909125391 -0.25417034832591701 0 0.1097056353048949 -0.26812745810770261 0 0.097033033634931737 -0.25655933767435479 0 0.11542254909125391 -0.25417034832591701 0 0.1155402395781918 -0.2507583320391269 0 0.09726841460880753 -0.24973530510077291 0 0.097033033634931737 -0.25655933767435479 0 0.087503871482331325 -0.24918859503345439 0 0.09726841460880753 -0.24973530510077291 0 0.097033033634931737 -0.25655933767435479 0 0.09726841460880753 -0.24973530510077291 0 0.096565494051495782 -0.27011398185084429 0 0.097033033634931737 -0.25655933767435479 0 0.087704679779763817 -0.26614109232216421 0 0.096565494051495782 -0.27011398185084429 0 0.097033033634931737 -0.25655933767435479 0 0.096565494051495782 -0.27011398185084429 0 0.097033033634931737 -0.25655933767435479 0 0.1097056353048949 -0.26812745810770261 0 0.1338120645475761 -0.25178135897747889 0 0.1155402395781918 -0.2507583320391269 0 0.11542254909125391 -0.25417034832591701 0 0.1155402395781918 -0.2507583320391269 0 0.11542254909125391 -0.25417034832591701 0 0.09726841460880753 -0.24973530510077291 0 0.1338120645475761 -0.25178135897747889 0 0.1155402395781918 -0.2507583320391269 0 0.1338120645475761 -0.25178135897747889 0 0.11542254909125391 -0.25417034832591701 0 0.123327112510175 -0.26381005316279871 0 0.1338120645475761 -0.25178135897747889 0 0.11542254909125391 -0.25417034832591701 0 0.11542254909125391 -0.25417034832591701 0 0.123327112510175 -0.26381005316279871 0 0.1097056353048949 -0.26812745810770261 0 0.11343381581407461 -0.27807896693227868 0 0.1097056353048949 -0.26812745810770261 0 0.119201036987635 -0.27295982712471439 0 0.1280966355330338 -0.27434446718476552 0 0.123327112510175 -0.26381005316279871 0 0.119201036987635 -0.27295982712471439 0 0.123327112510175 -0.26381005316279871 0 0.1097056353048949 -0.26812745810770261 0 0.119201036987635 -0.27295982712471439 0 0.11343381581407461 -0.27807896693227868 0 0.119201036987635 -0.27295982712471439 0 0.12144198577599689 -0.28043819023602667 0 0.1280966355330338 -0.27434446718476552 0 0.119201036987635 -0.27295982712471439 0 0.12144198577599689 -0.28043819023602667 0 0.1225628758501054 -0.2947488287446996 0 0.10501801989349829 -0.29626075833489562 0 0.12144198577599689 -0.28043819023602667 0 0.1233634239504731 -0.2874855776093414 0 0.1139532624844367 -0.28782333961704598 0 0.1275993617664036 -0.28112518425861122 0 0.12144198577599689 -0.28043819023602667 0 0.1233634239504731 -0.2874855776093414 0 0.1225628758501054 -0.2947488287446996 0 0.1139532624844367 -0.28782333961704598 0 0.10501801989349829 -0.29626075833489562 0 0.1233634239504731 -0.2874855776093414 0 0.1225628758501054 -0.2947488287446996 0 0.1139532624844367 -0.28782333961704598 0 0.1256525224322369 -0.29448257816376899 0 0.1225628758501054 -0.2947488287446996 0 0.11343381581407461 -0.27807896693227868 0 0.12144198577599689 -0.28043819023602667 0 0.1139532624844367 -0.28782333961704598 0 0.11343381581407461 -0.27807896693227868 0 0.1139532624844367 -0.28782333961704598 0 0.1018918429625556 -0.28221661660282987 0 0.1139532624844367 -0.28782333961704598 0 0.1018918429625556 -0.28221661660282987 0 0.10501801989349829 -0.29626075833489562 0 0.087473163936891085 -0.29777268792509082 0 0.1018918429625556 -0.28221661660282987 0 0.10501801989349829 -0.29626075833489562 0 0.087473163936891085 -0.29777268792509082 0 0.10501801989349829 -0.29626075833489562 0 0.087473163936891085 -0.29777268792509082 0 0.10501801989349829 -0.29626075833489562 0 0.098187962191818287 -0.30489187491565878 0 0.098187962191818287 -0.30489187491565878 0 0.10829564918849539 -0.30692126006309001 0 0.094028422526884897 -0.31909369138147992 0 0.10501801989349829 -0.29626075833489562 0 0.098187962191818287 -0.30489187491565878 0 0.10829564918849539 -0.30692126006309001 0 0.10829564918849539 -0.30692126006309001 0 0.11665503897845669 -0.30709539838653632 0 0.10765755552467721 -0.31970821860930398 0 0.1225628758501054 -0.2947488287446996 0 0.10501801989349829 -0.29626075833489562 0 0.10829564918849539 -0.30692126006309001 0 0.1225628758501054 -0.2947488287446996 0 0.10829564918849539 -0.30692126006309001 0 0.1225628758501054 -0.2947488287446996 0 0.10829564918849539 -0.30692126006309001 0 0.11665503897845669 -0.30709539838653632 0 0.127428615210958 -0.30550107704066293 0 0.1256525224322369 -0.29448257816376899 0 0.11665503897845669 -0.30709539838653632 0 0.1256525224322369 -0.29448257816376899 0 0.11665503897845669 -0.30709539838653632 0 0.1256525224322369 -0.29448257816376899 0 0.1225628758501054 -0.2947488287446996 0 0.11665503897845669 -0.30709539838653632 0 0.127428615210958 -0.30550107704066293 0 0.11665503897845669 -0.30709539838653632 0 0.1236403595102975 -0.31726182602291142 0 0.1236403595102975 -0.31726182602291142 0 0.1156667707943719 -0.32879233033577338 0 0.10765755552467721 -0.31970821860930398 0 0.11665503897845669 -0.30709539838653632 0 0.1236403595102975 -0.31726182602291142 0 0.10765755552467721 -0.31970821860930398 0 0.11665503897845669 -0.30709539838653632 0 0.10765755552467721 -0.31970821860930398 0 0.1156667707943719 -0.32879233033577338 0 0.1048460875680276 -0.32950050860128433 0 0.10765755552467721 -0.31970821860930398 0 0.12646864396445259 -0.32771949481933838 0 0.1236403595102975 -0.31726182602291142 0 0.1156667707943719 -0.32879233033577338 0 0.12646864396445259 -0.32771949481933838 0 0.1218367566819203 -0.34066885685305681 0 0.1156667707943719 -0.32879233033577338 0 0.1218367566819203 -0.34066885685305681 0 0.1156667707943719 -0.32879233033577338 0 0.1082494064665878 -0.33928340961487857 0 0.1156667707943719 -0.32879233033577338 0 0.1048460875680276 -0.32950050860128433 0 0.1082494064665878 -0.33928340961487857 0 0.1048460875680276 -0.32950050860128433 0 0.1082494064665878 -0.33928340961487857 0 0.097004582427965266 -0.33631516769786107 0 0.1082494064665878 -0.33928340961487857 0 0.097004582427965266 -0.33631516769786107 0 0.093814972832634291 -0.34820918954221819 0 0.1048460875680276 -0.32950050860128433 0 0.097004582427965266 -0.33631516769786107 0 0.096073069581201237 -0.32574391368982941 0 0.096073069581201237 -0.32574391368982941 0 0.094028422526884897 -0.31909369138147992 0 0.10765755552467721 -0.31970821860930398 0 0.096073069581201237 -0.32574391368982941 0 0.094028422526884897 -0.31909369138147992 0 0.10829564918849539 -0.30692126006309001 0 0.094028422526884897 -0.31909369138147992 0 0.10829564918849539 -0.30692126006309001 0 0.094028422526884897 -0.31909369138147992 0 0.10765755552467721 -0.31970821860930398 0 0.1048460875680276 -0.32950050860128433 0 0.096073069581201237 -0.32574391368982941 0 0.10765755552467721 -0.31970821860930398 0 0.13554014667972011 -0.37371994475541209 0 0.11257503074115451 -0.38498649823446041 0 0.1211241730808211 -0.35969015994424403 0 0.11257503074115451 -0.38498649823446041 0 0.1211241730808211 -0.35969015994424403 0 0.10079201747098269 -0.36412242239479142 0 0.1211241730808211 -0.35969015994424403 0 0.1091752126596531 -0.3513855426967849 0 0.10079201747098269 -0.36412242239479142 0 0.1218367566819203 -0.34066885685305681 0 0.1211241730808211 -0.35969015994424403 0 0.1091752126596531 -0.3513855426967849 0 0.1218367566819203 -0.34066885685305681 0 0.1082494064665878 -0.33928340961487857 0 0.1091752126596531 -0.3513855426967849 0 0.1091752126596531 -0.3513855426967849 0 0.093814972832634291 -0.34820918954221819 0 0.10079201747098269 -0.36412242239479142 0 0.1082494064665878 -0.33928340961487857 0 0.1091752126596531 -0.3513855426967849 0 0.093814972832634291 -0.34820918954221819 0 0.085185771917526548 -0.37977283474271561 0 0.10079201747098269 -0.36412242239479142 0 0.076425374258651049 -0.36036916924143869 0 0.093814972832634291 -0.34820918954221819 0 0.076425374258651049 -0.36036916924143869 0 0.073389328186842753 -0.33670243653472848 0 0.093814972832634291 -0.34820918954221819 0 0.10079201747098269 -0.36412242239479142 0 0.076425374258651049 -0.36036916924143869 0 0.076425374258651049 -0.36036916924143869 0 0.073389328186842753 -0.33670243653472848 0 0.052750233846800589 -0.35431118168797721 0 0.073389328186842753 -0.33670243653472848 0 0.052750233846800589 -0.35431118168797721 0 0.085185771917526548 -0.37977283474271561 0 0.057841008155207027 -0.38245658693310142 0 0.076425374258651049 -0.36036916924143869 0 0.094028422526884897 -0.31909369138147992 0 0.073389328186842753 -0.33670243653472848 0 0.096073069581201237 -0.32574391368982941 0 0.094028422526884897 -0.31909369138147992 0 0.073389328186842753 -0.33670243653472848 0 0.094028422526884897 -0.31909369138147992 0 0.073389328186842753 -0.33670243653472848 0 0.072651274237206992 -0.32234881883649769 0 0.094028422526884897 -0.31909369138147992 0 0.072651274237206992 -0.32234881883649769 0 0.075597518235181557 -0.31257595346091949 0 0.097004582427965266 -0.33631516769786107 0 0.096073069581201237 -0.32574391368982941 0 0.073389328186842753 -0.33670243653472848 0 0.097004582427965266 -0.33631516769786107 0 0.093814972832634291 -0.34820918954221819 0 0.073389328186842753 -0.33670243653472848 0 0.073389328186842753 -0.33670243653472848 0 0.072651274237206992 -0.32234881883649769 0 0.058513611722839573 -0.32947464652037622 0 0.072651274237206992 -0.32234881883649769 0 0.061727490514286158 -0.31389736628498438 0 0.058513611722839573 -0.32947464652037622 0 0.072651274237206992 -0.32234881883649769 0 0.075597518235181557 -0.31257595346091949 0 0.061727490514286158 -0.31389736628498438 0 0.061727490514286158 -0.31389736628498438 0 0.048871722081095123 -0.31851038162196682 0 0.053524671366835877 -0.30640407556079952 0 0.048871722081095123 -0.31851038162196682 0 0.058513611722839573 -0.32947464652037622 0 0.042608717461976538 -0.3312298768594002 0 0.061727490514286158 -0.31389736628498438 0 0.048871722081095123 -0.31851038162196682 0 0.058513611722839573 -0.32947464652037622 0 0.073389328186842753 -0.33670243653472848 0 0.058513611722839573 -0.32947464652037622 0 0.052750233846800589 -0.35431118168797721 0 0.058513611722839573 -0.32947464652037622 0 0.042608717461976538 -0.3312298768594002 0 0.052750233846800589 -0.35431118168797721 0 0.042608717461976538 -0.3312298768594002 0 0.032201100374313327 -0.3403185580786573 0 0.052750233846800589 -0.35431118168797721 0 0.042608717461976538 -0.3312298768594002 0 0.032201100374313327 -0.3403185580786573 0 0.02803274898307424 -0.32856413603580631 0 0.042608717461976538 -0.3312298768594002 0 0.035004108339948901 -0.31633090919971779 0 0.02803274898307424 -0.32856413603580631 0 0.048871722081095123 -0.31851038162196682 0 0.035004108339948901 -0.31633090919971779 0 0.042659306472636778 -0.3047174731171407 0 0.048871722081095123 -0.31851038162196682 0 0.042608717461976538 -0.3312298768594002 0 0.035004108339948901 -0.31633090919971779 0 0.057841008155207027 -0.38245658693310142 0 0.052750233846800589 -0.35431118168797721 0 0.032111139506758431 -0.37191992684122582 0 0.057841008155207027 -0.38245658693310142 0 0.076425374258651049 -0.36036916924143869 0 0.052750233846800589 -0.35431118168797721 0 0.032201100374313327 -0.3403185580786573 0 0.052750233846800589 -0.35431118168797721 0 0.023184557849655049 -0.35200766470484768 0 0.052750233846800589 -0.35431118168797721 0 0.032111139506758431 -0.37191992684122582 0 0.052750233846800589 -0.35431118168797721 0 0.032111139506758431 -0.37191992684122582 0 0.023184557849655049 -0.35200766470484768 0 0.032111139506758431 -0.37191992684122582 0 0.023184557849655049 -0.35200766470484768 0 0.010345294108568969 -0.36081801354288939 0 0.032111139506758431 -0.37191992684122582 0 0.010345294108568969 -0.36081801354288939 0 0.0095024714850780283 -0.37458082262515818 0 -0.0019921573348008 -0.35014241775074068 0 0.023184557849655049 -0.35200766470484768 0 0.014429243730060239 -0.33547993110525531 0 -0.0019921573348008 -0.35014241775074068 0 0.023184557849655049 -0.35200766470484768 0 0.010345294108568969 -0.36081801354288939 0 -0.0019921573348008 -0.35014241775074068 0 -0.0042332821090469977 -0.36931681778231101 0 0.010345294108568969 -0.36081801354288939 0 -0.0042332821090469977 -0.36931681778231101 0 0.010345294108568969 -0.36081801354288939 0 0.0095024714850780283 -0.37458082262515818 0 0.035004108339948901 -0.31633090919971779 0 0.02803274898307424 -0.32856413603580631 0 0.015526697491276621 -0.31392901685578528 0 0.02803274898307424 -0.32856413603580631 0 0.014429243730060239 -0.33547993110525531 0 0.015526697491276621 -0.31392901685578528 0 0.032201100374313327 -0.3403185580786573 0 0.023184557849655049 -0.35200766470484768 0 0.014429243730060239 -0.33547993110525531 0 0.032201100374313327 -0.3403185580786573 0 0.02803274898307424 -0.32856413603580631 0 0.014429243730060239 -0.33547993110525531 0 -0.008605873932596356 -0.33624452634938418 0 -0.0019921573348008 -0.35014241775074068 0 0.014429243730060239 -0.33547993110525531 0 -0.008605873932596356 -0.33624452634938418 0 0.014429243730060239 -0.33547993110525531 0 0.0035141492887302548 -0.32519051246028208 0 0.014429243730060239 -0.33547993110525531 0 0.0035141492887302548 -0.32519051246028208 0 0.015526697491276621 -0.31392901685578528 0 -0.0093546214437348063 -0.3154421594820554 0 0.0035141492887302548 -0.32519051246028208 0 0.015526697491276621 -0.31392901685578528 0 -0.0093546214437348063 -0.3154421594820554 0 0.015526697491276621 -0.31392901685578528 0 0.0025702240157044749 -0.30194718224499639 0 0.015526697491276621 -0.31392901685578528 0 0.0025702240157044749 -0.30194718224499639 0 0.018894421690538499 -0.29417828297256371 0 0.0025702240157044749 -0.30194718224499639 0 0.001953977901653102 -0.28749824366549498 0 0.018894421690538499 -0.29417828297256371 0 0.001953977901653102 -0.28749824366549498 0 0.018894421690538499 -0.29417828297256371 0 0.015670532879786751 -0.2762907948651831 0 0.018894421690538499 -0.29417828297256371 0 0.030268242974381541 -0.30296892509516138 0 0.036539995597899583 -0.28735292316580879 0 0.018894421690538499 -0.29417828297256371 0 0.036539995597899583 -0.28735292316580879 0 0.015670532879786751 -0.2762907948651831 0 0.015526697491276621 -0.31392901685578528 0 0.018894421690538499 -0.29417828297256371 0 0.030268242974381541 -0.30296892509516138 0 0.035004108339948901 -0.31633090919971779 0 0.015526697491276621 -0.31392901685578528 0 0.030268242974381541 -0.30296892509516138 0 0.030268242974381541 -0.30296892509516138 0 0.042659306472636778 -0.3047174731171407 0 0.036539995597899583 -0.28735292316580879 0 0.035004108339948901 -0.31633090919971779 0 0.030268242974381541 -0.30296892509516138 0 0.042659306472636778 -0.3047174731171407 0 0.042659306472636778 -0.3047174731171407 0 0.036539995597899583 -0.28735292316580879 0 0.051747098475659753 -0.29673762405939008 0 0.051747098475659753 -0.29673762405939008 0 0.052582719881183543 -0.27948148197836992 0 0.051747098475659753 -0.29673762405939008 0 0.059116804960237683 -0.29062940211096661 0 0.052582719881183543 -0.27948148197836992 0 0.036539995597899583 -0.28735292316580879 0 0.051747098475659753 -0.29673762405939008 0 0.052582719881183543 -0.27948148197836992 0 0.067853695646582016 -0.28620356249784679 0 0.059116804960237683 -0.29062940211096661 0 0.052582719881183543 -0.27948148197836992 0 0.051747098475659753 -0.29673762405939008 0 0.059116804960237683 -0.29062940211096661 0 0.060560524715249003 -0.30009188710746898 0 0.051747098475659753 -0.29673762405939008 0 0.060560524715249003 -0.30009188710746898 0 0.053524671366835877 -0.30640407556079952 0 0.061727490514286158 -0.31389736628498438 0 0.060560524715249003 -0.30009188710746898 0 0.053524671366835877 -0.30640407556079952 0 0.048871722081095123 -0.31851038162196682 0 0.042659306472636778 -0.3047174731171407 0 0.053524671366835877 -0.30640407556079952 0 0.042659306472636778 -0.3047174731171407 0 0.051747098475659753 -0.29673762405939008 0 0.053524671366835877 -0.30640407556079952 0 0.05341834128670471 -0.26222533989734959 0 0.054455146400998369 -0.2408146193913096 0 0.05341834128670471 -0.26222533989734959 0 0.041504830166615332 -0.24909079072316551 0 0.054455146400998369 -0.2408146193913096 0 0.05341834128670471 -0.26222533989734959 0 0.052582719881183543 -0.27948148197836992 0 0.066214989649419603 -0.27316028682740479 0 0.05341834128670471 -0.26222533989734959 0 0.052582719881183543 -0.27948148197836992 0 0.067853695646582016 -0.28620356249784679 0 0.066214989649419603 -0.27316028682740479 0 0.052582719881183543 -0.27948148197836992 0 0.05341834128670471 -0.26222533989734959 0 0.052582719881183543 -0.27948148197836992 0 0.028317708997288939 -0.2654861731325095 0 0.036539995597899583 -0.28735292316580879 0 0.052582719881183543 -0.27948148197836992 0 0.028317708997288939 -0.2654861731325095 0 0.028317708997288939 -0.2654861731325095 0 0.026822654761378281 -0.24010580347910071 0 0.041504830166615332 -0.24909079072316551 0 0.05341834128670471 -0.26222533989734959 0 0.028317708997288939 -0.2654861731325095 0 0.041504830166615332 -0.24909079072316551 0 0.05341834128670471 -0.26222533989734959 0 0.028317708997288939 -0.2654861731325095 0 0.028317708997288939 -0.2654861731325095 0 0.01150473642008854 -0.25100487296640661 0 0.026822654761378281 -0.24010580347910071 0 0.028317708997288939 -0.2654861731325095 0 0.015670532879786751 -0.2762907948651831 0 0.0049597396345670026 -0.26452376434945218 0 0.036539995597899583 -0.28735292316580879 0 0.028317708997288939 -0.2654861731325095 0 0.015670532879786751 -0.2762907948651831 0 -0.002131649244152236 -0.27375645946249172 0 0.015670532879786751 -0.2762907948651831 0 0.0049597396345670026 -0.26452376434945218 0 -0.002131649244152236 -0.27375645946249172 0 0.001953977901653102 -0.28749824366549498 0 0.015670532879786751 -0.2762907948651831 0 -0.0050603712554523096 -0.25502580822232418 0 0.01150473642008854 -0.25100487296640661 0 0.0049597396345670026 -0.26452376434945218 0 0.028317708997288939 -0.2654861731325095 0 0.01150473642008854 -0.25100487296640661 0 0.0049597396345670026 -0.26452376434945218 0 -0.0050603712554523096 -0.25502580822232418 0 -0.0012779613340340411 -0.24176494305706761 0 0.01150473642008854 -0.25100487296640661 0 -0.0012779613340340411 -0.24176494305706761 0 0.01150473642008854 -0.25100487296640661 0 0.01227448810303049 -0.23689425083746071 0 -0.0012779613340340411 -0.24176494305706761 0 -0.0016127085748020571 -0.22712480654777251 0 0.01227448810303049 -0.23689425083746071 0 -0.0016127085748020571 -0.22712480654777251 0 0.01227448810303049 -0.23689425083746071 0 0.01698840492239578 -0.2228903554452914 0 -0.0016127085748020571 -0.22712480654777251 0 0.01698840492239578 -0.2228903554452914 0 0.0064561243882930407 -0.21561537692257879 0 0.01227448810303049 -0.23689425083746071 0 0.01698840492239578 -0.2228903554452914 0 0.026822654761378281 -0.24010580347910071 0 0.01698840492239578 -0.2228903554452914 0 0.026822654761378281 -0.24010580347910071 0 0.034262553780134708 -0.21981152268886431 0 0.01150473642008854 -0.25100487296640661 0 0.01227448810303049 -0.23689425083746071 0 0.026822654761378281 -0.24010580347910071 0 -0.0048422933519348798 -0.20657909219758999 0 0.01498437965793468 -0.2009023489100171 0 0.0039750345954989988 -0.18651425943902311 0 0.01498437965793468 -0.2009023489100171 0 0.019555974831457788 -0.18489329081675979 0 0.0039750345954989988 -0.18651425943902311 0 -0.0048422933519348798 -0.20657909219758999 0 0.01498437965793468 -0.2009023489100171 0 0.0064561243882930407 -0.21561537692257879 0 0.01498437965793468 -0.2009023489100171 0 0.0064561243882930407 -0.21561537692257879 0 0.022166629418003729 -0.2118345471400416 0 0.01698840492239578 -0.2228903554452914 0 0.0064561243882930407 -0.21561537692257879 0 0.022166629418003729 -0.2118345471400416 0 -0.0016127085748020571 -0.22712480654777251 0 -0.0048422933519348798 -0.20657909219758999 0 0.0064561243882930407 -0.21561537692257879 0 0.01698840492239578 -0.2228903554452914 0 0.022166629418003729 -0.2118345471400416 0 0.034262553780134708 -0.21981152268886431 0 0.01498437965793468 -0.2009023489100171 0 0.022166629418003729 -0.2118345471400416 0 0.031897636722889637 -0.2043381853445167 0 0.022166629418003729 -0.2118345471400416 0 0.031897636722889637 -0.2043381853445167 0 0.034262553780134708 -0.21981152268886431 0 0.01498437965793468 -0.2009023489100171 0 0.027972004457906641 -0.19290593557317351 0 0.019555974831457788 -0.18489329081675979 0 0.01498437965793468 -0.2009023489100171 0 0.027972004457906641 -0.19290593557317351 0 0.031897636722889637 -0.2043381853445167 0 0.056528756629579638 -0.1979931783792292 0 0.033889281643562412 -0.17857272488157999 0 0.027972004457906641 -0.19290593557317351 0 0.03953274943368866 -0.19582312791299369 0 0.033889281643562412 -0.17857272488157999 0 0.03953274943368866 -0.19582312791299369 0 0.044202360045936313 -0.20737869318372881 0 0.056528756629579638 -0.1979931783792292 0 0.03953274943368866 -0.19582312791299369 0 0.056528756629579638 -0.1979931783792292 0 0.033889281643562412 -0.17857272488157999 0 0.027972004457906641 -0.19290593557317351 0 0.03953274943368866 -0.19582312791299369 0 0.031897636722889637 -0.2043381853445167 0 0.03953274943368866 -0.19582312791299369 0 0.044202360045936313 -0.20737869318372881 0 0.031897636722889637 -0.2043381853445167 0 0.044202360045936313 -0.20737869318372881 0 0.034262553780134708 -0.21981152268886431 0 0.055491951515289413 -0.2194038988852694 0 0.044202360045936313 -0.20737869318372881 0 0.031897636722889637 -0.2043381853445167 0 0.034262553780134708 -0.21981152268886431 0 0.058246448850680657 -0.19946663842738771 0 0.055491951515289413 -0.2194038988852694 0 0.066041136181110544 -0.21386160323267189 0 0.056528756629579638 -0.1979931783792292 0 0.055491951515289413 -0.2194038988852694 0 0.058246448850680657 -0.19946663842738771 0 0.056528756629579638 -0.1979931783792292 0 0.055491951515289413 -0.2194038988852694 0 0.044202360045936313 -0.20737869318372881 0 0.056528756629579638 -0.1979931783792292 0 0.055491951515289413 -0.2194038988852694 0 0.056528756629579638 -0.1979931783792292 0 0.057329549479635908 -0.18145626931170691 0 0.056528756629579638 -0.1979931783792292 0 0.065123946871468164 -0.19127238357693871 0 0.057329549479635908 -0.18145626931170691 0 0.058246448850680657 -0.19946663842738771 0 0.056528756629579638 -0.1979931783792292 0 0.065123946871468164 -0.19127238357693871 0 0.058246448850680657 -0.19946663842738771 0 0.056528756629579638 -0.1979931783792292 0 0.041504830166615332 -0.24909079072316551 0 0.041828765002810943 -0.233037808058844 0 0.054455146400998369 -0.2408146193913096 0 0.026822654761378281 -0.24010580347910071 0 0.041504830166615332 -0.24909079072316551 0 0.041828765002810943 -0.233037808058844 0 0.041828765002810943 -0.233037808058844 0 0.034262553780134708 -0.21981152268886431 0 0.055491951515289413 -0.2194038988852694 0 0.026822654761378281 -0.24010580347910071 0 0.041828765002810943 -0.233037808058844 0 0.034262553780134708 -0.21981152268886431 0 0.055491951515289413 -0.2194038988852694 0 0.054455146400998369 -0.2408146193913096 0 0.070056056729074334 -0.23044917593339351 0 0.055491951515289413 -0.2194038988852694 0 0.054455146400998369 -0.2408146193913096 0 0.041828765002810943 -0.233037808058844 0 0.055491951515289413 -0.2194038988852694 0 0.054455146400998369 -0.2408146193913096 0 0.05341834128670471 -0.26222533989734959 0 0.054455146400998369 -0.2408146193913096 0 0.071841433176306951 -0.24693042426755701 0 0.071841433176306951 -0.24693042426755701 0 0.078351655706027534 -0.24017870186704479 0 0.070056056729074334 -0.23044917593339351 0 0.054455146400998369 -0.2408146193913096 0 0.071841433176306951 -0.24693042426755701 0 0.070056056729074334 -0.23044917593339351 0 0.078351655706027534 -0.24017870186704479 0 0.084005261436397555 -0.23414661223377431 0 0.070056056729074334 -0.23044917593339351 0 0.071841433176306951 -0.24693042426755701 0 0.078351655706027534 -0.24017870186704479 0 0.087503871482331325 -0.24918859503345439 0 0.084005261436397555 -0.23414661223377431 0 0.09726841460880753 -0.24973530510077291 0 0.098224276789357245 -0.22202348732504129 0 0.078351655706027534 -0.24017870186704479 0 0.087503871482331325 -0.24918859503345439 0 0.084005261436397555 -0.23414661223377431 0 0.087503871482331325 -0.24918859503345439 0 0.084005261436397555 -0.23414661223377431 0 0.09726841460880753 -0.24973530510077291 0 0.087503871482331325 -0.24918859503345439 0 0.09726841460880753 -0.24973530510077291 0 0.084005261436397555 -0.23414661223377431 0 0.077944909524616218 -0.21644665818138251 0 0.098224276789357245 -0.22202348732504129 0 0.084005261436397555 -0.23414661223377431 0 0.070056056729074334 -0.23044917593339351 0 0.077944909524616218 -0.21644665818138251 0 0.070056056729074334 -0.23044917593339351 0 0.066041136181110544 -0.21386160323267189 0 0.077944909524616218 -0.21644665818138251 0 0.055491951515289413 -0.2194038988852694 0 0.070056056729074334 -0.23044917593339351 0 0.066041136181110544 -0.21386160323267189 0 0.058246448850680657 -0.19946663842738771 0 0.066041136181110544 -0.21386160323267189 0 0.071428190199665467 -0.20133585635874521 0 0.066041136181110544 -0.21386160323267189 0 0.077944909524616218 -0.21644665818138251 0 0.071428190199665467 -0.20133585635874521 0 0.058246448850680657 -0.19946663842738771 0 0.065123946871468164 -0.19127238357693871 0 0.071428190199665467 -0.20133585635874521 0 0.065123946871468164 -0.19127238357693871 0 0.071428190199665467 -0.20133585635874521 0 0.077775677467109644 -0.1894438906232867 0 0.077775677467109644 -0.1894438906232867 0 0.085264727641627694 -0.2009309552866074 0 0.087035172899110766 -0.18202416968187909 0 0.085264727641627694 -0.2009309552866074 0 0.099180138969906934 -0.19431166954930951 0 0.087035172899110766 -0.18202416968187909 0 0.071428190199665467 -0.20133585635874521 0 0.077775677467109644 -0.1894438906232867 0 0.085264727641627694 -0.2009309552866074 0 0.077944909524616218 -0.21644665818138251 0 0.085264727641627694 -0.2009309552866074 0 0.098224276789357245 -0.22202348732504129 0 0.077944909524616218 -0.21644665818138251 0 0.071428190199665467 -0.20133585635874521 0 0.085264727641627694 -0.2009309552866074 0 0.085264727641627694 -0.2009309552866074 0 0.099180138969906934 -0.19431166954930951 0 0.098224276789357245 -0.22202348732504129 0 0.099180138969906934 -0.19431166954930951 0 0.11354412200005309 -0.20878294345574169 0 0.098224276789357245 -0.22202348732504129 0 0.099180138969906934 -0.19431166954930951 0 0.098224276789357245 -0.22202348732504129 0 0.099180138969906934 -0.19431166954930951 0 0.1232396379011078 -0.1927549034493776 0 0.1116878195257827 -0.17967737761147759 0 0.099180138969906934 -0.19431166954930951 0 0.1232396379011078 -0.1927549034493776 0 0.11354412200005309 -0.20878294345574169 0 0.1232396379011078 -0.1927549034493776 0 0.11354412200005309 -0.20878294345574169 0 0.1296813367821156 -0.2112782106774091 0 0.11354412200005309 -0.20878294345574169 0 0.11925867152865099 -0.22395178641925401 0 0.1296813367821156 -0.2112782106774091 0 0.11354412200005309 -0.20878294345574169 0 0.11925867152865099 -0.22395178641925401 0 0.098224276789357245 -0.22202348732504129 0 0.11925867152865099 -0.22395178641925401 0 0.1115141746540584 -0.23685798868452451 0 0.098224276789357245 -0.22202348732504129 0 0.11925867152865099 -0.22395178641925401 0 0.1115141746540584 -0.23685798868452451 0 0.12727927076528461 -0.2378210325384271 0 0.1155402395781918 -0.2507583320391269 0 0.1115141746540584 -0.23685798868452451 0 0.12727927076528461 -0.2378210325384271 0 0.09726841460880753 -0.24973530510077291 0 0.098224276789357245 -0.22202348732504129 0 0.1115141746540584 -0.23685798868452451 0 0.09726841460880753 -0.24973530510077291 0 0.098224276789357245 -0.22202348732504129 0 0.1155402395781918 -0.2507583320391269 0 0.1115141746540584 -0.23685798868452451 0 0.09726841460880753 -0.24973530510077291 0 0.1006234008225292 -0.15246943509712671 0 0.1001360011504572 -0.16659985177357781 0 0.083956960864695562 -0.1482839632705675 0 0.093837558922739497 -0.14264619108299431 0 0.1006234008225292 -0.15246943509712671 0 0.1028307954559992 -0.13579239345953559 0 0.1006234008225292 -0.15246943509712671 0 0.1028307954559992 -0.13579239345953559 0 0.1133439292462652 -0.14669813101470161 0 0.1006234008225292 -0.15246943509712671 0 0.1133439292462652 -0.14669813101470161 0 0.1122920085546638 -0.16227381202107721 0 0.093837558922739497 -0.14264619108299431 0 0.1028307954559992 -0.13579239345953559 0 0.086025777066828416 -0.13071312073542821 0 0.1028307954559992 -0.13579239345953559 0 0.086025777066828416 -0.13071312073542821 0 0.1003755091591467 -0.120365047089626 0 0.1028307954559992 -0.13579239345953559 0 0.1110772144577262 -0.12607447494648069 0 0.1003755091591467 -0.120365047089626 0 0.1028307954559992 -0.13579239345953559 0 0.1110772144577262 -0.12607447494648069 0 0.1195920268695274 -0.13435801890873961 0 0.1028307954559992 -0.13579239345953559 0 0.1195920268695274 -0.13435801890873961 0 0.1133439292462652 -0.14669813101470161 0 0.1110772144577262 -0.12607447494648069 0 0.1195920268695274 -0.13435801890873961 0 0.125059882544757 -0.1243050716586782 0 0.1195920268695274 -0.13435801890873961 0 0.1133439292462652 -0.14669813101470161 0 0.12550759679471971 -0.14428239988351421 0 0.1133439292462652 -0.14669813101470161 0 0.1238726331408222 -0.15597973401630799 0 0.1122920085546638 -0.16227381202107721 0 0.1133439292462652 -0.14669813101470161 0 0.1238726331408222 -0.15597973401630799 0 0.12550759679471971 -0.14428239988351421 0 0.1122920085546638 -0.16227381202107721 0 0.1240882674421261 -0.17221834261327171 0 0.1116878195257827 -0.17967737761147759 0 0.1238726331408222 -0.15597973401630799 0 0.1122920085546638 -0.16227381202107721 0 0.1240882674421261 -0.17221834261327171 0 0.1232396379011078 -0.1927549034493776 0 0.1240882674421261 -0.17221834261327171 0 0.1116878195257827 -0.17967737761147759 0 0.1232396379011078 -0.1927549034493776 0 0.1116878195257827 -0.17967737761147759 0 0.099180138969906934 -0.19431166954930951 0 0.1116878195257827 -0.17967737761147759 0 0.1001360011504572 -0.16659985177357781 0 0.099180138969906934 -0.19431166954930951 0 0.1001360011504572 -0.16659985177357781 0 0.099180138969906934 -0.19431166954930951 0 0.1001360011504572 -0.16659985177357781 0 0.087035172899110766 -0.18202416968187909 0 0.1116878195257827 -0.17967737761147759 0 0.1001360011504572 -0.16659985177357781 0 0.1122920085546638 -0.16227381202107721 0 0.1116878195257827 -0.17967737761147759 0 0.1001360011504572 -0.16659985177357781 0 0.1006234008225292 -0.15246943509712671 0 0.1122920085546638 -0.16227381202107721 0 0.1001360011504572 -0.16659985177357781 0 0.1006234008225292 -0.15246943509712671 0 0.1001360011504572 -0.16659985177357781 0 0.1001360011504572 -0.16659985177357781 0 0.083956960864695562 -0.1482839632705675 0 0.1001360011504572 -0.16659985177357781 0 0.079225084705666013 -0.1675683830972868 0 0.083956960864695562 -0.1482839632705675 0 0.077775677467109644 -0.1894438906232867 0 0.087035172899110766 -0.18202416968187909 0 0.070769962292113645 -0.17944740942254711 0 0.079225084705666013 -0.1675683830972868 0 0.087035172899110766 -0.18202416968187909 0 0.070769962292113645 -0.17944740942254711 0 0.1001360011504572 -0.16659985177357781 0 0.079225084705666013 -0.1675683830972868 0 0.087035172899110766 -0.18202416968187909 0 0.065123946871468164 -0.19127238357693871 0 0.077775677467109644 -0.1894438906232867 0 0.070769962292113645 -0.17944740942254711 0 0.065123946871468164 -0.19127238357693871 0 0.070769962292113645 -0.17944740942254711 0 0.057329549479635908 -0.18145626931170691 0 0.079225084705666013 -0.1675683830972868 0 0.069844290743162202 -0.15572535069481899 0 0.058130342329691373 -0.1649193602441846 0 0.079225084705666013 -0.1675683830972868 0 0.069844290743162202 -0.15572535069481899 0 0.083956960864695562 -0.1482839632705675 0 0.079225084705666013 -0.1675683830972868 0 0.070769962292113645 -0.17944740942254711 0 0.058130342329691373 -0.1649193602441846 0 0.069844290743162202 -0.15572535069481899 0 0.065690713085214791 -0.1421362209973312 0 0.083956960864695562 -0.1482839632705675 0 0.069844290743162202 -0.15572535069481899 0 0.065690713085214791 -0.1421362209973312 0 0.055338914955394031 -0.1557955185274518 0 0.093837558922739497 -0.14264619108299431 0 0.1006234008225292 -0.15246943509712671 0 0.083956960864695562 -0.1482839632705675 0 0.083956960864695562 -0.1482839632705675 0 0.086025777066828416 -0.13071312073542821 0 0.067777920578933518 -0.1299680747675574 0 0.093837558922739497 -0.14264619108299431 0 0.083956960864695562 -0.1482839632705675 0 0.086025777066828416 -0.13071312073542821 0 0.083956960864695562 -0.1482839632705675 0 0.067777920578933518 -0.1299680747675574 0 0.065690713085214791 -0.1421362209973312 0 0.083956960864695562 -0.1482839632705675 0 0.067777920578933518 -0.1299680747675574 0 0.086025777066828416 -0.13071312073542821 0 0.067777920578933518 -0.1299680747675574 0 0.076734835755005087 -0.11970758577673089 0 0.067777920578933518 -0.1299680747675574 0 0.053441304474890289 -0.13464385441717969 0 0.05399936433302991 -0.12122894057442581 0 0.053441304474890289 -0.13464385441717969 0 0.041268264505893618 -0.12924178955595211 0 0.05399936433302991 -0.12122894057442581 0 0.065690713085214791 -0.1421362209973312 0 0.067777920578933518 -0.1299680747675574 0 0.053441304474890289 -0.13464385441717969 0 0.065690713085214791 -0.1421362209973312 0 0.055338914955394031 -0.1557955185274518 0 0.0384702598713796 -0.15064424619063199 0 0.065690713085214791 -0.1421362209973312 0 0.0384702598713796 -0.15064424619063199 0 0.065690713085214791 -0.1421362209973312 0 0.053441304474890289 -0.13464385441717969 0 0.0384702598713796 -0.15064424619063199 0 0.053441304474890289 -0.13464385441717969 0 0.0384702598713796 -0.15064424619063199 0 0.041268264505893618 -0.12924178955595211 0 0.0384702598713796 -0.15064424619063199 0 0.041268264505893618 -0.12924178955595211 0 0.015842377588640461 -0.12995768139491151 0 0.057329549479635908 -0.18145626931170691 0 0.058130342329691373 -0.1649193602441846 0 0.056528756629579638 -0.1979931783792292 0 0.057329549479635908 -0.18145626931170691 0 0.033889281643562412 -0.17857272488157999 0 0.070769962292113645 -0.17944740942254711 0 0.057329549479635908 -0.18145626931170691 0 0.058130342329691373 -0.1649193602441846 0 0.057329549479635908 -0.18145626931170691 0 0.058130342329691373 -0.1649193602441846 0 0.04455896874752216 -0.16555241451029229 0 0.069844290743162202 -0.15572535069481899 0 0.055338914955394031 -0.1557955185274518 0 0.058130342329691373 -0.1649193602441846 0 0.055338914955394031 -0.1557955185274518 0 0.058130342329691373 -0.1649193602441846 0 0.04455896874752216 -0.16555241451029229 0 0.055338914955394031 -0.1557955185274518 0 0.0384702598713796 -0.15064424619063199 0 0.04455896874752216 -0.16555241451029229 0 0.0384702598713796 -0.15064424619063199 0 0.031574010555557599 -0.1635538019881777 0 0.04455896874752216 -0.16555241451029229 0 0.031574010555557599 -0.1635538019881777 0 0.04455896874752216 -0.16555241451029229 0 0.033889281643562412 -0.17857272488157999 0 0.057329549479635908 -0.18145626931170691 0 0.04455896874752216 -0.16555241451029229 0 0.033889281643562412 -0.17857272488157999 0 0.033889281643562412 -0.17857272488157999 0 0.019555974831457788 -0.18489329081675979 0 0.017860935761059481 -0.17540941327727391 0 0.033889281643562412 -0.17857272488157999 0 0.017860935761059481 -0.17540941327727391 0 0.018922444694438611 -0.16573396598117041 0 0.027972004457906641 -0.19290593557317351 0 0.033889281643562412 -0.17857272488157999 0 0.019555974831457788 -0.18489329081675979 0 0.033889281643562412 -0.17857272488157999 0 0.018922444694438611 -0.16573396598117041 0 0.0384702598713796 -0.15064424619063199 0 0.031574010555557599 -0.1635538019881777 0 0.011249806657544249 -0.1591522713839319 0 0.031574010555557599 -0.1635538019881777 0 0.018922444694438611 -0.16573396598117041 0 0.011249806657544249 -0.1591522713839319 0 0.031574010555557599 -0.1635538019881777 0 0.033889281643562412 -0.17857272488157999 0 0.018922444694438611 -0.16573396598117041 0 0.018922444694438611 -0.16573396598117041 0 0.011249806657544249 -0.1591522713839319 0 0.0051361497124387812 -0.16106315607433669 0 0.018922444694438611 -0.16573396598117041 0 0.0051361497124387812 -0.16106315607433669 0 0.018922444694438611 -0.16573396598117041 0 0.011249806657544249 -0.1591522713839319 0 0.011249806657544249 -0.1591522713839319 0 0.0051361497124387812 -0.16106315607433669 0 0.011249806657544249 -0.1591522713839319 0 0.0051361497124387812 -0.16106315607433669 0 0.00014451492137988051 -0.1496259991592768 0 -0.001198061652550745 -0.17280609881212911 0 0.0051361497124387812 -0.16106315607433669 0 0.0083362452288298274 -0.17396118646513589 0 0.018922444694438611 -0.16573396598117041 0 0.0051361497124387812 -0.16106315607433669 0 0.0083362452288298274 -0.17396118646513589 0 0.017860935761059481 -0.17540941327727391 0 0.018922444694438611 -0.16573396598117041 0 0.0083362452288298274 -0.17396118646513589 0 0.019555974831457788 -0.18489329081675979 0 0.017860935761059481 -0.17540941327727391 0 0.0083362452288298274 -0.17396118646513589 0 -0.001198061652550745 -0.17280609881212911 0 0.0083362452288298274 -0.17396118646513589 0 0.0039750345954989988 -0.18651425943902311 0 0.019555974831457788 -0.18489329081675979 0 0.0083362452288298274 -0.17396118646513589 0 0.0039750345954989988 -0.18651425943902311 0 0.041268264505893618 -0.12924178955595211 0 0.015842377588640461 -0.12995768139491151 0 0.0384702598713796 -0.15064424619063199 0 0.015842377588640461 -0.12995768139491151 0 0.011224689942066299 -0.1440107542725246 0 0.0384702598713796 -0.15064424619063199 0 0.011249806657544249 -0.1591522713839319 0 0.011224689942066299 -0.1440107542725246 0 0.0384702598713796 -0.15064424619063199 0 0.011249806657544249 -0.1591522713839319 0 -0.0095835093286126792 -0.13067357323387099 0 0.011224689942066299 -0.1440107542725246 0 0.00014451492137988051 -0.1496259991592768 0 0.011249806657544249 -0.1591522713839319 0 0.00014451492137988051 -0.1496259991592768 0 0.011249806657544249 -0.1591522713839319 0 0.011224689942066299 -0.1440107542725246 0 0.00014451492137988051 -0.1496259991592768 0 -0.0095835093286126792 -0.13067357323387099 0 0.015842377588640461 -0.12995768139491151 0 -0.0095835093286126792 -0.13067357323387099 0 0.015842377588640461 -0.12995768139491151 0 0.011224689942066299 -0.1440107542725246 0 -0.004447001458793981 -0.1103644265276268 0 -0.0095835093286126792 -0.13067357323387099 0 0.015842377588640461 -0.12995768139491151 0 -0.004447001458793981 -0.1103644265276268 0 0.015842377588640461 -0.12995768139491151 0 0.019064047731892519 -0.1027428983621612 0 0.015842377588640461 -0.12995768139491151 0 0.019064047731892519 -0.1027428983621612 0 0.037106240101941267 -0.1127949235512794 0 0.019064047731892519 -0.1027428983621612 0 0.037234516137291472 -0.08975442686183864 0 0.037106240101941267 -0.1127949235512794 0 -0.004447001458793981 -0.1103644265276268 0 0.019064047731892519 -0.1027428983621612 0 -0.0041979068999104599 -0.092692987180200151 0 -0.004447001458793981 -0.1103644265276268 0 0.019064047731892519 -0.1027428983621612 0 -0.0041979068999104599 -0.092692987180200151 0 0.003886405537072308 -0.074985287574065307 0 0.019828086476746741 -0.084468472620665633 0 -0.0041979068999104599 -0.092692987180200151 0 0.019064047731892519 -0.1027428983621612 0 0.019828086476746741 -0.084468472620665633 0 0.003886405537072308 -0.074985287574065307 0 0.028295076817156449 -0.069568801619081161 0 0.019828086476746741 -0.084468472620665633 0 0.003886405537072308 -0.074985287574065307 0 0.028295076817156449 -0.069568801619081161 0 0.01833358543460277 -0.05641701057889667 0 0.019064047731892519 -0.1027428983621612 0 0.019828086476746741 -0.084468472620665633 0 0.037234516137291472 -0.08975442686183864 0 0.028295076817156449 -0.069568801619081161 0 0.019828086476746741 -0.084468472620665633 0 0.037234516137291472 -0.08975442686183864 0 0.028295076817156449 -0.069568801619081161 0 0.037234516137291472 -0.08975442686183864 0 0.056852127489792813 -0.07490730178705754 0 0.028295076817156449 -0.069568801619081161 0 0.056852127489792813 -0.07490730178705754 0 0.043412112850471737 -0.054930671915401803 0 0.056852127489792813 -0.07490730178705754 0 0.043412112850471737 -0.054930671915401803 0 0.062505798999464707 -0.060826586793076412 0 0.056852127489792813 -0.07490730178705754 0 0.055228870314899682 -0.103843804558387 0 0.070281085843191191 -0.093817275438188408 0 0.037234516137291472 -0.08975442686183864 0 0.056852127489792813 -0.07490730178705754 0 0.055228870314899682 -0.103843804558387 0 0.055228870314899682 -0.103843804558387 0 0.05399936433302991 -0.12122894057442581 0 0.037106240101941267 -0.1127949235512794 0 0.055228870314899682 -0.103843804558387 0 0.05399936433302991 -0.12122894057442581 0 0.065906963652981487 -0.1182248878619804 0 0.041268264505893618 -0.12924178955595211 0 0.05399936433302991 -0.12122894057442581 0 0.037106240101941267 -0.1127949235512794 0 0.041268264505893618 -0.12924178955595211 0 0.015842377588640461 -0.12995768139491151 0 0.037106240101941267 -0.1127949235512794 0 0.037234516137291472 -0.08975442686183864 0 0.055228870314899682 -0.103843804558387 0 0.037106240101941267 -0.1127949235512794 0 0.030110906951190688 -0.01173386609504996 0 0.0045774522161646097 -0.0093144947699853528 0 0.019230231732056138 -0.023667566818530359 0 0.018044735406519189 -0.0027914786915071068 0 0.030110906951190688 -0.01173386609504996 0 0.0045774522161646097 -0.0093144947699853528 0 0.035622497167505339 0.0063925700628825917 0 0.018044735406519189 -0.0027914786915071068 0 0.030110906951190688 -0.01173386609504996 0 0.030110906951190688 -0.01173386609504996 0 0.0045774522161646097 -0.0093144947699853528 0 0.018044735406519189 -0.0027914786915071068 0 0.002394805847480138 -0.0071764921779012506 0 0.0045774522161646097 -0.0093144947699853528 0 0.0006213327713558641 -0.0089396406014967747 0 0.0045774522161646097 -0.0093144947699853528 0 0.0014199230119024339 -0.021574900853890581 0 0.002394805847480138 -0.0071764921779012506 0 0.0006213327713558641 -0.0089396406014967747 0 0.0045774522161646097 -0.0093144947699853528 0 0.0006213327713558641 -0.0089396406014967747 0 0.0045774522161646097 -0.0093144947699853528 0 -0.001488115343110989 -0.0087397640735148233 0 0.002394805847480138 -0.0071764921779012506 0 0.0006213327713558641 -0.0089396406014967747 0 0.002394805847480138 -0.0071764921779012506 0 0.0006213327713558641 -0.0089396406014967747 0 0.002394805847480138 -0.0071764921779012506 0 0.0045774522161646097 -0.0093144947699853528 0 0.0045774522161646097 -0.0093144947699853528 0 0.019230231732056138 -0.023667566818530359 0 0.0045774522161646097 -0.0093144947699853528 0 0.0014199230119024339 -0.021574900853890581 0 0.019230231732056138 -0.023667566818530359 0 0.0014199230119024339 -0.021574900853890581 0 0.0083973707027768379 -0.030855929703784798 0 0.019230231732056138 -0.023667566818530359 0 -0.003476286599935095 -0.036271506326322138 0 0.0014199230119024339 -0.021574900853890581 0 0.0083973707027768379 -0.030855929703784798 0 0.030110906951190688 -0.01173386609504996 0 0.019230231732056138 -0.023667566818530359 0 0.031518170358815163 -0.024102367719011381 0 0.019230231732056138 -0.023667566818530359 0 0.033883011247947889 -0.038020638867075192 0 0.031518170358815163 -0.024102367719011381 0 0.019230231732056138 -0.023667566818530359 0 0.033883011247947889 -0.038020638867075192 0 0.01494251690265052 -0.041372340822573933 0 0.01833358543460277 -0.05641701057889667 0 0.033883011247947889 -0.038020638867075192 0 0.019230231732056138 -0.023667566818530359 0 0.01494251690265052 -0.041372340822573933 0 0.033883011247947889 -0.038020638867075192 0 -0.003476286599935095 -0.036271506326322138 0 -0.00022463716734756899 -0.054496453091326037 0 0.01494251690265052 -0.041372340822573933 0 -0.003476286599935095 -0.036271506326322138 0 0.0083973707027768379 -0.030855929703784798 0 0.01494251690265052 -0.041372340822573933 0 0.0083973707027768379 -0.030855929703784798 0 0.019230231732056138 -0.023667566818530359 0 0.01494251690265052 -0.041372340822573933 0 -0.00022463716734756899 -0.054496453091326037 0 0.003886405537072308 -0.074985287574065307 0 0.01833358543460277 -0.05641701057889667 0 -0.00022463716734756899 -0.054496453091326037 0 0.01494251690265052 -0.041372340822573933 0 0.01833358543460277 -0.05641701057889667 0 0.028295076817156449 -0.069568801619081161 0 0.01833358543460277 -0.05641701057889667 0 0.043412112850471737 -0.054930671915401803 0 0.01833358543460277 -0.05641701057889667 0 0.043412112850471737 -0.054930671915401803 0 0.033883011247947889 -0.038020638867075192 0 0.043412112850471737 -0.054930671915401803 0 0.059769218069649313 -0.045902054602901338 0 0.062505798999464707 -0.060826586793076412 0 0.043412112850471737 -0.054930671915401803 0 0.059769218069649313 -0.045902054602901338 0 0.051344651808144813 -0.03456126235542302 0 0.051344651808144813 -0.03456126235542302 0 0.056061594203691133 -0.025076371103657479 0 0.065665228365204262 -0.034364577790676212 0 0.059769218069649313 -0.045902054602901338 0 0.051344651808144813 -0.03456126235542302 0 0.065665228365204262 -0.034364577790676212 0 0.043412112850471737 -0.054930671915401803 0 0.051344651808144813 -0.03456126235542302 0 0.033883011247947889 -0.038020638867075192 0 0.051344651808144813 -0.03456126235542302 0 0.033883011247947889 -0.038020638867075192 0 0.042848531504065902 -0.022987399095390042 0 0.030110906951190688 -0.01173386609504996 0 0.042848531504065902 -0.022987399095390042 0 0.055644361686216767 -0.014153237420114781 0 0.033883011247947889 -0.038020638867075192 0 0.031518170358815163 -0.024102367719011381 0 0.042848531504065902 -0.022987399095390042 0 0.030110906951190688 -0.01173386609504996 0 0.031518170358815163 -0.024102367719011381 0 0.042848531504065902 -0.022987399095390042 0 0.051344651808144813 -0.03456126235542302 0 0.042848531504065902 -0.022987399095390042 0 0.056061594203691133 -0.025076371103657479 0 0.056061594203691133 -0.025076371103657479 0 0.064805197654823885 -0.019315378856683371 0 0.065665228365204262 -0.034364577790676212 0 0.056061594203691133 -0.025076371103657479 0 0.055644361686216767 -0.014153237420114781 0 0.064805197654823885 -0.019315378856683371 0 0.042848531504065902 -0.022987399095390042 0 0.056061594203691133 -0.025076371103657479 0 0.055644361686216767 -0.014153237420114781 0 0.055644361686216767 -0.014153237420114781 0 0.058196269712748661 -0.0010094984802769141 0 0.069352637037845374 -0.0058266927155855106 0 0.055644361686216767 -0.014153237420114781 0 0.058196269712748661 -0.0010094984802769141 0 0.045210290485040869 -0.0034719151203993228 0 0.030110906951190688 -0.01173386609504996 0 0.055644361686216767 -0.014153237420114781 0 0.045210290485040869 -0.0034719151203993228 0 0.035622497167505339 0.0063925700628825917 0 0.030110906951190688 -0.01173386609504996 0 0.045210290485040869 -0.0034719151203993228 0 0.030110906951190688 -0.01173386609504996 0 0.055644361686216767 -0.014153237420114781 0 0.096167504599054904 0.0042442054759202954 0 0.081717153665888317 -0.0025063239881197622 0 0.095472413630543998 -0.0072730453323191883 0 0.081717153665888317 -0.0025063239881197622 0 0.081177816421242804 -0.016572608745179591 0 0.095472413630543998 -0.0072730453323191883 0 0.055644361686216767 -0.014153237420114781 0 0.081177816421242804 -0.016572608745179591 0 0.055644361686216767 -0.014153237420114781 0 0.069352637037845374 -0.0058266927155855106 0 0.081177816421242804 -0.016572608745179591 0 0.070381517258247442 0.0054324954822656396 0 0.081717153665888317 -0.0025063239881197622 0 0.069352637037845374 -0.0058266927155855106 0 0.070381517258247442 0.0054324954822656396 0 0.058196269712748661 -0.0010094984802769141 0 0.069352637037845374 -0.0058266927155855106 0 0.081717153665888317 -0.0025063239881197622 0 0.069352637037845374 -0.0058266927155855106 0 0.081177816421242804 -0.016572608745179591 0 0.064805197654823885 -0.019315378856683371 0 0.085712771491518958 -0.038211511484016539 0 0.065665228365204262 -0.034364577790676212 0 0.064805197654823885 -0.019315378856683371 0 0.076287907678157074 -0.023986159701047009 0 0.081177816421242804 -0.016572608745179591 0 0.055644361686216767 -0.014153237420114781 0 0.064805197654823885 -0.019315378856683371 0 0.081177816421242804 -0.016572608745179591 0 0.064805197654823885 -0.019315378856683371 0 0.076287907678157074 -0.023986159701047009 0 0.085712771491518958 -0.038211511484016539 0 0.064805197654823885 -0.019315378856683371 0 0.085712771491518958 -0.038211511484016539 0 0.076287907678157074 -0.023986159701047009 0 0.090532384742726735 -0.027505059676875141 0 0.085712771491518958 -0.038211511484016539 0 0.076287907678157074 -0.023986159701047009 0 0.085712771491518958 -0.038211511484016539 0 0.081177816421242804 -0.016572608745179591 0 0.090532384742726735 -0.027505059676875141 0 0.1067112711562688 -0.01899198007024441 0 0.076287907678157074 -0.023986159701047009 0 0.081177816421242804 -0.016572608745179591 0 0.090532384742726735 -0.027505059676875141 0 0.090532384742726735 -0.027505059676875141 0 0.085712771491518958 -0.038211511484016539 0 0.102772156966446 -0.039763038383888151 0 0.085712771491518958 -0.038211511484016539 0 0.07267749436203183 -0.048188407729665747 0 0.085132366133298415 -0.052458296335176707 0 0.085712771491518958 -0.038211511484016539 0 0.065665228365204262 -0.034364577790676212 0 0.07267749436203183 -0.048188407729665747 0 0.059769218069649313 -0.045902054602901338 0 0.065665228365204262 -0.034364577790676212 0 0.07267749436203183 -0.048188407729665747 0 0.059769218069649313 -0.045902054602901338 0 0.07267749436203183 -0.048188407729665747 0 0.062505798999464707 -0.060826586793076412 0 0.07267749436203183 -0.048188407729665747 0 0.062505798999464707 -0.060826586793076412 0 0.07727958311305537 -0.057367419372147309 0 0.085712771491518958 -0.038211511484016539 0 0.098207536939253007 -0.057070397666300149 0 0.07727958311305537 -0.057367419372147309 0 0.085132366133298415 -0.052458296335176707 0 0.088807886296056321 -0.06442462200908719 0 0.085712771491518958 -0.038211511484016539 0 0.085132366133298415 -0.052458296335176707 0 0.098207536939253007 -0.057070397666300149 0 0.07267749436203183 -0.048188407729665747 0 0.07727958311305537 -0.057367419372147309 0 0.085132366133298415 -0.052458296335176707 0 0.085132366133298415 -0.052458296335176707 0 0.098207536939253007 -0.057070397666300149 0 0.088807886296056321 -0.06442462200908719 0 0.085712771491518958 -0.038211511484016539 0 0.1060355466537841 -0.056579106778484822 0 0.085712771491518958 -0.038211511484016539 0 0.098207536939253007 -0.057070397666300149 0 0.1060355466537841 -0.056579106778484822 0 0.098207536939253007 -0.057070397666300149 0 0.1060355466537841 -0.056579106778484822 0 0.1035330678577871 -0.060408744014543561 0 0.1060355466537841 -0.056579106778484822 0 0.1035330678577871 -0.060408744014543561 0 0.1060355466537841 -0.056579106778484822 0 0.12407046944405239 -0.056682210957894767 0 0.1194833752947594 -0.035999389823432593 0 0.1060355466537841 -0.056579106778484822 0 0.1194833752947594 -0.035999389823432593 0 0.102772156966446 -0.039763038383888151 0 0.1060355466537841 -0.056579106778484822 0 0.1194833752947594 -0.035999389823432593 0 0.1194833752947594 -0.035999389823432593 0 0.102772156966446 -0.039763038383888151 0 0.1067112711562688 -0.01899198007024441 0 0.085712771491518958 -0.038211511484016539 0 0.1060355466537841 -0.056579106778484822 0 0.102772156966446 -0.039763038383888151 0 0.090532384742726735 -0.027505059676875141 0 0.102772156966446 -0.039763038383888151 0 0.1067112711562688 -0.01899198007024441 0 0.081177816421242804 -0.016572608745179591 0 0.1067112711562688 -0.01899198007024441 0 0.1194833752947594 -0.035999389823432593 0 0.119688443476294 -0.020419382492060888 0 0.13293120393573529 -0.01541967286838083 0 0.1194833752947594 -0.035999389823432593 0 0.1067112711562688 -0.01899198007024441 0 0.119688443476294 -0.020419382492060888 0 0.119688443476294 -0.020419382492060888 0 0.1196279235184127 -0.011266487206185741 0 0.13293120393573529 -0.01541967286838083 0 0.1067112711562688 -0.01899198007024441 0 0.119688443476294 -0.020419382492060888 0 0.1196279235184127 -0.011266487206185741 0 0.1067112711562688 -0.01899198007024441 0 0.1196279235184127 -0.011266487206185741 0 0.11158832231026521 -0.002538519333972472 0 0.12681727907172599 0.0028609529651058472 0 0.1196279235184127 -0.011266487206185741 0 0.11158832231026521 -0.002538519333972472 0 0.081177816421242804 -0.016572608745179591 0 0.1067112711562688 -0.01899198007024441 0 0.095472413630543998 -0.0072730453323191883 0 0.1067112711562688 -0.01899198007024441 0 0.11158832231026521 -0.002538519333972472 0 0.095472413630543998 -0.0072730453323191883 0 0.096167504599054904 0.0042442054759202954 0 0.11158832231026521 -0.002538519333972472 0 0.095472413630543998 -0.0072730453323191883 0 0.088205186756687592 -0.098499163401079406 0 0.088306584707542421 -0.11364295246223539 0 0.1041297467101449 -0.10443009357677931 0 0.088205186756687592 -0.098499163401079406 0 0.088306584707542421 -0.11364295246223539 0 0.074368452797441906 -0.1081427041937684 0 0.086025777066828416 -0.13071312073542821 0 0.088306584707542421 -0.11364295246223539 0 0.1003755091591467 -0.120365047089626 0 0.086025777066828416 -0.13071312073542821 0 0.088306584707542421 -0.11364295246223539 0 0.076734835755005087 -0.11970758577673089 0 0.088306584707542421 -0.11364295246223539 0 0.076734835755005087 -0.11970758577673089 0 0.074368452797441906 -0.1081427041937684 0 0.076734835755005087 -0.11970758577673089 0 0.065906963652981487 -0.1182248878619804 0 0.074368452797441906 -0.1081427041937684 0 0.055228870314899682 -0.103843804558387 0 0.065906963652981487 -0.1182248878619804 0 0.074368452797441906 -0.1081427041937684 0 0.067777920578933518 -0.1299680747675574 0 0.076734835755005087 -0.11970758577673089 0 0.065906963652981487 -0.1182248878619804 0 0.067777920578933518 -0.1299680747675574 0 0.05399936433302991 -0.12122894057442581 0 0.065906963652981487 -0.1182248878619804 0 0.088205186756687592 -0.098499163401079406 0 0.070281085843191191 -0.093817275438188408 0 0.074368452797441906 -0.1081427041937684 0 0.055228870314899682 -0.103843804558387 0 0.070281085843191191 -0.093817275438188408 0 0.074368452797441906 -0.1081427041937684 0 0.056852127489792813 -0.07490730178705754 0 0.078967107604769243 -0.081534257868326937 0 0.056852127489792813 -0.07490730178705754 0 0.070281085843191191 -0.093817275438188408 0 0.078967107604769243 -0.081534257868326937 0 0.062505798999464707 -0.060826586793076412 0 0.07727958311305537 -0.057367419372147309 0 0.078967107604769243 -0.081534257868326937 0 0.056852127489792813 -0.07490730178705754 0 0.062505798999464707 -0.060826586793076412 0 0.078967107604769243 -0.081534257868326937 0 0.07727958311305537 -0.057367419372147309 0 0.088807886296056321 -0.06442462200908719 0 0.078967107604769243 -0.081534257868326937 0 0.088807886296056321 -0.06442462200908719 0 0.078967107604769243 -0.081534257868326937 0 0.094886380824945021 -0.074739832907536372 0 0.088205186756687592 -0.098499163401079406 0 0.078967107604769243 -0.081534257868326937 0 0.10108208771974569 -0.088161213949596334 0 0.078967107604769243 -0.081534257868326937 0 0.10108208771974569 -0.088161213949596334 0 0.088205186756687592 -0.098499163401079406 0 0.070281085843191191 -0.093817275438188408 0 0.078967107604769243 -0.081534257868326937 0 0.078967107604769243 -0.081534257868326937 0 0.10108208771974569 -0.088161213949596334 0 0.094886380824945021 -0.074739832907536372 0 0.10108208771974569 -0.088161213949596334 0 0.094886380824945021 -0.074739832907536372 0 0.1107023023869871 -0.07592928384858362 0 0.1060355466537841 -0.056579106778484822 0 0.1035330678577871 -0.060408744014543561 0 0.1107023023869871 -0.07592928384858362 0 0.098151026611810355 -0.068041034107876819 0 0.094886380824945021 -0.074739832907536372 0 0.1107023023869871 -0.07592928384858362 0 0.098207536939253007 -0.057070397666300149 0 0.1107023023869871 -0.07592928384858362 0 0.098207536939253007 -0.057070397666300149 0 0.098151026611810355 -0.068041034107876819 0 0.1107023023869871 -0.07592928384858362 0 0.098207536939253007 -0.057070397666300149 0 0.1035330678577871 -0.060408744014543561 0 0.1107023023869871 -0.07592928384858362 0 0.088807886296056321 -0.06442462200908719 0 0.098151026611810355 -0.068041034107876819 0 0.094886380824945021 -0.074739832907536372 0 0.098207536939253007 -0.057070397666300149 0 0.088807886296056321 -0.06442462200908719 0 0.098151026611810355 -0.068041034107876819 0 0.1060355466537841 -0.056579106778484822 0 0.1107023023869871 -0.07592928384858362 0 0.12599115970317629 -0.074614863284063901 0 0.1060355466537841 -0.056579106778484822 0 0.12599115970317629 -0.074614863284063901 0 0.1060355466537841 -0.056579106778484822 0 0.12407046944405239 -0.056682210957894767 0 0.12599115970317629 -0.074614863284063901 0 0.1107023023869871 -0.07592928384858362 0 0.1231970678347219 -0.094788170030866675 0 0.10108208771974569 -0.088161213949596334 0 0.1231970678347219 -0.094788170030866675 0 0.10108208771974569 -0.088161213949596334 0 0.1107023023869871 -0.07592928384858362 0 0.1231970678347219 -0.094788170030866675 0 0.1107023023869871 -0.07592928384858362 0 0.1231970678347219 -0.094788170030866675 0 0.12599115970317629 -0.074614863284063901 0 0.1231970678347219 -0.094788170030866675 0 0.1041297467101449 -0.10443009357677931 0 0.1165495357793246 -0.11537146045311671 0 0.10108208771974569 -0.088161213949596334 0 0.1231970678347219 -0.094788170030866675 0 0.1041297467101449 -0.10443009357677931 0 0.088205186756687592 -0.098499163401079406 0 0.10108208771974569 -0.088161213949596334 0 0.1041297467101449 -0.10443009357677931 0 0.1110772144577262 -0.12607447494648069 0 0.1003755091591467 -0.120365047089626 0 0.1165495357793246 -0.11537146045311671 0 0.088306584707542421 -0.11364295246223539 0 0.1041297467101449 -0.10443009357677931 0 0.1003755091591467 -0.120365047089626 0 0.1041297467101449 -0.10443009357677931 0 0.1003755091591467 -0.120365047089626 0 0.1165495357793246 -0.11537146045311671 0 0.1110772144577262 -0.12607447494648069 0 0.1165495357793246 -0.11537146045311671 0 0.125059882544757 -0.1243050716586782 0 0.1165495357793246 -0.11537146045311671 0 0.125059882544757 -0.1243050716586782 0 0.13570225296767791 -0.1136627830916173 0 0.125059882544757 -0.1243050716586782 0 0.13570225296767791 -0.1136627830916173 0 0.13351042007077771 -0.13535464583232679 0 0.13570225296767791 -0.1136627830916173 0 0.14916210969568239 -0.1144869233999513 0 0.14820743810063461 -0.13253739615236759 0 0.13570225296767791 -0.1136627830916173 0 0.14820743810063461 -0.13253739615236759 0 0.14916210969568239 -0.1144869233999513 0 0.1659023858019596 -0.11068637629522381 0 0.14820743810063461 -0.13253739615236759 0 0.13570225296767791 -0.1136627830916173 0 0.14916210969568239 -0.1144869233999513 0 0.1438387705826743 -0.1009736450727655 0 0.14916210969568239 -0.1144869233999513 0 0.1438387705826743 -0.1009736450727655 0 0.1659023858019596 -0.11068637629522381 0 0.1438387705826743 -0.1009736450727655 0 0.14594677275256851 -0.092650619789643215 0 0.1659023858019596 -0.11068637629522381 0 0.14594677275256851 -0.092650619789643215 0 0.1659023858019596 -0.11068637629522381 0 0.1231970678347219 -0.094788170030866675 0 0.1438387705826743 -0.1009736450727655 0 0.14594677275256851 -0.092650619789643215 0 0.1231970678347219 -0.094788170030866675 0 0.1438387705826743 -0.1009736450727655 0 0.1231970678347219 -0.094788170030866675 0 0.13570225296767791 -0.1136627830916173 0 0.1231970678347219 -0.094788170030866675 0 0.13570225296767791 -0.1136627830916173 0 0.1438387705826743 -0.1009736450727655 0 0.1231970678347219 -0.094788170030866675 0 0.1165495357793246 -0.11537146045311671 0 0.13570225296767791 -0.1136627830916173 0 0.12599115970317629 -0.074614863284063901 0 0.14324551520284479 -0.074303388514748908 0 0.14594677275256851 -0.092650619789643215 0 0.12599115970317629 -0.074614863284063901 0 0.14594677275256851 -0.092650619789643215 0 0.1231970678347219 -0.094788170030866675 0 0.12599115970317629 -0.074614863284063901 0 0.14594677275256851 -0.092650619789643215 0 0.13274812921261911 -0.06482196831319062 0 0.14324551520284479 -0.074303388514748908 0 0.14208920836164879 -0.057453001683217583 0 0.12407046944405239 -0.056682210957894767 0 0.13274812921261911 -0.06482196831319062 0 0.12599115970317629 -0.074614863284063901 0 0.13274812921261911 -0.06482196831319062 0 0.12599115970317629 -0.074614863284063901 0 0.14324551520284479 -0.074303388514748908 0 0.14324551520284479 -0.074303388514748908 0 0.1577676676713505 -0.070958881179004327 0 0.14208920836164879 -0.057453001683217583 0 0.14324551520284479 -0.074303388514748908 0 0.15552700132703259 -0.084480842179265062 0 0.1577676676713505 -0.070958881179004327 0 0.14594677275256851 -0.092650619789643215 0 0.15552700132703259 -0.084480842179265062 0 0.16270751108717671 -0.093919671838121624 0 0.14324551520284479 -0.074303388514748908 0 0.14594677275256851 -0.092650619789643215 0 0.15552700132703259 -0.084480842179265062 0 0.15552700132703259 -0.084480842179265062 0 0.1577676676713505 -0.070958881179004327 0 0.17317205283599571 -0.083245500938658068 0 0.15552700132703259 -0.084480842179265062 0 0.17317205283599571 -0.083245500938658068 0 0.16270751108717671 -0.093919671838121624 0 0.17317205283599571 -0.083245500938658068 0 0.1732436498299591 -0.098484742462365965 0 0.16270751108717671 -0.093919671838121624 0 0.1577676676713505 -0.070958881179004327 0 0.17329006297225849 -0.067144545014819187 0 0.17317205283599571 -0.083245500938658068 0 0.1577676676713505 -0.070958881179004327 0 0.17329006297225849 -0.067144545014819187 0 0.16114266970546481 -0.055348584155622209 0 0.17329006297225849 -0.067144545014819187 0 0.18660459660722059 -0.07121356670435669 0 0.17317205283599571 -0.083245500938658068 0 0.17329006297225849 -0.067144545014819187 0 0.18660459660722059 -0.07121356670435669 0 0.18383722960737159 -0.053734604093409272 0 0.18660459660722059 -0.07121356670435669 0 0.17317205283599571 -0.083245500938658068 0 0.19163234817905089 -0.084272585639399919 0 0.17317205283599571 -0.083245500938658068 0 0.18448732685510821 -0.096160788283265797 0 0.19163234817905089 -0.084272585639399919 0 0.17317205283599571 -0.083245500938658068 0 0.18448732685510821 -0.096160788283265797 0 0.1732436498299591 -0.098484742462365965 0 0.18448732685510821 -0.096160788283265797 0 0.1732436498299591 -0.098484742462365965 0 0.1799489725695555 -0.1084113749565605 0 0.1732436498299591 -0.098484742462365965 0 0.1799489725695555 -0.1084113749565605 0 0.1659023858019596 -0.11068637629522381 0 0.18448732685510821 -0.096160788283265797 0 0.1799489725695555 -0.1084113749565605 0 0.19189947738255089 -0.11079770296415201 0 0.1799489725695555 -0.1084113749565605 0 0.1659023858019596 -0.11068637629522381 0 0.18392927920566929 -0.12697896821793581 0 0.1659023858019596 -0.11068637629522381 0 0.18392927920566929 -0.12697896821793581 0 0.1799489725695555 -0.1084113749565605 0 0.19189947738255089 -0.11079770296415201 0 0.18392927920566929 -0.12697896821793581 0 0.1659023858019596 -0.11068637629522381 0 0.17135699408012309 -0.1393121638749876 0 0.1732436498299591 -0.098484742462365965 0 0.1659023858019596 -0.11068637629522381 0 0.16270751108717671 -0.093919671838121624 0 0.14594677275256851 -0.092650619789643215 0 0.1659023858019596 -0.11068637629522381 0 0.16270751108717671 -0.093919671838121624 0 0.1659023858019596 -0.11068637629522381 0 0.16270751108717671 -0.093919671838121624 0 0.1463790325767105 0.0051600440866713393 0 0.13293120393573529 -0.01541967286838083 0 0.14494909117168939 -0.01571097116995826 0 0.1463790325767105 0.0051600440866713393 0 0.15462421245165581 -0.0058893527151400796 0 0.14494909117168939 -0.01571097116995826 0 0.1463790325767105 0.0051600440866713393 0 0.14494909117168939 -0.01571097116995826 0 0.15462421245165581 -0.0058893527151400796 0 0.14494909117168939 -0.01571097116995826 0 0.1598580582920249 -0.020425916519869049 0 0.1463790325767105 0.0051600440866713393 0 0.12681727907172599 0.0028609529651058472 0 0.13293120393573529 -0.01541967286838083 0 0.1463790325767105 0.0051600440866713393 0 0.13293120393573529 -0.01541967286838083 0 0.12681727907172599 0.0028609529651058472 0 0.1196279235184127 -0.011266487206185741 0 0.13293120393573529 -0.01541967286838083 0 0.13293120393573529 -0.01541967286838083 0 0.14494909117168939 -0.01571097116995826 0 0.1435191497666691 -0.036581986426587887 0 0.1194833752947594 -0.035999389823432593 0 0.13293120393573529 -0.01541967286838083 0 0.1435191497666691 -0.036581986426587887 0 0.1194833752947594 -0.035999389823432593 0 0.13293120393573529 -0.01541967286838083 0 0.14494909117168939 -0.01571097116995826 0 0.1435191497666691 -0.036581986426587887 0 0.14494909117168939 -0.01571097116995826 0 0.1435191497666691 -0.036581986426587887 0 0.1598580582920249 -0.020425916519869049 0 0.1194833752947594 -0.035999389823432593 0 0.1435191497666691 -0.036581986426587887 0 0.13229055071678239 -0.046679147222783213 0 0.12407046944405239 -0.056682210957894767 0 0.1194833752947594 -0.035999389823432593 0 0.13229055071678239 -0.046679147222783213 0 0.1435191497666691 -0.036581986426587887 0 0.13229055071678239 -0.046679147222783213 0 0.14208920836164879 -0.057453001683217583 0 0.12407046944405239 -0.056682210957894767 0 0.13229055071678239 -0.046679147222783213 0 0.14208920836164879 -0.057453001683217583 0 0.12407046944405239 -0.056682210957894767 0 0.13274812921261911 -0.06482196831319062 0 0.14208920836164879 -0.057453001683217583 0 0.1577676676713505 -0.070958881179004327 0 0.14208920836164879 -0.057453001683217583 0 0.16114266970546481 -0.055348584155622209 0 0.1435191497666691 -0.036581986426587887 0 0.14208920836164879 -0.057453001683217583 0 0.1435191497666691 -0.036581986426587887 0 0.14208920836164879 -0.057453001683217583 0 0.16114266970546481 -0.055348584155622209 0 0.16114266970546481 -0.055348584155622209 0 0.18383722960737159 -0.053734604093409272 0 0.16867226584066319 -0.036111154955617203 0 0.17329006297225849 -0.067144545014819187 0 0.16114266970546481 -0.055348584155622209 0 0.18383722960737159 -0.053734604093409272 0 0.18383722960737159 -0.053734604093409272 0 0.16867226584066319 -0.036111154955617203 0 0.1895671539671433 -0.037285104408639982 0 0.1435191497666691 -0.036581986426587887 0 0.16114266970546481 -0.055348584155622209 0 0.16867226584066319 -0.036111154955617203 0 0.1435191497666691 -0.036581986426587887 0 0.16867226584066319 -0.036111154955617203 0 0.1598580582920249 -0.020425916519869049 0 0.16867226584066319 -0.036111154955617203 0 0.1598580582920249 -0.020425916519869049 0 0.17626464034529979 -0.01218273843611789 0 0.16867226584066319 -0.036111154955617203 0 0.17626464034529979 -0.01218273843611789 0 0.19288185645158881 -0.018686415508600542 0 0.16867226584066319 -0.036111154955617203 0 0.19288185645158881 -0.018686415508600542 0 0.16867226584066319 -0.036111154955617203 0 0.19288185645158881 -0.018686415508600542 0 0.1895671539671433 -0.037285104408639982 0 0.1913914811785945 0.0015479160267864781 0 0.177795833794237 0.0058736288592868176 0 0.17626464034529979 -0.01218273843611789 0 0.177795833794237 0.0058736288592868176 0 0.17626464034529979 -0.01218273843611789 0 0.16638725000284621 -0.0041024332455818144 0 0.1913914811785945 0.0015479160267864781 0 0.17626464034529979 -0.01218273843611789 0 0.19288185645158881 -0.018686415508600542 0 0.15462421245165581 -0.0058893527151400796 0 0.1598580582920249 -0.020425916519869049 0 0.16638725000284621 -0.0041024332455818144 0 0.1598580582920249 -0.020425916519869049 0 0.17626464034529979 -0.01218273843611789 0 0.16638725000284621 -0.0041024332455818144 0 0.15628357420278671 0.003810722324721363 0 0.15462421245165581 -0.0058893527151400796 0 0.16638725000284621 -0.0041024332455818144 0 0.21709144706251299 -0.0012616760615819459 0 0.19288185645158881 -0.018686415508600542 0 0.21709144706251299 -0.0012616760615819459 0 0.19288185645158881 -0.018686415508600542 0 0.21106230177929311 -0.016930390785221641 0 0.21709144706251299 -0.0012616760615819459 0 0.21106230177929311 -0.016930390785221641 0 0.21880732635032871 -0.001449260780306197 0 0.21106230177929311 -0.016930390785221641 0 0.22385231661827831 -0.017244899007901549 0 0.21880732635032871 -0.001449260780306197 0 0.21991949691130641 0.00077379957079282309 0 0.21709144706251299 -0.0012616760615819459 0 0.21991949691130641 0.00077379957079282309 0 0.21709144706251299 -0.0012616760615819459 0 0.21880732635032871 -0.001449260780306197 0 0.21709144706251299 -0.0012616760615819459 0 0.21880732635032871 -0.001449260780306197 0 0.21106230177929311 -0.016930390785221641 0 0.21880732635032871 -0.001449260780306197 0 0.1913914811785945 0.0015479160267864781 0 0.21709144706251299 -0.0012616760615819459 0 0.19288185645158881 -0.018686415508600542 0 0.19288185645158881 -0.018686415508600542 0 0.21106230177929311 -0.016930390785221641 0 0.2033172772082579 -0.032411520790137288 0 0.19288185645158881 -0.018686415508600542 0 0.2033172772082579 -0.032411520790137288 0 0.1895671539671433 -0.037285104408639982 0 0.21106230177929311 -0.016930390785221641 0 0.2033172772082579 -0.032411520790137288 0 0.21106230177929311 -0.016930390785221641 0 0.21701755041282189 -0.032304719396535099 0 0.2033172772082579 -0.032411520790137288 0 0.21106230177929311 -0.016930390785221641 0 0.21701755041282189 -0.032304719396535099 0 0.22385231661827831 -0.017244899007901549 0 0.21701755041282189 -0.032304719396535099 0 0.21047104707744299 -0.044055030933792823 0 0.21970932447173591 -0.041885045690610363 0 0.21047104707744299 -0.044055030933792823 0 0.2163169812201669 -0.048151654183774213 0 0.21970932447173591 -0.041885045690610363 0 0.21047104707744299 -0.044055030933792823 0 0.2033172772082579 -0.032411520790137288 0 0.19912714072783499 -0.045481826695435601 0 0.21701755041282189 -0.032304719396535099 0 0.21047104707744299 -0.044055030933792823 0 0.2033172772082579 -0.032411520790137288 0 0.2033172772082579 -0.032411520790137288 0 0.1895671539671433 -0.037285104408639982 0 0.19912714072783499 -0.045481826695435601 0 0.18383722960737159 -0.053734604093409272 0 0.1895671539671433 -0.037285104408639982 0 0.19912714072783499 -0.045481826695435601 0 0.18383722960737159 -0.053734604093409272 0 0.19912714072783499 -0.045481826695435601 0 0.20031667673944939 -0.057421141152823332 0 0.18383722960737159 -0.053734604093409272 0 0.20031667673944939 -0.057421141152823332 0 0.19584992287481651 -0.066326971565447423 0 0.19912714072783499 -0.045481826695435601 0 0.20031667673944939 -0.057421141152823332 0 0.20701231567461709 -0.051722697756719387 0 0.20031667673944939 -0.057421141152823332 0 0.21110366793748389 -0.058962871247726333 0 0.20754781500579161 -0.067167929918243774 0 0.20031667673944939 -0.057421141152823332 0 0.20701231567461709 -0.051722697756719387 0 0.21110366793748389 -0.058962871247726333 0 0.21047104707744299 -0.044055030933792823 0 0.19912714072783499 -0.045481826695435601 0 0.20701231567461709 -0.051722697756719387 0 0.21047104707744299 -0.044055030933792823 0 0.20701231567461709 -0.051722697756719387 0 0.21404304589087411 -0.052692618753818851 0 0.20701231567461709 -0.051722697756719387 0 0.21404304589087411 -0.052692618753818851 0 0.21110366793748389 -0.058962871247726333 0 0.21047104707744299 -0.044055030933792823 0 0.21404304589087411 -0.052692618753818851 0 0.2163169812201669 -0.048151654183774213 0 0.21404304589087411 -0.052692618753818851 0 0.2163169812201669 -0.048151654183774213 0 0.22104450744061471 -0.053973921356874788 0 0.21404304589087411 -0.052692618753818851 0 0.21720125996139161 -0.057407354338342383 0 0.22104450744061471 -0.053973921356874788 0 0.21720125996139161 -0.057407354338342383 0 0.21110366793748389 -0.058962871247726333 0 0.2190710203991128 -0.066761103999133015 0 0.21404304589087411 -0.052692618753818851 0 0.21720125996139161 -0.057407354338342383 0 0.21110366793748389 -0.058962871247726333 0 0.22259109842381891 -0.056331752972584533 0 0.24466000719816181 -0.052572806154117767 0 0.23359814963938669 -0.073112384460560717 0 0.22259109842381891 -0.056331752972584533 0 0.2190710203991128 -0.066761103999133015 0 0.21720125996139161 -0.057407354338342383 0 0.22259109842381891 -0.056331752972584533 0 0.2190710203991128 -0.066761103999133015 0 0.21720125996139161 -0.057407354338342383 0 0.22259109842381891 -0.056331752972584533 0 0.22104450744061471 -0.053973921356874788 0 0.22259109842381891 -0.056331752972584533 0 0.22104450744061471 -0.053973921356874788 0 0.2163169812201669 -0.048151654183774213 0 0.22104450744061471 -0.053973921356874788 0 0.21970932447173591 -0.041885045690610363 0 0.25572186475693609 -0.032033227847674262 0 0.24466000719816181 -0.052572806154117767 0 0.2314560627619717 -0.030066475819188941 0 0.22259109842381891 -0.056331752972584533 0 0.24466000719816181 -0.052572806154117767 0 0.2314560627619717 -0.030066475819188941 0 0.22259109842381891 -0.056331752972584533 0 0.2314560627619717 -0.030066475819188941 0 0.22259109842381891 -0.056331752972584533 0 0.22104450744061471 -0.053973921356874788 0 0.2314560627619717 -0.030066475819188941 0 0.22104450744061471 -0.053973921356874788 0 0.21970932447173591 -0.041885045690610363 0 0.2314560627619717 -0.030066475819188941 0 0.21701755041282189 -0.032304719396535099 0 0.21970932447173591 -0.041885045690610363 0 0.2314560627619717 -0.030066475819188941 0 0.22385231661827831 -0.017244899007901549 0 0.2314560627619717 -0.030066475819188941 0 0.2403210271001277 -0.0038011986657945939 0 0.21701755041282189 -0.032304719396535099 0 0.22385231661827831 -0.017244899007901549 0 0.2314560627619717 -0.030066475819188941 0 0.25159771702699008 -0.014371615300676641 0 0.2314560627619717 -0.030066475819188941 0 0.2403210271001277 -0.0038011986657945939 0 0.25572186475693609 -0.032033227847674262 0 0.25159771702699008 -0.014371615300676641 0 0.2314560627619717 -0.030066475819188941 0 0.2314560627619717 -0.030066475819188941 0 0.2403210271001277 -0.0038011986657945939 0 0.2403210271001277 -0.0038011986657945939 0 0.21880732635032871 -0.001449260780306197 0 0.21991949691130641 0.00077379957079282309 0 0.2403210271001277 -0.0038011986657945939 0 0.21880732635032871 -0.001449260780306197 0 0.22385231661827831 -0.017244899007901549 0 0.2403210271001277 -0.0038011986657945939 0 0.21880732635032871 -0.001449260780306197 0 0.21991949691130641 0.00077379957079282309 0 0.21880732635032871 -0.001449260780306197 0 0.20659325823048899 -0.099029874252906047 0 0.21655448612892231 -0.108466948295262 0 0.2034485844213379 -0.1104083252764293 0 0.20659325823048899 -0.099029874252906047 0 0.21858698215692479 -0.095058636804357027 0 0.21655448612892231 -0.108466948295262 0 0.20659325823048899 -0.099029874252906047 0 0.21858698215692479 -0.095058636804357027 0 0.21076223576946701 -0.091385441013354662 0 0.21237619803781799 -0.123978557377612 0 0.2034485844213379 -0.1104083252764293 0 0.19857579603009881 -0.123745354966356 0 0.21655448612892231 -0.108466948295262 0 0.21237619803781799 -0.123978557377612 0 0.2034485844213379 -0.1104083252764293 0 0.19857579603009881 -0.123745354966356 0 0.19189947738255089 -0.11079770296415201 0 0.18392927920566929 -0.12697896821793581 0 0.2034485844213379 -0.1104083252764293 0 0.19857579603009881 -0.123745354966356 0 0.19189947738255089 -0.11079770296415201 0 0.18448732685510821 -0.096160788283265797 0 0.19189947738255089 -0.11079770296415201 0 0.19704440529688971 -0.097808096169463843 0 0.2034485844213379 -0.1104083252764293 0 0.19189947738255089 -0.11079770296415201 0 0.19704440529688971 -0.097808096169463843 0 0.20659325823048899 -0.099029874252906047 0 0.2034485844213379 -0.1104083252764293 0 0.19704440529688971 -0.097808096169463843 0 0.20659325823048899 -0.099029874252906047 0 0.19704440529688971 -0.097808096169463843 0 0.20377507451519661 -0.086639367611932153 0 0.18448732685510821 -0.096160788283265797 0 0.19704440529688971 -0.097808096169463843 0 0.19163234817905089 -0.084272585639399919 0 0.19163234817905089 -0.084272585639399919 0 0.20020732292815921 -0.075382335334988601 0 0.20377507451519661 -0.086639367611932153 0 0.19704440529688971 -0.097808096169463843 0 0.19163234817905089 -0.084272585639399919 0 0.20377507451519661 -0.086639367611932153 0 0.18660459660722059 -0.07121356670435669 0 0.18383722960737159 -0.053734604093409272 0 0.19584992287481651 -0.066326971565447423 0 0.18660459660722059 -0.07121356670435669 0 0.20020732292815921 -0.075382335334988601 0 0.19584992287481651 -0.066326971565447423 0 0.18660459660722059 -0.07121356670435669 0 0.19163234817905089 -0.084272585639399919 0 0.20020732292815921 -0.075382335334988601 0 0.20031667673944939 -0.057421141152823332 0 0.19584992287481651 -0.066326971565447423 0 0.20754781500579161 -0.067167929918243774 0 0.20020732292815921 -0.075382335334988601 0 0.19584992287481651 -0.066326971565447423 0 0.20754781500579161 -0.067167929918243774 0 0.20020732292815921 -0.075382335334988601 0 0.20754781500579161 -0.067167929918243774 0 0.21182278070176411 -0.07642901816315241 0 0.21182278070176411 -0.07642901816315241 0 0.2190710203991128 -0.066761103999133015 0 0.22185546860341471 -0.076890537193463129 0 0.21110366793748389 -0.058962871247726333 0 0.20754781500579161 -0.067167929918243774 0 0.2190710203991128 -0.066761103999133015 0 0.20754781500579161 -0.067167929918243774 0 0.21182278070176411 -0.07642901816315241 0 0.2190710203991128 -0.066761103999133015 0 0.20377507451519661 -0.086639367611932153 0 0.21076223576946701 -0.091385441013354662 0 0.2156201083762905 -0.085211377739258853 0 0.20659325823048899 -0.099029874252906047 0 0.20377507451519661 -0.086639367611932153 0 0.21076223576946701 -0.091385441013354662 0 0.21182278070176411 -0.07642901816315241 0 0.20377507451519661 -0.086639367611932153 0 0.2156201083762905 -0.085211377739258853 0 0.20020732292815921 -0.075382335334988601 0 0.21182278070176411 -0.07642901816315241 0 0.20377507451519661 -0.086639367611932153 0 0.21182278070176411 -0.07642901816315241 0 0.2156201083762905 -0.085211377739258853 0 0.22185546860341471 -0.076890537193463129 0 0.21858698215692479 -0.095058636804357027 0 0.21076223576946701 -0.091385441013354662 0 0.2156201083762905 -0.085211377739258853 0 0.21858698215692479 -0.095058636804357027 0 0.22254221780738029 -0.08612048538839856 0 0.22945301150852729 -0.089618177888440453 0 0.21858698215692479 -0.095058636804357027 0 0.2156201083762905 -0.085211377739258853 0 0.22254221780738029 -0.08612048538839856 0 0.22254221780738029 -0.08612048538839856 0 0.22667762447946821 -0.081336379644961862 0 0.22945301150852729 -0.089618177888440453 0 0.2156201083762905 -0.085211377739258853 0 0.22254221780738029 -0.08612048538839856 0 0.22185546860341471 -0.076890537193463129 0 0.22254221780738029 -0.08612048538839856 0 0.22667762447946821 -0.081336379644961862 0 0.22185546860341471 -0.076890537193463129 0 0.22667762447946821 -0.081336379644961862 0 0.22945301150852729 -0.089618177888440453 0 0.232130230341555 -0.075838006554786702 0 0.22259109842381891 -0.056331752972584533 0 0.23359814963938669 -0.073112384460560717 0 0.22259109842381891 -0.056331752972584533 0 0.22559767577824291 -0.070341033318702742 0 0.23359814963938669 -0.073112384460560717 0 0.22259109842381891 -0.056331752972584533 0 0.2190710203991128 -0.066761103999133015 0 0.22559767577824291 -0.070341033318702742 0 0.2190710203991128 -0.066761103999133015 0 0.22559767577824291 -0.070341033318702742 0 0.22185546860341471 -0.076890537193463129 0 0.22559767577824291 -0.070341033318702742 0 0.22185546860341471 -0.076890537193463129 0 0.226513327956856 -0.076031742247647013 0 0.22667762447946821 -0.081336379644961862 0 0.22185546860341471 -0.076890537193463129 0 0.226513327956856 -0.076031742247647013 0 0.22559767577824291 -0.070341033318702742 0 0.232130230341555 -0.075838006554786702 0 0.23359814963938669 -0.073112384460560717 0 0.22667762447946821 -0.081336379644961862 0 0.226513327956856 -0.076031742247647013 0 0.232130230341555 -0.075838006554786702 0 0.232130230341555 -0.075838006554786702 0 0.23359814963938669 -0.073112384460560717 0 0.22559767577824291 -0.070341033318702742 0 0.226513327956856 -0.076031742247647013 0 0.232130230341555 -0.075838006554786702 0 0.25578894406637898 -0.071814983055159112 0 0.24466000719816181 -0.052572806154117767 0 0.23359814963938669 -0.073112384460560717 0 0.24466000719816181 -0.052572806154117767 0 0.23359814963938669 -0.073112384460560717 0 0.232130230341555 -0.075838006554786702 0 0.23359814963938669 -0.073112384460560717 0 0.248052431344363 -0.095148438437639593 0 0.25578894406637898 -0.071814983055159112 0 0.23359814963938669 -0.073112384460560717 0 0.248052431344363 -0.095148438437639593 0 0.23359814963938669 -0.073112384460560717 0 0.248052431344363 -0.095148438437639593 0 0.22945301150852729 -0.089618177888440453 0 0.232130230341555 -0.075838006554786702 0 0.248052431344363 -0.095148438437639593 0 0.22945301150852729 -0.089618177888440453 0 0.248052431344363 -0.095148438437639593 0 0.23028066412444251 -0.1035134914659659 0 0.248052431344363 -0.095148438437639593 0 0.23028066412444251 -0.1035134914659659 0 0.24260121657943401 -0.11258968035378961 0 0.21858698215692479 -0.095058636804357027 0 0.21655448612892231 -0.108466948295262 0 0.23028066412444251 -0.1035134914659659 0 0.21858698215692479 -0.095058636804357027 0 0.22945301150852729 -0.089618177888440453 0 0.23028066412444251 -0.1035134914659659 0 0.21655448612892231 -0.108466948295262 0 0.21237619803781799 -0.123978557377612 0 0.22804122980252159 -0.1188128045943018 0 0.21655448612892231 -0.108466948295262 0 0.23028066412444251 -0.1035134914659659 0 0.22804122980252159 -0.1188128045943018 0 0.23028066412444251 -0.1035134914659659 0 0.22804122980252159 -0.1188128045943018 0 0.24260121657943401 -0.11258968035378961 0 0.26250671304934198 -0.1171844924147165 0 0.24260121657943401 -0.11258968035378961 0 0.2441250445765018 -0.1282891748563233 0 0.22804122980252159 -0.1188128045943018 0 0.24260121657943401 -0.11258968035378961 0 0.2441250445765018 -0.1282891748563233 0 0.2441250445765018 -0.1282891748563233 0 0.23903729808979979 -0.1497956366535709 0 0.2244889389359962 -0.13749465980780429 0 0.26140577643439422 -0.14332992145424359 0 0.2441250445765018 -0.1282891748563233 0 0.23903729808979979 -0.1497956366535709 0 0.26140577643439422 -0.14332992145424359 0 0.23903729808979979 -0.1497956366535709 0 0.24727016264961249 -0.1692414738038848 0 0.23903729808979979 -0.1497956366535709 0 0.2244889389359962 -0.13749465980780429 0 0.2199830660130864 -0.1595641520633625 0 0.22804122980252159 -0.1188128045943018 0 0.2441250445765018 -0.1282891748563233 0 0.2244889389359962 -0.13749465980780429 0 0.21237619803781799 -0.123978557377612 0 0.22804122980252159 -0.1188128045943018 0 0.2244889389359962 -0.13749465980780429 0 0.21237619803781799 -0.123978557377612 0 0.2244889389359962 -0.13749465980780429 0 0.2019561726093779 -0.14327156014064921 0 0.21237619803781799 -0.123978557377612 0 0.19857579603009881 -0.123745354966356 0 0.2019561726093779 -0.14327156014064921 0 0.2244889389359962 -0.13749465980780429 0 0.2019561726093779 -0.14327156014064921 0 0.2199830660130864 -0.1595641520633625 0 0.2019561726093779 -0.14327156014064921 0 0.2199830660130864 -0.1595641520633625 0 0.2019561726093779 -0.14327156014064921 0 0.2047419039749544 -0.16383627848553101 0 0.2199830660130864 -0.1595641520633625 0 0.2019561726093779 -0.14327156014064921 0 0.1858442134446858 -0.1403981851473228 0 0.18613440788357311 -0.15203004835571851 0 0.2019561726093779 -0.14327156014064921 0 0.2047419039749544 -0.16383627848553101 0 0.18613440788357311 -0.15203004835571851 0 0.19857579603009881 -0.123745354966356 0 0.2019561726093779 -0.14327156014064921 0 0.18392927920566929 -0.12697896821793581 0 0.2019561726093779 -0.14327156014064921 0 0.18392927920566929 -0.12697896821793581 0 0.2019561726093779 -0.14327156014064921 0 0.1858442134446858 -0.1403981851473228 0 0.18392927920566929 -0.12697896821793581 0 0.20143056513873611 -0.17998665641699849 0 0.18945430304214239 -0.18113699365130109 0 0.1956775580667883 -0.19315745649050381 0 0.20143056513873611 -0.17998665641699849 0 0.18945430304214239 -0.18113699365130109 0 0.19108557901044451 -0.16803916485973749 0 0.19108557901044451 -0.16803916485973749 0 0.2047419039749544 -0.16383627848553101 0 0.18613440788357311 -0.15203004835571851 0 0.20143056513873611 -0.17998665641699849 0 0.19108557901044451 -0.16803916485973749 0 0.2047419039749544 -0.16383627848553101 0 0.2047419039749544 -0.16383627848553101 0 0.21987806867346529 -0.181539582491408 0 0.2199830660130864 -0.1595641520633625 0 0.20143056513873611 -0.17998665641699849 0 0.2047419039749544 -0.16383627848553101 0 0.21987806867346529 -0.181539582491408 0 0.20143056513873611 -0.17998665641699849 0 0.21987806867346529 -0.181539582491408 0 0.21026993533039931 -0.19452922539566581 0 0.21987806867346529 -0.181539582491408 0 0.2199830660130864 -0.1595641520633625 0 0.23800995941679501 -0.17585674398607579 0 0.21987806867346529 -0.181539582491408 0 0.23800995941679501 -0.17585674398607579 0 0.2331345488648309 -0.19515302615352589 0 0.2199830660130864 -0.1595641520633625 0 0.23800995941679501 -0.17585674398607579 0 0.23903729808979979 -0.1497956366535709 0 0.2199830660130864 -0.1595641520633625 0 0.23506515458377289 -0.16194558534122611 0 0.2199830660130864 -0.1595641520633625 0 0.23506515458377289 -0.16194558534122611 0 0.23800995941679501 -0.17585674398607579 0 0.23903729808979979 -0.1497956366535709 0 0.23506515458377289 -0.16194558534122611 0 0.24727016264961249 -0.1692414738038848 0 0.23506515458377289 -0.16194558534122611 0 0.24727016264961249 -0.1692414738038848 0 0.23800995941679501 -0.17585674398607579 0 0.24727016264961249 -0.1692414738038848 0 0.2331345488648309 -0.19515302615352589 0 0.24727016264961249 -0.1692414738038848 0 0.23800995941679501 -0.17585674398607579 0 0.2331345488648309 -0.19515302615352589 0 0.25115080808597218 -0.18349252771031549 0 0.24727016264961249 -0.1692414738038848 0 0.2331345488648309 -0.19515302615352589 0 0.25294493867930001 -0.1971512634910503 0 0.25115080808597218 -0.18349252771031549 0 0.2331345488648309 -0.19515302615352589 0 0.25294493867930001 -0.1971512634910503 0 0.23924146656863479 -0.21600942233651971 0 0.2331345488648309 -0.19515302615352589 0 0.25948399805722178 -0.21095426616987389 0 0.23924146656863479 -0.21600942233651971 0 0.23924146656863479 -0.21600942233651971 0 0.218998935080048 -0.22106457850316641 0 0.21946760776481619 -0.20450875509018021 0 0.2331345488648309 -0.19515302615352589 0 0.218998935080048 -0.22106457850316641 0 0.2331345488648309 -0.19515302615352589 0 0.218998935080048 -0.22106457850316641 0 0.23924146656863479 -0.21600942233651971 0 0.2331345488648309 -0.19515302615352589 0 0.218998935080048 -0.22106457850316641 0 0.21946760776481619 -0.20450875509018021 0 0.22068754015837791 -0.19393264728269499 0 0.2331345488648309 -0.19515302615352589 0 0.21987806867346529 -0.181539582491408 0 0.22068754015837791 -0.19393264728269499 0 0.2331345488648309 -0.19515302615352589 0 0.25406429941061343 -0.23112732810889039 0 0.24146341680214309 -0.24448521489457861 0 0.23197262628044979 -0.22995906340082059 0 0.25406429941061343 -0.23112732810889039 0 0.23924146656863479 -0.21600942233651971 0 0.23197262628044979 -0.22995906340082059 0 0.23924146656863479 -0.21600942233651971 0 0.218998935080048 -0.22106457850316641 0 0.23197262628044979 -0.22995906340082059 0 0.218998935080048 -0.22106457850316641 0 0.23197262628044979 -0.22995906340082059 0 0.2174712270181591 -0.22386497246011361 0 0.23197262628044979 -0.22995906340082059 0 0.22090538197196211 -0.23599380530564679 0 0.2174712270181591 -0.22386497246011361 0 0.23197262628044979 -0.22995906340082059 0 0.2264227451730553 -0.24971222362376699 0 0.22090538197196211 -0.23599380530564679 0 0.24146341680214309 -0.24448521489457861 0 0.23197262628044979 -0.22995906340082059 0 0.2264227451730553 -0.24971222362376699 0 0.21040399342164171 -0.25176681621351038 0 0.2264227451730553 -0.24971222362376699 0 0.22090538197196211 -0.23599380530564679 0 0.21040399342164171 -0.25176681621351038 0 0.22090538197196211 -0.23599380530564679 0 0.20830595876386901 -0.23638945826593061 0 0.21040399342164171 -0.25176681621351038 0 0.20830595876386901 -0.23638945826593061 0 0.19936230214102421 -0.2479946931896729 0 0.22090538197196211 -0.23599380530564679 0 0.20830595876386901 -0.23638945826593061 0 0.2144511399868903 -0.2312706685566866 0 0.218998935080048 -0.22106457850316641 0 0.19612053567392879 -0.2267779885035914 0 0.218998935080048 -0.22106457850316641 0 0.19612053567392879 -0.2267779885035914 0 0.2105383011147646 -0.21819048542197941 0 0.218998935080048 -0.22106457850316641 0 0.20576090592389351 -0.2270860010417686 0 0.19612053567392879 -0.2267779885035914 0 0.20830595876386901 -0.23638945826593061 0 0.20576090592389351 -0.2270860010417686 0 0.20182830522270101 -0.2319599292687276 0 0.20830595876386901 -0.23638945826593061 0 0.20576090592389351 -0.2270860010417686 0 0.2144511399868903 -0.2312706685566866 0 0.22090538197196211 -0.23599380530564679 0 0.2144511399868903 -0.2312706685566866 0 0.2174712270181591 -0.22386497246011361 0 0.20576090592389351 -0.2270860010417686 0 0.2144511399868903 -0.2312706685566866 0 0.21346905720863779 -0.2258257771414271 0 0.2144511399868903 -0.2312706685566866 0 0.21346905720863779 -0.2258257771414271 0 0.2174712270181591 -0.22386497246011361 0 0.218998935080048 -0.22106457850316641 0 0.20576090592389351 -0.2270860010417686 0 0.21346905720863779 -0.2258257771414271 0 0.218998935080048 -0.22106457850316641 0 0.21346905720863779 -0.2258257771414271 0 0.2174712270181591 -0.22386497246011361 0 0.218998935080048 -0.22106457850316641 0 0.2174712270181591 -0.22386497246011361 0 0.19612053567392879 -0.2267779885035914 0 0.2105383011147646 -0.21819048542197941 0 0.20425053182178279 -0.21841625855527369 0 0.19777000223886329 -0.21875233346220549 0 0.19612053567392879 -0.2267779885035914 0 0.20425053182178279 -0.21841625855527369 0 0.19777000223886329 -0.21875233346220549 0 0.19393270034329779 -0.22126915535208849 0 0.19612053567392879 -0.2267779885035914 0 0.19393270034329779 -0.22126915535208849 0 0.18772081891462031 -0.22518952661427791 0 0.19612053567392879 -0.2267779885035914 0 0.19393270034329779 -0.22126915535208849 0 0.18772081891462031 -0.22518952661427791 0 0.19411944454577909 -0.214356772828279 0 0.19612053567392879 -0.2267779885035914 0 0.19712582052911259 -0.23758626926361981 0 0.1871717184338115 -0.23640941086597769 0 0.19612053567392879 -0.2267779885035914 0 0.20182830522270101 -0.2319599292687276 0 0.19712582052911259 -0.23758626926361981 0 0.20576090592389351 -0.2270860010417686 0 0.19612053567392879 -0.2267779885035914 0 0.20182830522270101 -0.2319599292687276 0 0.20830595876386901 -0.23638945826593061 0 0.19712582052911259 -0.23758626926361981 0 0.19936230214102421 -0.2479946931896729 0 0.20830595876386901 -0.23638945826593061 0 0.20182830522270101 -0.2319599292687276 0 0.19712582052911259 -0.23758626926361981 0 0.19712582052911259 -0.23758626926361981 0 0.18957958600208469 -0.24548130840959781 0 0.1871717184338115 -0.23640941086597769 0 0.19712582052911259 -0.23758626926361981 0 0.18957958600208469 -0.24548130840959781 0 0.19936230214102421 -0.2479946931896729 0 0.21026993533039931 -0.19452922539566581 0 0.2106024981415649 -0.2056222994823437 0 0.20186537415214451 -0.20478020160934601 0 0.21987806867346529 -0.181539582491408 0 0.22068754015837791 -0.19393264728269499 0 0.21026993533039931 -0.19452922539566581 0 0.21946760776481619 -0.20450875509018021 0 0.22068754015837791 -0.19393264728269499 0 0.21026993533039931 -0.19452922539566581 0 0.21946760776481619 -0.20450875509018021 0 0.21026993533039931 -0.19452922539566581 0 0.2106024981415649 -0.2056222994823437 0 0.21946760776481619 -0.20450875509018021 0 0.218998935080048 -0.22106457850316641 0 0.21566385185952111 -0.2138241496878262 0 0.21946760776481619 -0.20450875509018021 0 0.21566385185952111 -0.2138241496878262 0 0.21365056347845579 -0.2115327797359787 0 0.21946760776481619 -0.20450875509018021 0 0.21365056347845579 -0.2115327797359787 0 0.2106024981415649 -0.2056222994823437 0 0.218998935080048 -0.22106457850316641 0 0.21566385185952111 -0.2138241496878262 0 0.2105383011147646 -0.21819048542197941 0 0.21566385185952111 -0.2138241496878262 0 0.21365056347845579 -0.2115327797359787 0 0.2105383011147646 -0.21819048542197941 0 0.2105383011147646 -0.21819048542197941 0 0.20775900998200869 -0.21276053558054769 0 0.20425053182178279 -0.21841625855527369 0 0.21365056347845579 -0.2115327797359787 0 0.2105383011147646 -0.21819048542197941 0 0.20775900998200869 -0.21276053558054769 0 0.20775900998200869 -0.21276053558054769 0 0.20425053182178279 -0.21841625855527369 0 0.20156851284219721 -0.21282904574896491 0 0.20775900998200869 -0.21276053558054769 0 0.20186537415214451 -0.20478020160934601 0 0.20156851284219721 -0.21282904574896491 0 0.20775900998200869 -0.21276053558054769 0 0.2106024981415649 -0.2056222994823437 0 0.20186537415214451 -0.20478020160934601 0 0.21365056347845579 -0.2115327797359787 0 0.20775900998200869 -0.21276053558054769 0 0.2106024981415649 -0.2056222994823437 0 0.20186537415214451 -0.20478020160934601 0 0.19411944454577909 -0.214356772828279 0 0.19348214685029161 -0.20221454249066079 0 0.18772081891462031 -0.22518952661427791 0 0.19411944454577909 -0.214356772828279 0 0.18226621063645451 -0.19656373903451449 0 0.20186537415214451 -0.20478020160934601 0 0.20156851284219721 -0.21282904574896491 0 0.19411944454577909 -0.214356772828279 0 0.19411944454577909 -0.214356772828279 0 0.19348214685029161 -0.20221454249066079 0 0.18226621063645451 -0.19656373903451449 0 0.19777000223886329 -0.21875233346220549 0 0.20425053182178279 -0.21841625855527369 0 0.20156851284219721 -0.21282904574896491 0 0.19777000223886329 -0.21875233346220549 0 0.20156851284219721 -0.21282904574896491 0 0.19411944454577909 -0.214356772828279 0 0.19777000223886329 -0.21875233346220549 0 0.19393270034329779 -0.22126915535208849 0 0.19411944454577909 -0.214356772828279 0 0.19348214685029161 -0.20221454249066079 0 0.1956775580667883 -0.19315745649050381 0 0.18226621063645451 -0.19656373903451449 0 0.20186537415214451 -0.20478020160934601 0 0.19348214685029161 -0.20221454249066079 0 0.1956775580667883 -0.19315745649050381 0 0.21026993533039931 -0.19452922539566581 0 0.20186537415214451 -0.20478020160934601 0 0.1956775580667883 -0.19315745649050381 0 0.20143056513873611 -0.17998665641699849 0 0.21026993533039931 -0.19452922539566581 0 0.1956775580667883 -0.19315745649050381 0 0.18945430304214239 -0.18113699365130109 0 0.1956775580667883 -0.19315745649050381 0 0.18226621063645451 -0.19656373903451449 0 0.18226621063645451 -0.19656373903451449 0 0.1715432114556068 -0.21122996104898861 0 0.16984428664340401 -0.18996852359395999 0 0.18772081891462031 -0.22518952661427791 0 0.18226621063645451 -0.19656373903451449 0 0.1715432114556068 -0.21122996104898861 0 0.18772081891462031 -0.22518952661427791 0 0.18226621063645451 -0.19656373903451449 0 0.1715432114556068 -0.21122996104898861 0 0.1573322870795833 -0.20789039819694149 0 0.1623168744573055 -0.22287573648660611 0 0.1573322870795833 -0.20789039819694149 0 0.1623168744573055 -0.22287573648660611 0 0.1522967848894444 -0.22083493224417339 0 0.1715432114556068 -0.21122996104898861 0 0.1573322870795833 -0.20789039819694149 0 0.16984428664340401 -0.18996852359395999 0 0.1573322870795833 -0.20789039819694149 0 0.16984428664340401 -0.18996852359395999 0 0.15597410852767299 -0.19239463322910441 0 0.1715432114556068 -0.21122996104898861 0 0.16984428664340401 -0.18996852359395999 0 0.16984428664340401 -0.18996852359395999 0 0.15597410852767299 -0.19239463322910441 0 0.1614518955362341 -0.18261220584938501 0 0.17531814171820079 -0.25847186551630352 0 0.18140855909891221 -0.24875385404173869 0 0.17324213626780979 -0.23249139850401729 0 0.17531814171820079 -0.25847186551630352 0 0.17324213626780979 -0.23249139850401729 0 0.18140855909891221 -0.24875385404173869 0 0.182482909248532 -0.24101033857802051 0 0.17324213626780979 -0.23249139850401729 0 0.18957958600208469 -0.24548130840959781 0 0.18140855909891221 -0.24875385404173869 0 0.182482909248532 -0.24101033857802051 0 0.18957958600208469 -0.24548130840959781 0 0.182482909248532 -0.24101033857802051 0 0.1871717184338115 -0.23640941086597769 0 0.182482909248532 -0.24101033857802051 0 0.1871717184338115 -0.23640941086597769 0 0.17324213626780979 -0.23249139850401729 0 0.18772081891462031 -0.22518952661427791 0 0.19612053567392879 -0.2267779885035914 0 0.17324213626780979 -0.23249139850401729 0 0.19612053567392879 -0.2267779885035914 0 0.1871717184338115 -0.23640941086597769 0 0.17324213626780979 -0.23249139850401729 0 0.1715432114556068 -0.21122996104898861 0 0.17324213626780979 -0.23249139850401729 0 0.19612053567392879 -0.2267779885035914 0 0.17324213626780979 -0.23249139850401729 0 0.18772081891462031 -0.22518952661427791 0 0.1715432114556068 -0.21122996104898861 0 0.17324213626780979 -0.23249139850401729 0 0.1715432114556068 -0.21122996104898861 0 0.17324213626780979 -0.23249139850401729 0 0.1623168744573055 -0.22287573648660611 0 0.1623168744573055 -0.22287573648660611 0 0.15535209141549861 -0.22942801887575409 0 0.1522967848894444 -0.22083493224417339 0 0.1623168744573055 -0.22287573648660611 0 0.16254320702155209 -0.2351632361734422 0 0.15535209141549861 -0.22942801887575409 0 0.17324213626780979 -0.23249139850401729 0 0.16254320702155209 -0.2351632361734422 0 0.17324213626780979 -0.23249139850401729 0 0.1623168744573055 -0.22287573648660611 0 0.16254320702155209 -0.2351632361734422 0 0.16416434830993021 -0.25348076251168611 0 0.17531814171820079 -0.25847186551630352 0 0.17324213626780979 -0.23249139850401729 0 0.16416434830993021 -0.25348076251168611 0 0.17324213626780979 -0.23249139850401729 0 0.16097870724125449 -0.24292032119762011 0 0.17324213626780979 -0.23249139850401729 0 0.16254320702155209 -0.2351632361734422 0 0.16097870724125449 -0.24292032119762011 0 0.16254320702155209 -0.2351632361734422 0 0.16097870724125449 -0.24292032119762011 0 0.15390853800913809 -0.24274468653761391 0 0.16416434830993021 -0.25348076251168611 0 0.16097870724125449 -0.24292032119762011 0 0.15746623258843939 -0.24717962177743169 0 0.16097870724125449 -0.24292032119762011 0 0.15746623258843939 -0.24717962177743169 0 0.15390853800913809 -0.24274468653761391 0 0.1338120645475761 -0.25178135897747889 0 0.14143480209138451 -0.24391931440815429 0 0.15081333679343489 -0.24957271686280691 0 0.14143480209138451 -0.24391931440815429 0 0.14954523601732381 -0.23656141158161401 0 0.13965007243053049 -0.2272862619181428 0 0.14143480209138451 -0.24391931440815429 0 0.15081333679343489 -0.24957271686280691 0 0.14892547822782029 -0.24319953234754729 0 0.15746623258843939 -0.24717962177743169 0 0.15081333679343489 -0.24957271686280691 0 0.15390853800913809 -0.24274468653761391 0 0.15081333679343489 -0.24957271686280691 0 0.15390853800913809 -0.24274468653761391 0 0.14892547822782029 -0.24319953234754729 0 0.16254320702155209 -0.2351632361734422 0 0.15390853800913809 -0.24274468653761391 0 0.14954523601732381 -0.23656141158161401 0 0.15390853800913809 -0.24274468653761391 0 0.14892547822782029 -0.24319953234754729 0 0.14954523601732381 -0.23656141158161401 0 0.14143480209138451 -0.24391931440815429 0 0.14892547822782029 -0.24319953234754729 0 0.14954523601732381 -0.23656141158161401 0 0.14954523601732381 -0.23656141158161401 0 0.15535209141549861 -0.22942801887575409 0 0.13965007243053049 -0.2272862619181428 0 0.15535209141549861 -0.22942801887575409 0 0.1522967848894444 -0.22083493224417339 0 0.13965007243053049 -0.2272862619181428 0 0.16254320702155209 -0.2351632361734422 0 0.14954523601732381 -0.23656141158161401 0 0.15535209141549861 -0.22942801887575409 0 0.1522967848894444 -0.22083493224417339 0 0.13965007243053049 -0.2272862619181428 0 0.14214428324753289 -0.2154529738929884 0 0.11925867152865099 -0.22395178641925401 0 0.13965007243053049 -0.2272862619181428 0 0.12727927076528461 -0.2378210325384271 0 0.11925867152865099 -0.22395178641925401 0 0.13965007243053049 -0.2272862619181428 0 0.1296813367821156 -0.2112782106774091 0 0.14143480209138451 -0.24391931440815429 0 0.13965007243053049 -0.2272862619181428 0 0.12727927076528461 -0.2378210325384271 0 0.1338120645475761 -0.25178135897747889 0 0.1155402395781918 -0.2507583320391269 0 0.12727927076528461 -0.2378210325384271 0 0.1338120645475761 -0.25178135897747889 0 0.14143480209138451 -0.24391931440815429 0 0.12727927076528461 -0.2378210325384271 0 0.1472064603361167 -0.20247602688276969 0 0.14541013119376039 -0.19094925991957609 0 0.13560729147637779 -0.19666813964102769 0 0.1472064603361167 -0.20247602688276969 0 0.14541013119376039 -0.19094925991957609 0 0.15597410852767299 -0.19239463322910441 0 0.14541013119376039 -0.19094925991957609 0 0.15597410852767299 -0.19239463322910441 0 0.15149562072024261 -0.18002206604153331 0 0.1573322870795833 -0.20789039819694149 0 0.1472064603361167 -0.20247602688276969 0 0.15597410852767299 -0.19239463322910441 0 0.1573322870795833 -0.20789039819694149 0 0.1472064603361167 -0.20247602688276969 0 0.14214428324753289 -0.2154529738929884 0 0.1573322870795833 -0.20789039819694149 0 0.1522967848894444 -0.22083493224417339 0 0.14214428324753289 -0.2154529738929884 0 0.1472064603361167 -0.20247602688276969 0 0.14214428324753289 -0.2154529738929884 0 0.1296813367821156 -0.2112782106774091 0 0.1472064603361167 -0.20247602688276969 0 0.1296813367821156 -0.2112782106774091 0 0.13560729147637779 -0.19666813964102769 0 0.13965007243053049 -0.2272862619181428 0 0.14214428324753289 -0.2154529738929884 0 0.1296813367821156 -0.2112782106774091 0 0.1232396379011078 -0.1927549034493776 0 0.1296813367821156 -0.2112782106774091 0 0.13560729147637779 -0.19666813964102769 0 0.14541013119376039 -0.19094925991957609 0 0.13560729147637779 -0.19666813964102769 0 0.1367671749083921 -0.18318543380344571 0 0.1232396379011078 -0.1927549034493776 0 0.13560729147637779 -0.19666813964102769 0 0.1367671749083921 -0.18318543380344571 0 0.1232396379011078 -0.1927549034493776 0 0.1240882674421261 -0.17221834261327171 0 0.1367671749083921 -0.18318543380344571 0 0.1240882674421261 -0.17221834261327171 0 0.1367671749083921 -0.18318543380344571 0 0.13968624526684381 -0.1663096509244866 0 0.14541013119376039 -0.19094925991957609 0 0.1367671749083921 -0.18318543380344571 0 0.15149562072024261 -0.18002206604153331 0 0.1367671749083921 -0.18318543380344571 0 0.15149562072024261 -0.18002206604153331 0 0.13968624526684381 -0.1663096509244866 0 0.15149562072024261 -0.18002206604153331 0 0.15438358984087761 -0.16681526513507461 0 0.15901421514929279 -0.17490695601163531 0 0.13968624526684381 -0.1663096509244866 0 0.137218974646206 -0.14902146964549531 0 0.15110583492258711 -0.15411329859263981 0 0.15438358984087761 -0.16681526513507461 0 0.15110583492258711 -0.15411329859263981 0 0.16298457853711951 -0.16119870976526179 0 0.15149562072024261 -0.18002206604153331 0 0.15438358984087761 -0.16681526513507461 0 0.13968624526684381 -0.1663096509244866 0 0.15438358984087761 -0.16681526513507461 0 0.13968624526684381 -0.1663096509244866 0 0.15110583492258711 -0.15411329859263981 0 0.1238726331408222 -0.15597973401630799 0 0.13968624526684381 -0.1663096509244866 0 0.137218974646206 -0.14902146964549531 0 0.1238726331408222 -0.15597973401630799 0 0.1240882674421261 -0.17221834261327171 0 0.13968624526684381 -0.1663096509244866 0 0.1238726331408222 -0.15597973401630799 0 0.12550759679471971 -0.14428239988351421 0 0.137218974646206 -0.14902146964549531 0 0.12550759679471971 -0.14428239988351421 0 0.137218974646206 -0.14902146964549531 0 0.13351042007077771 -0.13535464583232679 0 0.13570225296767791 -0.1136627830916173 0 0.13351042007077771 -0.13535464583232679 0 0.14820743810063461 -0.13253739615236759 0 0.137218974646206 -0.14902146964549531 0 0.13351042007077771 -0.13535464583232679 0 0.14820743810063461 -0.13253739615236759 0 0.1195920268695274 -0.13435801890873961 0 0.125059882544757 -0.1243050716586782 0 0.13351042007077771 -0.13535464583232679 0 0.1195920268695274 -0.13435801890873961 0 0.12550759679471971 -0.14428239988351421 0 0.13351042007077771 -0.13535464583232679 0 0.14820743810063461 -0.13253739615236759 0 0.15110583492258711 -0.15411329859263981 0 0.1632605781546366 -0.14974645590444771 0 0.137218974646206 -0.14902146964549531 0 0.14820743810063461 -0.13253739615236759 0 0.15110583492258711 -0.15411329859263981 0 0.1632605781546366 -0.14974645590444771 0 0.17135699408012309 -0.1393121638749876 0 0.1768116023582888 -0.16793795145475099 0 0.15110583492258711 -0.15411329859263981 0 0.1632605781546366 -0.14974645590444771 0 0.16298457853711951 -0.16119870976526179 0 0.14820743810063461 -0.13253739615236759 0 0.1632605781546366 -0.14974645590444771 0 0.17135699408012309 -0.1393121638749876 0 0.1659023858019596 -0.11068637629522381 0 0.14820743810063461 -0.13253739615236759 0 0.17135699408012309 -0.1393121638749876 0 0.1659023858019596 -0.11068637629522381 0 0.17135699408012309 -0.1393121638749876 0 0.18392927920566929 -0.12697896821793581 0 0.17135699408012309 -0.1393121638749876 0 0.1858442134446858 -0.1403981851473228 0 0.18392927920566929 -0.12697896821793581 0 0.17135699408012309 -0.1393121638749876 0 0.1768116023582888 -0.16793795145475099 0 0.17135699408012309 -0.1393121638749876 0 0.18613440788357311 -0.15203004835571851 0 0.1768116023582888 -0.16793795145475099 0 0.17135699408012309 -0.1393121638749876 0 0.1858442134446858 -0.1403981851473228 0 0.18613440788357311 -0.15203004835571851 0 0.19108557901044451 -0.16803916485973749 0 0.18613440788357311 -0.15203004835571851 0 0.1768116023582888 -0.16793795145475099 0 0.18226621063645451 -0.19656373903451449 0 0.16984428664340401 -0.18996852359395999 0 0.1768116023582888 -0.16793795145475099 0 0.18945430304214239 -0.18113699365130109 0 0.19108557901044451 -0.16803916485973749 0 0.1768116023582888 -0.16793795145475099 0 0.18226621063645451 -0.19656373903451449 0 0.1768116023582888 -0.16793795145475099 0 0.18945430304214239 -0.18113699365130109 0 0.18226621063645451 -0.19656373903451449 0 0.1768116023582888 -0.16793795145475099 0 0.16984428664340401 -0.18996852359395999 0 0.1681453618312011 -0.16870708613893129 0 0.16984428664340401 -0.18996852359395999 0 0.1768116023582888 -0.16793795145475099 0 0.1681453618312011 -0.16870708613893129 0 0.16984428664340401 -0.18996852359395999 0 0.1614518955362341 -0.18261220584938501 0 0.1681453618312011 -0.16870708613893129 0 0.15597410852767299 -0.19239463322910441 0 0.15149562072024261 -0.18002206604153331 0 0.1614518955362341 -0.18261220584938501 0 0.1614518955362341 -0.18261220584938501 0 0.15901421514929279 -0.17490695601163531 0 0.1681453618312011 -0.16870708613893129 0 0.15149562072024261 -0.18002206604153331 0 0.1614518955362341 -0.18261220584938501 0 0.15901421514929279 -0.17490695601163531 0 0.15438358984087761 -0.16681526513507461 0 0.16298457853711951 -0.16119870976526179 0 0.1681453618312011 -0.16870708613893129 0 0.15438358984087761 -0.16681526513507461 0 0.15901421514929279 -0.17490695601163531 0 0.1681453618312011 -0.16870708613893129 0 0.1632605781546366 -0.14974645590444771 0 0.1768116023582888 -0.16793795145475099 0 0.16298457853711951 -0.16119870976526179 0 0.1768116023582888 -0.16793795145475099 0 0.16298457853711951 -0.16119870976526179 0 0.1681453618312011 -0.16870708613893129 0 
</DataArray>
</Points>
<Cells>
<DataArray type="UInt32" Name="connectivity" format="ascii">
0 1 2 3 4 5 6 7 8 9 10 11 12 13 14 15 16 17 18 19 20 21 22 23 24 25 26 27 28 29 30 31 32 33 34 35 36 37 38 39 40 41 42 43 44 45 46 47 48 49 50 51 52 53 54 55 56 57 58 59 60 61 62 63 64 65 66 67 68 69 70 71 72 73 74 75 76 77 78 79 80 81 82 83 84 85 86 87 88 89 90 91 92 93 94 95 96 97 98 99 100 101 102 103 104 105 106 107 108 109 110 111 112 113 114 115 116 117 118 119 120 121 122 123 124 125 126 127 128 129 130 131 132 133 134 135 136 137 138 139 140 141 142 143 144 145 146 147 148 149 150 151 152 153 154 155 156 157 158 159 160 161 162 163 164 165 166 167 168 169 170 171 172 173 174 175 176 177 178 179 180 181 182 183 184 185 186 187 188 189 190 191 192 193 194 195 196 197 198 199 200 201 202 203 204 205 206 207 208 209 210 211 212 213 214 215 216 217 218 219 220 221 222 223 224 225 226 227 228 229 230 231 232 233 234 235 236 237 238 239 240 241 242 243 244 245 246 247 248 249 250 251 252 253 254 255 256 257 258 259 260 261 262 263 264 265 266 267 268 269 270 271 272 273 274 275 276 277 278 279 280 281 282 283 284 285 286 287 288 289 290 291 292 293 294 295 296 297 298 299 300 301 302 303 304 305 306 307 308 309 310 311 312 313 314 315 316 317 318 319 320 321 322 323 324 325 326 327 328 329 330 331 332 333 334 335 336 337 338 339 340 341 342 343 344 345 346 347 348 349 350 351 352 353 354 355 356 357 358 359 360 361 362 363 364 365 366 367 368 369 370 371 372 373 374 375 376 377 378 379 380 381 382 383 384 385 386 387 388 389 390 391 392 393 394 395 396 397 398 399 400 401 402 403 404 405 406 407 408 409 410 411 412 413 414 415 416 417 418 419 420 421 422 423 424 425 426 427 428 429 430 431 432 433 434 435 436 437 438 439 440 441 442 443 444 445 446 447 448 449 450 451 452 453 454 455 456 457 458 459 460 461 462 463 464 465 466 467 468 469 470 471 472 473 474 475 476 477 478 479 480 481 482 483 484 485 486 487 488 489 490 491 492 493 494 495 496 497 498 499 500 501 502 503 504 505 506 507 508 509 510 511 512 513 514 515 516 517 518 519 520 521 522 523 524 525 526 527 528 529 530 531 532 533 534 535 536 537 538 539 540 541 542 543 544 545 546 547 548 549 550 551 552 553 554 555 556 557 558 559 560 561 562 563 564 565 566 567 568 569 570 571 572 573 574 575 576 577 578 579 580 581 582 583 584 585 586 587 588 589 590 591 592 593 594 595 596 597 598 599 600 601 602 603 604 605 606 607 608 609 610 611 612 613 614 615 616 617 618 619 620 621 622 623 624 625 626 627 628 629 630 631 632 633 634 635 636 637 638 639 640 641 642 643 644 645 646 647 648 649 650 651 652 653 654 655 656 657 658 659 660 661 662 663 664 665 666 667 668 669 670 671 672 673 674 675 676 677 678 679 680 681 682 683 684 685 686 687 688 689 690 691 692 693 694 695 696 697 698 699 700 701 702 703 704 705 706 707 708 709 710 711 712 713 714 715 716 717 718 719 720 721 722 723 724 725 726 727 728 729 730 731 732 733 734 735 736 737 738 739 740 741 742 743 744 745 746 747 748 749 750 751 752 753 754 755 756 757 758 759 760 761 762 763 764 765 766 767 768 769 770 771 772 773 774 775 776 777 778 779 780 781 782 783 784 785 786 787 788 789 790 791 792 793 794 795 796 797 798 799 800 801 802 803 804 805 806 807 808 809 810 811 812 813 814 815 816 817 818 819 820 821 822 823 824 825 826 827 828 829 830 831 832 833 834 835 836 837 838 839 840 841 842 843 844 845 846 847 848 849 850 851 852 853 854 855 856 857 858 859 860 861 862 863 864 865 866 867 868 869 870 871 872 873 874 875 876 877 878 879 880 881 882 883 884 885 886 887 888 889 890 891 892 893 894 895 896 897 898 899 900 901 902 903 904 905 906 907 908 909 910 911 912 913 914 915 916 917 918 919 920 921 922 923 924 925 926 927 928 929 930 931 932 933 934 935 936 937 938 939 940 941 942 943 944 945 946 947 948 949 950 951 952 953 954 955 956 957 958 959 960 961 962 963 964 965 966 967 968 969 970 971 972 973 974 975 976 977 978 979 980 981 982 983 984 985 986 987 988 989 990 991 992 993 994 995 996 997 998 999 1000 1001 1002 1003 1004 1005 1006 1007 1008 1009 1010 1011 1012 1013 1014 1015 1016 1017 1018 1019 1020 1021 1022 1023 1024 1025 1026 1027 1028 1029 1030 1031 1032 1033 1034 1035 1036 1037 1038 1039 1040 1041 1042 1043 1044 1045 1046 1047 1048 1049 1050 1051 1052 1053 1054 1055 1056 1057 1058 1059 1060 1061 1062 1063 1064 1065 1066 1067 1068 1069 1070 1071 1072 1073 1074 1075 1076 1077 1078 1079 1080 1081 1082 1083 1084 1085 1086 1087 1088 1089 1090 1091 1092 1093 1094 1095 1096 1097 1098 1099 1100 1101 1102 1103 1104 1105 1106 1107 1108 1109 1110 1111 1112 1113 1114 1115 1116 1117 1118 1119 1120 1121 1122 1123 1124 1125 1126 1127 1128 1129 1130 1131 1132 1133 1134 1135 1136 1137 1138 1139 1140 1141 1142 1143 1144 1145 1146 1147 1148 1149 1150 1151 1152 1153 1154 1155 1156 1157 1158 1159 1160 1161 1162 1163 1164 1165 1166 1167 1168 1169 1170 1171 1172 1173 1174 1175 1176 1177 1178 1179 1180 1181 1182 1183 1184 1185 1186 1187 1188 1189 1190 1191 1192 1193 1194 1195 1196 1197 1198 1199 1200 1201 1202 1203 1204 1205 1206 1207 1208 1209 1210 1211 1212 1213 1214 1215 1216 1217 1218 1219 1220 1221 1222 1223 1224 1225 1226 1227 1228 1229 1230 1231 1232 1233 1234 1235 1236 1237 1238 1239 1240 1241 1242 1243 1244 1245 1246 1247 1248 1249 1250 1251 1252 1253 1254 1255 1256 1257 1258 1259 1260 1261 1262 1263 1264 1265 1266 1267 1268 1269 1270 1271 1272 1273 1274 1275 1276 1277 1278 1279 1280 1281 1282 1283 1284 1285 1286 1287 1288 1289 1290 1291 1292 1293 1294 1295 1296 1297 1298 1299 1300 1301 1302 1303 1304 1305 1306 1307 1308 1309 1310 1311 1312 1313 1314 1315 1316 1317 1318 1319 1320 1321 1322 1323 1324 1325 1326 1327 1328 1329 1330 1331 1332 1333 1334 1335 1336 1337 1338 1339 1340 1341 1342 1343 1344 1345 1346 1347 1348 1349 1350 1351 1352 1353 1354 1355 1356 1357 1358 1359 1360 1361 1362 1363 1364 1365 1366 1367 1368 1369 1370 1371 1372 1373 1374 1375 1376 1377 1378 1379 1380 1381 1382 1383 1384 1385 1386 1387 1388 1389 1390 1391 1392 1393 1394 1395 1396 1397 1398 1399 1400 1401 1402 1403 1404 1405 1406 1407 1408 1409 1410 1411 1412 1413 1414 1415 1416 1417 1418 1419 1420 1421 1422 1423 1424 1425 1426 1427 1428 1429 1430 1431 1432 1433 1434 1435 1436 1437 1438 1439 1440 1441 1442 1443 1444 1445 1446 1447 1448 1449 1450 1451 1452 1453 1454 1455 1456 1457 1458 1459 1460 1461 1462 1463 1464 1465 1466 1467 1468 1469 1470 1471 1472 1473 1474 1475 1476 1477 1478 1479 1480 1481 1482 1483 1484 1485 1486 1487 1488 1489 1490 1491 1492 1493 1494 1495 1496 1497 1498 1499 1500 1501 1502 1503 1504 1505 1506 1507 1508 1509 1510 1511 1512 1513 1514 1515 1516 1517 1518 1519 1520 1521 1522 1523 1524 1525 1526 1527 1528 1529 1530 1531 1532 1533 1534 1535 1536 1537 1538 1539 1540 1541 1542 1543 1544 1545 1546 1547 1548 1549 1550 1551 1552 1553 1554 1555 1556 1557 1558 1559 1560 1561 1562 1563 1564 1565 1566 1567 1568 1569 1570 1571 1572 1573 1574 1575 1576 1577 1578 1579 1580 1581 1582 1583 1584 1585 1586 1587 1588 1589 1590 1591 1592 1593 1594 1595 1596 1597 1598 1599 1600 1601 1602 1603 1604 1605 1606 1607 1608 1609 1610 1611 1612 1613 1614 1615 1616 1617 1618 1619 1620 1621 1622 1623 1624 1625 1626 1627 1628 1629 1630 1631 1632 1633 1634 1635 1636 1637 1638 1639 1640 1641 1642 1643 1644 1645 1646 1647 1648 1649 1650 1651 1652 1653 1654 1655 1656 1657 1658 1659 1660 1661 1662 1663 1664 1665 1666 1667 1668 1669 1670 1671 1672 1673 1674 1675 1676 1677 1678 1679 1680 1681 1682 1683 1684 1685 1686 1687 1688 1689 1690 1691 1692 1693 1694 1695 1696 1697 1698 1699 1700 1701 1702 1703 1704 1705 1706 1707 1708 1709 1710 1711 1712 1713 1714 1715 1716 1717 1718 1719 1720 1721 1722 1723 1724 1725 1726 1727 1728 1729 1730 1731 1732 1733 1734 1735 1736 1737 1738 1739 1740 1741 1742 1743 1744 1745 1746 1747 1748 1749 1750 1751 1752 1753 1754 1755 1756 1757 1758 1759 1760 1761 1762 1763 1764 1765 1766 1767 1768 1769 1770 1771 1772 1773 1774 1775 1776 1777 1778 1779 1780 1781 1782 1783 1784 1785 1786 1787 1788 1789 1790 1791 1792 1793 1794 1795 1796 1797 1798 1799 1800 1801 1802 1803 1804 1805 1806 1807 1808 1809 1810 1811 1812 1813 1814 1815 1816 1817 1818 1819 1820 1821 1822 1823 1824 1825 1826 1827 1828 1829 1830 1831 1832 1833 1834 1835 1836 1837 1838 1839 1840 1841 1842 1843 1844 1845 1846 1847 1848 1849 1850 1851 1852 1853 1854 1855 1856 1857 1858 1859 1860 1861 1862 1863 1864 1865 1866 1867 1868 1869 1870 1871 1872 1873 1874 1875 1876 1877 1878 1879 1880 1881 1882 1883 1884 1885 1886 1887 1888 1889 1890 1891 1892 1893 1894 1895 1896 1897 1898 1899 1900 1901 1902 1903 1904 1905 1906 1907 1908 1909 1910 1911 1912 1913 1914 1915 1916 1917 1918 1919 1920 1921 1922 1923 1924 1925 1926 1927 1928 1929 1930 1931 1932 1933 1934 1935 1936 1937 1938 1939 1940 1941 1942 1943 1944 1945 1946 1947 1948 1949 1950 1951 1952 1953 1954 1955 1956 1957 1958 1959 1960 1961 1962 1963 1964 1965 1966 1967 1968 1969 1970 1971 1972 1973 1974 1975 1976 1977 1978 1979 1980 1981 1982 1983 1984 1985 1986 1987 1988 1989 1990 1991 1992 1993 1994 1995 1996 1997 1998 1999 2000 2001 2002 2003 2004 2005 2006 2007 2008 2009 2010 2011 2012 2013 2014 2015 2016 2017 2018 2019 2020 2021 2022 2023 2024 2025 2026 2027 2028 2029 2030 2031 2032 2033 2034 2035 2036 2037 2038 2039 2040 2041 2042 2043 2044 2045 2046 2047 2048 2049 2050 2051 2052 2053 2054 2055 2056 2057 2058 2059 2060 2061 2062 2063 2064 2065 2066 2067 2068 2069 2070 2071 2072 2073 2074 2075 2076 2077 2078 2079 2080 2081 2082 2083 2084 2085 2086 2087 2088 2089 2090 2091 2092 2093 2094 2095 2096 2097 2098 2099 2100 2101 2102 2103 2104 2105 2106 2107 2108 2109 2110 2111 2112 2113 2114 2115 2116 2117 2118 2119 2120 2121 2122 2123 2124 2125 2126 2127 2128 2129 2130 2131 2132 2133 2134 2135 2136 2137 2138 2139 2140 2141 2142 2143 2144 2145 2146 2147 2148 2149 2150 2151 2152 2153 2154 2155 2156 2157 2158 2159 2160 2161 2162 2163 2164 2165 2166 2167 2168 2169 2170 2171 2172 2173 2174 2175 2176 2177 2178 2179 2180 2181 2182 2183 2184 2185 2186 2187 2188 2189 2190 2191 2192 2193 2194 2195 2196 2197 2198 2199 2200 2201 2202 2203 2204 2205 2206 2207 2208 2209 2210 2211 2212 2213 2214 2215 2216 2217 2218 2219 2220 2221 2222 2223 2224 2225 2226 2227 2228 2229 2230 2231 2232 2233 2234 2235 2236 2237 2238 2239 2240 2241 2242 2243 2244 2245 2246 2247 2248 2249 2250 2251 2252 2253 2254 2255 2256 2257 2258 2259 2260 2261 2262 2263 2264 2265 2266 2267 2268 2269 2270 2271 2272 2273 2274 2275 2276 2277 2278 2279 2280 2281 2282 2283 2284 2285 2286 2287 2288 2289 2290 2291 2292 2293 2294 2295 2296 2297 2298 2299 2300 2301 2302 2303 2304 2305 2306 2307 2308 2309 2310 2311 2312 2313 2314 2315 2316 2317 2318 2319 2320 2321 2322 2323 2324 2325 2326 2327 2328 2329 2330 2331 2332 2333 2334 2335 2336 2337 2338 2339 2340 2341 2342 2343 2344 2345 2346 2347 2348 2349 2350 2351 2352 2353 2354 2355 2356 2357 2358 2359 2360 2361 2362 2363 2364 2365 2366 2367 2368 2369 2370 2371 2372 2373 2374 2375 2376 2377 2378 2379 2380 2381 2382 2383 2384 2385 2386 2387 2388 2389 2390 2391 2392 2393 2394 2395 2396 2397 2398 2399 2400 2401 2402 2403 2404 2405 2406 2407 2408 2409 2410 2411 2412 2413 2414 2415 2416 2417 2418 2419 2420 2421 2422 2423 2424 2425 2426 2427 2428 2429 2430 2431 2432 2433 2434 2435 2436 2437 2438 2439 2440 2441 2442 2443 2444 2445 2446 2447 2448 2449 2450 2451 2452 2453 2454 2455 2456 2457 2458 2459 2460 2461 2462 2463 2464 2465 2466 2467 2468 2469 2470 2471 2472 2473 2474 2475 2476 2477 2478 2479 2480 2481 2482 2483 2484 2485 2486 2487 2488 2489 2490 2491 2492 2493 2494 2495 2496 2497 2498 2499 2500 2501 2502 2503 2504 2505 2506 2507 2508 2509 2510 2511 2512 2513 2514 2515 2516 2517 2518 2519 2520 2521 2522 2523 2524 2525 2526 2527 2528 2529 2530 2531 2532 2533 2534 2535 2536 2537 2538 2539 2540 2541 2542 2543 2544 2545 2546 2547 2548 2549 2550 2551 2552 2553 2554 2555 2556 2557 2558 2559 2560 2561 2562 2563 2564 2565 2566 2567 2568 2569 2570 2571 2572 2573 2574 2575 2576 2577 2578 2579 2580 2581 2582 2583 2584 2585 2586 2587 2588 2589 2590 2591 2592 2593 2594 2595 2596 2597 2598 2599 2600 2601 2602 2603 2604 2605 2606 2607 2608 2609 2610 2611 2612 2613 2614 2615 2616 2617 2618 2619 2620 2621 2622 2623 2624 2625 2626 2627 2628 2629 2630 2631 2632 2633 2634 2635 2636 2637 2638 2639 2640 2641 2642 2643 2644 2645 2646 2647 2648 2649 2650 2651 2652 2653 2654 2655 2656 2657 2658 2659 2660 2661 2662 2663 2664 2665 2666 2667 2668 2669 2670 2671 2672 2673 2674 2675 2676 2677 2678 2679 2680 2681 2682 2683 2684 2685 2686 2687 2688 2689 2690 2691 2692 2693 2694 2695 2696 2697 2698 2699 2700 2701 2702 2703 2704 2705 2706 2707 2708 2709 2710 2711 2712 2713 2714 2715 2716 2717 2718 2719 2720 2721 2722 2723 2724 2725 2726 2727 2728 2729 2730 2731 2732 2733 2734 2735 2736 2737 2738 2739 2740 2741 2742 2743 2744 2745 2746 2747 2748 2749 2750 2751 2752 2753 2754 2755 2756 2757 2758 2759 2760 2761 2762 2763 2764 2765 2766 2767 2768 2769 2770 2771 2772 2773 2774 2775 2776 2777 2778 2779 2780 2781 2782 2783 2784 2785 2786 2787 2788 2789 2790 2791 2792 2793 2794 2795 2796 2797 2798 2799 2800 2801 2802 2803 2804 2805 2806 2807 2808 2809 2810 2811 2812 2813 2814 2815 2816 2817 2818 2819 2820 2821 2822 2823 2824 2825 2826 2827 2828 2829 2830 2831 2832 2833 2834 2835 2836 2837 2838 2839 2840 2841 2842 2843 2844 2845 2846 2847 2848 2849 2850 2851 2852 2853 2854 2855 2856 2857 2858 2859 2860 2861 2862 2863 2864 2865 2866 2867 2868 2869 2870 2871 2872 2873 2874 2875 2876 2877 2878 2879 2880 2881 2882 2883 2884 2885 2886 2887 2888 2889 2890 2891 2892 2893 2894 2895 2896 2897 2898 2899 2900 2901 2902 2903 2904 2905 2906 2907 2908 2909 2910 2911 2912 2913 2914 2915 2916 2917 2918 2919 2920 2921 2922 2923 2924 2925 2926 2927 2928 2929 2930 2931 2932 2933 2934 2935 2936 2937 2938 2939 2940 2941 2942 2943 2944 2945 2946 2947 2948 2949 2950 2951 2952 2953 2954 2955 2956 2957 2958 2959 2960 2961 2962 2963 2964 2965 2966 2967 2968 2969 2970 2971 2972 2973 2974 2975 2976 2977 2978 2979 2980 2981 2982 2983 2984 2985 2986 2987 2988 2989 2990 2991 2992 2993 2994 2995 2996 2997 2998 2999 3000 3001 3002 3003 3004 3005 3006 3007 3008 3009 3010 3011 3012 3013 3014 3015 3016 3017 3018 3019 3020 3021 3022 3023 3024 3025 3026 3027 3028 3029 3030 3031 3032 3033 3034 3035 3036 3037 3038 3039 3040 3041 3042 3043 3044 3045 3046 3047 3048 3049 3050 3051 3052 3053 3054 3055 3056 3057 3058 3059 3060 3061 3062 3063 3064 3065 3066 3067 3068 3069 3070 3071 3072 3073 3074 3075 3076 3077 3078 3079 3080 3081 3082 3083 3084 3085 3086 3087 3088 3089 3090 3091 3092 3093 3094 3095 3096 3097 3098 3099 3100 3101 3102 3103 3104 3105 3106 3107 3108 3109 3110 3111 3112 3113 3114 3115 3116 3117 3118 3119 3120 3121 3122 3123 3124 3125 3126 3127 3128 3129 3130 3131 3132 3133 3134 3135 3136 3137 3138 3139 3140 3141 3142 3143 3144 3145 3146 3147 3148 3149 3150 3151 3152 3153 3154 3155 3156 3157 3158 3159 3160 3161 3162 3163 3164 3165 3166 3167 3168 3169 3170 3171 3172 3173 3174 3175 3176 3177 3178 3179 3180 3181 3182 3183 3184 3185 3186 3187 3188 3189 3190 3191 3192 3193 3194 3195 3196 3197 3198 3199 3200 3201 3202 3203 3204 3205 3206 3207 3208 3209 3210 3211 3212 3213 3214 3215 3216 3217 3218 3219 3220 3221 3222 3223 3224 3225 3226 3227 3228 3229 3230 3231 3232 3233 3234 3235 3236 3237 3238 3239 3240 3241 3242 3243 3244 3245 3246 3247 3248 3249 3250 3251 3252 3253 3254 3255 3256 3257 3258 3259 3260 3261 3262 3263 3264 3265 3266 3267 3268 3269 3270 3271 3272 3273 3274 3275 3276 3277 3278 3279 3280 3281 3282 3283 3284 3285 3286 3287 3288 3289 3290 3291 3292 3293 3294 3295 3296 3297 3298 3299 3300 3301 3302 3303 3304 3305 3306 3307 3308 3309 3310 3311 3312 3313 3314 3315 3316 3317 3318 3319 3320 3321 3322 3323 3324 3325 3326 3327 3328 3329 3330 3331 3332 3333 3334 3335 3336 3337 3338 3339 3340 3341 3342 3343 3344 3345 3346 3347 3348 3349 3350 3351 3352 3353 3354 3355 3356 3357 3358 3359 3360 3361 3362 3363 3364 3365 3366 3367 3368 3369 3370 3371 3372 3373 3374 3375 3376 3377 3378 3379 3380 3381 3382 3383 3384 3385 3386 3387 3388 3389 3390 3391 3392 3393 3394 3395 3396 3397 3398 3399 3400 3401 3402 3403 3404 3405 3406 3407 3408 3409 3410 3411 3412 3413 3414 3415 3416 3417 3418 3419 3420 3421 3422 3423 3424 3425 3426 3427 3428 3429 3430 3431 3432 3433 3434 3435 3436 3437 3438 3439 3440 3441 3442 3443 3444 3445 3446 3447 3448 3449 3450 3451 3452 3453 3454 3455 3456 3457 3458 3459 3460 3461 3462 3463 3464 3465 3466 3467 3468 3469 3470 3471 3472 3473 3474 3475 3476 3477 3478 3479 3480 3481 3482 3483 3484 3485 3486 3487 3488 3489 3490 3491 3492 3493 3494 3495 3496 3497 3498 3499 3500 3501 3502 3503 3504 3505 3506 3507 3508 3509 3510 3511 3512 3513 3514 3515 3516 3517 3518 3519 3520 3521 3522 3523 3524 3525 3526 3527 3528 3529 3530 3531 3532 3533 3534 3535 3536 3537 3538 3539 3540 3541 3542 3543 3544 3545 3546 3547 3548 3549 3550 3551 3552 3553 3554 3555 3556 3557 3558 3559 3560 3561 3562 3563 3564 3565 3566 3567 3568 3569 3570 3571 3572 3573 3574 3575 3576 3577 3578 3579 3580 3581 3582 3583 3584 3585 3586 3587 3588 3589 3590 3591 3592 3593 3594 3595 3596 3597 3598 3599 3600 3601 3602 3603 3604 3605 3606 3607 3608 3609 3610 3611 3612 3613 3614 3615 3616 3617 3618 3619 3620 3621 3622 3623 3624 3625 3626 3627 3628 3629 3630 3631 3632 3633 3634 3635 3636 3637 3638 3639 3640 3641 3642 3643 3644 3645 3646 3647 3648 3649 3650 3651 3652 3653 3654 3655 3656 3657 3658 3659 3660 3661 3662 3663 3664 3665 3666 3667 3668 3669 3670 3671 3672 3673 3674 3675 3676 3677 3678 3679 3680 3681 3682 3683 3684 3685 3686 3687 3688 3689 3690 3691 3692 3693 3694 3695 3696 3697 3698 3699 3700 3701 3702 3703 3704 3705 3706 3707 3708 3709 3710 3711 3712 3713 3714 3715 3716 3717 3718 3719 3720 3721 3722 3723 3724 3725 3726 3727 3728 3729 3730 3731 3732 3733 3734 3735 3736 3737 3738 3739 3740 3741 3742 3743 3744 3745 3746 3747 3748 3749 3750 3751 3752 3753 3754 3755 3756 3757 3758 3759 3760 3761 3762 3763 3764 3765 3766 3767 3768 3769 3770 3771 3772 3773 3774 3775 3776 3777 3778 3779 3780 3781 3782 3783 3784 3785 3786 3787 3788 3789 3790 3791 3792 3793 3794 3795 3796 3797 3798 3799 3800 3801 3802 3803 3804 3805 3806 3807 3808 3809 3810 3811 3812 3813 3814 3815 3816 3817 3818 3819 3820 3821 3822 3823 3824 3825 3826 3827 3828 3829 3830 3831 3832 3833 3834 3835 3836 3837 3838 3839 3840 3841 3842 3843 3844 3845 3846 3847 3848 3849 3850 3851 3852 3853 3854 3855 3856 3857 3858 3859 3860 3861 3862 3863 3864 3865 3866 3867 3868 3869 3870 3871 3872 3873 3874 3875 3876 3877 3878 3879 3880 3881 3882 3883 3884 3885 3886 3887 3888 3889 3890 3891 3892 3893 3894 3895 3896 3897 3898 3899 3900 3901 3902 3903 3904 3905 3906 3907 3908 3909 3910 3911 3912 3913 3914 3915 3916 3917 3918 3919 3920 3921 3922 3923 3924 3925 3926 3927 3928 3929 3930 3931 3932 3933 3934 3935 3936 3937 3938 3939 3940 3941 3942 3943 3944 3945 3946 3947 3948 3949 3950 3951 3952 3953 3954 3955 3956 3957 3958 3959 3960 3961 3962 3963 3964 3965 3966 3967 3968 3969 3970 3971 3972 3973 3974 3975 3976 3977 3978 3979 3980 3981 3982 3983 3984 3985 3986 3987 3988 3989 3990 3991 3992 3993 3994 3995 3996 3997 3998 3999 4000 4001 4002 4003 4004 4005 4006 4007 4008 4009 4010 4011 4012 4013 4014 4015 4016 4017 4018 4019 4020 4021 4022 4023 4024 4025 4026 4027 4028 4029 4030 4031 4032 4033 4034 4035 4036 4037 4038 4039 4040 4041 4042 4043 4044 4045 4046 4047 4048 4049 4050 4051 4052 4053 4054 4055 4056 4057 4058 4059 4060 4061 4062 4063 4064 4065 4066 4067 4068 4069 4070 4071 4072 4073 4074 4075 4076 4077 4078 4079 4080 4081 4082 4083 4084 4085 4086 4087 4088 4089 4090 4091 4092 4093 4094 4095 4096 4097 4098 4099 4100 4101 4102 4103 4104 4105 4106 4107 4108 4109 4110 4111 4112 4113 4114 4115 4116 4117 4118 4119 4120 4121 4122 4123 4124 4125 4126 4127 4128 4129 4130 4131 4132 4133 4134 4135 4136 4137 4138 4139 4140 4141 4142 4143 4144 4145 4146 4147 4148 4149 4150 4151 4152 4153 4154 4155 4156 4157 4158 4159 4160 4161 4162 4163 4164 4165 4166 4167 4168 4169 4170 4171 4172 4173 4174 4175 4176 4177 4178 4179 4180 4181 4182 4183 4184 4185 4186 4187 4188 4189 4190 4191 4192 4193 4194 4195 4196 4197 4198 4199 4200 4201 4202 4203 4204 4205 4206 4207 4208 4209 4210 4211 4212 4213 4214 4215 4216 4217 4218 4219 4220 4221 4222 4223 4224 4225 4226 4227 4228 4229 4230 4231 4232 4233 4234 4235 4236 4237 4238 4239 4240 4241 4242 4243 4244 4245 4246 4247 4248 4249 4250 4251 4252 4253 4254 4255 4256 4257 4258 4259 4260 4261 4262 4263 4264 4265 4266 4267 4268 4269 4270 4271 4272 4273 4274 4275 4276 4277 4278 4279 4280 4281 4282 4283 4284 4285 4286 4287 4288 4289 4290 4291 4292 4293 4294 4295 4296 4297 4298 4299 4300 4301 4302 4303 4304 4305 4306 4307 4308 4309 4310 4311 4312 4313 4314 4315 4316 4317 4318 4319 4320 4321 4322 4323 4324 4325 4326 4327 4328 4329 4330 4331 4332 4333 4334 4335 4336 4337 4338 4339 4340 4341 4342 4343 4344 4345 4346 4347 4348 4349 4350 4351 4352 4353 4354 4355 4356 4357 4358 4359 4360 4361 4362 4363 4364 4365 4366 4367 4368 4369 4370 4371 4372 4373 4374 4375 4376 4377 4378 4379 4380 4381 4382 4383 4384 4385 4386 4387 4388 4389 4390 4391 4392 4393 4394 4395 4396 4397 4398 4399 4400 4401 4402 4403 4404 4405 4406 4407 4408 4409 4410 4411 4412 4413 4414 4415 4416 4417 4418 4419 4420 4421 4422 4423 4424 4425 4426 4427 4428 4429 4430 4431 4432 4433 4434 4435 4436 4437 4438 4439 4440 4441 4442 4443 4444 4445 4446 4447 4448 4449 4450 4451 4452 4453 4454 4455 4456 4457 4458 4459 4460 4461 4462 4463 4464 4465 4466 4467 4468 4469 4470 4471 4472 4473 4474 4475 4476 4477 4478 4479 4480 4481 4482 4483 4484 4485 4486 4487 4488 4489 4490 4491 4492 4493 4494 4495 4496 4497 4498 4499 4500 4501 4502 4503 4504 4505 4506 4507 4508 4509 4510 4511 4512 4513 4514 4515 4516 4517 4518 4519 4520 4521 4522 4523 4524 4525 4526 4527 4528 4529 4530 4531 4532 4533 4534 4535 4536 4537 4538 4539 4540 4541 4542 4543 4544 4545 4546 4547 4548 4549 4550 4551 4552 4553 4554 4555 4556 4557 4558 4559 4560 4561 4562 4563 4564 4565 4566 4567 4568 4569 4570 4571 4572 4573 4574 4575 4576 4577 4578 4579 4580 4581 4582 4583 4584 4585 4586 4587 4588 4589 4590 4591 4592 4593 4594 4595 4596 4597 4598 4599 4600 4601 4602 4603 4604 4605 4606 4607 4608 4609 4610 4611 4612 4613 4614 4615 4616 4617 4618 4619 4620 4621 4622 4623 4624 4625 4626 4627 4628 4629 4630 4631 4632 4633 4634 4635 4636 4637 4638 4639 4640 4641 4642 4643 4644 4645 4646 4647 4648 4649 4650 4651 4652 4653 4654 4655 4656 4657 4658 4659 4660 4661 4662 4663 4664 4665 4666 4667 4668 4669 4670 4671 4672 4673 4674 4675 4676 4677 4678 4679 4680 4681 4682 4683 4684 4685 4686 4687 4688 4689 4690 4691 4692 4693 4694 4695 4696 4697 4698 4699 4700 4701 4702 4703 4704 4705 4706 4707 4708 4709 4710 4711 4712 4713 4714 4715 4716 4717 4718 4719 4720 4721 4722 4723 4724 4725 4726 4727 4728 4729 4730 4731 4732 4733 4734 4735 4736 4737 4738 4739 4740 4741 4742 4743 4744 4745 4746 4747 4748 4749 4750 4751 4752 4753 4754 4755 4756 4757 4758 4759 4760 4761 4762 4763 4764 4765 4766 4767 4768 4769 4770 4771 4772 4773 4774 4775 4776 4777 4778 4779 4780 4781 4782 4783 4784 4785 4786 4787 4788 4789 4790 4791 4792 4793 4794 4795 4796 4797 4798 4799 4800 4801 4802 4803 4804 4805 4806 4807 4808 4809 4810 4811 4812 4813 4814 4815 4816 4817 4818 4819 4820 4821 4822 4823 4824 4825 4826 4827 4828 4829 4830 4831 4832 4833 4834 4835 4836 4837 4838 4839 4840 4841 4842 4843 4844 4845 4846 4847 4848 4849 4850 4851 4852 4853 4854 4855 4856 4857 4858 4859 4860 4861 4862 4863 4864 4865 4866 4867 4868 4869 4870 4871 4872 4873 4874 4875 4876 4877 4878 4879 4880 4881 4882 4883 4884 4885 4886 4887 4888 4889 4890 4891 4892 4893 4894 4895 4896 4897 4898 4899 4900 4901 4902 4903 4904 4905 4906 4907 4908 4909 4910 4911 4912 4913 4914 4915 4916 4917 4918 4919 4920 4921 4922 4923 4924 4925 4926 4927 4928 4929 4930 4931 4932 4933 4934 4935 4936 4937 4938 4939 4940 4941 4942 4943 4944 4945 4946 4947 4948 4949 4950 4951 4952 4953 4954 4955 4956 4957 4958 4959 4960 4961 4962 4963 4964 4965 4966 4967 4968 4969 4970 4971 4972 4973 4974 4975 4976 4977 4978 4979 4980 4981 4982 4983 4984 4985 4986 4987 4988 4989 4990 4991 4992 4993 4994 4995 4996 4997 4998 4999 5000 5001 5002 5003 5004 5005 5006 5007 5008 5009 5010 5011 5012 5013 5014 5015 5016 5017 5018 5019 5020 5021 5022 5023 5024 5025 5026 5027 5028 5029 5030 5031 5032 5033 5034 5035 5036 5037 5038 5039 5040 5041 5042 5043 5044 5045 5046 5047 5048 5049 5050 5051 5052 5053 5054 5055 5056 5057 5058 5059 5060 5061 5062 5063 5064 5065 5066 5067 5068 5069 5070 5071 5072 5073 5074 5075 5076 5077 5078 5079 5080 5081 5082 5083 5084 5085 5086 5087 5088 5089 5090 5091 5092 5093 5094 5095 5096 5097 5098 5099 5100 5101 5102 5103 5104 5105 5106 5107 5108 5109 5110 5111 5112 5113 5114 5115 5116 5117 5118 5119 5120 5121 5122 5123 5124 5125 5126 5127 5128 5129 5130 5131 5132 5133 5134 5135 5136 5137 5138 5139 5140 5141 5142 5143 5144 5145 5146 5147 5148 5149 5150 5151 5152 5153 5154 5155 5156 5157 5158 5159 5160 5161 5162 5163 5164 5165 5166 5167 5168 5169 5170 5171 5172 5173 5174 5175 5176 5177 5178 5179 5180 5181 5182 5183 5184 5185 5186 5187 5188 5189 5190 5191 5192 5193 5194 5195 5196 5197 5198 5199 5200 5201 5202 5203 5204 5205 5206 5207 5208 5209 5210 5211 5212 5213 5214 5215 5216 5217 5218 5219 5220 5221 5222 5223 5224 5225 5226 5227 5228 5229 5230 5231 5232 5233 5234 5235 5236 5237 5238 5239 5240 5241 5242 5243 5244 5245 5246 5247 5248 5249 5250 5251 5252 5253 5254 5255 5256 5257 5258 5259 5260 5261 5262 5263 5264 5265 5266 5267 5268 5269 5270 5271 5272 5273 5274 5275 5276 5277 5278 5279 5280 5281 5282 5283 5284 5285 5286 5287 5288 5289 5290 5291 5292 5293 5294 5295 5296 5297 5298 5299 5300 5301 5302 5303 5304 5305 5306 5307 5308 5309 5310 5311 5312 5313 5314 5315 5316 5317 5318 5319 5320 5321 5322 5323 5324 5325 5326 5327 5328 5329 5330 5331 5332 5333 5334 5335 5336 5337 5338 5339 5340 5341 5342 5343 5344 5345 5346 5347 5348 5349 5350 5351 5352 5353 5354 5355 5356 5357 5358 5359 5360 5361 5362 5363 5364 5365 5366 5367 5368 5369 5370 5371 5372 5373 5374 5375 5376 5377 5378 5379 5380 5381 5382 5383 5384 5385 5386 5387 5388 5389 5390 5391 5392 5393 5394 5395 5396 5397 5398 5399 5400 5401 5402 5403 5404 5405 5406 5407 5408 5409 5410 5411 5412 5413 5414 5415 5416 5417 5418 5419 5420 5421 5422 5423 5424 5425 5426 5427 5428 5429 5430 5431 5432 5433 5434 5435 5436 5437 5438 5439 5440 5441 5442 5443 5444 5445 5446 5447 5448 5449 5450 5451 5452 5453 5454 5455 5456 5457 5458 5459 5460 5461 5462 5463 5464 5465 5466 5467 5468 5469 5470 5471 5472 5473 5474 5475 5476 5477 5478 5479 5480 5481 5482 5483 5484 5485 5486 5487 5488 5489 5490 5491 5492 5493 5494 5495 5496 5497 5498 5499 5500 5501 5502 5503 5504 5505 5506 5507 5508 5509 5510 5511 5512 5513 5514 5515 5516 5517 5518 5519 5520 5521 5522 5523 5524 5525 5526 5527 5528 5529 5530 5531 5532 5533 5534 5535 5536 5537 5538 5539 5540 5541 5542 5543 5544 5545 5546 5547 5548 5549 5550 5551 5552 5553 5554 5555 5556 5557 5558 5559 5560 5561 5562 5563 5564 5565 5566 5567 5568 5569 5570 5571 5572 5573 5574 5575 5576 5577 5578 5579 5580 5581 5582 5583 5584 5585 5586 5587 5588 5589 5590 5591 5592 5593 5594 5595 5596 5597 5598 5599 5600 5601 5602 5603 5604 5605 5606 5607 5608 5609 5610 5611 5612 5613 5614 5615 5616 5617 5618 5619 5620 5621 5622 5623 5624 5625 5626 5627 5628 5629 5630 5631 5632 5633 5634 5635 5636 5637 5638 5639 5640 5641 5642 5643 5644 5645 5646 5647 5648 5649 5650 5651 5652 5653 5654 5655 5656 5657 5658 5659 5660 5661 5662 5663 5664 5665 5666 5667 5668 5669 5670 5671 5672 5673 5674 5675 5676 5677 5678 5679 5680 5681 5682 5683 5684 5685 5686 5687 5688 5689 5690 5691 5692 5693 5694 5695 5696 5697 5698 5699 5700 5701 5702 5703 5704 5705 5706 5707 5708 5709 5710 5711 5712 5713 5714 5715 5716 5717 5718 5719 5720 5721 5722 5723 5724 5725 5726 5727 5728 5729 5730 5731 5732 5733 5734 5735 5736 5737 5738 5739 5740 5741 5742 5743 5744 5745 5746 5747 5748 5749 5750 5751 5752 5753 5754 5755 5756 5757 5758 5759 5760 5761 5762 5763 5764 5765 5766 5767 5768 5769 5770 5771 5772 5773 5774 5775 5776 5777 5778 5779 5780 5781 5782 5783 5784 5785 5786 5787 5788 5789 5790 5791 5792 5793 5794 5795 5796 5797 5798 5799 5800 5801 5802 5803 5804 5805 5806 5807 5808 5809 5810 5811 5812 5813 5814 5815 5816 5817 5818 5819 5820 5821 5822 5823 5824 5825 5826 5827 5828 5829 5830 5831 5832 5833 5834 5835 5836 5837 5838 5839 5840 5841 5842 5843 5844 5845 5846 5847 5848 5849 5850 5851 5852 5853 5854 5855 5856 5857 5858 5859 5860 5861 5862 5863 5864 5865 5866 5867 5868 5869 5870 5871 5872 5873 5874 5875 5876 5877 5878 5879 5880 5881 5882 5883 5884 5885 5886 5887 5888 5889 5890 5891 5892 5893 5894 5895 5896 5897 5898 5899 5900 5901 5902 5903 5904 5905 5906 5907 5908 5909 5910 5911 5912 5913 5914 5915 5916 5917 5918 5919 5920 5921 5922 5923 5924 5925 5926 5927 5928 5929 5930 5931 5932 5933 5934 5935 5936 5937 5938 5939 5940 5941 5942 5943 5944 5945 5946 5947 5948 5949 5950 5951 5952 5953 5954 5955 5956 5957 5958 5959 5960 5961 5962 5963 5964 5965 5966 5967 5968 5969 5970 5971 5972 5973 5974 5975 5976 5977 5978 5979 5980 5981 5982 5983 5984 5985 5986 5987 5988 5989 5990 5991 5992 5993 5994 5995 5996 5997 5998 5999 6000 6001 6002 6003 6004 6005 6006 6007 6008 6009 6010 6011 6012 6013 6014 6015 6016 6017 6018 6019 6020 6021 6022 6023 6024 6025 6026 6027 6028 6029 6030 6031 6032 6033 6034 6035 6036 6037 6038 6039 6040 6041 6042 6043 6044 6045 6046 6047 6048 6049 6050 6051 6052 6053 6054 6055 6056 6057 6058 6059 6060 6061 6062 6063 6064 6065 6066 6067 6068 6069 6070 6071 6072 6073 6074 6075 6076 6077 6078 6079 6080 6081 6082 6083 6084 6085 6086 6087 6088 6089 6090 6091 6092 6093 6094 6095 6096 6097 6098 6099 6100 6101 6102 6103 6104 6105 6106 6107 6108 6109 6110 6111 6112 6113 6114 6115 6116 6117 6118 6119 6120 6121 6122 6123 6124 6125 6126 6127 6128 6129 6130 6131 6132 6133 6134 6135 6136 6137 6138 6139 6140 6141 6142 6143 6144 6145 6146 6147 6148 6149 6150 6151 6152 6153 6154 6155 6156 6157 6158 6159 6160 6161 6162 6163 6164 6165 6166 6167 6168 6169 6170 6171 6172 6173 6174 6175 6176 6177 6178 6179 6180 6181 6182 6183 6184 6185 6186 6187 6188 6189 6190 6191 6192 6193 6194 6195 6196 6197 6198 6199 6200 6201 6202 6203 6204 6205 6206 6207 6208 6209 6210 6211 6212 6213 6214 6215 6216 6217 6218 6219 6220 6221 6222 6223 6224 6225 6226 6227 6228 6229 6230 6231 6232 6233 6234 6235 6236 6237 6238 6239 6240 6241 6242 6243 6244 6245 6246 6247 6248 6249 6250 6251 6252 6253 6254 6255 6256 6257 6258 6259 6260 6261 6262 6263 6264 6265 6266 6267 6268 6269 6270 6271 6272 6273 6274 6275 6276 6277 6278 6279 6280 6281 6282 6283 6284 6285 6286 6287 6288 6289 6290 6291 6292 6293 6294 6295 6296 6297 6298 6299 6300 6301 6302 6303 6304 6305 6306 6307 6308 6309 6310 6311 6312 6313 6314 6315 6316 6317 6318 6319 6320 6321 6322 6323 6324 6325 6326 6327 6328 6329 6330 6331 6332 6333 6334 6335 6336 6337 6338 6339 6340 6341 6342 6343 6344 6345 6346 6347 6348 6349 6350 6351 6352 6353 6354 6355 6356 6357 6358 6359 6360 6361 6362 6363 6364 6365 6366 6367 6368 6369 6370 6371 6372 6373 6374 6375 6376 6377 6378 6379 6380 6381 6382 6383 6384 6385 6386 6387 6388 6389 6390 6391 6392 6393 6394 6395 6396 6397 6398 6399 6400 6401 6402 6403 6404 6405 6406 6407 6408 6409 6410 6411 6412 6413 6414 6415 6416 6417 6418 6419 6420 6421 6422 6423 6424 6425 6426 6427 6428 6429 6430 6431 6432 6433 6434 6435 6436 6437 6438 6439 6440 6441 6442 6443 6444 6445 6446 6447 6448 6449 6450 6451 6452 6453 6454 6455 6456 6457 6458 6459 6460 6461 6462 6463 6464 6465 6466 6467 6468 6469 6470 6471 6472 6473 6474 6475 6476 6477 6478 6479 6480 6481 6482 6483 6484 6485 6486 6487 6488 6489 6490 6491 6492 6493 6494 6495 6496 6497 6498 6499 6500 6501 6502 6503 6504 6505 6506 6507 6508 6509 6510 6511 6512 6513 6514 6515 6516 6517 6518 6519 6520 6521 6522 6523 6524 6525 6526 6527 6528 6529 6530 6531 6532 6533 6534 6535 6536 6537 6538 6539 6540 6541 6542 6543 6544 6545 6546 6547 6548 6549 6550 6551 6552 6553 6554 6555 6556 6557 6558 6559 6560 6561 6562 6563 6564 6565 6566 6567 6568 6569 6570 6571 6572 6573 6574 6575 6576 6577 6578 6579 6580 6581 6582 6583 6584 6585 6586 6587 6588 6589 6590 6591 6592 6593 6594 6595 6596 6597 6598 6599 6600 6601 6602 6603 6604 6605 6606 6607 6608 6609 6610 6611 6612 6613 6614 6615 6616 6617 6618 6619 6620 6621 6622 6623 6624 6625 6626 6627 6628 6629 6630 6631 6632 6633 6634 6635 6636 6637 6638 6639 6640 6641 6642 6643 6644 6645 6646 6647 6648 6649 6650 6651 6652 6653 6654 6655 6656 6657 6658 6659 6660 6661 6662 6663 6664 6665 6666 6667 6668 6669 6670 6671 6672 6673 6674 6675 6676 6677 6678 6679 6680 6681 6682 6683 6684 6685 6686 6687 6688 6689 6690 6691 6692 6693 6694 6695 6696 6697 6698 6699 6700 6701 6702 6703 6704 6705 6706 6707 6708 6709 6710 6711 6712 6713 6714 6715 6716 6717 6718 6719 6720 6721 6722 6723 6724 6725 6726 6727 6728 6729 6730 6731 6732 6733 6734 6735 6736 6737 6738 6739 6740 6741 6742 6743 6744 6745 6746 6747 6748 6749 6750 6751 6752 6753 6754 6755 6756 6757 6758 6759 6760 6761 6762 6763 6764 6765 6766 6767 6768 6769 6770 6771 6772 6773 6774 6775 6776 6777 6778 6779 6780 6781 6782 6783 6784 6785 6786 6787 6788 6789 6790 6791 6792 6793 6794 6795 6796 6797 6798 6799 6800 6801 6802 6803 6804 6805 6806 6807 6808 6809 6810 6811 6812 6813 6814 6815 6816 6817 6818 6819 6820 6821 6822 6823 6824 6825 6826 6827 6828 6829 6830 6831 6832 6833 6834 6835 6836 6837 6838 6839 6840 6841 6842 6843 6844 6845 6846 6847 6848 6849 6850 6851 6852 6853 6854 6855 6856 6857 6858 6859 6860 6861 6862 6863 6864 6865 6866 6867 6868 6869 6870 6871 6872 6873 6874 6875 6876 6877 6878 6879 6880 6881 6882 6883 6884 6885 6886 6887 6888 6889 6890 6891 6892 6893 6894 6895 6896 6897 6898 6899 6900 6901 6902 6903 6904 6905 6906 6907 6908 6909 6910 6911 6912 6913 6914 6915 6916 6917 6918 6919 6920 6921 6922 6923 6924 6925 6926 6927 6928 6929 6930 6931 6932 6933 6934 6935 6936 6937 6938 6939 6940 6941 6942 6943 6944 6945 6946 6947 6948 6949 6950 6951 6952 6953 6954 6955 6956 6957 6958 6959 6960 6961 6962 6963 6964 6965 6966 6967 6968 6969 6970 6971 6972 6973 6974 6975 6976 6977 6978 6979 6980 6981 6982 6983 6984 6985 6986 6987 6988 6989 6990 6991 6992 6993 6994 6995 6996 6997 6998 6999 7000 7001 7002 7003 7004 7005 7006 7007 7008 7009 7010 7011 7012 7013 7014 7015 7016 7017 7018 7019 7020 7021 7022 7023 7024 7025 7026 7027 7028 7029 7030 7031 7032 7033 7034 7035 7036 7037 7038 7039 7040 7041 7042 7043 7044 7045 7046 7047 7048 7049 7050 7051 7052 7053 7054 7055 7056 7057 7058 7059 7060 7061 7062 7063 7064 7065 7066 7067 7068 7069 7070 7071 7072 7073 7074 7075 7076 7077 7078 7079 7080 7081 7082 7083 7084 7085 7086 7087 7088 7089 7090 7091 7092 7093 7094 7095 7096 7097 7098 7099 7100 7101 7102 7103 7104 7105 7106 7107 7108 7109 7110 7111 7112 7113 7114 7115 7116 7117 7118 7119 7120 7121 7122 7123 7124 7125 7126 7127 7128 7129 7130 7131 7132 7133 7134 7135 7136 7137 7138 7139 7140 7141 7142 7143 7144 7145 7146 7147 7148 7149 7150 7151 7152 7153 7154 7155 7156 7157 7158 7159 7160 7161 7162 7163 7164 7165 7166 7167 7168 7169 7170 7171 7172 7173 7174 7175 7176 7177 7178 7179 7180 7181 7182 7183 7184 7185 7186 7187 7188 7189 7190 7191 7192 7193 7194 7195 7196 7197 7198 7199 7200 7201 7202 7203 7204 7205 7206 7207 7208 7209 7210 7211 7212 7213 7214 7215 7216 7217 7218 7219 7220 7221 7222 7223 7224 7225 7226 7227 7228 7229 7230 7231 7232 7233 7234 7235 7236 7237 7238 7239 7240 7241 7242 7243 7244 7245 7246 7247 7248 7249 7250 7251 7252 7253 7254 7255 7256 7257 7258 7259 7260 7261 7262 7263 7264 7265 7266 7267 7268 7269 7270 7271 7272 7273 7274 7275 7276 7277 7278 7279 7280 7281 7282 7283 7284 7285 7286 7287 7288 7289 7290 7291 7292 7293 7294 7295 7296 7297 7298 7299 7300 7301 7302 7303 7304 7305 7306 7307 7308 7309 7310 7311 7312 7313 7314 7315 7316 7317 7318 7319 7320 7321 7322 7323 7324 7325 7326 7327 7328 7329 7330 7331 7332 7333 7334 7335 7336 7337 7338 7339 7340 7341 7342 7343 7344 7345 7346 7347 7348 7349 7350 7351 7352 7353 7354 7355 7356 7357 7358 7359 7360 7361 7362 7363 7364 7365 7366 7367 7368 7369 7370 7371 7372 7373 7374 7375 7376 7377 7378 7379 7380 7381 7382 7383 7384 7385 7386 7387 7388 7389 7390 7391 7392 7393 7394 7395 7396 7397 7398 7399 7400 7401 7402 7403 7404 7405 7406 7407 7408 7409 7410 7411 7412 7413 7414 7415 7416 7417 7418 7419 7420 7421 7422 7423 7424 7425 7426 7427 7428 7429 7430 7431 7432 7433 7434 7435 7436 7437 7438 7439 7440 7441 7442 7443 7444 7445 7446 7447 7448 7449 7450 7451 7452 7453 7454 7455 7456 7457 7458 7459 7460 7461 7462 7463 7464 7465 7466 7467 7468 7469 7470 7471 7472 7473 7474 7475 7476 7477 7478 7479 7480 7481 7482 7483 7484 7485 7486 7487 7488 7489 7490 7491 7492 7493 7494 7495 7496 7497 7498 7499 7500 7501 7502 7503 7504 7505 7506 7507 7508 7509 7510 7511 7512 7513 7514 7515 7516 7517 7518 7519 7520 7521 7522 7523 7524 7525 7526 7527 7528 7529 7530 7531 7532 7533 7534 7535 7536 7537 7538 7539 7540 7541 7542 7543 7544 7545 7546 7547 7548 7549 7550 7551 7552 7553 7554 7555 7556 7557 7558 7559 7560 7561 7562 7563 7564 7565 7566 7567 7568 7569 7570 7571 7572 7573 7574 7575 7576 7577 7578 7579 7580 7581 7582 7583 7584 7585 7586 7587 7588 7589 7590 7591 7592 7593 7594 7595 7596 7597 7598 7599 7600 7601 7602 7603 7604 7605 7606 7607 7608 7609 7610 7611 7612 7613 7614 7615 7616 7617 7618 7619 7620 7621 7622 7623 7624 7625 7626 7627 7628 7629 7630 7631 7632 7633 7634 7635 7636 7637 7638 7639 7640 7641 7642 7643 7644 7645 7646 7647 7648 7649 7650 7651 7652 7653 7654 7655 7656 7657 7658 7659 7660 7661 7662 7663 7664 7665 7666 7667 7668 7669 7670 7671 7672 7673 7674 7675 7676 7677 7678 7679 7680 7681 7682 7683 7684 7685 7686 7687 7688 7689 7690 7691 7692 7693 7694 7695 7696 7697 7698 7699 7700 7701 7702 7703 7704 7705 7706 7707 7708 7709 7710 7711 7712 7713 7714 7715 7716 7717 7718 7719 7720 7721 7722 7723 7724 7725 7726 7727 7728 7729 7730 7731 7732 7733 7734 7735 7736 7737 7738 7739 7740 7741 7742 7743 7744 7745 7746 7747 7748 7749 7750 7751 7752 7753 7754 7755 7756 7757 7758 7759 7760 7761 7762 7763 7764 7765 7766 7767 7768 7769 7770 7771 7772 7773 7774 7775 7776 7777 7778 7779 7780 7781 7782 7783 7784 7785 7786 7787 7788 7789 7790 7791 7792 7793 7794 7795 7796 7797 7798 7799 7800 7801 7802 7803 7804 7805 7806 7807 7808 7809 7810 7811 7812 7813 7814 7815 7816 7817 7818 7819 7820 7821 7822 7823 7824 7825 7826 7827 7828 7829 7830 7831 7832 7833 7834 7835 7836 7837 7838 7839 7840 7841 7842 7843 7844 7845 7846 7847 7848 7849 7850 7851 7852 7853 7854 7855 7856 7857 7858 7859 7860 7861 7862 7863 7864 7865 7866 7867 7868 7869 7870 7871 7872 7873 7874 7875 7876 7877 7878 7879 7880 7881 7882 7883 7884 7885 7886 7887 7888 7889 7890 7891 7892 7893 7894 7895 7896 7897 7898 7899 7900 7901 7902 7903 7904 7905 7906 7907 7908 7909 7910 7911 7912 7913 7914 7915 7916 7917 7918 7919 7920 7921 7922 7923 7924 7925 7926 7927 7928 7929 7930 7931 7932 7933 7934 7935 7936 7937 7938 7939 7940 7941 7942 7943 7944 7945 7946 7947 7948 7949 7950 7951 7952 7953 7954 7955 7956 7957 7958 7959 7960 7961 7962 7963 7964 7965 7966 7967 7968 7969 7970 7971 7972 7973 7974 7975 7976 7977 7978 7979 7980 7981 7982 7983 7984 7985 7986 7987 7988 7989 7990 7991 7992 7993 7994 7995 7996 7997 7998 7999 8000 8001 8002 8003 8004 8005 8006 8007 8008 8009 8010 8011 8012 8013 8014 8015 8016 8017 8018 8019 8020 8021 8022 8023 8024 8025 8026 8027 8028 8029 8030 8031 8032 8033 8034 8035 8036 8037 8038 8039 8040 8041 8042 8043 8044 8045 8046 8047 8048 8049 8050 8051 8052 8053 8054 8055 8056 8057 8058 8059 8060 8061 8062 8063 8064 8065 8066 8067 8068 8069 8070 8071 8072 8073 8074 8075 8076 8077 8078 8079 8080 8081 8082 8083 8084 8085 8086 8087 8088 8089 8090 8091 8092 8093 8094 8095 8096 8097 8098 8099 8100 8101 8102 8103 8104 8105 8106 8107 8108 8109 8110 8111 8112 8113 8114 8115 8116 8117 8118 8119 8120 8121 8122 8123 8124 8125 8126 8127 8128 8129 8130 8131 8132 8133 8134 8135 8136 8137 8138 8139 8140 8141 8142 8143 8144 8145 8146 8147 8148 8149 8150 8151 8152 8153 8154 8155 8156 8157 8158 8159 8160 8161 8162 8163 8164 8165 8166 8167 8168 8169 8170 8171 8172 8173 8174 8175 8176 8177 8178 8179 8180 8181 8182 8183 8184 8185 8186 8187 8188 8189 8190 8191 8192 8193 8194 8195 8196 8197 8198 8199 8200 8201 8202 8203 8204 8205 8206 8207 8208 8209 8210 8211 8212 8213 8214 8215 8216 8217 8218 8219 8220 8221 8222 8223 8224 8225 8226 8227 8228 8229 8230 8231 8232 8233 8234 8235 8236 8237 8238 8239 8240 8241 8242 8243 8244 8245 8246 8247 8248 8249 8250 8251 8252 8253 8254 8255 8256 8257 8258 8259 8260 8261 8262 8263 8264 8265 8266 8267 8268 8269 8270 8271 8272 8273 8274 8275 8276 8277 8278 8279 8280 8281 8282 8283 8284 8285 8286 8287 8288 8289 8290 8291 8292 8293 8294 8295 8296 8297 8298 8299 8300 8301 8302 8303 8304 8305 8306 8307 8308 8309 8310 8311 8312 8313 8314 8315 8316 8317 8318 8319 8320 8321 8322 8323 8324 8325 8326 8327 8328 8329 8330 8331 8332 8333 8334 8335 8336 8337 8338 8339 8340 8341 8342 8343 8344 8345 8346 8347 8348 8349 8350 8351 8352 8353 8354 8355 8356 8357 8358 8359 8360 8361 8362 8363 8364 8365 8366 8367 8368 8369 8370 8371 8372 8373 8374 8375 8376 8377 8378 8379 8380 8381 8382 8383 8384 8385 8386 8387 8388 8389 8390 8391 8392 8393 8394 8395 8396 8397 8398 8399 8400 8401 8402 8403 8404 8405 8406 8407 8408 8409 8410 8411 8412 8413 8414 8415 8416 8417 8418 8419 8420 8421 8422 8423 8424 8425 8426 8427 8428 8429 8430 8431 8432 8433 8434 8435 8436 8437 8438 8439 8440 8441 8442 8443 8444 8445 8446 8447 8448 8449 8450 8451 8452 8453 8454 8455 8456 8457 8458 8459 8460 8461 8462 8463 8464 8465 8466 8467 8468 8469 8470 8471 8472 8473 8474 8475 8476 8477 8478 8479 8480 8481 8482 8483 8484 8485 8486 8487 8488 8489 8490 8491 8492 8493 8494 8495 8496 8497 8498 8499 8500 8501 8502 8503 8504 8505 8506 8507 8508 8509 8510 8511 8512 8513 8514 8515 8516 8517 8518 8519 8520 8521 8522 8523 8524 8525 8526 8527 8528 8529 8530 8531 8532 8533 8534 8535 8536 8537 8538 8539 8540 8541 8542 8543 8544 8545 8546 8547 8548 8549 8550 8551 8552 8553 8554 8555 8556 8557 8558 8559 8560 8561 8562 8563 8564 8565 8566 8567 8568 8569 8570 8571 8572 8573 8574 8575 8576 8577 8578 8579 8580 8581 8582 8583 8584 8585 8586 8587 8588 8589 8590 8591 8592 8593 8594 8595 8596 8597 8598 8599 8600 8601 8602 8603 8604 8605 8606 8607 8608 8609 8610 8611 8612 8613 8614 8615 8616 8617 8618 8619 8620 8621 8622 8623 8624 8625 8626 8627 8628 8629 8630 8631 8632 8633 8634 8635 8636 8637 8638 8639 8640 8641 8642 8643 8644 8645 8646 8647 8648 8649 8650 8651 8652 8653 8654 8655 8656 8657 8658 8659 8660 8661 8662 8663 8664 8665 8666 8667 8668 8669 8670 8671 8672 8673 8674 8675 8676 8677 8678 8679 8680 8681 8682 8683 8684 8685 8686 8687 8688 8689 8690 8691 8692 8693 8694 8695 8696 8697 8698 8699 8700 8701 8702 8703 8704 8705 8706 8707 8708 8709 8710 8711 8712 8713 8714 8715 8716 8717 8718 8719 8720 8721 8722 8723 8724 8725 8726 8727 8728 8729 8730 8731 8732 8733 8734 8735 8736 8737 8738 8739 8740 8741 8742 8743 8744 8745 8746 8747 8748 8749 8750 8751 8752 8753 8754 8755 8756 8757 8758 8759 8760 8761 8762 8763 8764 8765 8766 8767 8768 8769 8770 8771 8772 8773 8774 8775 8776 8777 8778 8779 8780 8781 8782 8783 8784 8785 8786 8787 8788 8789 8790 8791 8792 8793 8794 8795 8796 8797 8798 8799 8800 8801 8802 8803 8804 8805 8806 8807 8808 8809 8810 8811 8812 8813 8814 8815 8816 8817 8818 8819 8820 8821 8822 8823 8824 8825 8826 8827 8828 8829 8830 8831 8832 8833 8834 8835 8836 8837 8838 8839 8840 8841 8842 8843 8844 8845 8846 8847 8848 8849 8850 8851 8852 8853 8854 8855 8856 8857 8858 8859 8860 8861 8862 8863 8864 8865 8866 8867 8868 8869 8870 8871 8872 8873 8874 8875 8876 8877 8878 8879 8880 8881 8882 8883 8884 8885 8886 8887 8888 8889 8890 8891 8892 8893 8894 8895 8896 8897 8898 8899 8900 8901 8902 8903 8904 8905 8906 8907 8908 8909 8910 8911 8912 8913 8914 8915 8916 8917 8918 8919 8920 8921 8922 8923 8924 8925 8926 8927 8928 8929 8930 8931 8932 8933 8934 8935 8936 8937 8938 8939 8940 8941 8942 8943 8944 8945 8946 8947 8948 8949 8950 8951 8952 8953 8954 8955 8956 8957 8958 8959 8960 8961 8962 8963 8964 8965 8966 8967 8968 8969 8970 8971 8972 8973 8974 8975 8976 8977 8978 8979 8980 8981 8982 8983 8984 8985 8986 8987 8988 8989 8990 8991 8992 8993 8994 8995 8996 8997 8998 8999 9000 9001 9002 9003 9004 9005 9006 9007 9008 9009 9010 9011 9012 9013 9014 9015 9016 9017 9018 9019 9020 9021 9022 9023 9024 9025 9026 9027 9028 9029 9030 9031 9032 9033 9034 9035 9036 9037 9038 9039 9040 9041 9042 9043 9044 9045 9046 9047 9048 9049 9050 9051 9052 9053 9054 9055 9056 9057 9058 9059 9060 9061 9062 9063 9064 9065 9066 9067 9068 9069 9070 9071 9072 9073 9074 9075 9076 9077 9078 9079 9080 9081 9082 9083 9084 9085 9086 9087 9088 9089 9090 9091 9092 9093 9094 9095 9096 9097 9098 9099 9100 9101 9102 9103 9104 9105 9106 9107 9108 9109 9110 9111 9112 9113 9114 9115 9116 9117 9118 9119 9120 9121 9122 9123 9124 9125 9126 9127 9128 9129 9130 9131 9132 9133 9134 9135 9136 9137 9138 9139 9140 9141 9142 9143 9144 9145 9146 9147 9148 9149 9150 9151 9152 9153 9154 9155 9156 9157 9158 9159 9160 9161 9162 9163 9164 9165 9166 9167 9168 9169 9170 9171 9172 9173 9174 9175 9176 9177 9178 9179 9180 9181 9182 9183 9184 9185 9186 9187 9188 9189 9190 9191 9192 9193 9194 9195 9196 9197 9198 9199 9200 9201 9202 9203 9204 9205 9206 9207 9208 9209 9210 9211 9212 9213 9214 9215 9216 9217 9218 9219 9220 9221 9222 9223 9224 9225 9226 9227 9228 9229 9230 9231 9232 9233 9234 9235 9236 9237 9238 9239 9240 9241 9242 9243 9244 9245 9246 9247 9248 9249 9250 9251 9252 9253 9254 9255 9256 9257 9258 9259 9260 9261 9262 9263 9264 9265 9266 9267 9268 9269 9270 9271 9272 9273 9274 9275 9276 9277 9278 9279 9280 9281 9282 9283 9284 9285 9286 9287 9288 9289 9290 9291 9292 9293 9294 9295 9296 9297 9298 9299 9300 9301 9302 9303 9304 9305 9306 9307 9308 9309 9310 9311 9312 9313 9314 9315 9316 9317 9318 9319 9320 9321 9322 9323 9324 9325 9326 9327 9328 9329 9330 9331 9332 9333 9334 9335 9336 9337 9338 9339 9340 9341 9342 9343 9344 9345 9346 9347 9348 9349 9350 9351 9352 9353 9354 9355 9356 9357 9358 9359 9360 9361 9362 9363 9364 9365 9366 9367 9368 9369 9370 9371 9372 9373 9374 9375 9376 9377 9378 9379 9380 9381 9382 9383 9384 9385 9386 9387 9388 9389 9390 9391 9392 9393 9394 9395 9396 9397 9398 9399 9400 9401 9402 9403 9404 9405 9406 9407 9408 9409 9410 9411 9412 9413 9414 9415 9416 9417 9418 9419 9420 9421 9422 9423 9424 9425 9426 9427 9428 9429 9430 9431 9432 9433 9434 9435 9436 9437 9438 9439 9440 9441 9442 9443 9444 9445 9446 9447 9448 9449 9450 9451 9452 9453 9454 9455 9456 9457 9458 9459 9460 9461 9462 9463 9464 9465 9466 9467 9468 9469 9470 9471 9472 9473 9474 9475 9476 9477 9478 9479 9480 9481 9482 9483 9484 9485 9486 9487 9488 9489 9490 9491 9492 9493 9494 9495 9496 9497 9498 9499 9500 9501 9502 9503 9504 9505 9506 9507 9508 9509 9510 9511 9512 9513 9514 9515 9516 9517 9518 9519 9520 9521 9522 9523 9524 9525 9526 9527 9528 9529 9530 9531 9532 9533 9534 9535 9536 9537 9538 9539 9540 9541 9542 9543 9544 9545 9546 9547 9548 9549 9550 9551 9552 9553 9554 9555 9556 9557 9558 9559 9560 9561 9562 9563 9564 9565 9566 9567 9568 9569 9570 9571 9572 9573 9574 9575 9576 9577 9578 9579 9580 9581 9582 9583 9584 9585 9586 9587 9588 9589 9590 9591 9592 9593 9594 9595 9596 9597 9598 9599 9600 9601 9602 9603 9604 9605 9606 9607 9608 9609 9610 9611 9612 9613 9614 9615 9616 9617 9618 9619 9620 9621 9622 9623 9624 9625 9626 9627 9628 9629 9630 9631 9632 9633 9634 9635 9636 9637 9638 9639 9640 9641 9642 9643 9644 9645 9646 9647 9648 9649 9650 9651 9652 9653 9654 9655 9656 9657 9658 9659 9660 9661 9662 9663 9664 9665 9666 9667 9668 9669 9670 9671 9672 9673 9674 9675 9676 9677 9678 9679 9680 9681 9682 9683 9684 9685 9686 9687 9688 9689 9690 9691 9692 9693 9694 9695 9696 9697 9698 9699 9700 9701 9702 9703 9704 9705 9706 9707 9708 9709 9710 9711 9712 9713 9714 9715 9716 9717 9718 9719 9720 9721 9722 9723 9724 9725 9726 9727 9728 9729 9730 9731 9732 9733 9734 9735 9736 9737 9738 9739 9740 9741 9742 9743 9744 9745 9746 9747 9748 9749 9750 9751 9752 9753 9754 9755 9756 9757 9758 9759 9760 9761 9762 9763 9764 9765 9766 9767 9768 9769 9770 9771 9772 9773 9774 9775 9776 9777 9778 9779 9780 9781 9782 9783 9784 9785 9786 9787 9788 9789 9790 9791 9792 9793 9794 9795 9796 9797 9798 9799 9800 9801 9802 9803 9804 9805 9806 9807 9808 9809 9810 9811 9812 9813 9814 9815 9816 9817 9818 9819 9820 9821 9822 9823 9824 9825 9826 9827 9828 9829 9830 9831 9832 9833 9834 9835 9836 9837 9838 9839 9840 9841 9842 9843 9844 9845 9846 9847 9848 9849 9850 9851 9852 9853 9854 9855 9856 9857 9858 9859 9860 9861 9862 9863 9864 9865 9866 9867 9868 9869 9870 9871 9872 9873 9874 9875 9876 9877 9878 9879 9880 9881 9882 9883 9884 9885 9886 9887 9888 9889 9890 9891 9892 9893 9894 9895 9896 9897 9898 9899 9900 9901 9902 9903 9904 9905 9906 9907 9908 9909 9910 9911 9912 9913 9914 9915 9916 9917 9918 9919 9920 9921 9922 9923 9924 9925 9926 9927 9928 9929 9930 9931 9932 9933 9934 9935 9936 9937 9938 9939 9940 9941 9942 9943 9944 9945 9946 9947 9948 9949 9950 9951 9952 9953 9954 9955 9956 9957 9958 9959 9960 9961 9962 9963 9964 9965 9966 9967 9968 9969 9970 9971 9972 9973 9974 9975 9976 9977 9978 9979 9980 9981 9982 9983 9984 9985 9986 9987 9988 9989 9990 9991 9992 9993 9994 9995 9996 9997 9998 9999 10000 10001 10002 10003 10004 10005 10006 10007 10008 10009 10010 10011 10012 10013 10014 10015 10016 10017 10018 10019 10020 10021 10022 10023 10024 10025 10026 10027 10028 10029 10030 10031 10032 10033 10034 10035 10036 10037 10038 10039 10040 10041 10042 10043 10044 10045 10046 10047 10048 10049 10050 10051 10052 10053 10054 10055 10056 10057 10058 10059 10060 10061 10062 10063 10064 10065 10066 10067 10068 10069 10070 10071 10072 10073 10074 10075 10076 10077 10078 10079 10080 10081 10082 10083 10084 10085 10086 10087 10088 10089 10090 10091 10092 10093 10094 10095 10096 10097 10098 10099 10100 10101 10102 10103 10104 10105 10106 10107 10108 10109 10110 10111 10112 10113 10114 10115 10116 10117 10118 10119 10120 10121 10122 10123 10124 10125 10126 10127 10128 10129 10130 10131 10132 10133 10134 10135 10136 10137 10138 10139 10140 10141 10142 10143 10144 10145 10146 10147 10148 10149 10150 10151 10152 10153 10154 10155 10156 10157 10158 10159 10160 10161 10162 10163 10164 10165 10166 10167 10168 10169 10170 10171 10172 10173 10174 10175 10176 10177 10178 10179 10180 10181 10182 10183 10184 10185 10186 10187 10188 10189 10190 10191 10192 10193 10194 10195 10196 10197 10198 10199 10200 10201 10202 10203 10204 10205 10206 10207 10208 10209 10210 10211 10212 10213 10214 10215 10216 10217 10218 10219 10220 10221 10222 10223 10224 10225 10226 10227 10228 10229 10230 10231 10232 10233 10234 10235 10236 10237 10238 10239 10240 10241 10242 10243 10244 10245 10246 10247 10248 10249 10250 10251 10252 10253 10254 10255 10256 10257 10258 10259 10260 10261 10262 10263 10264 10265 10266 10267 10268 10269 10270 10271 10272 10273 10274 10275 10276 10277 10278 10279 10280 10281 10282 10283 10284 10285 10286 10287 10288 10289 10290 10291 10292 10293 10294 10295 10296 10297 10298 10299 10300 10301 10302 10303 10304 10305 10306 10307 10308 10309 10310 10311 10312 10313 10314 10315 10316 10317 10318 10319 10320 10321 10322 10323 10324 10325 10326 10327 10328 10329 10330 10331 10332 10333 10334 10335 10336 10337 10338 10339 10340 10341 10342 10343 10344 10345 10346 10347 10348 10349 10350 10351 10352 10353 10354 10355 10356 10357 10358 10359 10360 10361 10362 10363 10364 10365 10366 10367 10368 10369 10370 10371 10372 10373 10374 10375 10376 10377 10378 10379 10380 10381 10382 10383 10384 10385 10386 10387 10388 10389 10390 10391 10392 10393 10394 10395 10396 10397 10398 10399 10400 10401 10402 10403 10404 10405 10406 10407 10408 10409 10410 10411 10412 10413 10414 10415 10416 10417 10418 10419 10420 10421 10422 10423 10424 10425 10426 10427 10428 10429 10430 10431 10432 10433 10434 10435 10436 10437 10438 10439 10440 10441 10442 10443 10444 10445 10446 10447 10448 10449 10450 10451 10452 10453 10454 10455 10456 10457 10458 10459 10460 10461 10462 10463 10464 10465 10466 10467 10468 10469 10470 10471 10472 10473 10474 10475 10476 10477 10478 10479 10480 10481 10482 10483 10484 10485 10486 10487 10488 10489 10490 10491 10492 10493 10494 10495 10496 10497 10498 10499 10500 10501 10502 10503 10504 10505 10506 10507 10508 10509 10510 10511 10512 10513 10514 10515 10516 10517 10518 10519 10520 10521 10522 10523 10524 10525 10526 10527 10528 10529 10530 10531 10532 10533 10534 10535 10536 10537 10538 10539 10540 10541 10542 10543 10544 10545 10546 10547 10548 10549 10550 10551 10552 10553 10554 10555 10556 10557 10558 10559 10560 10561 10562 10563 10564 10565 10566 10567 10568 10569 10570 10571 10572 10573 10574 10575 10576 10577 10578 10579 10580 10581 10582 10583 10584 10585 10586 10587 10588 10589 10590 10591 10592 10593 10594 10595 10596 10597 10598 10599 10600 10601 10602 10603 10604 10605 10606 10607 10608 10609 10610 10611 10612 10613 10614 10615 10616 10617 10618 10619 10620 10621 10622 10623 10624 10625 10626 10627 10628 10629 10630 10631 10632 10633 10634 10635 10636 10637 10638 10639 10640 10641 10642 10643 10644 10645 10646 10647 10648 10649 10650 10651 10652 10653 10654 10655 10656 10657 10658 10659 10660 10661 10662 10663 10664 10665 10666 10667 10668 10669 10670 10671 10672 10673 10674 10675 10676 10677 10678 10679 10680 10681 10682 10683 10684 10685 10686 10687 10688 10689 10690 10691 10692 10693 10694 10695 10696 10697 10698 10699 10700 10701 10702 10703 10704 10705 10706 10707 10708 10709 10710 10711 10712 10713 10714 10715 10716 10717 10718 10719 10720 10721 10722 10723 10724 10725 10726 10727 10728 10729 10730 10731 10732 10733 10734 10735 10736 10737 10738 10739 10740 10741 10742 10743 10744 10745 10746 10747 10748 10749 10750 10751 10752 10753 10754 10755 10756 10757 10758 10759 10760 10761 10762 10763 10764 10765 10766 10767 10768 10769 10770 10771 10772 10773 10774 10775 10776 10777 10778 10779 10780 10781 10782 10783 10784 10785 10786 10787 10788 10789 10790 10791 10792 10793 10794 10795 10796 10797 10798 10799 10800 10801 10802 10803 10804 10805 10806 10807 10808 10809 10810 10811 10812 10813 10814 10815 10816 10817 10818 10819 10820 10821 10822 10823 10824 10825 10826 10827 10828 10829 10830 10831 10832 10833 10834 10835 10836 10837 10838 10839 10840 10841 10842 10843 10844 10845 10846 10847 10848 10849 10850 10851 10852 10853 10854 10855 10856 10857 10858 10859 10860 10861 10862 10863 10864 10865 10866 10867 10868 10869 10870 10871 10872 10873 10874 10875 10876 10877 10878 10879 10880 10881 10882 10883 10884 10885 10886 10887 10888 10889 10890 10891 10892 10893 10894 10895 10896 10897 10898 10899 10900 10901 10902 10903 10904 10905 10906 10907 10908 10909 10910 10911 10912 10913 10914 10915 10916 10917 10918 10919 10920 10921 10922 10923 10924 10925 10926 10927 10928 10929 10930 10931 10932 10933 10934 10935 10936 10937 10938 10939 10940 10941 10942 10943 10944 10945 10946 10947 10948 10949 10950 10951 10952 10953 10954 10955 10956 10957 10958 10959 10960 10961 10962 10963 10964 10965 10966 10967 10968 10969 10970 10971 10972 10973 10974 10975 10976 10977 10978 10979 10980 10981 10982 10983 10984 10985 10986 10987 10988 10989 10990 10991 10992 10993 10994 10995 10996 10997 10998 10999 11000 11001 11002 11003 11004 11005 11006 11007 11008 11009 11010 11011 11012 11013 11014 11015 11016 11017 11018 11019 11020 11021 11022 11023 11024 11025 11026 11027 11028 11029 11030 11031 11032 11033 11034 11035 11036 11037 11038 11039 11040 11041 11042 11043 11044 11045 11046 11047 11048 11049 11050 11051 11052 11053 11054 11055 11056 11057 11058 11059 11060 11061 11062 11063 11064 11065 11066 11067 11068 11069 11070 11071 11072 11073 11074 11075 11076 11077 11078 11079 11080 11081 11082 11083 11084 11085 11086 11087 11088 11089 11090 11091 11092 11093 11094 11095 11096 11097 11098 11099 11100 11101 11102 11103 11104 11105 11106 11107 11108 11109 11110 11111 11112 11113 11114 11115 11116 11117 11118 11119 11120 11121 11122 11123 11124 11125 11126 11127 11128 11129 11130 11131 11132 11133 11134 11135 11136 11137 11138 11139 11140 11141 11142 11143 11144 11145 11146 11147 11148 11149 11150 11151 11152 11153 11154 11155 11156 11157 11158 11159 11160 11161 11162 11163 11164 11165 11166 11167 11168 11169 11170 11171 11172 11173 11174 11175 11176 11177 11178 11179 11180 11181 11182 11183 11184 11185 11186 11187 11188 11189 11190 11191 11192 11193 11194 11195 11196 11197 11198 11199 11200 11201 11202 11203 11204 11205 11206 11207 11208 11209 11210 11211 11212 11213 11214 11215 11216 11217 11218 11219 11220 11221 11222 11223 11224 11225 11226 11227 11228 11229 11230 11231 11232 11233 11234 11235 11236 11237 11238 11239 11240 11241 11242 11243 11244 11245 11246 11247 11248 11249 11250 11251 11252 11253 11254 11255 11256 11257 11258 11259 11260 11261 11262 11263 11264 11265 11266 11267 11268 11269 11270 11271 11272 11273 11274 11275 11276 11277 11278 11279 11280 11281 11282 11283 11284 11285 11286 11287 11288 11289 11290 11291 11292 11293 11294 11295 11296 11297 11298 11299 11300 11301 11302 11303 11304 11305 11306 11307 11308 11309 11310 11311 11312 11313 11314 11315 11316 11317 11318 11319 11320 11321 11322 11323 11324 11325 11326 11327 11328 11329 11330 11331 11332 11333 11334 11335 11336 11337 11338 11339 11340 11341 11342 11343 11344 11345 11346 11347 11348 11349 11350 11351 11352 11353 11354 11355 11356 11357 11358 11359 11360 11361 11362 11363 11364 11365 11366 11367 11368 11369 11370 11371 11372 11373 11374 11375 11376 11377 11378 11379 11380 11381 11382 11383 11384 11385 11386 11387 11388 11389 11390 11391 11392 11393 11394 11395 11396 11397 11398 11399 11400 11401 11402 11403 11404 11405 11406 11407 11408 11409 11410 11411 11412 11413 11414 11415 11416 11417 11418 11419 11420 11421 11422 11423 11424 11425 11426 11427 11428 11429 11430 11431 11432 11433 11434 11435 11436 11437 11438 11439 11440 11441 11442 11443 11444 11445 11446 11447 11448 11449 11450 11451 11452 11453 11454 11455 11456 11457 11458 11459 11460 11461 11462 11463 11464 11465 11466 11467 11468 11469 11470 11471 11472 11473 11474 11475 11476 11477 11478 11479 11480 11481 11482 11483 11484 11485 11486 11487 11488 11489 11490 11491 11492 11493 11494 11495 11496 11497 11498 11499 11500 11501 11502 11503 11504 11505 11506 11507 11508 11509 11510 11511 11512 11513 11514 11515 11516 11517 11518 11519 11520 11521 11522 11523 11524 11525 11526 11527 11528 11529 11530 11531 11532 11533 11534 11535 11536 11537 11538 11539 11540 11541 11542 11543 11544 11545 11546 11547 11548 11549 11550 11551 11552 11553 11554 11555 11556 11557 11558 11559 11560 11561 11562 11563 11564 11565 11566 11567 11568 11569 11570 11571 11572 11573 11574 11575 11576 11577 11578 11579 11580 11581 11582 11583 11584 11585 11586 11587 11588 11589 11590 11591 11592 11593 11594 11595 11596 11597 11598 11599 11600 11601 11602 11603 11604 11605 11606 11607 11608 11609 11610 11611 11612 11613 11614 11615 11616 11617 11618 11619 11620 11621 11622 11623 11624 11625 11626 11627 11628 11629 11630 11631 11632 11633 11634 11635 11636 11637 11638 11639 11640 11641 11642 11643 11644 11645 11646 11647 11648 11649 11650 11651 11652 11653 11654 11655 11656 11657 11658 11659 11660 11661 11662 11663 11664 11665 11666 11667 11668 11669 11670 11671 11672 11673 11674 11675 11676 11677 11678 11679 11680 11681 11682 11683 11684 11685 11686 11687 11688 11689 11690 11691 11692 11693 11694 11695 11696 11697 11698 11699 11700 11701 11702 11703 11704 11705 11706 11707 11708 11709 11710 11711 11712 11713 11714 11715 11716 11717 11718 11719 11720 11721 11722 11723 11724 11725 11726 11727 11728 11729 11730 11731 11732 11733 11734 11735 11736 11737 11738 11739 11740 11741 11742 11743 11744 11745 11746 11747 11748 11749 11750 11751 11752 11753 11754 11755 11756 11757 11758 11759 11760 11761 11762 11763 11764 11765 11766 11767 11768 11769 11770 11771 11772 11773 11774 11775 11776 11777 11778 11779 11780 11781 11782 11783 11784 11785 11786 11787 11788 11789 11790 11791 11792 11793 11794 11795 11796 11797 11798 11799 11800 11801 11802 11803 11804 11805 11806 11807 11808 11809 11810 11811 11812 11813 11814 11815 11816 11817 11818 11819 11820 11821 11822 11823 11824 11825 11826 11827 11828 11829 11830 11831 11832 11833 11834 11835 11836 11837 11838 11839 11840 11841 11842 11843 11844 11845 11846 11847 11848 11849 11850 11851 11852 11853 11854 11855 11856 11857 11858 11859 11860 11861 11862 11863 11864 11865 11866 11867 11868 11869 11870 11871 11872 11873 11874 11875 11876 11877 11878 11879 11880 11881 11882 11883 11884 11885 11886 11887 11888 11889 11890 11891 11892 11893 11894 11895 11896 11897 11898 11899 11900 11901 11902 11903 11904 11905 11906 11907 11908 11909 11910 11911 11912 11913 11914 11915 11916 11917 11918 11919 11920 11921 11922 11923 11924 11925 11926 11927 11928 11929 11930 11931 11932 11933 11934 11935 11936 11937 11938 11939 11940 11941 11942 11943 11944 11945 11946 11947 11948 11949 11950 11951 11952 11953 11954 11955 11956 11957 11958 11959 11960 11961 11962 11963 11964 11965 11966 11967 11968 11969 11970 11971 11972 11973 11974 11975 11976 11977 11978 11979 11980 11981 11982 11983 11984 11985 11986 11987 11988 11989 11990 11991 11992 11993 11994 11995 11996 11997 11998 11999 12000 12001 12002 12003 12004 12005 12006 12007 12008 12009 12010 12011 12012 12013 12014 12015 12016 12017 12018 12019 12020 12021 12022 12023 12024 12025 12026 12027 12028 12029 12030 12031 12032 12033 12034 12035 12036 12037 12038 12039 12040 12041 12042 12043 12044 12045 12046 12047 12048 12049 12050 12051 12052 12053 12054 12055 12056 12057 12058 12059 12060 12061 12062 12063 12064 12065 12066 12067 12068 12069 12070 12071 12072 12073 12074 12075 12076 12077 12078 12079 12080 12081 12082 12083 12084 12085 12086 12087 12088 12089 12090 12091 12092 12093 12094 12095 12096 12097 12098 12099 12100 12101 12102 12103 12104 12105 12106 12107 12108 12109 12110 12111 12112 12113 12114 12115 12116 12117 12118 12119 12120 12121 12122 12123 12124 12125 12126 12127 12128 12129 12130 12131 12132 12133 12134 12135 12136 12137 12138 12139 12140 12141 12142 12143 12144 12145 12146 12147 12148 12149 12150 12151 12152 12153 12154 12155 12156 12157 12158 12159 12160 12161 12162 12163 12164 12165 12166 12167 12168 12169 12170 12171 12172 12173 12174 12175 12176 12177 12178 12179 12180 12181 12182 12183 12184 12185 12186 12187 12188 12189 12190 12191 12192 12193 12194 12195 12196 12197 12198 12199 12200 12201 12202 12203 12204 12205 12206 12207 12208 12209 12210 12211 12212 12213 12214 12215 12216 12217 12218 12219 12220 12221 12222 12223 12224 12225 12226 12227 12228 12229 12230 12231 12232 12233 12234 12235 12236 12237 12238 12239 12240 12241 12242 12243 12244 12245 12246 12247 12248 12249 12250 12251 12252 12253 12254 12255 12256 12257 12258 12259 12260 12261 12262 12263 12264 12265 12266 12267 12268 12269 12270 12271 12272 12273 12274 12275 12276 12277 12278 12279 12280 12281 12282 12283 12284 12285 12286 12287 12288 12289 12290 12291 12292 12293 12294 12295 12296 12297 12298 12299 12300 12301 12302 12303 12304 12305 12306 12307 12308 12309 12310 12311 12312 12313 12314 12315 12316 12317 12318 12319 12320 12321 12322 12323 12324 12325 12326 12327 12328 12329 12330 12331 12332 12333 12334 12335 12336 12337 12338 12339 12340 12341 12342 12343 12344 12345 12346 12347 12348 12349 12350 12351 12352 12353 12354 12355 12356 12357 12358 12359 12360 12361 12362 12363 12364 12365 12366 12367 12368 12369 12370 12371 12372 12373 12374 12375 12376 12377 12378 12379 12380 12381 12382 12383 12384 12385 12386 12387 12388 12389 12390 12391 12392 12393 12394 12395 12396 12397 12398 12399 12400 12401 12402 12403 12404 12405 12406 12407 12408 12409 12410 12411 12412 12413 12414 12415 12416 12417 12418 12419 12420 12421 12422 12423 12424 12425 12426 12427 12428 12429 12430 12431 12432 12433 12434 12435 12436 12437 12438 12439 12440 12441 12442 12443 12444 12445 12446 12447 12448 12449 12450 12451 12452 12453 12454 12455 12456 12457 12458 12459 12460 12461 12462 12463 12464 12465 12466 12467 12468 12469 12470 12471 12472 12473 12474 12475 12476 12477 12478 12479 12480 12481 12482 12483 12484 12485 12486 12487 12488 12489 12490 12491 12492 12493 12494 12495 12496 12497 12498 12499 12500 12501 12502 12503 12504 12505 12506 12507 12508 12509 12510 12511 12512 12513 12514 12515 12516 12517 12518 12519 12520 12521 12522 12523 12524 12525 12526 12527 12528 12529 12530 12531 12532 12533 12534 12535 12536 12537 12538 12539 12540 12541 12542 12543 12544 12545 12546 12547 12548 12549 12550 12551 12552 12553 12554 12555 12556 12557 12558 12559 12560 12561 12562 12563 12564 12565 12566 12567 12568 12569 12570 12571 12572 12573 12574 12575 12576 12577 12578 12579 12580 12581 12582 12583 12584 12585 12586 12587 12588 12589 12590 12591 12592 12593 12594 12595 12596 12597 12598 12599 12600 12601 12602 12603 12604 12605 12606 12607 12608 12609 12610 12611 12612 12613 12614 12615 12616 12617 12618 12619 12620 12621 12622 12623 12624 12625 12626 12627 12628 12629 12630 12631 12632 12633 12634 12635 12636 12637 12638 12639 12640 12641 12642 12643 12644 12645 12646 12647 12648 12649 12650 12651 12652 12653 12654 12655 12656 12657 12658 12659 12660 12661 12662 12663 12664 12665 12666 12667 12668 12669 12670 12671 12672 12673 12674 12675 12676 12677 12678 12679 12680 12681 12682 12683 12684 12685 12686 12687 12688 12689 12690 12691 12692 12693 12694 12695 12696 12697 12698 12699 12700 12701 12702 12703 12704 12705 12706 12707 12708 12709 12710 12711 12712 12713 12714 12715 12716 12717 12718 12719 12720 12721 12722 12723 12724 12725 12726 12727 12728 12729 12730 12731 12732 12733 12734 12735 12736 12737 12738 12739 12740 12741 12742 12743 12744 12745 12746 12747 12748 12749 12750 12751 12752 12753 12754 12755 12756 12757 12758 12759 12760 12761 12762 12763 12764 12765 12766 12767 12768 12769 12770 12771 12772 12773 12774 12775 12776 12777 12778 12779 12780 12781 12782 12783 12784 12785 12786 12787 12788 12789 12790 12791 12792 12793 12794 12795 12796 12797 12798 12799 12800 12801 12802 12803 12804 12805 12806 12807 12808 12809 12810 12811 12812 12813 12814 12815 12816 12817 12818 12819 12820 12821 12822 12823 12824 12825 12826 12827 12828 12829 12830 12831 12832 12833 12834 12835 12836 12837 12838 12839 12840 12841 12842 12843 12844 12845 12846 12847 12848 12849 12850 12851 12852 12853 12854 12855 12856 12857 12858 12859 12860 12861 12862 12863 12864 12865 12866 12867 12868 12869 12870 12871 12872 12873 12874 12875 12876 12877 12878 12879 12880 12881 12882 12883 12884 12885 12886 12887 12888 12889 12890 12891 12892 12893 12894 12895 12896 12897 12898 12899 12900 12901 12902 12903 12904 12905 12906 12907 12908 12909 12910 12911 12912 12913 12914 12915 12916 12917 12918 12919 12920 12921 12922 12923 12924 12925 12926 12927 12928 12929 12930 12931 12932 12933 12934 12935 12936 12937 12938 12939 12940 12941 12942 12943 12944 12945 12946 12947 12948 12949 12950 12951 12952 12953 12954 12955 12956 12957 12958 12959 12960 12961 12962 12963 12964 12965 12966 12967 12968 12969 12970 12971 12972 12973 12974 12975 12976 12977 12978 12979 12980 12981 12982 12983 12984 12985 12986 12987 12988 12989 12990 12991 12992 12993 12994 12995 12996 12997 12998 12999 13000 13001 13002 13003 13004 13005 13006 13007 13008 13009 13010 13011 13012 13013 13014 13015 13016 13017 13018 13019 13020 13021 13022 13023 13024 13025 13026 13027 13028 13029 13030 13031 13032 13033 13034 13035 13036 13037 13038 13039 13040 13041 13042 13043 13044 13045 13046 13047 13048 13049 13050 13051 13052 13053 13054 13055 13056 13057 13058 13059 13060 13061 13062 13063 13064 13065 13066 13067 13068 13069 13070 13071 13072 13073 13074 13075 13076 13077 13078 13079 13080 13081 13082 13083 13084 13085 13086 13087 13088 13089 13090 13091 13092 13093 13094 13095 13096 13097 13098 13099 13100 13101 13102 13103 13104 13105 13106 13107 13108 13109 13110 13111 13112 13113 13114 13115 13116 13117 13118 13119 13120 13121 13122 13123 13124 13125 13126 13127 13128 13129 13130 13131 13132 13133 13134 13135 13136 13137 13138 13139 13140 13141 13142 13143 13144 13145 13146 13147 13148 13149 13150 13151 13152 13153 13154 13155 13156 13157 13158 13159 13160 13161 13162 13163 13164 13165 13166 13167 13168 13169 13170 13171 13172 13173 13174 13175 13176 13177 13178 13179 13180 13181 13182 13183 13184 13185 13186 13187 13188 13189 13190 13191 13192 13193 13194 13195 13196 13197 13198 13199 13200 13201 13202 13203 13204 13205 13206 13207 13208 13209 13210 13211 13212 13213 13214 13215 13216 13217 13218 13219 13220 13221 13222 13223 13224 13225 13226 13227 13228 13229 13230 13231 13232 13233 13234 13235 13236 13237 13238 13239 13240 13241 13242 13243 13244 13245 13246 13247 13248 13249 13250 13251 13252 13253 13254 13255 13256 13257 13258 13259 13260 13261 13262 13263 13264 13265 13266 13267 13268 13269 13270 13271 13272 13273 13274 13275 13276 13277 13278 13279 13280 13281 13282 13283 13284 13285 13286 13287 13288 13289 13290 13291 13292 13293 13294 13295 13296 13297 13298 13299 13300 13301 13302 13303 13304 13305 13306 13307 13308 13309 13310 13311 13312 13313 13314 13315 13316 13317 13318 13319 13320 13321 13322 13323 13324 13325 13326 13327 13328 13329 13330 13331 13332 13333 13334 13335 13336 13337 13338 13339 13340 13341 13342 13343 13344 13345 13346 13347 13348 13349 13350 13351 13352 13353 13354 13355 13356 13357 13358 13359 13360 13361 13362 13363 13364 13365 13366 13367 13368 13369 13370 13371 13372 13373 13374 13375 13376 13377 13378 13379 13380 13381 13382 13383 13384 13385 13386 13387 13388 13389 13390 13391 13392 13393 13394 13395 13396 13397 13398 13399 13400 13401 13402 13403 13404 13405 13406 13407 13408 13409 13410 13411 13412 13413 13414 13415 13416 13417 13418 13419 13420 13421 13422 13423 13424 13425 13426 13427 13428 13429 13430 13431 13432 13433 13434 13435 13436 13437 13438 13439 13440 13441 13442 13443 13444 13445 13446 13447 13448 13449 13450 13451 13452 13453 13454 13455 13456 13457 13458 13459 13460 13461 13462 13463 13464 13465 13466 13467 13468 13469 13470 13471 13472 13473 13474 13475 13476 13477 13478 13479 13480 13481 13482 13483 13484 13485 13486 13487 13488 13489 13490 13491 13492 13493 13494 13495 13496 13497 13498 13499 13500 13501 13502 13503 13504 13505 13506 13507 13508 13509 13510 13511 13512 13513 13514 13515 13516 13517 13518 13519 13520 13521 13522 13523 13524 13525 13526 13527 13528 13529 13530 13531 13532 13533 13534 13535 13536 13537 13538 13539 13540 13541 13542 13543 13544 13545 13546 13547 13548 13549 13550 13551 13552 13553 13554 13555 13556 13557 13558 13559 13560 13561 13562 13563 13564 13565 13566 13567 13568 13569 13570 13571 13572 13573 13574 13575 13576 13577 13578 13579 13580 13581 13582 13583 13584 13585 13586 13587 13588 13589 13590 13591 13592 13593 13594 13595 13596 13597 13598 13599 13600 13601 13602 13603 13604 13605 13606 13607 13608 13609 13610 13611 13612 13613 13614 13615 13616 13617 13618 13619 13620 13621 13622 13623 13624 13625 13626 13627 13628 13629 13630 13631 13632 13633 13634 13635 13636 13637 13638 13639 13640 13641 13642 13643 13644 13645 13646 13647 13648 13649 13650 13651 13652 13653 13654 13655 13656 13657 13658 13659 13660 13661 13662 13663 13664 13665 13666 13667 13668 13669 13670 13671 13672 13673 13674 13675 13676 13677 13678 13679 13680 13681 13682 13683 13684 13685 13686 13687 13688 13689 13690 13691 13692 13693 13694 13695 13696 13697 13698 13699 13700 13701 13702 13703 13704 13705 13706 13707 13708 13709 13710 13711 13712 13713 13714 13715 13716 13717 13718 13719 13720 13721 13722 13723 13724 13725 13726 13727 13728 13729 13730 13731 13732 13733 13734 13735 13736 13737 13738 13739 13740 13741 13742 13743 13744 13745 13746 13747 13748 13749 13750 13751 13752 13753 13754 13755 13756 13757 13758 13759 13760 13761 13762 13763 13764 13765 13766 13767 13768 13769 13770 13771 13772 13773 13774 13775 13776 13777 13778 13779 13780 13781 13782 13783 13784 13785 13786 13787 13788 13789 13790 13791 13792 13793 13794 13795 13796 13797 13798 13799 13800 13801 13802 13803 13804 13805 13806 13807 13808 13809 13810 13811 13812 13813 13814 13815 13816 13817 13818 13819 13820 13821 13822 13823 13824 13825 13826 13827 13828 13829 13830 13831 13832 13833 13834 13835 13836 13837 13838 13839 13840 13841 13842 13843 13844 13845 13846 13847 13848 13849 13850 13851 13852 13853 13854 13855 13856 13857 13858 13859 13860 13861 13862 13863 13864 13865 13866 13867 13868 13869 13870 13871 13872 13873 13874 13875 13876 13877 13878 13879 13880 13881 13882 13883 13884 13885 13886 13887 13888 13889 13890 13891 13892 13893 13894 13895 13896 13897 13898 13899 13900 13901 13902 13903 13904 13905 13906 13907 13908 13909 13910 13911 13912 13913 13914 13915 13916 13917 13918 13919 13920 13921 13922 13923 13924 13925 13926 13927 13928 13929 13930 13931 13932 13933 13934 13935 13936 13937 13938 13939 13940 13941 13942 13943 13944 13945 13946 13947 13948 13949 13950 13951 13952 13953 13954 13955 13956 13957 13958 13959 13960 13961 13962 13963 13964 13965 13966 13967 13968 13969 13970 13971 13972 13973 13974 13975 13976 13977 13978 13979 13980 13981 13982 13983 13984 13985 13986 13987 13988 13989 13990 13991 13992 13993 13994 13995 13996 13997 13998 13999 14000 14001 14002 14003 14004 14005 14006 14007 14008 14009 14010 14011 14012 14013 14014 14015 14016 14017 14018 14019 14020 14021 14022 14023 14024 14025 14026 14027 14028 14029 14030 14031 14032 14033 14034 14035 14036 14037 14038 14039 14040 14041 14042 14043 14044 14045 14046 14047 14048 14049 14050 14051 14052 14053 14054 14055 14056 14057 14058 14059 14060 14061 14062 14063 14064 14065 14066 14067 14068 14069 14070 14071 14072 14073 14074 14075 14076 14077 14078 14079 14080 14081 14082 14083 14084 14085 14086 14087 14088 14089 14090 14091 14092 14093 14094 14095 14096 14097 14098 14099 14100 14101 14102 14103 14104 14105 14106 14107 14108 14109 14110 14111 14112 14113 14114 14115 14116 14117 14118 14119 14120 14121 14122 14123 14124 14125 14126 14127 14128 14129 14130 14131 14132 14133 14134 14135 14136 14137 14138 14139 14140 14141 14142 14143 14144 14145 14146 14147 14148 14149 14150 14151 14152 14153 14154 14155 14156 14157 14158 14159 14160 14161 14162 14163 14164 14165 14166 14167 14168 14169 14170 14171 14172 14173 14174 14175 14176 14177 14178 14179 14180 14181 14182 14183 14184 14185 14186 14187 14188 14189 14190 14191 14192 14193 14194 14195 14196 14197 14198 14199 14200 14201 14202 14203 14204 14205 14206 14207 14208 14209 14210 14211 14212 14213 14214 14215 14216 14217 14218 14219 14220 14221 14222 14223 14224 14225 14226 14227 14228 14229 14230 14231 14232 14233 14234 14235 14236 14237 14238 14239 14240 14241 14242 14243 14244 14245 14246 14247 14248 14249 14250 14251 14252 14253 14254 14255 14256 14257 14258 14259 14260 14261 14262 14263 14264 14265 14266 14267 14268 14269 14270 14271 14272 14273 14274 14275 14276 14277 14278 14279 14280 14281 14282 14283 14284 14285 14286 14287 14288 14289 14290 14291 14292 14293 14294 14295 14296 14297 14298 14299 14300 14301 14302 14303 14304 14305 14306 14307 14308 14309 14310 14311 14312 14313 14314 14315 14316 14317 14318 14319 14320 14321 14322 14323 14324 14325 14326 14327 14328 14329 14330 14331 14332 14333 14334 14335 14336 14337 14338 14339 14340 14341 14342 14343 14344 14345 14346 14347 14348 14349 14350 14351 14352 14353 14354 14355 14356 14357 14358 14359 14360 14361 14362 14363 14364 14365 14366 14367 14368 14369 14370 14371 14372 14373 14374 14375 14376 14377 14378 14379 14380 14381 14382 14383 14384 14385 14386 14387 14388 14389 14390 14391 14392 14393 14394 14395 14396 14397 14398 14399 14400 14401 14402 14403 14404 14405 14406 14407 14408 14409 14410 14411 14412 14413 14414 14415 14416 14417 14418 14419 14420 14421 14422 14423 14424 14425 14426 14427 14428 14429 14430 14431 14432 14433 14434 14435 14436 14437 14438 14439 14440 14441 14442 14443 14444 14445 14446 14447 14448 14449 14450 14451 14452 14453 14454 14455 14456 14457 14458 14459 14460 14461 14462 14463 14464 14465 14466 14467 14468 14469 14470 14471 14472 14473 14474 14475 14476 14477 14478 14479 14480 14481 14482 14483 14484 14485 14486 14487 14488 14489 14490 14491 14492 14493 14494 14495 14496 14497 14498 14499 14500 14501 14502 14503 14504 14505 14506 14507 14508 14509 14510 14511 14512 14513 14514 14515 14516 14517 14518 14519 14520 14521 14522 14523 14524 14525 14526 14527 14528 14529 14530 14531 14532 14533 14534 14535 14536 14537 14538 14539 14540 14541 14542 14543 14544 14545 14546 14547 14548 14549 14550 14551 14552 14553 14554 14555 14556 14557 14558 14559 14560 14561 14562 14563 14564 14565 14566 14567 14568 14569 14570 14571 14572 14573 14574 14575 14576 14577 14578 14579 14580 14581 14582 14583 14584 14585 14586 14587 14588 14589 14590 14591 14592 14593 14594 14595 14596 14597 14598 14599 14600 14601 14602 14603 14604 14605 14606 14607 14608 14609 14610 14611 14612 14613 14614 14615 14616 14617 14618 14619 14620 14621 14622 14623 14624 14625 14626 14627 14628 14629 14630 14631 14632 14633 14634 14635 14636 14637 14638 14639 14640 14641 14642 14643 14644 14645 14646 14647 14648 14649 14650 14651 14652 14653 14654 14655 14656 14657 14658 14659 14660 14661 14662 14663 14664 14665 14666 14667 14668 14669 14670 14671 14672 14673 14674 14675 14676 14677 14678 14679 14680 14681 14682 14683 14684 14685 14686 14687 14688 14689 14690 14691 14692 14693 14694 14695 14696 14697 14698 14699 14700 14701 14702 14703 14704 14705 14706 14707 14708 14709 14710 14711 14712 14713 14714 14715 14716 14717 14718 14719 14720 14721 14722 14723 14724 14725 14726 14727 14728 14729 14730 14731 14732 14733 14734 14735 14736 14737 14738 14739 14740 14741 14742 14743 14744 14745 14746 14747 14748 14749 14750 14751 14752 14753 14754 14755 14756 14757 14758 14759 14760 14761 14762 14763 14764 14765 14766 14767 14768 14769 14770 14771 14772 14773 14774 14775 14776 14777 14778 14779 14780 14781 14782 14783 14784 14785 14786 14787 14788 14789 14790 14791 14792 14793 14794 14795 14796 14797 14798 14799 14800 14801 14802 14803 14804 14805 14806 14807 14808 14809 14810 14811 14812 14813 14814 14815 14816 14817 14818 14819 14820 14821 14822 14823 14824 14825 14826 14827 14828 14829 14830 14831 14832 14833 14834 14835 14836 14837 14838 14839 14840 14841 14842 14843 14844 14845 14846 14847 14848 14849 14850 14851 14852 14853 14854 14855 14856 14857 14858 14859 14860 14861 14862 14863 14864 14865 14866 14867 14868 14869 14870 14871 14872 14873 14874 14875 14876 14877 14878 14879 14880 14881 14882 14883 14884 14885 14886 14887 14888 14889 14890 14891 14892 14893 14894 14895 14896 14897 14898 14899 14900 14901 14902 14903 14904 14905 14906 14907 14908 14909 14910 14911 14912 14913 14914 14915 14916 14917 14918 14919 14920 14921 14922 14923 14924 14925 14926 14927 14928 14929 14930 14931 14932 14933 14934 14935 14936 14937 14938 14939 14940 14941 14942 14943 14944 14945 14946 14947 14948 14949 14950 14951 14952 14953 14954 14955 14956 14957 14958 14959 14960 14961 14962 14963 14964 14965 14966 14967 14968 14969 14970 14971 14972 14973 14974 14975 14976 14977 14978 14979 14980 14981 14982 14983 14984 14985 14986 14987 14988 14989 14990 14991 14992 14993 14994 14995 14996 14997 14998 14999 15000 15001 15002 15003 15004 15005 15006 15007 15008 15009 15010 15011 15012 15013 15014 15015 15016 15017 15018 15019 15020 15021 15022 15023 15024 15025 15026 15027 15028 15029 15030 15031 15032 15033 15034 15035 15036 15037 15038 15039 15040 15041 15042 15043 15044 15045 15046 15047 15048 15049 15050 15051 15052 15053 15054 15055 15056 15057 15058 15059 15060 15061 15062 15063 15064 15065 15066 15067 15068 15069 15070 15071 15072 15073 15074 15075 15076 15077 15078 15079 15080 15081 15082 15083 15084 15085 15086 15087 15088 15089 15090 15091 15092 15093 15094 15095 15096 15097 15098 15099 15100 15101 15102 15103 15104 15105 15106 15107 15108 15109 15110 15111 15112 15113 15114 15115 15116 15117 15118 15119 15120 15121 15122 15123 15124 15125 15126 15127 15128 15129 15130 15131 15132 15133 15134 15135 15136 15137 15138 15139 15140 15141 15142 15143 15144 15145 15146 15147 15148 15149 15150 15151 15152 15153 15154 15155 15156 15157 15158 15159 15160 15161 15162 15163 15164 15165 15166 15167 15168 15169 15170 15171 15172 15173 15174 15175 15176 15177 15178 15179 15180 15181 15182 15183 15184 15185 15186 15187 15188 15189 15190 15191 15192 15193 15194 15195 15196 15197 15198 15199 15200 15201 15202 15203 15204 15205 15206 15207 15208 15209 15210 15211 15212 15213 15214 15215 15216 15217 15218 15219 15220 15221 15222 15223 15224 15225 15226 15227 15228 15229 15230 15231 15232 15233 15234 15235 15236 15237 15238 15239 15240 15241 15242 15243 15244 15245 15246 15247 15248 15249 15250 15251 15252 15253 15254 15255 15256 15257 15258 15259 15260 15261 15262 15263 15264 15265 15266 15267 15268 15269 15270 15271 15272 15273 15274 15275 15276 15277 15278 15279 15280 15281 15282 15283 15284 15285 15286 15287 15288 15289 15290 15291 15292 15293 15294 15295 15296 15297 15298 15299 15300 15301 15302 15303 15304 15305 15306 15307 15308 15309 15310 15311 15312 15313 15314 15315 15316 15317 15318 15319 15320 15321 15322 15323 15324 15325 15326 15327 15328 15329 15330 15331 15332 15333 15334 15335 15336 15337 15338 15339 15340 15341 15342 15343 15344 15345 15346 15347 15348 15349 15350 15351 15352 15353 15354 15355 15356 15357 15358 15359 15360 15361 15362 15363 15364 15365 15366 15367 15368 15369 15370 15371 15372 15373 15374 15375 15376 15377 15378 15379 15380 15381 15382 15383 15384 15385 15386 15387 15388 15389 15390 15391 15392 15393 15394 15395 15396 15397 15398 15399 15400 15401 15402 15403 15404 15405 15406 15407 15408 15409 15410 15411 15412 15413 15414 15415 15416 15417 15418 15419 15420 15421 15422 15423 15424 15425 15426 15427 15428 15429 15430 15431 15432 15433 15434 15435 15436 15437 15438 15439 15440 15441 15442 15443 15444 15445 15446 15447 15448 15449 15450 15451 15452 15453 15454 15455 15456 15457 15458 15459 15460 15461 15462 15463 15464 15465 15466 15467 15468 15469 15470 15471 15472 15473 15474 15475 15476 15477 15478 15479 15480 15481 15482 15483 15484 15485 15486 15487 15488 15489 15490 15491 15492 15493 15494 15495 15496 15497 15498 15499 15500 15501 15502 15503 15504 15505 15506 15507 15508 15509 15510 15511 15512 15513 15514 15515 15516 15517 15518 15519 15520 15521 15522 15523 15524 15525 15526 15527 15528 15529 15530 15531 15532 15533 15534 15535 15536 15537 15538 15539 15540 15541 15542 15543 15544 15545 15546 15547 15548 15549 15550 15551 15552 15553 15554 15555 15556 15557 15558 15559 15560 15561 15562 15563 15564 15565 15566 15567 15568 15569 15570 15571 15572 15573 15574 15575 15576 15577 15578 15579 15580 15581 15582 15583 15584 15585 15586 15587 15588 15589 15590 15591 15592 15593 15594 15595 15596 15597 15598 15599 15600 15601 15602 15603 15604 15605 15606 15607 15608 15609 15610 15611 15612 15613 15614 15615 15616 15617 15618 15619 15620 15621 15622 15623 15624 15625 15626 15627 15628 15629 15630 15631 15632 15633 15634 15635 15636 15637 15638 15639 15640 15641 15642 15643 15644 15645 15646 15647 15648 15649 15650 15651 15652 15653 15654 15655 15656 15657 15658 15659 15660 15661 15662 15663 15664 15665 15666 15667 15668 15669 15670 15671 15672 15673 15674 15675 15676 15677 15678 15679 15680 15681 15682 15683 15684 15685 15686 15687 15688 15689 15690 15691 15692 15693 15694 15695 15696 15697 15698 15699 15700 15701 15702 15703 15704 15705 15706 15707 15708 15709 15710 15711 15712 15713 15714 15715 15716 15717 15718 15719 15720 15721 15722 15723 15724 15725 15726 15727 15728 15729 15730 15731 15732 15733 15734 15735 15736 15737 15738 15739 15740 15741 15742 15743 15744 15745 15746 15747 15748 15749 15750 15751 15752 15753 15754 15755 15756 15757 15758 15759 15760 15761 15762 15763 15764 15765 15766 15767 15768 15769 15770 15771 15772 15773 15774 15775 15776 15777 15778 15779 15780 15781 15782 15783 15784 15785 15786 15787 15788 15789 15790 15791 15792 15793 15794 15795 15796 15797 15798 15799 15800 15801 15802 15803 15804 15805 15806 15807 15808 15809 15810 15811 15812 15813 15814 15815 15816 15817 15818 15819 15820 15821 15822 15823 15824 15825 15826 15827 15828 15829 15830 15831 15832 15833 15834 15835 15836 15837 15838 15839 15840 15841 15842 15843 15844 15845 15846 15847 15848 15849 15850 15851 15852 15853 15854 15855 15856 15857 15858 15859 15860 15861 15862 15863 15864 15865 15866 15867 15868 15869 15870 15871 15872 15873 15874 15875 15876 15877 15878 15879 15880 15881 15882 15883 15884 15885 15886 15887 15888 15889 15890 15891 15892 15893 15894 15895 15896 15897 15898 15899 15900 15901 15902 15903 15904 15905 15906 15907 15908 15909 15910 15911 15912 15913 15914 15915 15916 15917 15918 15919 15920 15921 15922 15923 15924 15925 15926 15927 15928 15929 15930 15931 15932 15933 15934 15935 15936 15937 15938 15939 15940 15941 15942 15943 15944 15945 15946 15947 15948 15949 15950 15951 15952 15953 15954 15955 15956 15957 15958 15959 15960 15961 15962 15963 15964 15965 15966 15967 15968 15969 15970 15971 15972 15973 15974 15975 15976 15977 15978 15979 15980 15981 15982 15983 15984 15985 15986 15987 15988 15989 15990 15991 15992 15993 15994 15995 15996 15997 15998 15999 16000 16001 16002 16003 16004 16005 16006 16007 16008 16009 16010 16011 16012 16013 16014 16015 16016 16017 16018 16019 16020 16021 16022 16023 16024 16025 16026 16027 16028 16029 16030 16031 16032 16033 16034 16035 16036 16037 16038 16039 16040 16041 16042 16043 16044 16045 16046 16047 16048 16049 16050 16051 16052 16053 16054 16055 16056 16057 16058 16059 16060 16061 16062 16063 16064 16065 16066 16067 16068 16069 16070 16071 16072 16073 16074 16075 16076 16077 16078 16079 16080 16081 16082 16083 16084 16085 16086 16087 16088 16089 16090 16091 16092 16093 16094 16095 16096 16097 16098 16099 16100 16101 16102 16103 16104 16105 16106 16107 16108 16109 16110 16111 16112 16113 16114 16115 16116 16117 16118 16119 16120 16121 16122 16123 16124 16125 16126 16127 16128 16129 16130 16131 16132 16133 16134 16135 16136 16137 16138 16139 16140 16141 16142 16143 16144 16145 16146 16147 16148 16149 16150 16151 16152 16153 16154 16155 16156 16157 16158 16159 16160 16161 16162 16163 16164 16165 16166 16167 16168 16169 16170 16171 16172 16173 16174 16175 16176 16177 16178 16179 16180 16181 16182 16183 16184 16185 16186 16187 16188 16189 16190 16191 16192 16193 16194 16195 16196 16197 16198 16199 16200 16201 16202 16203 16204 16205 16206 16207 16208 16209 16210 16211 16212 16213 16214 16215 16216 16217 16218 16219 16220 16221 16222 16223 16224 16225 16226 16227 16228 16229 16230 16231 16232 16233 16234 16235 16236 16237 16238 16239 16240 16241 16242 16243 16244 16245 16246 16247 16248 16249 16250 16251 16252 16253 16254 16255 16256 16257 16258 16259 16260 16261 16262 16263 16264 16265 16266 16267 16268 16269 16270 16271 16272 16273 16274 16275 16276 16277 16278 16279 16280 16281 16282 16283 16284 16285 16286 16287 16288 16289 16290 16291 16292 16293 16294 16295 16296 16297 16298 16299 16300 16301 16302 16303 16304 16305 16306 16307 16308 16309 16310 16311 16312 16313 16314 16315 16316 16317 16318 16319 16320 16321 16322 16323 16324 16325 16326 16327 16328 16329 16330 16331 16332 16333 16334 16335 16336 16337 16338 16339 16340 16341 16342 16343 16344 16345 16346 16347 16348 16349 16350 16351 16352 16353 16354 16355 16356 16357 16358 16359 16360 16361 16362 16363 16364 16365 16366 16367 16368 16369 16370 16371 16372 16373 16374 16375 16376 16377 16378 16379 16380 16381 16382 16383 16384 16385 16386 16387 16388 16389 16390 16391 16392 16393 16394 16395 16396 16397 16398 16399 16400 16401 16402 16403 16404 16405 16406 16407 16408 16409 16410 16411 16412 16413 16414 16415 16416 16417 16418 16419 16420 16421 16422 16423 16424 16425 16426 16427 16428 16429 16430 16431 16432 16433 16434 16435 16436 16437 16438 16439 16440 16441 16442 16443 16444 16445 16446 16447 16448 16449 16450 16451 16452 16453 16454 16455 16456 16457 16458 16459 16460 16461 16462 16463 16464 16465 16466 16467 16468 16469 16470 16471 16472 16473 16474 16475 16476 16477 16478 16479 16480 16481 16482 16483 16484 16485 16486 16487 16488 16489 16490 16491 16492 16493 16494 16495 16496 16497 16498 16499 16500 16501 16502 16503 16504 16505 16506 16507 16508 16509 16510 16511 16512 16513 16514 16515 16516 16517 16518 16519 16520 16521 16522 16523 16524 16525 16526 16527 16528 16529 16530 16531 16532 16533 16534 16535 16536 16537 16538 16539 16540 16541 16542 16543 16544 16545 16546 16547 16548 16549 16550 16551 16552 16553 16554 16555 16556 16557 16558 16559 16560 16561 16562 16563 16564 16565 16566 16567 16568 16569 16570 16571 16572 16573 16574 16575 16576 16577 16578 16579 16580 16581 16582 16583 16584 16585 16586 16587 16588 16589 16590 16591 16592 16593 16594 16595 16596 16597 16598 16599 16600 16601 16602 16603 16604 16605 16606 16607 16608 16609 16610 16611 16612 16613 16614 16615 16616 16617 16618 16619 16620 16621 16622 16623 16624 16625 16626 16627 16628 16629 16630 16631 16632 16633 16634 16635 16636 16637 16638 16639 16640 16641 16642 16643 16644 16645 16646 16647 16648 16649 16650 16651 16652 16653 16654 16655 16656 16657 16658 16659 16660 16661 16662 16663 16664 16665 16666 16667 16668 16669 16670 16671 16672 16673 16674 16675 16676 16677 16678 16679 16680 16681 16682 16683 16684 16685 16686 16687 16688 16689 16690 16691 16692 16693 16694 16695 16696 16697 16698 16699 16700 16701 16702 16703 16704 16705 16706 16707 16708 16709 16710 16711 16712 16713 16714 16715 16716 16717 16718 16719 16720 16721 16722 16723 16724 16725 16726 16727 16728 16729 16730 16731 16732 16733 16734 16735 16736 16737 16738 16739 16740 16741 16742 16743 16744 16745 16746 16747 16748 16749 16750 16751 16752 16753 16754 16755 16756 16757 16758 16759 16760 16761 16762 16763 16764 16765 16766 16767 16768 16769 16770 16771 16772 16773 16774 16775 16776 16777 16778 16779 16780 16781 16782 16783 16784 16785 16786 16787 16788 16789 16790 16791 16792 16793 16794 16795 16796 16797 16798 16799 16800 16801 16802 16803 16804 16805 16806 16807 16808 16809 16810 16811 16812 16813 16814 16815 16816 16817 16818 16819 16820 16821 16822 16823 16824 16825 16826 16827 16828 16829 16830 16831 16832 16833 16834 16835 16836 16837 16838 16839 16840 16841 16842 16843 16844 16845 16846 16847 16848 16849 16850 16851 16852 16853 16854 16855 16856 16857 16858 16859 16860 16861 16862 16863 16864 16865 16866 16867 16868 16869 16870 16871 16872 16873 16874 16875 16876 16877 16878 16879 16880 16881 16882 16883 16884 16885 16886 16887 16888 16889 16890 16891 16892 16893 16894 16895 16896 16897 16898 16899 16900 16901 16902 16903 16904 16905 16906 16907 16908 16909 16910 16911 16912 16913 16914 16915 16916 16917 16918 16919 16920 16921 16922 16923 16924 16925 16926 16927 16928 16929 16930 16931 16932 16933 16934 16935 16936 16937 16938 16939 16940 16941 16942 16943 16944 16945 16946 16947 16948 16949 16950 16951 16952 16953 16954 16955 16956 16957 16958 16959 16960 16961 16962 16963 16964 16965 16966 16967 16968 16969 16970 16971 16972 16973 16974 16975 16976 16977 16978 16979 16980 16981 16982 16983 16984 16985 16986 16987 16988 16989 16990 16991 16992 16993 16994 16995 16996 16997 16998 16999 17000 17001 17002 17003 17004 17005 17006 17007 17008 17009 17010 17011 17012 17013 17014 17015 17016 17017 17018 17019 17020 17021 17022 17023 17024 17025 17026 17027 17028 17029 17030 17031 17032 17033 17034 17035 17036 17037 17038 17039 17040 17041 17042 17043 17044 17045 17046 17047 17048 17049 17050 17051 17052 17053 17054 17055 17056 17057 17058 17059 17060 17061 17062 17063 17064 17065 17066 17067 17068 17069 17070 17071 17072 17073 17074 17075 17076 17077 17078 17079 17080 17081 17082 17083 17084 17085 17086 17087 17088 17089 17090 17091 17092 17093 17094 17095 17096 17097 17098 17099 17100 17101 17102 17103 17104 17105 17106 17107 17108 17109 17110 17111 17112 17113 17114 17115 17116 17117 17118 17119 17120 17121 17122 17123 17124 17125 17126 17127 17128 17129 17130 17131 17132 17133 17134 17135 17136 17137 17138 17139 17140 17141 17142 17143 17144 17145 17146 17147 17148 17149 17150 17151 17152 17153 17154 17155 17156 17157 17158 17159 17160 17161 17162 17163 17164 17165 17166 17167 17168 17169 17170 17171 17172 17173 17174 17175 17176 17177 17178 17179 17180 17181 17182 17183 17184 17185 17186 17187 17188 17189 17190 17191 17192 17193 17194 17195 17196 17197 17198 17199 17200 17201 17202 17203 17204 17205 17206 17207 17208 17209 17210 17211 17212 17213 17214 17215 17216 17217 17218 17219 17220 17221 17222 17223 17224 17225 17226 17227 17228 17229 17230 17231 17232 17233 17234 17235 17236 17237 17238 17239 17240 17241 17242 17243 17244 17245 17246 17247 17248 17249 17250 17251 17252 17253 17254 17255 17256 17257 17258 17259 17260 17261 17262 17263 17264 17265 17266 17267 17268 17269 17270 17271 17272 17273 17274 17275 17276 17277 17278 17279 17280 17281 17282 17283 17284 17285 17286 17287 17288 17289 17290 17291 17292 17293 17294 17295 17296 17297 17298 17299 17300 17301 17302 17303 17304 17305 17306 17307 17308 17309 17310 17311 17312 17313 17314 17315 17316 17317 17318 17319 17320 17321 17322 17323 17324 17325 17326 17327 17328 17329 17330 17331 17332 17333 17334 17335 17336 17337 17338 17339 17340 17341 17342 17343 17344 17345 17346 17347 17348 17349 17350 17351 17352 17353 17354 17355 17356 17357 17358 17359 17360 17361 17362 17363 17364 17365 17366 17367 17368 17369 17370 17371 17372 17373 17374 17375 17376 17377 17378 17379 17380 17381 17382 17383 17384 17385 17386 17387 17388 17389 17390 17391 17392 17393 17394 17395 17396 17397 17398 17399 17400 17401 17402 17403 17404 17405 17406 17407 17408 17409 17410 17411 17412 17413 17414 17415 17416 17417 17418 17419 17420 17421 17422 17423 17424 17425 17426 17427 17428 17429 17430 17431 17432 17433 17434 17435 17436 17437 17438 17439 17440 17441 17442 17443 17444 17445 17446 17447 17448 17449 17450 17451 17452 17453 17454 17455 17456 17457 17458 17459 17460 17461 17462 17463 17464 17465 17466 17467 17468 17469 17470 17471 17472 17473 17474 17475 17476 17477 17478 17479 17480 17481 17482 17483 17484 17485 17486 17487 17488 17489 17490 17491 17492 17493 17494 17495 17496 17497 17498 17499 17500 17501 17502 17503 17504 17505 17506 17507 17508 17509 17510 17511 17512 17513 17514 17515 17516 17517 17518 17519 17520 17521 17522 17523 17524 17525 17526 17527 17528 17529 17530 17531 17532 17533 17534 17535 17536 17537 17538 17539 17540 17541 17542 17543 17544 17545 17546 17547 17548 17549 17550 17551 17552 17553 17554 17555 17556 17557 17558 17559 17560 17561 17562 17563 17564 17565 17566 17567 17568 17569 17570 17571 17572 17573 17574 17575 17576 17577 17578 17579 17580 17581 17582 17583 17584 17585 17586 17587 17588 17589 17590 17591 17592 17593 17594 17595 17596 17597 17598 17599 17600 17601 17602 17603 17604 17605 17606 17607 17608 17609 17610 17611 17612 17613 17614 17615 17616 17617 17618 17619 17620 17621 17622 17623 17624 17625 17626 17627 17628 17629 17630 17631 17632 17633 17634 17635 17636 17637 17638 17639 17640 17641 17642 17643 17644 17645 17646 17647 17648 17649 17650 17651 17652 17653 17654 17655 17656 17657 17658 17659 17660 17661 17662 17663 17664 17665 17666 17667 17668 17669 17670 17671 17672 17673 17674 17675 17676 17677 17678 17679 17680 17681 17682 17683 17684 17685 17686 17687 17688 17689 17690 17691 17692 17693 17694 17695 17696 17697 17698 17699 17700 17701 17702 17703 17704 17705 17706 17707 17708 17709 17710 17711 17712 17713 17714 17715 17716 17717 17718 17719 17720 17721 17722 17723 17724 17725 17726 17727 17728 17729 17730 17731 17732 17733 17734 17735 17736 17737 17738 17739 17740 17741 17742 17743 17744 17745 17746 17747 17748 17749 17750 17751 17752 17753 17754 17755 17756 17757 17758 17759 17760 17761 17762 17763 17764 17765 17766 17767 17768 17769 17770 17771 17772 17773 17774 17775 17776 17777 17778 17779 17780 17781 17782 17783 17784 17785 17786 17787 17788 17789 17790 17791 17792 17793 17794 17795 17796 17797 17798 17799 17800 17801 17802 17803 17804 17805 17806 17807 17808 17809 17810 17811 17812 17813 17814 17815 17816 17817 17818 17819 17820 17821 17822 17823 17824 17825 17826 17827 17828 17829 17830 17831 17832 17833 17834 17835 17836 17837 17838 17839 17840 17841 17842 17843 17844 17845 17846 17847 17848 17849 17850 17851 17852 17853 17854 17855 17856 17857 17858 17859 17860 17861 17862 17863 17864 17865 17866 17867 17868 17869 17870 17871 17872 17873 17874 17875 17876 17877 17878 17879 17880 17881 17882 17883 17884 17885 17886 17887 17888 17889 17890 17891 17892 17893 17894 17895 17896 17897 17898 17899 17900 17901 17902 17903 17904 17905 17906 17907 17908 17909 17910 17911 17912 17913 17914 17915 17916 17917 17918 17919 17920 17921 17922 17923 17924 17925 17926 17927 17928 17929 17930 17931 17932 17933 17934 17935 17936 17937 17938 17939 17940 17941 17942 17943 17944 17945 17946 17947 17948 17949 17950 17951 17952 17953 17954 17955 17956 17957 17958 17959 17960 17961 17962 17963 17964 17965 17966 17967 17968 17969 17970 17971 17972 17973 17974 17975 17976 17977 17978 17979 17980 17981 17982 17983 17984 17985 17986 17987 17988 17989 17990 17991 17992 17993 17994 17995 17996 17997 17998 17999 18000 18001 18002 18003 18004 18005 18006 18007 18008 18009 18010 18011 18012 18013 18014 18015 18016 18017 18018 18019 18020 18021 18022 18023 18024 18025 18026 18027 18028 18029 18030 18031 18032 18033 18034 18035 18036 18037 18038 18039 18040 18041 18042 18043 18044 18045 18046 18047 18048 18049 18050 18051 18052 18053 18054 18055 18056 18057 18058 18059 18060 18061 18062 18063 18064 18065 18066 18067 18068 18069 18070 18071 18072 18073 18074 18075 18076 18077 18078 18079 18080 18081 18082 18083 18084 18085 18086 18087 18088 18089 18090 18091 18092 18093 18094 18095 18096 18097 18098 18099 18100 18101 18102 18103 18104 18105 18106 18107 18108 18109 18110 18111 18112 18113 18114 18115 18116 18117 18118 18119 18120 18121 18122 18123 18124 18125 18126 18127 18128 18129 18130 18131 18132 18133 18134 18135 18136 18137 18138 18139 18140 18141 18142 18143 18144 18145 18146 18147 18148 18149 18150 18151 18152 18153 18154 18155 18156 18157 18158 18159 18160 18161 18162 18163 18164 18165 18166 18167 18168 18169 18170 18171 18172 18173 18174 18175 18176 18177 18178 18179 18180 18181 18182 18183 18184 18185 18186 18187 18188 18189 18190 18191 18192 18193 18194 18195 18196 18197 18198 18199 18200 18201 18202 18203 18204 18205 18206 18207 18208 18209 18210 18211 18212 18213 18214 18215 18216 18217 18218 18219 18220 18221 18222 18223 18224 18225 18226 18227 18228 18229 18230 18231 18232 18233 18234 18235 18236 18237 18238 18239 18240 18241 18242 18243 18244 18245 18246 18247 18248 18249 18250 18251 18252 18253 18254 18255 18256 18257 18258 18259 18260 18261 18262 18263 18264 18265 18266 18267 18268 18269 18270 18271 18272 18273 18274 18275 18276 18277 18278 18279 18280 18281 18282 18283 18284 18285 18286 18287 18288 18289 18290 18291 18292 18293 18294 18295 18296 18297 18298 18299 18300 18301 18302 18303 18304 18305 18306 18307 18308 18309 18310 18311 18312 18313 18314 18315 18316 18317 18318 18319 18320 18321 18322 18323 18324 18325 18326 18327 18328 18329 18330 18331 18332 18333 18334 18335 18336 18337 18338 18339 18340 18341 18342 18343 18344 18345 18346 18347 18348 18349 18350 18351 18352 18353 18354 18355 18356 18357 18358 18359 18360 18361 18362 18363 18364 18365 18366 18367 18368 18369 18370 18371 18372 18373 18374 18375 18376 18377 18378 18379 18380 18381 18382 18383 18384 18385 18386 18387 18388 18389 18390 18391 18392 18393 18394 18395 18396 18397 18398 18399 18400 18401 18402 18403 18404 18405 18406 18407 18408 18409 18410 18411 18412 18413 18414 18415 18416 18417 18418 18419 18420 18421 18422 18423 18424 18425 18426 18427 18428 18429 18430 18431 18432 18433 18434 18435 18436 18437 18438 18439 18440 18441 18442 18443 18444 18445 18446 18447 18448 18449 18450 18451 18452 18453 18454 18455 18456 18457 18458 18459 18460 18461 18462 18463 18464 18465 18466 18467 18468 18469 18470 18471 18472 18473 18474 18475 18476 18477 18478 18479 18480 18481 18482 18483 18484 18485 18486 18487 18488 18489 18490 18491 18492 18493 18494 18495 18496 18497 18498 18499 18500 18501 18502 18503 18504 18505 18506 18507 18508 18509 18510 18511 18512 18513 18514 18515 18516 18517 18518 18519 18520 18521 18522 18523 18524 18525 18526 18527 18528 18529 18530 18531 18532 18533 18534 18535 18536 18537 18538 18539 18540 18541 18542 18543 18544 18545 18546 18547 18548 18549 18550 18551 18552 18553 18554 18555 18556 18557 18558 18559 18560 18561 18562 18563 18564 18565 18566 18567 18568 18569 18570 18571 18572 18573 18574 18575 18576 18577 18578 18579 18580 18581 18582 18583 18584 18585 18586 18587 18588 18589 18590 18591 18592 18593 18594 18595 18596 18597 18598 18599 18600 18601 18602 18603 18604 18605 18606 18607 18608 18609 18610 18611 18612 18613 18614 18615 18616 18617 18618 18619 18620 18621 18622 18623 18624 18625 18626 18627 18628 18629 18630 18631 18632 18633 18634 18635 18636 18637 18638 18639 18640 18641 18642 18643 18644 18645 18646 18647 18648 18649 18650 18651 18652 18653 18654 18655 18656 18657 18658 18659 18660 18661 18662 18663 18664 18665 18666 18667 18668 18669 18670 18671 18672 18673 18674 18675 18676 18677 18678 18679 18680 18681 18682 18683 18684 18685 18686 18687 18688 18689 18690 18691 18692 18693 18694 18695 18696 18697 18698 18699 18700 18701 18702 18703 18704 18705 18706 18707 18708 18709 18710 18711 18712 18713 18714 18715 18716 18717 18718 18719 18720 18721 18722 18723 18724 18725 18726 18727 18728 18729 18730 18731 18732 18733 18734 18735 18736 18737 18738 18739 18740 18741 18742 18743 18744 18745 18746 18747 18748 18749 18750 18751 18752 18753 18754 18755 18756 18757 18758 18759 18760 18761 18762 18763 18764 18765 18766 18767 18768 18769 18770 18771 18772 18773 18774 18775 18776 18777 18778 18779 18780 18781 18782 18783 18784 18785 18786 18787 18788 18789 18790 18791 18792 18793 18794 18795 18796 18797 18798 18799 18800 18801 18802 18803 18804 18805 18806 18807 18808 18809 18810 18811 18812 18813 18814 18815 18816 18817 18818 18819 18820 18821 18822 18823 18824 18825 18826 18827 18828 18829 18830 18831 18832 18833 18834 18835 18836 18837 18838 18839 18840 18841 18842 18843 18844 18845 18846 18847 18848 18849 18850 18851 18852 18853 18854 18855 18856 18857 18858 18859 18860 18861 18862 18863 18864 18865 18866 18867 18868 18869 18870 18871 18872 18873 18874 18875 18876 18877 18878 18879 18880 18881 18882 18883 18884 18885 18886 18887 18888 18889 18890 18891 18892 18893 18894 18895 18896 18897 18898 18899 18900 18901 18902 18903 18904 18905 18906 18907 18908 18909 18910 18911 18912 18913 18914 18915 18916 18917 18918 18919 18920 18921 18922 18923 18924 18925 18926 18927 18928 18929 18930 18931 18932 18933 18934 18935 18936 18937 18938 18939 18940 18941 18942 18943 18944 18945 18946 18947 18948 18949 18950 18951 18952 18953 18954 18955 18956 18957 18958 18959 18960 18961 18962 18963 18964 18965 18966 18967 18968 18969 18970 18971 18972 18973 18974 18975 18976 18977 18978 18979 18980 18981 18982 18983 18984 18985 18986 18987 18988 18989 18990 18991 18992 18993 18994 18995 18996 18997 18998 18999 19000 19001 19002 19003 19004 19005 19006 19007 19008 19009 19010 19011 19012 19013 19014 19015 19016 19017 19018 19019 19020 19021 19022 19023 19024 19025 19026 19027 19028 19029 19030 19031 19032 19033 19034 19035 19036 19037 19038 19039 19040 19041 19042 19043 19044 19045 19046 19047 19048 19049 19050 19051 19052 19053 19054 19055 19056 19057 19058 19059 19060 19061 19062 19063 19064 19065 19066 19067 19068 19069 19070 19071 19072 19073 19074 19075 19076 19077 19078 19079 19080 19081 19082 19083 19084 19085 19086 19087 19088 19089 19090 19091 19092 19093 19094 19095 19096 19097 19098 19099 19100 19101 19102 19103 19104 19105 19106 19107 19108 19109 19110 19111 19112 19113 19114 19115 19116 19117 19118 19119 19120 19121 19122 19123 19124 19125 19126 19127 19128 19129 19130 19131 19132 19133 19134 19135 19136 19137 19138 19139 19140 19141 19142 19143 19144 19145 19146 19147 19148 19149 19150 19151 19152 19153 19154 19155 19156 19157 19158 19159 19160 19161 19162 19163 19164 19165 19166 19167 19168 19169 19170 19171 19172 19173 19174 19175 19176 19177 19178 19179 19180 19181 19182 19183 19184 19185 19186 19187 19188 19189 19190 19191 19192 19193 19194 19195 19196 19197 19198 19199 19200 19201 19202 19203 19204 19205 19206 19207 19208 19209 19210 19211 19212 19213 19214 19215 19216 19217 19218 19219 19220 19221 19222 19223 19224 19225 19226 19227 19228 19229 19230 19231 19232 19233 19234 19235 19236 19237 19238 19239 19240 19241 19242 19243 19244 19245 19246 19247 19248 19249 19250 19251 19252 19253 19254 19255 19256 19257 19258 19259 19260 19261 19262 19263 19264 19265 19266 19267 19268 19269 19270 19271 19272 19273 19274 19275 19276 19277 19278 19279 19280 19281 19282 19283 19284 19285 19286 19287 19288 19289 19290 19291 19292 19293 19294 19295 19296 19297 19298 19299 19300 19301 19302 19303 19304 19305 19306 19307 19308 19309 19310 19311 19312 19313 19314 19315 19316 19317 19318 19319 19320 19321 19322 19323 19324 19325 19326 19327 19328 19329 19330 19331 19332 19333 19334 19335 19336 19337 19338 19339 19340 19341 19342 19343 19344 19345 19346 19347 19348 19349 19350 19351 19352 19353 19354 19355 19356 19357 19358 19359 19360 19361 19362 19363 19364 19365 19366 19367 19368 19369 19370 19371 19372 19373 19374 19375 19376 19377 19378 19379 19380 19381 19382 19383 19384 19385 19386 19387 19388 19389 19390 19391 19392 19393 19394 19395 19396 19397 19398 19399 19400 19401 19402 19403 19404 19405 19406 19407 19408 19409 19410 19411 19412 19413 19414 19415 19416 19417 19418 19419 19420 19421 19422 19423 19424 19425 19426 19427 19428 19429 19430 19431 19432 19433 19434 19435 19436 19437 19438 19439 19440 19441 19442 19443 19444 19445 19446 19447 19448 19449 19450 19451 19452 19453 19454 19455 19456 19457 19458 19459 19460 19461 19462 19463 19464 19465 19466 19467 19468 19469 19470 19471 19472 19473 19474 19475 19476 19477 19478 19479 19480 19481 19482 19483 19484 19485 19486 19487 19488 19489 19490 19491 19492 19493 19494 19495 19496 19497 19498 19499 19500 19501 19502 19503 19504 19505 19506 19507 19508 19509 19510 19511 19512 19513 19514 19515 19516 19517 19518 19519 19520 19521 19522 19523 19524 19525 19526 19527 19528 19529 19530 19531 19532 19533 19534 19535 19536 19537 19538 19539 19540 19541 19542 19543 19544 19545 19546 19547 19548 19549 19550 19551 19552 19553 19554 19555 19556 19557 19558 19559 19560 19561 19562 19563 19564 19565 19566 19567 19568 19569 19570 19571 19572 19573 19574 19575 19576 19577 19578 19579 19580 19581 19582 19583 19584 19585 19586 19587 19588 19589 19590 19591 19592 19593 19594 19595 19596 19597 19598 19599 19600 19601 19602 19603 19604 19605 19606 19607 19608 19609 19610 19611 19612 19613 19614 19615 19616 19617 19618 19619 19620 19621 19622 19623 19624 19625 19626 19627 19628 19629 19630 19631 19632 19633 19634 19635 19636 19637 19638 19639 19640 19641 19642 19643 19644 19645 19646 19647 19648 19649 19650 19651 19652 19653 19654 19655 19656 19657 19658 19659 19660 19661 19662 19663 19664 19665 19666 19667 19668 19669 19670 19671 19672 19673 19674 19675 19676 19677 19678 19679 19680 19681 19682 19683 19684 19685 19686 19687 19688 19689 19690 19691 19692 19693 19694 19695 19696 19697 19698 19699 19700 19701 19702 19703 19704 19705 19706 19707 19708 19709 19710 19711 19712 19713 19714 19715 19716 19717 19718 19719 19720 19721 19722 19723 19724 19725 19726 19727 19728 19729 19730 19731 19732 19733 19734 19735 19736 19737 19738 19739 19740 19741 19742 19743 19744 19745 19746 19747 19748 19749 19750 19751 19752 19753 19754 19755 19756 19757 19758 19759 19760 19761 19762 19763 19764 19765 19766 19767 19768 19769 19770 19771 19772 19773 19774 19775 19776 19777 19778 19779 19780 19781 19782 19783 19784 19785 19786 19787 19788 19789 19790 19791 19792 19793 19794 19795 19796 19797 19798 19799 19800 19801 19802 19803 19804 19805 19806 19807 19808 19809 19810 19811 19812 19813 19814 19815 19816 19817 19818 19819 19820 19821 19822 19823 19824 19825 19826 19827 19828 19829 19830 19831 19832 19833 19834 19835 19836 19837 19838 19839 19840 19841 19842 19843 19844 19845 19846 19847 19848 19849 19850 19851 19852 19853 19854 19855 19856 19857 19858 19859 19860 19861 19862 19863 19864 19865 19866 19867 19868 19869 19870 19871 19872 19873 19874 19875 19876 19877 19878 19879 19880 19881 19882 19883 19884 19885 19886 19887 19888 19889 19890 19891 19892 19893 19894 19895 19896 19897 19898 19899 19900 19901 19902 19903 19904 19905 19906 19907 19908 19909 19910 19911 19912 19913 19914 19915 19916 19917 19918 19919 19920 19921 19922 19923 19924 19925 19926 19927 19928 19929 19930 19931 19932 19933 19934 19935 19936 19937 19938 19939 19940 19941 19942 19943 19944 19945 19946 19947 19948 19949 19950 19951 19952 19953 19954 19955 19956 19957 19958 19959 19960 19961 19962 19963 19964 19965 19966 19967 19968 19969 19970 19971 19972 19973 19974 19975 19976 19977 19978 19979 19980 19981 19982 19983 19984 19985 19986 19987 19988 19989 19990 19991 19992 19993 19994 19995 19996 19997 19998 19999 20000 20001 20002 20003 20004 20005 20006 20007 20008 20009 20010 20011 20012 20013 20014 20015 20016 20017 20018 20019 20020 20021 20022 20023 20024 20025 20026 20027 20028 20029 20030 20031 20032 20033 20034 20035 20036 20037 20038 20039 20040 20041 20042 20043 20044 20045 20046 20047 20048 20049 20050 20051 20052 20053 20054 20055 20056 20057 20058 20059 20060 20061 20062 20063 20064 20065 20066 20067 20068 20069 20070 20071 20072 20073 20074 20075 20076 20077 20078 20079 20080 20081 20082 20083 20084 20085 20086 20087 20088 20089 20090 20091 20092 20093 20094 20095 20096 20097 20098 20099 20100 20101 20102 20103 20104 20105 20106 20107 20108 20109 20110 20111 20112 20113 20114 20115 20116 20117 20118 20119 20120 20121 20122 20123 20124 20125 20126 20127 20128 20129 20130 20131 20132 20133 20134 20135 20136 20137 20138 20139 20140 20141 20142 20143 20144 20145 20146 20147 20148 20149 20150 20151 20152 20153 20154 20155 20156 20157 20158 20159 20160 20161 20162 20163 20164 20165 20166 20167 20168 20169 20170 20171 20172 20173 20174 20175 20176 20177 20178 20179 20180 20181 20182 20183 20184 20185 20186 20187 20188 20189 20190 20191 20192 20193 20194 20195 20196 20197 20198 20199 20200 20201 20202 20203 20204 20205 20206 20207 20208 20209 20210 20211 20212 20213 20214 20215 20216 20217 20218 20219 20220 20221 20222 20223 20224 20225 20226 20227 20228 20229 20230 20231 20232 20233 20234 20235 20236 20237 20238 20239 20240 20241 20242 20243 20244 20245 20246 20247 20248 20249 20250 20251 20252 20253 20254 20255 20256 20257 20258 20259 20260 20261 20262 20263 20264 20265 20266 20267 20268 20269 20270 20271 20272 20273 20274 20275 20276 20277 20278 20279 20280 20281 20282 20283 20284 20285 20286 20287 20288 20289 20290 20291 20292 20293 20294 20295 20296 20297 20298 20299 20300 20301 20302 20303 20304 20305 20306 20307 20308 20309 20310 20311 20312 20313 20314 20315 20316 20317 20318 20319 20320 20321 20322 20323 20324 20325 20326 20327 20328 20329 20330 20331 20332 20333 20334 20335 20336 20337 20338 20339 20340 20341 20342 20343 20344 20345 20346 20347 20348 20349 20350 20351 20352 20353 20354 20355 20356 20357 20358 20359 20360 20361 20362 20363 20364 20365 20366 20367 20368 20369 20370 20371 20372 20373 20374 20375 20376 20377 20378 20379 20380 20381 20382 20383 20384 20385 20386 20387 20388 20389 20390 20391 20392 20393 20394 20395 20396 20397 20398 20399 20400 20401 20402 20403 20404 20405 20406 20407 20408 20409 20410 20411 20412 20413 20414 20415 20416 20417 20418 20419 20420 20421 20422 20423 20424 20425 20426 20427 20428 20429 20430 20431 20432 20433 20434 20435 20436 20437 20438 20439 20440 20441 20442 20443 20444 20445 20446 20447 20448 20449 20450 20451 20452 20453 20454 20455 20456 20457 20458 20459 20460 20461 20462 20463 20464 20465 20466 20467 20468 20469 20470 20471 20472 20473 20474 20475 20476 20477 20478 20479 20480 20481 20482 20483 20484 20485 20486 20487 20488 20489 20490 20491 20492 20493 20494 20495 20496 20497 20498 20499 20500 20501 20502 20503 20504 20505 20506 20507 20508 20509 20510 20511 20512 20513 20514 20515 20516 20517 20518 20519 20520 20521 20522 20523 20524 20525 20526 20527 20528 20529 20530 20531 20532 20533 20534 20535 20536 20537 20538 20539 20540 20541 20542 20543 20544 20545 20546 20547 20548 20549 20550 20551 20552 20553 20554 20555 20556 20557 20558 20559 20560 20561 20562 20563 20564 20565 20566 20567 20568 20569 20570 20571 20572 20573 20574 20575 20576 20577 20578 20579 20580 20581 20582 20583 20584 20585 20586 20587 20588 20589 20590 20591 20592 20593 20594 20595 20596 20597 20598 20599 20600 20601 20602 20603 20604 20605 20606 20607 20608 20609 20610 20611 20612 20613 20614 20615 20616 20617 20618 20619 20620 20621 20622 20623 20624 20625 20626 20627 20628 20629 20630 20631 20632 20633 20634 20635 20636 20637 20638 20639 20640 20641 20642 20643 20644 20645 20646 20647 20648 20649 20650 20651 20652 20653 20654 20655 20656 20657 20658 20659 20660 20661 20662 20663 20664 20665 20666 20667 20668 20669 20670 20671 20672 20673 20674 20675 20676 20677 20678 20679 20680 20681 20682 20683 20684 20685 20686 20687 20688 20689 20690 20691 20692 20693 20694 20695 20696 20697 20698 20699 20700 20701 20702 20703 20704 20705 20706 20707 20708 20709 20710 20711 20712 20713 20714 20715 20716 20717 20718 20719 20720 20721 20722 20723 20724 20725 20726 20727 20728 20729 20730 20731 20732 20733 20734 20735 20736 20737 20738 20739 20740 20741 20742 20743 20744 20745 20746 20747 20748 20749 20750 20751 20752 20753 20754 20755 20756 20757 20758 20759 20760 20761 20762 20763 20764 20765 20766 20767 20768 20769 20770 20771 20772 20773 20774 20775 20776 20777 20778 20779 20780 20781 20782 20783 20784 20785 20786 20787 20788 20789 20790 20791 20792 20793 20794 20795 20796 20797 20798 20799 20800 20801 20802 20803 20804 20805 20806 20807 20808 20809 20810 20811 20812 20813 20814 20815 20816 20817 20818 20819 20820 20821 20822 20823 20824 20825 20826 20827 20828 20829 20830 20831 20832 20833 20834 20835 20836 20837 20838 20839 20840 20841 20842 20843 20844 20845 20846 20847 20848 20849 20850 20851 20852 20853 20854 20855 20856 20857 20858 20859 20860 20861 20862 20863 20864 20865 20866 20867 20868 20869 20870 20871 20872 20873 20874 20875 20876 20877 20878 20879 20880 20881 20882 20883 20884 20885 20886 20887 20888 20889 20890 20891 20892 20893 20894 20895 20896 20897 20898 20899 20900 20901 20902 20903 20904 20905 20906 20907 20908 20909 20910 20911 20912 20913 20914 20915 20916 20917 20918 20919 20920 20921 20922 20923 20924 20925 20926 20927 20928 20929 20930 20931 20932 20933 20934 20935 20936 20937 20938 20939 20940 20941 20942 20943 20944 20945 20946 20947 20948 20949 20950 20951 20952 20953 20954 20955 20956 20957 20958 20959 20960 20961 20962 20963 20964 20965 20966 20967 20968 20969 20970 20971 20972 20973 20974 20975 20976 20977 20978 20979 20980 20981 20982 20983 20984 20985 20986 20987 20988 20989 20990 20991 20992 20993 20994 20995 20996 20997 20998 20999 21000 21001 21002 21003 21004 21005 21006 21007 21008 21009 21010 21011 21012 21013 21014 21015 21016 21017 21018 21019 21020 21021 21022 21023 21024 21025 21026 21027 21028 21029 21030 21031 21032 21033 21034 21035 21036 21037 21038 21039 21040 21041 21042 21043 21044 21045 21046 21047 21048 21049 21050 21051 21052 21053 21054 21055 21056 21057 21058 21059 21060 21061 21062 21063 21064 21065 21066 21067 21068 21069 21070 21071 21072 21073 21074 21075 21076 21077 21078 21079 21080 21081 21082 21083 21084 21085 21086 21087 21088 21089 21090 21091 21092 21093 21094 21095 21096 21097 21098 21099 21100 21101 21102 21103 21104 21105 21106 21107 21108 21109 21110 21111 21112 21113 21114 21115 21116 21117 21118 21119 21120 21121 21122 21123 21124 21125 21126 21127 21128 21129 21130 21131 21132 21133 21134 21135 21136 21137 21138 21139 21140 21141 21142 21143 21144 21145 21146 21147 21148 21149 21150 21151 21152 21153 21154 21155 21156 21157 21158 21159 21160 21161 21162 21163 21164 21165 21166 21167 21168 21169 21170 21171 21172 21173 21174 21175 21176 21177 21178 21179 21180 21181 21182 21183 21184 21185 21186 21187 21188 21189 21190 21191 21192 21193 21194 21195 21196 21197 21198 21199 21200 21201 21202 21203 21204 21205 21206 21207 21208 21209 21210 21211 21212 21213 21214 21215 21216 21217 21218 21219 21220 21221 21222 21223 21224 21225 21226 21227 21228 21229 21230 21231 21232 21233 21234 21235 21236 21237 21238 21239 21240 21241 21242 21243 21244 21245 21246 21247 21248 21249 21250 21251 21252 21253 21254 21255 21256 21257 21258 21259 21260 21261 21262 21263 21264 21265 21266 21267 21268 21269 21270 21271 21272 21273 21274 21275 21276 21277 21278 21279 21280 21281 21282 21283 21284 21285 21286 21287 21288 21289 21290 21291 21292 21293 21294 21295 21296 21297 21298 21299 21300 21301 21302 21303 21304 21305 21306 21307 21308 21309 21310 21311 21312 21313 21314 21315 21316 21317 21318 21319 21320 21321 21322 21323 21324 21325 21326 21327 21328 21329 21330 21331 21332 21333 21334 21335 21336 21337 21338 21339 21340 21341 21342 21343 21344 21345 21346 21347 21348 21349 21350 21351 21352 21353 21354 21355 21356 21357 21358 21359 21360 21361 21362 21363 21364 21365 21366 21367 21368 21369 21370 21371 21372 21373 21374 21375 21376 21377 21378 21379 21380 21381 21382 21383 21384 21385 21386 21387 21388 21389 21390 21391 21392 21393 21394 21395 21396 21397 21398 21399 21400 21401 21402 21403 21404 21405 21406 21407 21408 21409 21410 21411 21412 21413 21414 21415 21416 21417 21418 21419 21420 21421 21422 21423 21424 21425 21426 21427 21428 21429 21430 21431 21432 21433 21434 21435 21436 21437 21438 21439 21440 21441 21442 21443 21444 21445 21446 21447 21448 21449 21450 21451 21452 21453 21454 21455 21456 21457 21458 21459 21460 21461 21462 21463 21464 21465 21466 21467 21468 21469 21470 21471 21472 21473 21474 21475 21476 21477 21478 21479 21480 21481 21482 21483 21484 21485 21486 21487 21488 21489 21490 21491 21492 21493 21494 21495 21496 21497 21498 21499 21500 21501 21502 21503 21504 21505 21506 21507 21508 21509 21510 21511 21512 21513 21514 21515 21516 21517 21518 21519 21520 21521 21522 21523 21524 21525 21526 21527 21528 21529 21530 21531 21532 21533 21534 21535 21536 21537 21538 21539 21540 21541 21542 21543 21544 21545 21546 21547 21548 21549 21550 21551 21552 21553 21554 21555 21556 21557 21558 21559 21560 21561 21562 21563 21564 21565 21566 21567 21568 21569 21570 21571 21572 21573 21574 21575 21576 21577 21578 21579 21580 21581 21582 21583 21584 21585 21586 21587 21588 21589 21590 21591 21592 21593 21594 21595 21596 21597 21598 21599 21600 21601 21602 21603 21604 21605 21606 21607 21608 21609 21610 21611 21612 21613 21614 21615 21616 21617 21618 21619 21620 21621 21622 21623 21624 21625 21626 21627 21628 21629 21630 21631 21632 21633 21634 21635 21636 21637 21638 21639 21640 21641 21642 21643 21644 21645 21646 21647 21648 21649 21650 21651 21652 21653 21654 21655 21656 21657 21658 21659 21660 21661 21662 21663 21664 21665 21666 21667 21668 21669 21670 21671 21672 21673 21674 21675 21676 21677 21678 21679 21680 21681 21682 21683 21684 21685 21686 21687 21688 21689 21690 21691 21692 21693 21694 21695 21696 21697 21698 21699 21700 21701 21702 21703 21704 21705 21706 21707 21708 21709 21710 21711 21712 21713 21714 21715 21716 21717 21718 21719 21720 21721 21722 21723 21724 21725 21726 21727 21728 21729 21730 21731 21732 21733 21734 21735 21736 21737 21738 21739 21740 21741 21742 21743 21744 21745 21746 21747 21748 21749 21750 21751 21752 21753 21754 21755 21756 21757 21758 21759 21760 21761 21762 21763 21764 21765 21766 21767 21768 21769 21770 21771 21772 21773 21774 21775 21776 21777 21778 21779 21780 21781 21782 21783 21784 21785 21786 21787 21788 21789 21790 21791 21792 21793 21794 21795 21796 21797 21798 21799 21800 21801 21802 21803 21804 21805 21806 21807 21808 21809 21810 21811 21812 21813 21814 21815 21816 21817 21818 21819 21820 21821 21822 21823 21824 21825 21826 21827 21828 21829 21830 21831 21832 21833 21834 21835 21836 21837 21838 21839 21840 21841 21842 21843 21844 21845 21846 21847 21848 21849 21850 21851 21852 21853 21854 21855 21856 21857 21858 21859 21860 21861 21862 21863 21864 21865 21866 21867 21868 21869 21870 21871 21872 21873 21874 21875 21876 21877 21878 21879 21880 21881 21882 21883 21884 21885 21886 21887 21888 21889 21890 21891 21892 21893 21894 21895 21896 21897 21898 21899 21900 21901 21902 21903 21904 21905 21906 21907 21908 21909 21910 21911 21912 21913 21914 21915 21916 21917 21918 21919 21920 21921 21922 21923 21924 21925 21926 21927 21928 21929 21930 21931 21932 21933 21934 21935 21936 21937 21938 21939 21940 21941 21942 21943 21944 21945 21946 21947 21948 21949 21950 21951 21952 21953 21954 21955 21956 21957 21958 21959 21960 21961 21962 21963 21964 21965 21966 21967 21968 21969 21970 21971 21972 21973 21974 21975 21976 21977 21978 21979 21980 21981 21982 21983 21984 21985 21986 21987 21988 21989 21990 21991 21992 21993 21994 21995 21996 21997 21998 21999 22000 22001 22002 22003 22004 22005 22006 22007 22008 22009 22010 22011 22012 22013 22014 22015 22016 22017 22018 22019 22020 22021 22022 22023 22024 22025 22026 22027 22028 22029 22030 22031 22032 22033 22034 22035 22036 22037 22038 22039 22040 22041 22042 22043 22044 22045 22046 22047 22048 22049 22050 22051 22052 22053 22054 22055 22056 22057 22058 22059 22060 22061 22062 22063 22064 22065 22066 22067 22068 22069 22070 22071 22072 22073 22074 22075 22076 22077 22078 22079 22080 22081 22082 22083 22084 22085 22086 22087 22088 22089 22090 22091 22092 22093 22094 22095 22096 22097 22098 22099 22100 22101 22102 22103 22104 22105 22106 22107 22108 22109 22110 22111 22112 22113 22114 22115 22116 22117 22118 22119 22120 22121 22122 22123 22124 22125 22126 22127 22128 22129 22130 22131 22132 22133 22134 22135 22136 22137 22138 22139 22140 22141 22142 22143 22144 22145 22146 22147 22148 22149 22150 22151 22152 22153 22154 22155 22156 22157 22158 22159 22160 22161 22162 22163 22164 22165 22166 22167 22168 22169 22170 22171 22172 22173 22174 22175 22176 22177 22178 22179 22180 22181 22182 22183 22184 22185 22186 22187 22188 22189 22190 22191 22192 22193 22194 22195 22196 22197 22198 22199 22200 22201 22202 22203 22204 22205 22206 22207 22208 22209 22210 22211 22212 22213 22214 22215 22216 22217 22218 22219 22220 22221 22222 22223 22224 22225 22226 22227 22228 22229 22230 22231 22232 22233 22234 22235 22236 22237 22238 22239 22240 22241 22242 22243 22244 22245 22246 22247 22248 22249 22250 22251 22252 22253 22254 22255 22256 22257 22258 22259 22260 22261 22262 22263 22264 22265 22266 22267 22268 22269 22270 22271 22272 22273 22274 22275 22276 22277 22278 22279 22280 22281 22282 22283 22284 22285 22286 22287 22288 22289 22290 22291 22292 22293 22294 22295 22296 22297 22298 22299 22300 22301 22302 22303 22304 22305 22306 22307 22308 22309 22310 22311 22312 22313 22314 22315 22316 22317 22318 22319 22320 22321 22322 22323 22324 22325 22326 22327 22328 22329 22330 22331 22332 22333 22334 22335 22336 22337 22338 22339 22340 22341 22342 22343 22344 22345 22346 22347 22348 22349 22350 22351 22352 22353 22354 22355 22356 22357 22358 22359 22360 22361 22362 22363 22364 22365 22366 22367 22368 22369 22370 22371 22372 22373 22374 22375 22376 22377 22378 22379 22380 22381 22382 22383 22384 22385 22386 22387 22388 22389 22390 22391 22392 22393 22394 22395 22396 22397 22398 22399 22400 22401 22402 22403 22404 22405 22406 22407 22408 22409 22410 22411 22412 22413 22414 22415 22416 22417 22418 22419 22420 22421 22422 22423 22424 22425 22426 22427 22428 22429 22430 22431 22432 22433 22434 22435 22436 22437 22438 22439 22440 22441 22442 22443 22444 22445 22446 22447 22448 22449 22450 22451 22452 22453 22454 22455 22456 22457 22458 22459 22460 22461 22462 22463 22464 22465 22466 22467 22468 22469 22470 22471 22472 22473 22474 22475 22476 22477 22478 22479 22480 22481 22482 22483 22484 22485 22486 22487 22488 22489 22490 22491 22492 22493 22494 22495 22496 22497 22498 22499 22500 22501 22502 22503 22504 22505 22506 22507 22508 22509 22510 22511 22512 22513 22514 22515 22516 22517 22518 22519 22520 22521 22522 22523 22524 22525 22526 22527 22528 22529 22530 22531 22532 22533 22534 22535 22536 22537 22538 22539 22540 22541 22542 22543 22544 22545 22546 22547 22548 22549 22550 22551 22552 22553 22554 22555 22556 22557 22558 22559 22560 22561 22562 22563 22564 22565 22566 22567 22568 22569 22570 22571 22572 22573 22574 22575 22576 22577 22578 22579 22580 22581 22582 22583 22584 22585 22586 22587 22588 22589 22590 22591 22592 22593 22594 22595 22596 22597 22598 22599 22600 22601 22602 22603 22604 22605 22606 22607 22608 22609 22610 22611 22612 22613 22614 22615 22616 22617 22618 22619 22620 22621 22622 22623 22624 22625 22626 22627 22628 22629 22630 22631 22632 22633 22634 22635 22636 22637 22638 22639 22640 22641 22642 22643 22644 22645 22646 22647 22648 22649 22650 22651 22652 22653 22654 22655 22656 22657 22658 22659 22660 22661 22662 22663 22664 22665 22666 22667 22668 22669 22670 22671 22672 22673 22674 22675 22676 22677 22678 22679 22680 22681 22682 22683 22684 22685 22686 22687 22688 22689 22690 22691 22692 22693 22694 22695 22696 22697 22698 22699 22700 22701 22702 22703 22704 22705 22706 22707 22708 22709 22710 22711 22712 22713 22714 22715 22716 22717 22718 22719 22720 22721 22722 22723 22724 22725 22726 22727 22728 22729 22730 22731 22732 22733 22734 22735 22736 22737 22738 22739 22740 22741 22742 22743 22744 22745 22746 22747 22748 22749 22750 22751 22752 22753 22754 22755 22756 22757 22758 22759 22760 22761 22762 22763 22764 22765 22766 22767 22768 22769 22770 22771 22772 22773 22774 22775 22776 22777 22778 22779 22780 22781 22782 22783 22784 22785 22786 22787 22788 22789 22790 22791 22792 22793 22794 22795 22796 22797 22798 22799 22800 22801 22802 22803 22804 22805 22806 22807 22808 22809 22810 22811 22812 22813 22814 22815 22816 22817 22818 22819 22820 22821 22822 22823 22824 22825 22826 22827 22828 22829 22830 22831 22832 22833 22834 22835 22836 22837 22838 22839 22840 22841 22842 22843 22844 22845 22846 22847 22848 22849 22850 22851 22852 22853 22854 22855 22856 22857 22858 22859 22860 22861 22862 22863 22864 22865 22866 22867 22868 22869 22870 22871 22872 22873 22874 22875 22876 22877 22878 22879 22880 22881 22882 22883 22884 22885 22886 22887 22888 22889 22890 22891 22892 22893 22894 22895 22896 22897 22898 22899 22900 22901 22902 22903 22904 22905 22906 22907 22908 22909 22910 22911 22912 22913 22914 22915 22916 22917 22918 22919 22920 22921 22922 22923 22924 22925 22926 22927 22928 22929 22930 22931 22932 22933 22934 22935 22936 22937 22938 22939 22940 22941 22942 22943 22944 22945 22946 22947 22948 22949 22950 22951 22952 22953 22954 22955 22956 22957 22958 22959 22960 22961 22962 22963 22964 22965 22966 22967 22968 22969 22970 22971 22972 22973 22974 22975 22976 22977 22978 22979 22980 22981 22982 22983 22984 22985 22986 22987 22988 22989 22990 22991 22992 22993 22994 22995 22996 22997 22998 22999 23000 23001 23002 23003 23004 23005 23006 23007 23008 23009 23010 23011 23012 23013 23014 23015 23016 23017 23018 23019 23020 23021 23022 23023 23024 23025 23026 23027 23028 23029 23030 23031 23032 23033 23034 23035 23036 23037 23038 23039 23040 23041 23042 23043 23044 23045 23046 23047 23048 23049 23050 23051 23052 23053 23054 23055 23056 23057 23058 23059 23060 23061 23062 23063 23064 23065 23066 23067 23068 23069 23070 23071 23072 23073 23074 23075 23076 23077 23078 23079 23080 23081 23082 23083 23084 23085 23086 23087 23088 23089 23090 23091 23092 23093 23094 23095 23096 23097 23098 23099 23100 23101 23102 23103 23104 23105 23106 23107 23108 23109 23110 23111 23112 23113 23114 23115 23116 23117 23118 23119 23120 23121 23122 23123 23124 23125 23126 23127 23128 23129 23130 23131 23132 23133 23134 23135 23136 23137 23138 23139 23140 23141 23142 23143 23144 23145 23146 23147 23148 23149 23150 23151 23152 23153 23154 23155 23156 23157 23158 23159 23160 23161 23162 23163 23164 23165 23166 23167 23168 23169 23170 23171 23172 23173 23174 23175 23176 23177 23178 23179 23180 23181 23182 23183 23184 23185 23186 23187 23188 23189 23190 23191 23192 23193 23194 23195 23196 23197 23198 23199 23200 23201 23202 23203 23204 23205 23206 23207 23208 23209 23210 23211 23212 23213 23214 23215 23216 23217 23218 23219 23220 23221 23222 23223 23224 23225 23226 23227 23228 23229 23230 23231 23232 23233 23234 23235 23236 23237 23238 23239 23240 23241 23242 23243 23244 23245 23246 23247 23248 23249 23250 23251 23252 23253 23254 23255 23256 23257 23258 23259 23260 23261 23262 23263 23264 23265 23266 23267 23268 23269 23270 23271 23272 23273 23274 23275 23276 23277 23278 23279 23280 23281 23282 23283 23284 23285 23286 23287 23288 23289 23290 23291 23292 23293 23294 23295 23296 23297 23298 23299 23300 23301 23302 23303 23304 23305 23306 23307 23308 23309 23310 23311 23312 23313 23314 23315 23316 23317 23318 23319 23320 23321 23322 23323 23324 23325 23326 23327 23328 23329 23330 23331 23332 23333 23334 23335 23336 23337 23338 23339 23340 23341 23342 23343 23344 23345 23346 23347 23348 23349 23350 23351 23352 23353 23354 23355 23356 23357 23358 23359 23360 23361 23362 23363 23364 23365 23366 23367 23368 23369 23370 23371 23372 23373 23374 23375 23376 23377 23378 23379 23380 23381 23382 23383 23384 23385 23386 23387 23388 23389 23390 23391 23392 23393 23394 23395 23396 23397 23398 23399 23400 23401 23402 23403 23404 23405 23406 23407 23408 23409 23410 23411 23412 23413 23414 23415 23416 23417 23418 23419 23420 23421 23422 23423 23424 23425 23426 23427 23428 23429 23430 23431 23432 23433 23434 23435 23436 23437 23438 23439 23440 23441 23442 23443 23444 23445 23446 23447 23448 23449 23450 23451 23452 23453 23454 23455 23456 23457 23458 23459 23460 23461 23462 23463 23464 23465 23466 23467 23468 23469 23470 23471 23472 23473 23474 23475 23476 23477 23478 23479 23480 23481 23482 23483 23484 23485 23486 23487 23488 23489 23490 23491 23492 23493 23494 23495 23496 23497 23498 23499 23500 23501 23502 23503 23504 23505 23506 23507 23508 23509 23510 23511 23512 23513 23514 23515 23516 23517 23518 23519 23520 23521 23522 23523 23524 23525 23526 23527 23528 23529 23530 23531 23532 23533 23534 23535 23536 23537 23538 23539 23540 23541 23542 23543 23544 23545 23546 23547 23548 23549 23550 23551 23552 23553 23554 23555 23556 23557 23558 23559 23560 23561 23562 23563 23564 23565 23566 23567 23568 23569 23570 23571 23572 23573 23574 23575 23576 23577 23578 23579 23580 23581 23582 23583 23584 23585 23586 23587 23588 23589 23590 23591 23592 23593 23594 23595 23596 23597 23598 23599 23600 23601 23602 23603 23604 23605 23606 23607 23608 23609 23610 23611 23612 23613 23614 23615 23616 23617 23618 23619 23620 23621 23622 23623 23624 23625 23626 23627 23628 23629 23630 23631 23632 23633 23634 23635 23636 23637 23638 23639 23640 23641 23642 23643 23644 23645 23646 23647 23648 23649 23650 23651 23652 23653 23654 23655 23656 23657 23658 23659 23660 23661 23662 23663 23664 23665 23666 23667 23668 23669 23670 23671 23672 23673 23674 23675 23676 23677 23678 23679 23680 23681 23682 23683 23684 23685 23686 23687 23688 23689 23690 23691 23692 23693 23694 23695 23696 23697 23698 23699 23700 23701 23702 23703 23704 23705 23706 23707 23708 23709 23710 23711 23712 23713 23714 23715 23716 23717 23718 23719 23720 23721 23722 23723 23724 23725 23726 23727 23728 23729 23730 23731 23732 23733 23734 23735 23736 23737 23738 23739 23740 23741 23742 23743 23744 23745 23746 23747 23748 23749 23750 23751 23752 23753 23754 23755 23756 23757 23758 23759 23760 23761 23762 23763 23764 23765 23766 23767 23768 23769 23770 23771 23772 23773 23774 23775 23776 23777 23778 23779 23780 23781 23782 23783 23784 23785 23786 23787 23788 23789 23790 23791 23792 23793 23794 23795 23796 23797 23798 23799 23800 23801 23802 23803 23804 23805 23806 23807 23808 23809 23810 23811 23812 23813 23814 23815 23816 23817 23818 23819 23820 23821 23822 23823 23824 23825 23826 23827 23828 23829 23830 23831 23832 23833 23834 23835 23836 23837 23838 23839 23840 23841 23842 23843 23844 23845 23846 23847 23848 23849 23850 23851 23852 23853 23854 23855 23856 23857 23858 23859 23860 23861 23862 23863 23864 23865 23866 23867 23868 23869 23870 23871 23872 23873 23874 23875 23876 23877 23878 23879 23880 23881 23882 23883 23884 23885 23886 23887 23888 23889 23890 23891 23892 23893 23894 23895 23896 23897 23898 23899 23900 23901 23902 23903 23904 23905 23906 23907 23908 23909 23910 23911 23912 23913 23914 23915 23916 23917 23918 23919 23920 23921 23922 23923 23924 23925 23926 23927 23928 23929 23930 23931 23932 23933 23934 23935 23936 23937 23938 23939 23940 23941 23942 23943 23944 23945 23946 23947 23948 23949 23950 23951 23952 23953 23954 23955 23956 23957 23958 23959 23960 23961 23962 23963 23964 23965 23966 23967 23968 23969 23970 23971 23972 23973 23974 23975 23976 23977 23978 23979 23980 23981 23982 23983 23984 23985 23986 23987 23988 23989 23990 23991 23992 23993 23994 23995 23996 23997 23998 23999 24000 24001 24002 24003 24004 24005 24006 24007 24008 24009 24010 24011 24012 24013 24014 24015 24016 24017 24018 24019 24020 24021 24022 24023 24024 24025 24026 24027 24028 24029 24030 24031 24032 24033 24034 24035 24036 24037 24038 24039 24040 24041 24042 24043 24044 24045 24046 24047 24048 24049 24050 24051 24052 24053 24054 24055 24056 24057 24058 24059 24060 24061 24062 24063 24064 24065 24066 24067 24068 24069 24070 24071 24072 24073 24074 24075 24076 24077 24078 24079 24080 24081 24082 24083 24084 24085 24086 24087 24088 24089 24090 24091 24092 24093 24094 24095 24096 24097 24098 24099 24100 24101 24102 24103 24104 24105 24106 24107 24108 24109 24110 24111 24112 24113 24114 24115 24116 24117 24118 24119 24120 24121 24122 24123 24124 24125 24126 24127 24128 24129 24130 24131 24132 24133 24134 24135 24136 24137 24138 24139 24140 24141 24142 24143 24144 24145 24146 24147 24148 24149 24150 24151 24152 24153 24154 24155 24156 24157 24158 24159 24160 24161 24162 24163 24164 24165 24166 24167 24168 24169 24170 24171 24172 24173 24174 24175 24176 24177 24178 24179 24180 24181 24182 24183 24184 24185 24186 24187 24188 24189 24190 24191 24192 24193 24194 24195 24196 24197 24198 24199 24200 24201 24202 24203 24204 24205 24206 24207 24208 24209 24210 24211 24212 24213 24214 24215 24216 24217 24218 24219 24220 24221 24222 24223 24224 24225 24226 24227 24228 24229 24230 24231 24232 24233 24234 24235 24236 24237 24238 24239 24240 24241 24242 24243 24244 24245 24246 24247 24248 24249 24250 24251 24252 24253 24254 24255 24256 24257 24258 24259 24260 24261 24262 24263 24264 24265 24266 24267 24268 24269 24270 24271 24272 24273 24274 24275 24276 24277 24278 24279 24280 24281 24282 24283 24284 24285 24286 24287 24288 24289 24290 24291 24292 24293 24294 24295 24296 24297 24298 24299 24300 24301 24302 24303 24304 24305 24306 24307 24308 24309 24310 24311 24312 24313 24314 24315 24316 24317 24318 24319 24320 24321 24322 24323 24324 24325 24326 24327 24328 24329 24330 24331 24332 24333 24334 24335 24336 24337 24338 24339 24340 24341 24342 24343 24344 24345 24346 24347 24348 24349 24350 24351 24352 24353 24354 24355 24356 24357 24358 24359 24360 24361 24362 24363 24364 24365 24366 24367 24368 24369 24370 24371 24372 24373 24374 24375 24376 24377 24378 24379 24380 24381 24382 24383 24384 24385 24386 24387 24388 24389 24390 24391 24392 24393 24394 24395 24396 24397 24398 24399 24400 24401 24402 24403 24404 24405 24406 24407 24408 24409 24410 24411 24412 24413 24414 24415 24416 24417 24418 24419 24420 24421 24422 24423 24424 24425 24426 24427 24428 24429 24430 24431 24432 24433 24434 24435 24436 24437 24438 24439 24440 24441 24442 24443 24444 24445 24446 24447 24448 24449 24450 24451 24452 24453 24454 24455 24456 24457 24458 24459 24460 24461 24462 24463 24464 24465 24466 24467 24468 24469 24470 24471 24472 24473 24474 24475 24476 24477 24478 24479 24480 24481 24482 24483 24484 24485 24486 24487 24488 24489 24490 24491 24492 24493 24494 24495 24496 24497 24498 24499 24500 24501 24502 24503 24504 24505 24506 24507 24508 24509 24510 24511 24512 24513 24514 24515 24516 24517 24518 24519 24520 24521 24522 24523 24524 24525 24526 24527 24528 24529 24530 24531 24532 24533 24534 24535 24536 24537 24538 24539 24540 24541 24542 24543 24544 24545 24546 24547 24548 24549 24550 24551 24552 24553 24554 24555 24556 24557 24558 24559 24560 24561 24562 24563 24564 24565 24566 24567 24568 24569 24570 24571 24572 24573 24574 24575 24576 24577 24578 24579 24580 24581 24582 24583 24584 24585 24586 24587 24588 24589 24590 24591 24592 24593 24594 24595 24596 24597 24598 24599 24600 24601 24602 24603 24604 24605 24606 24607 24608 24609 24610 24611 24612 24613 24614 24615 24616 24617 24618 24619 24620 24621 24622 24623 24624 24625 24626 24627 24628 24629 24630 24631 24632 24633 24634 24635 24636 24637 24638 24639 24640 24641 24642 24643 24644 24645 24646 24647 24648 24649 24650 24651 24652 24653 24654 24655 24656 24657 24658 24659 24660 24661 24662 24663 24664 24665 24666 24667 24668 24669 24670 24671 24672 24673 24674 24675 24676 24677 24678 24679 24680 24681 24682 24683 24684 24685 24686 24687 24688 24689 24690 24691 24692 24693 24694 24695 24696 24697 24698 24699 24700 24701 24702 24703 24704 24705 24706 24707 24708 24709 24710 24711 24712 24713 24714 24715 24716 24717 24718 24719 24720 24721 24722 24723 24724 24725 24726 24727 24728 24729 24730 24731 24732 24733 24734 24735 24736 24737 24738 24739 24740 24741 24742 24743 24744 24745 24746 24747 24748 24749 24750 24751 24752 24753 24754 24755 24756 24757 24758 24759 24760 24761 24762 24763 24764 24765 24766 24767 24768 24769 24770 24771 24772 24773 24774 24775 24776 24777 24778 24779 24780 24781 24782 24783 24784 24785 24786 24787 24788 24789 24790 24791 24792 24793 24794 24795 24796 24797 24798 24799 24800 24801 24802 24803 24804 24805 24806 24807 24808 24809 24810 24811 24812 24813 24814 24815 24816 24817 24818 24819 24820 24821 24822 24823 24824 24825 24826 24827 24828 24829 24830 24831 24832 24833 24834 24835 24836 24837 24838 24839 24840 24841 24842 24843 24844 24845 24846 24847 24848 24849 24850 24851 24852 24853 24854 24855 24856 24857 24858 24859 24860 24861 24862 24863 24864 24865 24866 24867 24868 24869 24870 24871 24872 24873 24874 24875 24876 24877 24878 24879 24880 24881 24882 24883 24884 24885 24886 24887 24888 24889 24890 24891 24892 24893 24894 24895 24896 24897 24898 24899 24900 24901 24902 24903 24904 24905 24906 24907 24908 24909 24910 24911 24912 24913 24914 24915 24916 24917 24918 24919 24920 24921 24922 24923 24924 24925 24926 24927 24928 24929 24930 24931 24932 24933 24934 24935 24936 24937 24938 24939 24940 24941 24942 24943 24944 24945 24946 24947 24948 24949 24950 24951 24952 24953 24954 24955 24956 24957 24958 24959 24960 24961 24962 24963 24964 24965 24966 24967 24968 24969 24970 24971 24972 24973 24974 24975 24976 24977 24978 24979 24980 24981 24982 24983 24984 24985 24986 24987 24988 24989 24990 24991 24992 24993 24994 24995 24996 24997 24998 24999 25000 25001 25002 25003 25004 25005 25006 25007 25008 25009 25010 25011 25012 25013 25014 25015 25016 25017 25018 25019 25020 25021 25022 25023 25024 25025 25026 25027 25028 25029 25030 25031 25032 25033 25034 25035 25036 25037 25038 25039 25040 25041 25042 25043 25044 25045 25046 25047 25048 25049 25050 25051 25052 25053 25054 25055 25056 25057 25058 25059 25060 25061 25062 25063 25064 25065 25066 25067 25068 25069 25070 25071 25072 25073 25074 25075 25076 25077 25078 25079 25080 25081 25082 25083 25084 25085 25086 25087 25088 25089 25090 25091 25092 25093 25094 25095 25096 25097 25098 25099 25100 25101 25102 25103 25104 25105 25106 25107 25108 25109 25110 25111 25112 25113 25114 25115 25116 25117 25118 25119 25120 25121 25122 25123 25124 25125 25126 25127 25128 25129 25130 25131 25132 25133 25134 25135 25136 25137 25138 25139 25140 25141 25142 25143 25144 25145 25146 25147 25148 25149 25150 25151 25152 25153 25154 25155 25156 25157 25158 25159 25160 25161 25162 25163 25164 25165 25166 25167 25168 25169 25170 25171 25172 25173 25174 25175 25176 25177 25178 25179 25180 25181 25182 25183 25184 25185 25186 25187 25188 25189 25190 25191 25192 25193 25194 25195 25196 25197 25198 25199 25200 25201 25202 25203 25204 25205 25206 25207 25208 25209 25210 25211 25212 25213 25214 25215 25216 25217 25218 25219 25220 25221 25222 25223 25224 25225 25226 25227 25228 25229 25230 25231 25232 25233 25234 25235 25236 25237 25238 25239 25240 25241 25242 25243 25244 25245 25246 25247 25248 25249 25250 25251 25252 25253 25254 25255 25256 25257 25258 25259 25260 25261 25262 25263 25264 25265 25266 25267 25268 25269 25270 25271 25272 25273 25274 25275 25276 25277 25278 25279 25280 25281 25282 25283 25284 25285 25286 25287 25288 25289 25290 25291 25292 25293 25294 25295 25296 25297 25298 25299 25300 25301 25302 25303 25304 25305 25306 25307 25308 25309 25310 25311 25312 25313 25314 25315 25316 25317 25318 25319 25320 25321 25322 25323 25324 25325 25326 25327 25328 25329 25330 25331 25332 25333 25334 25335 25336 25337 25338 25339 25340 25341 25342 25343 25344 25345 25346 25347 25348 25349 25350 25351 25352 25353 25354 25355 25356 25357 25358 25359 25360 25361 25362 25363 25364 25365 25366 25367 25368 25369 25370 25371 25372 25373 25374 25375 25376 25377 25378 25379 25380 25381 25382 25383 25384 25385 25386 25387 25388 25389 25390 25391 25392 25393 25394 25395 25396 25397 25398 25399 25400 25401 25402 25403 25404 25405 25406 25407 25408 25409 25410 25411 25412 25413 25414 25415 25416 25417 25418 25419 25420 25421 25422 25423 25424 25425 25426 25427 25428 25429 25430 25431 25432 25433 25434 25435 25436 25437 25438 25439 25440 25441 25442 25443 25444 25445 25446 25447 25448 25449 25450 25451 25452 25453 25454 25455 25456 25457 25458 25459 25460 25461 25462 25463 25464 25465 25466 25467 25468 25469 25470 25471 25472 25473 25474 25475 25476 25477 25478 25479 25480 25481 25482 25483 25484 25485 25486 25487 25488 25489 25490 25491 25492 25493 25494 25495 25496 25497 25498 25499 25500 25501 25502 25503 25504 25505 25506 25507 25508 25509 25510 25511 25512 25513 25514 25515 25516 25517 25518 25519 25520 25521 25522 25523 25524 25525 25526 25527 25528 25529 25530 25531 25532 25533 25534 25535 25536 25537 25538 25539 25540 25541 25542 25543 25544 25545 25546 25547 25548 25549 25550 25551 25552 25553 25554 25555 25556 25557 25558 25559 25560 25561 25562 25563 25564 25565 25566 25567 25568 25569 25570 25571 25572 25573 25574 25575 25576 25577 25578 25579 25580 25581 25582 25583 25584 25585 25586 25587 25588 25589 25590 25591 25592 25593 25594 25595 25596 25597 25598 25599 25600 25601 25602 25603 25604 25605 25606 25607 25608 25609 25610 25611 25612 25613 25614 25615 25616 25617 25618 25619 25620 25621 25622 25623 25624 25625 25626 25627 25628 25629 25630 25631 25632 25633 25634 25635 25636 25637 25638 25639 25640 25641 25642 25643 25644 25645 25646 25647 25648 25649 25650 25651 25652 25653 25654 25655 25656 25657 25658 25659 25660 25661 25662 25663 25664 25665 25666 25667 25668 25669 25670 25671 25672 25673 25674 25675 25676 25677 25678 25679 25680 25681 25682 25683 25684 25685 25686 25687 25688 25689 25690 25691 25692 25693 25694 25695 25696 25697 25698 25699 25700 25701 25702 25703 25704 25705 25706 25707 25708 25709 25710 25711 25712 25713 25714 25715 25716 25717 25718 25719 25720 25721 25722 25723 25724 25725 25726 25727 25728 25729 25730 25731 25732 25733 25734 25735 25736 25737 25738 25739 25740 25741 25742 25743 25744 25745 25746 25747 25748 25749 25750 25751 25752 25753 25754 25755 25756 25757 25758 25759 25760 25761 25762 25763 25764 25765 25766 25767 25768 25769 25770 25771 25772 25773 25774 25775 25776 25777 25778 25779 25780 25781 25782 25783 25784 25785 25786 25787 25788 25789 25790 25791 25792 25793 25794 25795 25796 25797 25798 25799 25800 25801 25802 25803 25804 25805 25806 25807 25808 25809 25810 25811 25812 25813 25814 25815 25816 25817 25818 25819 25820 25821 25822 25823 25824 25825 25826 25827 25828 25829 25830 25831 25832 25833 25834 25835 25836 25837 25838 25839 25840 25841 25842 25843 25844 25845 25846 25847 25848 25849 25850 25851 25852 25853 25854 25855 25856 25857 25858 25859 25860 25861 25862 25863 25864 25865 25866 25867 25868 25869 25870 25871 25872 25873 25874 25875 25876 25877 25878 25879 25880 25881 25882 25883 25884 25885 25886 25887 25888 25889 25890 25891 25892 25893 25894 25895 25896 25897 25898 25899 25900 25901 25902 25903 25904 25905 25906 25907 25908 25909 25910 25911 25912 25913 25914 25915 25916 25917 25918 25919 25920 25921 25922 25923 25924 25925 25926 25927 25928 25929 25930 25931 25932 25933 25934 25935 25936 25937 25938 25939 25940 25941 25942 25943 25944 25945 25946 25947 25948 25949 25950 25951 25952 25953 25954 25955 25956 25957 25958 25959 25960 25961 25962 25963 25964 25965 25966 25967 25968 25969 25970 25971 25972 25973 25974 25975 25976 25977 25978 25979 25980 25981 25982 25983 25984 25985 25986 25987 25988 25989 25990 25991 25992 25993 25994 25995 25996 25997 25998 25999 26000 26001 26002 26003 26004 26005 26006 26007 26008 26009 26010 26011 26012 26013 26014 26015 26016 26017 26018 26019 26020 26021 26022 26023 26024 26025 26026 26027 26028 26029 26030 26031 26032 26033 26034 26035 26036 26037 26038 26039 26040 26041 26042 26043 26044 26045 26046 26047 26048 26049 26050 26051 26052 26053 26054 26055 26056 26057 26058 26059 26060 26061 26062 26063 26064 26065 26066 26067 26068 26069 26070 26071 26072 26073 26074 26075 26076 26077 26078 26079 26080 26081 26082 26083 26084 26085 26086 26087 26088 26089 26090 26091 26092 26093 26094 26095 26096 26097 26098 26099 26100 26101 26102 26103 26104 26105 26106 26107 26108 26109 26110 26111 26112 26113 26114 26115 26116 26117 26118 26119 26120 26121 26122 26123 26124 26125 26126 26127 26128 26129 26130 26131 26132 26133 26134 26135 26136 26137 26138 26139 26140 26141 26142 26143 26144 26145 26146 26147 26148 26149 26150 26151 26152 26153 26154 26155 26156 26157 26158 26159 26160 26161 26162 26163 26164 26165 26166 26167 26168 26169 26170 26171 26172 26173 26174 26175 26176 26177 26178 26179 26180 26181 26182 26183 26184 26185 26186 26187 26188 26189 26190 26191 26192 26193 26194 26195 26196 26197 26198 26199 26200 26201 26202 26203 26204 26205 26206 26207 26208 26209 26210 26211 26212 26213 26214 26215 26216 26217 26218 26219 26220 26221 26222 26223 26224 26225 26226 26227 26228 26229 26230 26231 26232 26233 26234 26235 26236 26237 26238 26239 26240 26241 26242 26243 26244 26245 26246 26247 26248 26249 26250 26251 26252 26253 26254 26255 26256 26257 26258 26259 26260 26261 26262 26263 26264 26265 26266 26267 26268 26269 26270 26271 26272 26273 26274 26275 26276 26277 26278 26279 26280 26281 26282 26283 26284 26285 26286 26287 26288 26289 26290 26291 26292 26293 26294 26295 26296 26297 26298 26299 26300 26301 26302 26303 26304 26305 26306 26307 26308 26309 26310 26311 26312 26313 26314 26315 26316 26317 26318 26319 26320 26321 26322 26323 26324 26325 26326 26327 26328 26329 26330 26331 26332 26333 26334 26335 26336 26337 26338 26339 26340 26341 26342 26343 26344 26345 26346 26347 26348 26349 26350 26351 26352 26353 26354 26355 26356 26357 26358 26359 26360 26361 26362 26363 26364 26365 26366 26367 26368 26369 26370 26371 26372 26373 26374 26375 26376 26377 26378 26379 26380 26381 26382 26383 26384 26385 26386 26387 26388 26389 26390 26391 26392 26393 26394 26395 26396 26397 26398 26399 26400 26401 26402 26403 26404 26405 26406 26407 26408 26409 26410 26411 26412 26413 26414 26415 26416 26417 26418 26419 26420 26421 26422 26423 26424 26425 26426 26427 26428 26429 26430 26431 26432 26433 26434 26435 26436 26437 26438 26439 26440 26441 26442 26443 26444 26445 26446 26447 26448 26449 26450 26451 26452 26453 26454 26455 26456 26457 26458 26459 26460 26461 26462 26463 26464 26465 26466 26467 26468 26469 26470 26471 26472 26473 26474 26475 26476 26477 26478 26479 26480 26481 26482 26483 26484 26485 26486 26487 26488 26489 26490 26491 26492 26493 26494 26495 26496 26497 26498 26499 26500 26501 26502 26503 26504 26505 26506 26507 26508 26509 26510 26511 26512 26513 26514 26515 26516 26517 26518 26519 26520 26521 26522 26523 26524 26525 26526 26527 26528 26529 26530 26531 26532 26533 26534 26535 26536 26537 26538 26539 26540 26541 26542 26543 26544 26545 26546 26547 26548 26549 26550 26551 26552 26553 26554 26555 26556 26557 26558 26559 26560 26561 26562 26563 26564 26565 26566 26567 26568 26569 26570 26571 26572 26573 26574 26575 26576 26577 26578 26579 26580 26581 26582 26583 26584 26585 26586 26587 26588 26589 26590 26591 26592 26593 26594 26595 26596 26597 26598 26599 26600 26601 26602 26603 26604 26605 26606 26607 26608 26609 26610 26611 26612 26613 26614 26615 26616 26617 26618 26619 26620 26621 26622 26623 26624 26625 26626 26627 26628 26629 26630 26631 26632 26633 26634 26635 26636 26637 26638 26639 26640 26641 26642 26643 26644 26645 26646 26647 26648 26649 26650 26651 26652 26653 26654 26655 26656 26657 26658 26659 26660 26661 26662 26663 26664 26665 26666 26667 26668 26669 26670 26671 26672 26673 26674 26675 26676 26677 26678 26679 26680 26681 26682 26683 26684 26685 26686 26687 26688 26689 26690 26691 26692 26693 26694 26695 26696 26697 26698 26699 26700 26701 26702 26703 26704 26705 26706 26707 26708 26709 26710 26711 26712 26713 26714 26715 26716 26717 26718 26719 26720 26721 26722 26723 26724 26725 26726 26727 26728 26729 26730 26731 26732 26733 26734 26735 26736 26737 26738 26739 26740 26741 26742 26743 26744 26745 26746 26747 26748 26749 26750 26751 26752 26753 26754 26755 26756 26757 26758 26759 26760 26761 26762 26763 26764 26765 26766 26767 26768 26769 26770 26771 26772 26773 26774 26775 26776 26777 26778 26779 26780 26781 26782 26783 26784 26785 26786 26787 26788 26789 26790 26791 26792 26793 26794 26795 26796 26797 26798 26799 26800 26801 26802 26803 26804 26805 26806 26807 26808 26809 26810 26811 26812 26813 26814 26815 26816 26817 26818 26819 26820 26821 26822 26823 26824 26825 26826 26827 26828 26829 26830 26831 26832 26833 26834 26835 26836 26837 26838 26839 26840 26841 26842 26843 26844 26845 26846 26847 26848 26849 26850 26851 26852 26853 26854 26855 26856 26857 26858 26859 26860 26861 26862 26863 26864 26865 26866 26867 26868 26869 26870 26871 26872 26873 26874 26875 26876 26877 26878 26879 26880 26881 26882 26883 26884 26885 26886 26887 26888 26889 26890 26891 26892 26893 26894 26895 26896 26897 26898 26899 26900 26901 26902 26903 26904 26905 26906 26907 26908 26909 26910 26911 26912 26913 26914 26915 26916 26917 26918 26919 26920 26921 26922 26923 26924 26925 26926 26927 26928 26929 26930 26931 26932 26933 26934 26935 26936 26937 26938 26939 26940 26941 26942 26943 26944 26945 26946 26947 26948 26949 26950 26951 26952 26953 26954 26955 26956 26957 26958 26959 26960 26961 26962 26963 26964 26965 26966 26967 26968 26969 26970 26971 26972 26973 26974 26975 26976 26977 26978 26979 26980 26981 26982 26983 26984 26985 26986 26987 26988 26989 26990 26991 26992 26993 26994 26995 26996 26997 26998 26999 27000 27001 27002 27003 27004 27005 27006 27007 27008 27009 27010 27011 27012 27013 27014 27015 27016 27017 27018 27019 27020 27021 27022 27023 27024 27025 27026 27027 27028 27029 27030 27031 27032 27033 27034 27035 27036 27037 27038 27039 27040 27041 27042 27043 27044 27045 27046 27047 27048 27049 27050 27051 27052 27053 27054 27055 27056 27057 27058 27059 27060 27061 27062 27063 27064 27065 27066 27067 27068 27069 27070 27071 27072 27073 27074 27075 27076 27077 27078 27079 27080 27081 27082 27083 27084 27085 27086 27087 27088 27089 27090 27091 27092 27093 27094 27095 27096 27097 27098 27099 27100 27101 27102 27103 27104 27105 27106 27107 27108 27109 27110 27111 27112 27113 27114 27115 27116 27117 27118 27119 27120 27121 27122 27123 27124 27125 27126 27127 27128 27129 27130 27131 27132 27133 27134 27135 27136 27137 27138 27139 27140 27141 27142 27143 27144 27145 27146 27147 27148 27149 27150 27151 27152 27153 27154 27155 27156 27157 27158 27159 27160 27161 27162 27163 27164 27165 27166 27167 27168 27169 27170 27171 27172 27173 27174 27175 27176 27177 27178 27179 27180 27181 27182 27183 27184 27185 27186 27187 27188 27189 27190 27191 27192 27193 27194 27195 27196 27197 27198 27199 27200 27201 27202 27203 27204 27205 27206 27207 27208 27209 27210 27211 27212 27213 27214 27215 27216 27217 27218 27219 27220 27221 27222 27223 27224 27225 27226 27227 27228 27229 27230 27231 27232 27233 27234 27235 27236 27237 27238 27239 27240 27241 27242 27243 27244 27245 27246 27247 27248 27249 27250 27251 27252 27253 27254 27255 27256 27257 27258 27259 27260 27261 27262 27263 27264 27265 27266 27267 27268 27269 27270 27271 27272 27273 27274 27275 27276 27277 27278 27279 27280 27281 27282 27283 27284 27285 27286 27287 27288 27289 27290 27291 27292 27293 27294 27295 27296 27297 27298 27299 27300 27301 27302 27303 27304 27305 27306 27307 27308 27309 27310 27311 27312 27313 27314 27315 27316 27317 27318 27319 27320 27321 27322 27323 27324 27325 27326 27327 27328 27329 27330 27331 27332 27333 27334 27335 27336 27337 27338 27339 27340 27341 27342 27343 27344 27345 27346 27347 27348 27349 27350 27351 27352 27353 27354 27355 27356 27357 27358 27359 27360 27361 27362 27363 27364 27365 27366 27367 27368 27369 27370 27371 27372 27373 27374 27375 27376 27377 27378 27379 27380 27381 27382 27383 27384 27385 27386 27387 27388 27389 27390 27391 27392 27393 27394 27395 27396 27397 27398 27399 27400 27401 27402 27403 27404 27405 27406 27407 27408 27409 27410 27411 27412 27413 27414 27415 27416 27417 27418 27419 27420 27421 27422 27423 27424 27425 27426 27427 27428 27429 27430 27431 27432 27433 27434 27435 27436 27437 27438 27439 27440 27441 27442 27443 27444 27445 27446 27447 27448 27449 27450 27451 27452 27453 27454 27455 27456 27457 27458 27459 27460 27461 27462 27463 27464 27465 27466 27467 27468 27469 27470 27471 27472 27473 27474 27475 27476 27477 27478 27479 27480 27481 27482 27483 27484 27485 27486 27487 27488 27489 27490 27491 27492 27493 27494 27495 27496 27497 27498 27499 27500 27501 27502 27503 27504 27505 27506 27507 27508 27509 27510 27511 27512 27513 27514 27515 27516 27517 27518 27519 27520 27521 27522 27523 27524 27525 27526 27527 27528 27529 27530 27531 27532 27533 27534 27535 27536 27537 27538 27539 27540 27541 27542 27543 27544 27545 27546 27547 27548 27549 27550 27551 27552 27553 27554 27555 27556 27557 27558 27559 27560 27561 27562 27563 27564 27565 27566 27567 27568 27569 27570 27571 27572 27573 27574 27575 27576 27577 27578 27579 27580 27581 27582 27583 27584 27585 27586 27587 27588 27589 27590 27591 27592 27593 27594 27595 27596 27597 27598 27599 27600 27601 27602 27603 27604 27605 27606 27607 27608 27609 27610 27611 27612 27613 27614 27615 27616 27617 27618 27619 27620 27621 27622 27623 27624 27625 27626 27627 27628 27629 27630 27631 27632 27633 27634 27635 27636 27637 27638 27639 27640 27641 27642 27643 27644 27645 27646 27647 27648 27649 27650 27651 27652 27653 27654 27655 27656 27657 27658 27659 27660 27661 27662 27663 27664 27665 27666 27667 27668 27669 27670 27671 27672 27673 27674 27675 27676 27677 27678 27679 27680 27681 27682 27683 27684 27685 27686 27687 27688 27689 27690 27691 27692 27693 27694 27695 27696 27697 27698 27699 27700 27701 27702 27703 27704 27705 27706 27707 27708 27709 27710 27711 27712 27713 27714 27715 27716 27717 27718 27719 27720 27721 27722 27723 27724 27725 27726 27727 27728 27729 27730 27731 27732 27733 27734 27735 27736 27737 27738 27739 27740 27741 27742 27743 27744 27745 27746 27747 27748 27749 27750 27751 27752 27753 27754 27755 27756 27757 27758 27759 27760 27761 27762 27763 27764 27765 27766 27767 27768 27769 27770 27771 27772 27773 27774 27775 27776 27777 27778 27779 27780 27781 27782 27783 27784 27785 27786 27787 27788 27789 27790 27791 27792 27793 27794 27795 27796 27797 27798 27799 27800 27801 27802 27803 27804 27805 27806 27807 27808 27809 27810 27811 27812 27813 27814 27815 27816 27817 27818 27819 27820 27821 27822 27823 27824 27825 27826 27827 27828 27829 27830 27831 27832 27833 27834 27835 27836 27837 27838 27839 27840 27841 27842 27843 27844 27845 27846 27847 27848 27849 27850 27851 27852 27853 27854 27855 27856 27857 27858 27859 27860 27861 27862 27863 27864 27865 27866 27867 27868 27869 27870 27871 27872 27873 27874 27875 27876 27877 27878 27879 27880 27881 27882 27883 27884 27885 27886 27887 27888 27889 27890 27891 27892 27893 27894 27895 27896 27897 27898 27899 27900 27901 27902 27903 27904 27905 27906 27907 27908 27909 27910 27911 27912 27913 27914 27915 27916 27917 27918 27919 27920 27921 27922 27923 27924 27925 27926 27927 27928 27929 27930 27931 27932 27933 27934 27935 27936 27937 27938 27939 27940 27941 27942 27943 27944 27945 27946 27947 27948 27949 27950 27951 27952 27953 27954 27955 27956 27957 27958 27959 27960 27961 27962 27963 27964 27965 27966 27967 27968 27969 27970 27971 27972 27973 27974 27975 27976 27977 27978 27979 27980 27981 27982 27983 27984 27985 27986 27987 27988 27989 27990 27991 27992 27993 27994 27995 27996 27997 27998 27999 28000 28001 28002 28003 28004 28005 28006 28007 28008 28009 28010 28011 28012 28013 28014 28015 28016 28017 28018 28019 28020 28021 28022 28023 28024 28025 28026 28027 28028 28029 28030 28031 28032 28033 28034 28035 28036 28037 28038 28039 28040 28041 28042 28043 28044 28045 28046 28047 28048 28049 28050 28051 28052 28053 28054 28055 28056 28057 28058 28059 28060 28061 28062 28063 28064 28065 28066 28067 28068 28069 28070 28071 28072 28073 28074 28075 28076 28077 28078 28079 28080 28081 28082 28083 28084 28085 28086 28087 28088 28089 28090 28091 28092 28093 28094 28095 28096 28097 28098 28099 28100 28101 28102 28103 28104 28105 28106 28107 28108 28109 28110 28111 28112 28113 28114 28115 28116 28117 28118 28119 28120 28121 28122 28123 28124 28125 28126 28127 28128 28129 28130 28131 28132 28133 28134 28135 28136 28137 28138 28139 28140 28141 28142 28143 28144 28145 28146 28147 28148 28149 28150 28151 28152 28153 28154 28155 28156 28157 28158 28159 28160 28161 28162 28163 28164 28165 28166 28167 28168 28169 28170 28171 28172 28173 28174 28175 28176 28177 28178 28179 28180 28181 28182 28183 28184 28185 28186 28187 28188 28189 28190 28191 28192 28193 28194 28195 28196 28197 28198 28199 28200 28201 28202 28203 28204 28205 28206 28207 28208 28209 28210 28211 28212 28213 28214 28215 28216 28217 28218 28219 28220 28221 28222 28223 28224 28225 28226 28227 28228 28229 28230 28231 28232 28233 28234 28235 28236 28237 28238 28239 28240 28241 28242 28243 28244 28245 28246 28247 28248 28249 28250 28251 28252 28253 28254 28255 28256 28257 28258 28259 28260 28261 28262 28263 28264 28265 28266 28267 28268 28269 28270 28271 28272 28273 28274 28275 28276 28277 28278 28279 28280 28281 28282 28283 28284 28285 28286 28287 28288 28289 28290 28291 28292 28293 28294 28295 28296 28297 28298 28299 28300 28301 28302 28303 28304 28305 28306 28307 28308 28309 28310 28311 28312 28313 28314 28315 28316 28317 28318 28319 28320 28321 28322 28323 28324 28325 28326 28327 28328 28329 28330 28331 28332 28333 28334 28335 28336 28337 28338 28339 28340 28341 28342 28343 28344 28345 28346 28347 28348 28349 28350 28351 28352 28353 28354 28355 28356 28357 28358 28359 28360 28361 28362 28363 28364 28365 28366 28367 28368 28369 28370 28371 28372 28373 28374 28375 28376 28377 28378 28379 28380 28381 28382 28383 28384 28385 28386 28387 28388 28389 28390 28391 28392 28393 28394 28395 28396 28397 28398 28399 28400 28401 28402 28403 28404 28405 28406 28407 28408 28409 28410 28411 28412 28413 28414 28415 28416 28417 28418 28419 28420 28421 28422 28423 28424 28425 28426 28427 28428 28429 28430 28431 28432 28433 28434 28435 28436 28437 28438 28439 28440 28441 28442 28443 28444 28445 28446 28447 28448 28449 28450 28451 28452 28453 28454 28455 28456 28457 28458 28459 28460 28461 28462 28463 28464 28465 28466 28467 28468 28469 28470 28471 28472 28473 28474 28475 28476 28477 28478 28479 28480 28481 28482 28483 28484 28485 28486 28487 28488 28489 28490 28491 28492 28493 28494 28495 28496 28497 28498 28499 28500 28501 28502 28503 28504 28505 28506 28507 28508 28509 28510 28511 28512 28513 28514 28515 28516 28517 28518 28519 28520 28521 28522 28523 28524 28525 28526 28527 28528 28529 28530 28531 28532 28533 28534 28535 28536 28537 28538 28539 28540 28541 28542 28543 28544 28545 28546 28547 28548 28549 28550 28551 28552 28553 28554 28555 28556 28557 28558 28559 28560 28561 28562 28563 28564 28565 28566 28567 28568 28569 28570 28571 28572 28573 28574 28575 28576 28577 28578 28579 28580 28581 28582 28583 28584 28585 28586 28587 28588 28589 28590 28591 28592 28593 28594 28595 28596 28597 28598 28599 28600 28601 28602 28603 28604 28605 28606 28607 28608 28609 28610 28611 28612 28613 28614 28615 28616 28617 28618 28619 28620 28621 28622 28623 28624 28625 28626 28627 28628 28629 28630 28631 28632 28633 28634 28635 28636 28637 28638 28639 28640 28641 28642 28643 28644 28645 28646 28647 28648 28649 28650 28651 28652 28653 28654 28655 28656 28657 28658 28659 28660 28661 28662 28663 28664 28665 28666 28667 28668 28669 28670 28671 28672 28673 28674 28675 28676 28677 28678 28679 28680 28681 28682 28683 28684 28685 28686 28687 28688 28689 28690 28691 28692 28693 28694 28695 28696 28697 28698 28699 28700 28701 28702 28703 28704 28705 28706 28707 28708 28709 28710 28711 28712 28713 28714 28715 28716 28717 28718 28719 28720 28721 28722 28723 28724 28725 28726 28727 28728 28729 28730 28731 28732 28733 28734 28735 28736 28737 28738 28739 28740 28741 28742 28743 28744 28745 28746 28747 28748 28749 28750 28751 28752 28753 28754 28755 28756 28757 28758 28759 28760 28761 28762 28763 28764 28765 28766 28767 28768 28769 28770 28771 28772 28773 28774 28775 28776 28777 28778 28779 28780 28781 28782 28783 28784 28785 28786 28787 28788 28789 28790 28791 28792 28793 28794 28795 28796 28797 28798 28799 28800 28801 28802 28803 28804 28805 28806 28807 28808 28809 28810 28811 28812 28813 28814 28815 28816 28817 28818 28819 28820 28821 28822 28823 28824 28825 28826 28827 28828 28829 28830 28831 28832 28833 28834 28835 28836 28837 28838 28839 28840 28841 28842 28843 28844 28845 28846 28847 28848 28849 28850 28851 28852 28853 28854 28855 28856 28857 28858 28859 28860 28861 28862 28863 28864 28865 28866 28867 28868 28869 28870 28871 28872 28873 28874 28875 28876 28877 28878 28879 28880 28881 28882 28883 28884 28885 28886 28887 28888 28889 28890 28891 28892 28893 28894 28895 28896 28897 28898 28899 28900 28901 28902 28903 28904 28905 28906 28907 28908 28909 28910 28911 28912 28913 28914 28915 28916 28917 28918 28919 28920 28921 28922 28923 28924 28925 28926 28927 28928 28929 28930 28931 28932 28933 28934 28935 28936 28937 28938 28939 28940 28941 28942 28943 28944 28945 28946 28947 28948 28949 28950 28951 28952 28953 28954 28955 28956 28957 28958 28959 28960 28961 28962 28963 28964 28965 28966 28967 28968 28969 28970 28971 28972 28973 28974 28975 28976 28977 28978 28979 28980 28981 28982 28983 28984 28985 28986 28987 28988 28989 28990 28991 28992 28993 28994 28995 28996 28997 28998 28999 29000 29001 29002 29003 29004 29005 29006 29007 29008 29009 29010 29011 29012 29013 29014 29015 29016 29017 29018 29019 29020 29021 29022 29023 29024 29025 29026 29027 29028 29029 29030 29031 29032 29033 29034 29035 29036 29037 29038 29039 29040 29041 29042 29043 29044 29045 29046 29047 29048 29049 29050 29051 29052 29053 29054 29055 29056 29057 29058 29059 29060 29061 29062 29063 29064 29065 29066 29067 29068 29069 29070 29071 29072 29073 29074 29075 29076 29077 29078 29079 29080 29081 29082 29083 29084 29085 29086 29087 29088 29089 29090 29091 29092 29093 29094 29095 29096 29097 29098 29099 29100 29101 29102 29103 29104 29105 29106 29107 29108 29109 29110 29111 29112 29113 29114 29115 29116 29117 29118 29119 29120 29121 29122 29123 29124 29125 29126 29127 29128 29129 29130 29131 29132 29133 29134 29135 29136 29137 29138 29139 29140 29141 29142 29143 29144 29145 29146 29147 29148 29149 29150 29151 29152 29153 29154 29155 29156 29157 29158 29159 29160 29161 29162 29163 29164 29165 29166 29167 29168 29169 29170 29171 29172 29173 29174 29175 29176 29177 29178 29179 29180 29181 29182 29183 29184 29185 29186 29187 29188 29189 29190 29191 29192 29193 29194 29195 29196 29197 29198 29199 29200 29201 29202 29203 29204 29205 29206 29207 29208 29209 29210 29211 29212 29213 29214 29215 29216 29217 29218 29219 29220 29221 29222 29223 29224 29225 29226 29227 29228 29229 29230 29231 29232 29233 29234 29235 29236 29237 29238 29239 29240 29241 29242 29243 29244 29245 29246 29247 29248 29249 29250 29251 29252 29253 29254 29255 29256 29257 29258 29259 29260 29261 29262 29263 29264 29265 29266 29267 29268 29269 29270 29271 29272 29273 29274 29275 29276 29277 29278 29279 29280 29281 29282 29283 29284 29285 29286 29287 29288 29289 29290 29291 29292 29293 29294 29295 29296 29297 29298 29299 29300 29301 29302 29303 29304 29305 29306 29307 29308 29309 29310 29311 29312 29313 29314 29315 29316 29317 29318 29319 29320 29321 29322 29323 29324 29325 29326 29327 29328 29329 29330 29331 29332 29333 29334 29335 29336 29337 29338 29339 29340 29341 29342 29343 29344 29345 29346 29347 29348 29349 29350 29351 29352 29353 29354 29355 29356 29357 29358 29359 29360 29361 29362 29363 29364 29365 29366 29367 29368 29369 29370 29371 29372 29373 29374 29375 29376 29377 29378 29379 29380 29381 29382 29383 29384 29385 29386 29387 29388 29389 29390 29391 29392 29393 29394 29395 29396 29397 29398 29399 29400 29401 29402 29403 29404 29405 29406 29407 29408 29409 29410 29411 29412 29413 29414 29415 29416 29417 29418 29419 29420 29421 29422 29423 29424 29425 29426 29427 29428 29429 29430 29431 29432 29433 29434 29435 29436 29437 29438 29439 29440 29441 29442 29443 29444 29445 29446 29447 29448 29449 29450 29451 29452 29453 29454 29455 29456 29457 29458 29459 29460 29461 29462 29463 29464 29465 29466 29467 29468 29469 29470 29471 29472 29473 29474 29475 29476 29477 29478 29479 29480 29481 29482 29483 29484 29485 29486 29487 29488 29489 29490 29491 29492 29493 29494 29495 29496 29497 29498 29499 29500 29501 29502 29503 29504 29505 29506 29507 29508 29509 29510 29511 29512 29513 29514 29515 29516 29517 29518 29519 29520 29521 29522 29523 29524 29525 29526 29527 29528 29529 29530 29531 29532 29533 29534 29535 29536 29537 29538 29539 29540 29541 29542 29543 29544 29545 29546 29547 29548 29549 29550 29551 29552 29553 29554 29555 29556 29557 29558 29559 29560 29561 29562 29563 29564 29565 29566 29567 29568 29569 29570 29571 29572 29573 29574 29575 29576 29577 29578 29579 29580 29581 29582 29583 29584 29585 29586 29587 29588 29589 29590 29591 29592 29593 29594 29595 29596 29597 29598 29599 29600 29601 29602 29603 29604 29605 29606 29607 29608 29609 29610 29611 29612 29613 29614 29615 29616 29617 29618 29619 29620 29621 29622 29623 29624 29625 29626 29627 29628 29629 29630 29631 29632 29633 29634 29635 29636 29637 29638 29639 29640 29641 29642 29643 29644 29645 29646 29647 29648 29649 29650 29651 29652 29653 29654 29655 29656 29657 29658 29659 29660 29661 29662 29663 29664 29665 29666 29667 29668 29669 29670 29671 29672 29673 29674 29675 29676 29677 29678 29679 29680 29681 29682 29683 29684 29685 29686 29687 29688 29689 29690 29691 29692 29693 29694 29695 29696 29697 29698 29699 29700 29701 29702 29703 29704 29705 29706 29707 29708 29709 29710 29711 29712 29713 29714 29715 29716 29717 29718 29719 29720 29721 29722 29723 29724 29725 29726 29727 29728 29729 29730 29731 29732 29733 29734 29735 29736 29737 29738 29739 29740 29741 29742 29743 29744 29745 29746 29747 29748 29749 29750 29751 29752 29753 29754 29755 29756 29757 29758 29759 29760 29761 29762 29763 29764 29765 29766 29767 29768 29769 29770 29771 29772 29773 29774 29775 29776 29777 29778 29779 29780 29781 29782 29783 29784 29785 29786 29787 29788 29789 29790 29791 29792 29793 29794 29795 29796 29797 29798 29799 29800 29801 29802 29803 29804 29805 29806 29807 29808 29809 29810 29811 29812 29813 29814 29815 29816 29817 29818 29819 29820 29821 29822 29823 29824 29825 29826 29827 29828 29829 29830 29831 29832 29833 29834 29835 29836 29837 29838 29839 29840 29841 29842 29843 29844 29845 29846 29847 29848 29849 29850 29851 29852 29853 29854 29855 29856 29857 29858 29859 29860 29861 29862 29863 29864 29865 29866 29867 29868 29869 29870 29871 29872 29873 29874 29875 29876 29877 29878 29879 29880 29881 29882 29883 29884 29885 29886 29887 29888 29889 29890 29891 29892 29893 29894 29895 29896 29897 29898 29899 29900 29901 29902 29903 29904 29905 29906 29907 29908 29909 29910 29911 29912 29913 29914 29915 29916 29917 29918 29919 29920 29921 29922 29923 29924 29925 29926 29927 29928 29929 29930 29931 29932 29933 29934 29935 29936 29937 29938 29939 29940 29941 29942 29943 29944 29945 29946 29947 29948 29949 29950 29951 29952 29953 29954 29955 29956 29957 29958 29959 29960 29961 29962 29963 29964 29965 29966 29967 29968 29969 29970 29971 29972 29973 29974 29975 29976 29977 29978 29979 29980 29981 29982 29983 29984 29985 29986 29987 29988 29989 29990 29991 29992 29993 29994 29995 29996 29997 29998 29999 30000 30001 30002 30003 30004 30005 30006 30007 30008 30009 30010 30011 30012 30013 30014 30015 30016 30017 30018 30019 30020 30021 30022 30023 30024 30025 30026 30027 30028 30029 30030 30031 30032 30033 30034 30035 30036 30037 30038 30039 30040 30041 30042 30043 30044 30045 30046 30047 30048 30049 30050 30051 30052 30053 30054 30055 30056 30057 30058 30059 30060 30061 30062 30063 30064 30065 30066 30067 30068 30069 30070 30071 30072 30073 30074 30075 30076 30077 30078 30079 30080 30081 30082 30083 30084 30085 30086 30087 30088 30089 30090 30091 30092 30093 30094 30095 30096 30097 30098 30099 30100 30101 30102 30103 30104 30105 30106 30107 30108 30109 30110 30111 30112 30113 30114 30115 30116 30117 30118 30119 30120 30121 30122 30123 30124 30125 30126 30127 30128 30129 30130 30131 30132 30133 30134 30135 30136 30137 30138 30139 30140 30141 30142 30143 30144 30145 30146 30147 30148 30149 30150 30151 30152 30153 30154 30155 30156 30157 30158 30159 30160 30161 30162 30163 30164 30165 30166 30167 30168 30169 30170 30171 30172 30173 30174 30175 30176 30177 30178 30179 30180 30181 30182 30183 30184 30185 30186 30187 30188 30189 30190 30191 30192 30193 30194 30195 30196 30197 30198 30199 30200 30201 30202 30203 30204 30205 30206 30207 30208 30209 30210 30211 30212 30213 30214 30215 30216 30217 30218 30219 30220 30221 30222 30223 30224 30225 30226 30227 30228 30229 30230 30231 30232 30233 30234 30235 30236 30237 30238 30239 30240 30241 30242 30243 30244 30245 30246 30247 30248 30249 30250 30251 30252 30253 30254 30255 30256 30257 30258 30259 30260 30261 30262 30263 30264 30265 30266 30267 30268 30269 30270 30271 30272 30273 30274 30275 30276 30277 30278 30279 30280 30281 30282 30283 30284 30285 30286 30287 30288 30289 30290 30291 30292 30293 30294 30295 30296 30297 30298 30299 30300 30301 30302 30303 30304 30305 30306 30307 30308 30309 30310 30311 30312 30313 30314 30315 30316 30317 30318 30319 30320 30321 30322 30323 30324 30325 30326 30327 30328 30329 30330 30331 30332 30333 30334 30335 30336 30337 30338 30339 30340 30341 30342 30343 30344 30345 30346 30347 30348 30349 30350 30351 30352 30353 30354 30355 30356 30357 30358 30359 30360 30361 30362 30363 30364 30365 30366 30367 30368 30369 30370 30371 30372 30373 30374 30375 30376 30377 30378 30379 30380 30381 30382 30383 30384 30385 30386 30387 30388 30389 30390 30391 30392 30393 30394 30395 30396 30397 30398 30399 30400 30401 30402 30403 30404 30405 30406 30407 30408 30409 30410 30411 30412 30413 30414 30415 30416 30417 30418 30419 30420 30421 30422 30423 30424 30425 30426 30427 30428 30429 30430 30431 30432 30433 30434 30435 30436 30437 30438 30439 30440 30441 30442 30443 30444 30445 30446 30447 30448 30449 30450 30451 30452 30453 30454 30455 30456 30457 30458 30459 30460 30461 30462 30463 30464 30465 30466 30467 30468 30469 30470 30471 30472 30473 30474 30475 30476 30477 30478 30479 30480 30481 30482 30483 30484 30485 30486 30487 30488 30489 30490 30491 30492 30493 30494 30495 30496 30497 30498 30499 30500 30501 30502 30503 30504 30505 30506 30507 30508 30509 30510 30511 30512 30513 30514 30515 30516 30517 30518 30519 30520 30521 30522 30523 30524 30525 30526 30527 30528 30529 30530 30531 30532 30533 30534 30535 30536 30537 30538 30539 30540 30541 30542 30543 30544 30545 30546 30547 30548 30549 30550 30551 30552 30553 30554 30555 30556 30557 30558 30559 30560 30561 30562 30563 30564 30565 30566 30567 30568 30569 30570 30571 30572 30573 30574 30575 30576 30577 30578 30579 30580 30581 30582 30583 30584 30585 30586 30587 30588 30589 30590 30591 30592 30593 30594 30595 30596 30597 30598 30599 30600 30601 30602 30603 30604 30605 30606 30607 30608 30609 30610 30611 30612 30613 30614 30615 30616 30617 
</DataArray>
<DataArray type="UInt32" Name="offsets" format="ascii">
2 5 8 11 14 17 20 23 26 28 31 34 37 39 42 45 48 51 54 57 60 63 66 69 72 75 78 81 84 86 89 92 94 97 100 103 105 108 111 114 116 119 122 125 128 131 134 137 140 142 145 148 151 154 157 160 162 165 168 171 174 177 180 183 186 189 191 194 197 199 202 205 208 210 213 215 218 220 222 225 228 231 234 237 240 243 246 249 251 254 256 259 262 264 267 270 273 276 279 282 285 288 291 294 297 300 303 306 309 311 314 317 320 323 325 328 331 333 335 338 341 343 346 349 352 354 356 358 361 363 366 369 372 375 378 381 384 387 390 392 394 397 400 403 406 409 412 414 417 420 423 426 429 431 433 436 439 441 444 447 449 451 454 456 458 461 464 467 470 473 476 479 482 485 488 491 494 496 499 502 504 507 510 513 516 519 522 525 528 531 534 537 540 543 546 549 552 555 558 561 564 566 569 572 575 578 581 584 587 590 593 596 599 602 605 608 611 613 616 619 621 624 627 630 633 635 637 640 643 646 649 652 655 658 661 664 667 670 673 676 679 682 684 687 690 693 695 698 701 704 707 710 713 716 719 721 723 726 729 732 735 738 741 744 747 750 752 755 758 761 764 767 769 772 774 777 780 783 786 789 791 793 796 799 802 804 807 809 812 815 818 820 823 825 828 831 833 836 839 842 844 847 850 853 856 859 861 863 866 869 871 874 876 878 881 884 886 889 891 894 897 900 903 905 908 910 913 916 918 920 922 925 927 930 932 934 937 940 943 946 949 952 955 958 961 963 966 969 972 975 978 981 984 987 990 993 996 999 1002 1005 1008 1011 1014 1017 1020 1023 1026 1029 1032 1035 1037 1040 1042 1045 1048 1051 1054 1057 1059 1062 1064 1067 1070 1072 1075 1078 1081 1084 1086 1089 1091 1094 1097 1100 1103 1106 1109 1112 1115 1118 1121 1124 1127 1130 1132 1135 1138 1140 1143 1146 1149 1152 1155 1158 1161 1164 1167 1170 1173 1176 1179 1182 1185 1188 1191 1193 1196 1199 1202 1205 1208 1211 1214 1217 1220 1223 1225 1228 1231 1234 1236 1238 1241 1244 1247 1250 1253 1256 1259 1262 1265 1268 1271 1274 1277 1280 1283 1286 1289 1292 1295 1298 1301 1304 1307 1309 1312 1315 1317 1320 1323 1325 1328 1330 1333 1336 1339 1341 1344 1346 1348 1351 1354 1357 1360 1363 1366 1369 1372 1375 1378 1380 1383 1386 1389 1392 1395 1398 1401 1404 1407 1410 1413 1416 1419 1422 1425 1428 1431 1434 1437 1440 1443 1446 1449 1452 1455 1458 1461 1464 1467 1470 1473 1476 1478 1481 1484 1487 1490 1492 1495 1498 1501 1504 1507 1510 1513 1515 1518 1521 1524 1527 1530 1533 1536 1539 1542 1544 1547 1549 1551 1554 1557 1559 1562 1564 1567 1570 1573 1576 1579 1582 1585 1588 1590 1593 1596 1599 1602 1605 1607 1610 1613 1616 1619 1622 1625 1627 1630 1633 1636 1639 1642 1645 1648 1651 1653 1656 1658 1661 1664 1667 1670 1673 1675 1678 1680 1683 1686 1689 1692 1695 1698 1700 1703 1706 1709 1712 1715 1718 1721 1724 1727 1730 1732 1734 1737 1740 1743 1746 1748 1751 1754 1757 1760 1763 1766 1769 1772 1775 1778 1781 1784 1786 1789 1792 1794 1797 1800 1803 1806 1809 1812 1815 1818 1821 1824 1826 1828 1831 1834 1837 1840 1843 1846 1849 1852 1855 1858 1860 1863 1865 1868 1871 1874 1877 1880 1883 1886 1889 1892 1895 1898 1901 1904 1907 1910 1913 1916 1919 1922 1925 1928 1931 1934 1937 1940 1943 1946 1949 1952 1955 1958 1961 1964 1967 1970 1973 1976 1979 1982 1984 1987 1990 1993 1995 1998 2000 2003 2005 2008 2011 2013 2016 2018 2021 2023 2026 2029 2031 2034 2037 2040 2043 2046 2049 2052 2055 2057 2060 2063 2065 2068 2071 2074 2077 2079 2082 2085 2088 2091 2094 2097 2100 2103 2106 2109 2111 2114 2116 2119 2121 2124 2126 2129 2131 2134 2137 2140 2142 2145 2147 2150 2153 2156 2159 2162 2165 2168 2171 2174 2177 2180 2183 2185 2188 2191 2193 2195 2198 2201 2204 2206 2209 2212 2214 2217 2220 2222 2225 2228 2231 2233 2236 2239 2242 2245 2248 2250 2253 2256 2258 2260 2263 2266 2269 2271 2273 2275 2278 2281 2283 2286 2289 2291 2294 2297 2300 2303 2306 2309 2311 2314 2317 2319 2322 2325 2327 2330 2333 2336 2339 2342 2345 2348 2351 2353 2356 2359 2362 2365 2368 2370 2372 2374 2377 2380 2383 2386 2389 2392 2395 2398 2401 2404 2407 2409 2412 2415 2418 2421 2423 2426 2429 2432 2435 2438 2441 2444 2446 2449 2452 2455 2457 2460 2462 2465 2467 2470 2472 2475 2478 2481 2484 2487 2490 2493 2496 2499 2502 2504 2507 2510 2513 2516 2519 2522 2525 2528 2530 2533 2536 2538 2541 2544 2547 2550 2552 2555 2558 2561 2564 2567 2570 2572 2575 2577 2580 2583 2586 2589 2592 2595 2597 2599 2602 2605 2608 2611 2613 2616 2618 2621 2624 2627 2629 2632 2635 2638 2641 2644 2647 2650 2652 2654 2657 2660 2662 2665 2667 2669 2671 2674 2677 2680 2683 2686 2689 2692 2694 2697 2700 2703 2706 2709 2712 2715 2718 2721 2724 2727 2730 2733 2735 2738 2741 2744 2747 2750 2753 2756 2759 2762 2765 2767 2770 2773 2775 2778 2781 2784 2787 2790 2792 2795 2798 2801 2804 2807 2810 2813 2816 2818 2821 2823 2826 2829 2831 2834 2837 2839 2842 2845 2848 2851 2853 2856 2859 2862 2865 2868 2870 2873 2876 2879 2882 2885 2888 2891 2894 2897 2899 2902 2905 2907 2909 2912 2915 2918 2921 2923 2926 2928 2931 2934 2936 2938 2941 2943 2946 2948 2951 2954 2957 2960 2963 2965 2968 2971 2974 2976 2979 2982 2985 2987 2990 2993 2996 2999 3002 3005 3008 3011 3014 3017 3019 3022 3025 3028 3031 3034 3037 3040 3043 3046 3049 3052 3055 3058 3061 3064 3067 3070 3073 3075 3078 3081 3083 3086 3089 3092 3095 3097 3100 3103 3106 3109 3112 3115 3118 3121 3124 3127 3130 3133 3136 3139 3142 3145 3148 3151 3154 3157 3160 3163 3166 3169 3172 3175 3178 3181 3184 3187 3190 3193 3196 3199 3202 3205 3208 3211 3214 3217 3220 3223 3226 3229 3232 3235 3238 3241 3244 3247 3250 3253 3256 3259 3262 3265 3268 3271 3273 3276 3279 3282 3285 3288 3291 3294 3297 3300 3303 3306 3309 3312 3315 3318 3321 3324 3327 3330 3332 3335 3338 3341 3344 3346 3349 3352 3355 3358 3361 3364 3367 3370 3373 3376 3379 3382 3385 3388 3391 3394 3397 3400 3402 3405 3408 3411 3414 3416 3419 3422 3425 3428 3431 3433 3435 3438 3441 3444 3447 3450 3453 3456 3459 3462 3465 3468 3471 3474 3477 3480 3483 3486 3489 3491 3494 3497 3500 3502 3505 3507 3510 3513 3516 3519 3522 3525 3528 3531 3534 3536 3539 3542 3545 3548 3550 3552 3555 3558 3561 3564 3567 3570 3573 3576 3579 3582 3585 3588 3591 3594 3597 3600 3603 3606 3609 3611 3614 3617 3620 3623 3626 3629 3632 3635 3638 3641 3644 3647 3650 3652 3655 3658 3661 3664 3667 3670 3673 3676 3679 3682 3685 3688 3691 3694 3697 3700 3703 3706 3709 3712 3715 3718 3720 3723 3726 3729 3732 3735 3738 3741 3743 3746 3749 3752 3754 3757 3760 3763 3766 3769 3772 3775 3778 3781 3784 3787 3790 3793 3796 3799 3802 3805 3808 3811 3814 3817 3820 3823 3826 3828 3831 3833 3836 3839 3842 3845 3847 3850 3852 3855 3858 3861 3864 3867 3870 3873 3875 3878 3881 3884 3887 3889 3892 3895 3898 3901 3904 3907 3910 3913 3916 3919 3922 3924 3927 3930 3933 3936 3939 3942 3944 3947 3949 3952 3955 3958 3961 3964 3966 3969 3972 3974 3977 3980 3982 3985 3988 3991 3994 3997 4000 4003 4006 4009 4012 4015 4018 4021 4024 4027 4030 4033 4036 4039 4042 4045 4048 4051 4054 4057 4060 4063 4065 4068 4071 4074 4076 4079 4081 4084 4087 4089 4091 4094 4097 4100 4102 4105 4108 4111 4114 4116 4119 4121 4124 4127 4129 4132 4135 4138 4141 4144 4146 4149 4152 4155 4158 4161 4163 4166 4169 4172 4175 4178 4181 4184 4187 4190 4193 4196 4199 4202 4205 4208 4211 4214 4217 4220 4223 4226 4229 4232 4235 4238 4241 4244 4247 4250 4253 4256 4259 4262 4265 4268 4271 4274 4277 4280 4283 4286 4289 4292 4294 4296 4299 4302 4305 4308 4311 4314 4317 4320 4323 4326 4329 4332 4335 4338 4341 4344 4347 4350 4353 4356 4359 4362 4365 4368 4371 4374 4377 4380 4382 4385 4388 4391 4394 4396 4399 4402 4405 4408 4410 4413 4416 4419 4422 4425 4428 4431 4433 4436 4438 4441 4444 4447 4450 4453 4455 4458 4461 4464 4467 4470 4473 4476 4479 4482 4485 4487 4490 4493 4496 4499 4502 4505 4508 4511 4514 4517 4520 4523 4526 4529 4532 4535 4538 4541 4544 4547 4550 4553 4556 4559 4562 4564 4567 4570 4573 4576 4578 4581 4583 4586 4589 4591 4594 4596 4599 4602 4605 4608 4611 4614 4616 4619 4622 4625 4627 4630 4633 4636 4639 4642 4645 4648 4651 4654 4657 4660 4663 4666 4669 4672 4675 4678 4680 4683 4685 4688 4691 4694 4697 4700 4702 4705 4707 4710 4713 4716 4719 4722 4725 4728 4731 4733 4736 4739 4742 4745 4748 4751 4754 4757 4760 4763 4766 4769 4772 4775 4778 4781 4784 4787 4790 4793 4796 4799 4802 4804 4807 4809 4812 4815 4818 4821 4824 4827 4830 4833 4836 4839 4842 4845 4847 4850 4853 4856 4859 4862 4865 4868 4871 4874 4877 4880 4883 4886 4889 4892 4895 4898 4901 4904 4907 4910 4913 4916 4919 4922 4925 4928 4930 4933 4936 4939 4941 4944 4946 4948 4951 4954 4957 4960 4963 4965 4968 4971 4974 4977 4980 4983 4986 4989 4992 4995 4998 5001 5004 5007 5010 5013 5016 5019 5022 5025 5028 5031 5034 5037 5039 5042 5045 5047 5050 5053 5056 5059 5062 5065 5068 5071 5073 5075 5078 5081 5084 5087 5090 5093 5096 5099 5102 5105 5107 5110 5113 5115 5117 5120 5122 5125 5128 5131 5134 5137 5139 5142 5144 5146 5148 5151 5154 5157 5160 5163 5166 5168 5171 5174 5177 5180 5183 5186 5189 5192 5195 5197 5200 5202 5205 5208 5210 5213 5216 5219 5222 5225 5228 5231 5234 5237 5240 5243 5246 5249 5252 5255 5258 5261 5264 5267 5270 5273 5276 5279 5282 5285 5288 5290 5292 5295 5298 5301 5304 5307 5310 5313 5316 5319 5322 5325 5328 5331 5334 5337 5340 5343 5346 5349 5352 5355 5358 5361 5364 5367 5370 5373 5376 5379 5382 5385 5388 5391 5394 5397 5400 5403 5406 5409 5412 5415 5418 5421 5424 5427 5430 5433 5436 5439 5442 5445 5448 5451 5454 5457 5460 5462 5465 5468 5471 5474 5477 5480 5483 5486 5489 5491 5493 5496 5499 5502 5504 5507 5510 5513 5516 5519 5522 5525 5528 5531 5534 5537 5540 5543 5546 5549 5552 5555 5558 5561 5564 5567 5570 5573 5576 5579 5582 5585 5588 5591 5594 5596 5599 5602 5605 5608 5611 5614 5617 5619 5622 5625 5628 5631 5634 5637 5640 5642 5645 5648 5650 5653 5656 5659 5662 5665 5668 5671 5674 5677 5679 5682 5685 5687 5689 5692 5695 5698 5700 5703 5706 5709 5712 5715 5718 5721 5724 5727 5730 5733 5735 5738 5741 5744 5747 5749 5752 5754 5757 5760 5762 5765 5768 5770 5772 5775 5778 5781 5784 5787 5790 5793 5796 5799 5802 5804 5806 5809 5812 5815 5818 5821 5824 5826 5829 5832 5835 5838 5841 5844 5846 5849 5851 5854 5857 5860 5863 5866 5868 5870 5873 5876 5879 5882 5885 5888 5891 5894 5897 5900 5903 5906 5909 5912 5915 5918 5921 5924 5927 5929 5931 5934 5937 5939 5942 5945 5948 5951 5954 5957 5960 5963 5966 5969 5972 5974 5977 5980 5983 5986 5989 5992 5995 5998 6001 6004 6007 6010 6013 6016 6019 6022 6025 6028 6031 6034 6037 6040 6043 6046 6049 6052 6055 6058 6060 6063 6066 6069 6072 6074 6076 6079 6082 6085 6088 6091 6094 6097 6099 6102 6104 6107 6110 6113 6116 6119 6122 6125 6128 6131 6134 6137 6140 6143 6146 6149 6152 6155 6158 6161 6164 6166 6168 6171 6173 6176 6179 6182 6185 6188 6190 6193 6196 6199 6202 6205 6208 6211 6214 6217 6220 6223 6226 6229 6232 6235 6238 6241 6243 6246 6249 6252 6255 6258 6261 6264 6267 6270 6273 6276 6278 6281 6284 6287 6290 6293 6296 6299 6302 6305 6308 6310 6313 6316 6319 6322 6325 6328 6331 6334 6337 6339 6342 6345 6348 6351 6353 6356 6359 6362 6364 6367 6370 6373 6376 6378 6381 6384 6387 6390 6393 6396 6399 6402 6405 6407 6410 6413 6416 6419 6421 6424 6427 6430 6433 6436 6439 6442 6445 6447 6450 6452 6454 6457 6459 6461 6464 6467 6470 6472 6475 6478 6481 6483 6486 6488 6491 6494 6497 6500 6503 6505 6508 6511 6514 6516 6519 6522 6525 6528 6531 6534 6536 6538 6541 6544 6547 6550 6553 6556 6559 6562 6565 6568 6571 6573 6576 6578 6580 6583 6586 6589 6592 6595 6597 6599 6602 6605 6607 6610 6613 6616 6619 6621 6624 6627 6630 6633 6636 6638 6641 6644 6647 6650 6652 6654 6657 6660 6662 6665 6667 6669 6672 6675 6678 6681 6684 6687 6690 6693 6696 6699 6702 6705 6708 6711 6714 6717 6720 6723 6726 6729 6732 6734 6737 6740 6742 6745 6747 6750 6753 6756 6758 6761 6764 6767 6770 6773 6776 6778 6780 6783 6786 6789 6792 6795 6798 6800 6803 6806 6808 6811 6814 6817 6820 6823 6826 6828 6831 6834 6837 6839 6842 6845 6848 6851 6854 6857 6859 6862 6865 6868 6871 6874 6877 6880 6883 6886 6889 6892 6895 6898 6900 6903 6905 6908 6911 6914 6917 6920 6923 6926 6929 6932 6934 6937 6940 6943 6945 6948 6951 6954 6957 6960 6963 6966 6969 6972 6975 6977 6980 6983 6986 6989 6992 6995 6998 7001 7004 7007 7010 7013 7016 7019 7022 7025 7028 7031 7034 7037 7040 7043 7046 7049 7052 7054 7057 7060 7063 7065 7068 7071 7073 7076 7079 7082 7085 7088 7090 7093 7096 7099 7101 7104 7107 7110 7113 7116 7119 7122 7124 7127 7130 7133 7136 7139 7142 7145 7148 7151 7154 7157 7160 7163 7166 7169 7172 7175 7177 7180 7182 7185 7188 7191 7194 7197 7200 7203 7206 7209 7211 7214 7216 7219 7221 7224 7226 7228 7231 7234 7237 7240 7242 7245 7248 7251 7254 7256 7259 7262 7265 7268 7271 7273 7276 7278 7281 7284 7286 7289 7292 7295 7298 7301 7304 7307 7310 7313 7316 7319 7322 7325 7328 7331 7334 7337 7339 7342 7345 7348 7351 7354 7357 7359 7362 7365 7368 7371 7374 7376 7379 7382 7385 7388 7391 7394 7397 7399 7402 7405 7407 7410 7413 7416 7419 7422 7425 7427 7430 7433 7436 7438 7441 7444 7447 7450 7453 7456 7459 7462 7465 7468 7471 7474 7477 7480 7483 7486 7489 7491 7494 7497 7500 7503 7506 7508 7510 7513 7516 7519 7522 7525 7527 7530 7532 7535 7537 7540 7542 7544 7547 7550 7553 7555 7557 7560 7563 7566 7569 7572 7575 7578 7581 7584 7587 7590 7593 7596 7599 7602 7605 7608 7611 7614 7617 7620 7623 7626 7629 7632 7635 7638 7641 7644 7647 7650 7653 7656 7659 7662 7665 7668 7671 7673 7676 7679 7682 7685 7688 7691 7694 7696 7699 7701 7704 7707 7710 7713 7716 7719 7721 7724 7727 7730 7732 7735 7738 7741 7743 7745 7748 7750 7753 7756 7759 7762 7765 7768 7770 7773 7776 7778 7781 7784 7787 7790 7793 7796 7799 7802 7805 7808 7811 7814 7816 7818 7820 7823 7826 7829 7831 7834 7837 7840 7843 7846 7849 7852 7855 7858 7861 7864 7867 7870 7873 7876 7879 7882 7885 7888 7891 7894 7897 7899 7902 7905 7908 7911 7913 7916 7919 7922 7925 7928 7931 7934 7936 7939 7942 7945 7948 7951 7953 7956 7959 7962 7965 7968 7970 7973 7976 7979 7982 7985 7988 7991 7994 7997 7999 8002 8005 8008 8011 8013 8016 8019 8022 8025 8028 8031 8034 8037 8040 8043 8045 8048 8051 8053 8056 8059 8062 8065 8068 8071 8074 8077 8080 8083 8086 8089 8092 8095 8098 8101 8104 8107 8110 8113 8115 8118 8121 8124 8127 8129 8132 8135 8138 8141 8144 8147 8150 8153 8155 8158 8161 8164 8167 8170 8172 8175 8178 8180 8183 8186 8189 8192 8195 8198 8201 8204 8207 8210 8213 8216 8218 8221 8224 8227 8230 8233 8236 8239 8242 8245 8248 8251 8254 8257 8260 8263 8266 8269 8272 8275 8278 8281 8284 8287 8290 8293 8296 8299 8302 8304 8307 8310 8313 8316 8319 8322 8325 8328 8331 8334 8337 8340 8343 8346 8348 8351 8354 8357 8360 8363 8366 8369 8372 8375 8378 8381 8384 8387 8390 8393 8396 8399 8402 8405 8407 8410 8413 8416 8419 8422 8425 8428 8430 8433 8436 8439 8442 8445 8448 8451 8454 8457 8460 8463 8466 8469 8472 8475 8478 8481 8484 8487 8490 8493 8496 8499 8502 8504 8507 8510 8513 8516 8519 8521 8524 8527 8530 8533 8536 8539 8542 8545 8548 8551 8553 8556 8559 8561 8564 8566 8569 8572 8575 8578 8581 8584 8587 8589 8592 8594 8597 8599 8602 8605 8608 8611 8614 8617 8620 8623 8626 8629 8632 8635 8638 8641 8644 8647 8650 8653 8656 8659 8662 8665 8668 8671 8674 8677 8680 8683 8686 8689 8692 8695 8698 8701 8704 8707 8709 8712 8715 8718 8721 8724 8727 8730 8733 8736 8739 8742 8745 8748 8751 8754 8757 8760 8763 8766 8769 8772 8775 8778 8781 8784 8787 8790 8793 8796 8799 8802 8804 8807 8810 8813 8816 8819 8822 8824 8826 8829 8832 8835 8838 8841 8844 8847 8850 8853 8856 8859 8862 8865 8867 8870 8873 8876 8879 8882 8885 8888 8891 8894 8897 8899 8901 8904 8906 8909 8912 8915 8917 8920 8922 8924 8927 8929 8932 8935 8938 8941 8944 8947 8950 8952 8954 8957 8960 8963 8966 8968 8971 8974 8977 8980 8982 8985 8987 8990 8992 8994 8997 8999 9002 9005 9008 9011 9014 9016 9019 9021 9023 9025 9027 9030 9033 9036 9039 9042 9044 9047 9050 9052 9054 9057 9060 9063 9065 9068 9071 9073 9076 9079 9082 9085 9087 9090 9093 9095 9098 9101 9103 9106 9109 9112 9115 9118 9121 9124 9127 9130 9133 9136 9139 9142 9145 9147 9150 9152 9155 9158 9161 9164 9167 9169 9172 9175 9177 9180 9183 9186 9189 9192 9194 9197 9200 9203 9206 9209 9212 9215 9218 9221 9224 9226 9229 9232 9235 9238 9241 9244 9247 9250 9253 9256 9259 9261 9264 9267 9270 9273 9276 9279 9281 9284 9287 9290 9293 9296 9299 9302 9305 9308 9311 9314 9317 9320 9323 9325 9328 9331 9334 9336 9339 9342 9345 9348 9351 9354 9357 9359 9362 9364 9367 9370 9373 9376 9379 9382 9385 9388 9391 9394 9397 9400 9403 9406 9409 9412 9415 9418 9421 9424 9427 9430 9433 9436 9439 9442 9445 9448 9451 9454 9457 9460 9463 9466 9469 9472 9474 9477 9479 9482 9485 9487 9490 9492 9495 9498 9501 9504 9507 9510 9512 9515 9518 9520 9522 9525 9528 9531 9534 9537 9540 9542 9545 9548 9551 9554 9557 9560 9563 9565 9568 9571 9574 9577 9580 9583 9586 9589 9592 9595 9598 9601 9604 9607 9610 9613 9616 9619 9622 9624 9627 9630 9633 9635 9638 9640 9643 9645 9648 9651 9654 9657 9659 9662 9665 9668 9671 9674 9677 9679 9682 9685 9688 9691 9694 9697 9699 9702 9705 9707 9710 9713 9716 9719 9722 9725 9727 9730 9733 9736 9739 9742 9745 9748 9751 9754 9756 9759 9761 9764 9767 9770 9773 9776 9778 9780 9783 9786 9789 9791 9793 9796 9799 9802 9805 9808 9811 9813 9816 9819 9821 9823 9826 9829 9831 9834 9837 9839 9842 9845 9848 9851 9853 9856 9859 9862 9865 9868 9871 9873 9876 9879 9882 9885 9888 9891 9894 9897 9900 9903 9905 9908 9911 9914 9916 9918 9921 9924 9927 9930 9933 9936 9939 9942 9945 9947 9950 9953 9956 9959 9962 9965 9968 9971 9974 9977 9980 9982 9984 9987 9990 9993 9996 9998 10001 10004 10007 10010 10012 10015 10018 10021 10024 10026 10029 10032 10035 10037 10040 10043 10046 10049 10051 10054 10057 10060 10063 10066 10068 10071 10074 10077 10080 10082 10085 10088 10091 10094 10097 10100 10103 10106 10109 10112 10115 10118 10121 10124 10127 10130 10133 10136 10139 10142 10145 10148 10151 10154 10157 10160 10163 10166 10169 10172 10175 10178 10180 10183 10186 10189 10192 10194 10197 10200 10203 10206 10209 10212 10214 10217 10220 10223 10225 10228 10230 10233 10236 10239 10242 10245 10248 10251 10254 10257 10260 10263 10266 10269 10272 10275 10278 10281 10284 10287 10290 10293 10296 10299 10301 10304 10306 10309 10312 10315 10317 10320 10323 10326 10329 10332 10335 10338 10341 10344 10347 10350 10353 10356 10358 10361 10364 10366 10369 10372 10374 10376 10379 10381 10384 10387 10390 10393 10396 10399 10402 10405 10408 10411 10414 10417 10420 10423 10426 10429 10432 10434 10437 10440 10443 10446 10449 10451 10454 10457 10460 10463 10466 10469 10472 10474 10477 10480 10483 10486 10489 10492 10495 10497 10500 10503 10506 10509 10512 10515 10518 10521 10524 10527 10530 10533 10536 10539 10542 10544 10547 10550 10553 10555 10558 10561 10564 10567 10570 10573 10576 10579 10582 10585 10588 10590 10593 10596 10599 10602 10605 10608 10610 10613 10616 10618 10621 10623 10626 10629 10632 10634 10637 10640 10643 10646 10649 10652 10655 10658 10661 10664 10667 10669 10672 10675 10678 10681 10684 10686 10689 10692 10695 10697 10700 10703 10706 10708 10711 10714 10717 10720 10723 10725 10728 10730 10733 10736 10739 10742 10745 10748 10751 10754 10756 10759 10761 10764 10767 10769 10772 10774 10777 10779 10782 10785 10788 10791 10794 10797 10800 10803 10806 10809 10811 10814 10816 10819 10822 10825 10828 10830 10833 10836 10839 10841 10843 10846 10849 10852 10854 10857 10859 10861 10864 10867 10869 10871 10874 10876 10878 10881 10884 10886 10888 10891 10894 10896 10899 10902 10904 10907 10909 10912 10915 10917 10920 10923 10925 10928 10930 10933 10936 10939 10941 10944 10946 10949 10952 10954 10956 10959 10962 10965 10967 10969 10972 10974 10977 10980 10983 10986 10989 10992 10995 10998 11000 11003 11006 11008 11010 11013 11015 11018 11020 11022 11025 11028 11031 11033 11036 11039 11041 11044 11047 11050 11053 11056 11059 11061 11063 11066 11069 11072 11075 11078 11081 11084 11086 11088 11091 11094 11097 11100 11102 11105 11108 11111 11113 11116 11119 11121 11124 11127 11130 11133 11136 11138 11141 11144 11146 11149 11152 11155 11157 11159 11162 11165 11167 11170 11173 11176 11178 11181 11184 11187 11189 11191 11194 11197 11199 11202 11205 11208 11211 11213 11215 11218 11221 11223 11225 11228 11230 11232 11235 11238 11241 11244 11247 11250 11252 11255 11258 11261 11264 11267 11270 11273 11276 11279 11282 11284 11286 11289 11292 11295 11298 11301 11304 11307 11309 11312 11315 11318 11321 11324 11327 11330 11333 11336 11338 11341 11344 11346 11349 11352 11354 11357 11360 11363 11366 11369 11372 11375 11378 11381 11384 11387 11390 11393 11396 11399 11402 11405 11408 11410 11412 11415 11418 11421 11424 11426 11429 11432 11434 11437 11440 11443 11446 11449 11452 11455 11458 11461 11463 11466 11469 11471 11474 11477 11480 11483 11486 11489 11492 11495 11498 11501 11504 11506 11509 11511 11514 11517 11520 11523 11526 11529 11532 11535 11538 11541 11543 11546 11549 11552 11555 11558 11561 11564 11567 11570 11573 11576 11579 11582 11585 11588 11591 11594 11597 11600 11603 11606 11609 11612 11615 11618 11621 11624 11627 11630 11633 11636 11639 11642 11645 11648 11651 11654 11657 11660 11662 11665 11668 11671 11674 11677 11680 11683 11686 11689 11691 11694 11697 11699 11702 11705 11708 11711 11714 11717 11720 11723 11726 11729 11732 11735 11738 11741 11744 11747 11749 11752 11754 11757 11760 11762 11765 11768 11771 11773 11775 11778 11780 11782 11785 11787 11790 11793 11795 11798 11801 11803 11806 11809 11812 11815 11818 11821 11824 11827 11830 11833 11836 11839 11842 11845 11848 11851 11854 11857 11860 11863 11866 11868 11871 11874 11877 11880 11883 11886 11889 11892 11895 11898 11901 11904 11907 11910 11913 11916 11919 11922 11925 11927 11930 11933 11936 11939 11942 11944 11947 11950 11953 11956 11959 11962 11965 11968 11971 11974 11977 11980 11983 11986 11989 11992 11995 11998 12001 12004 12007 12010 12013 12016 12018 12021 12024 12027 12030 12033 12036 12038 12041 12044 12047 12050 12053 12056 12059 12062 12065 12068 12071 12074 12077 12080 12083 12085 12088 12091 12094 12096 12098 12101 12104 12107 12109 12112 12115 12118 12121 12124 12127 12130 12133 12135 12138 12141 12144 12147 12149 12152 12155 12158 12161 12164 12167 12170 12173 12176 12179 12182 12185 12188 12190 12193 12196 12199 12202 12205 12208 12211 12214 12217 12220 12223 12226 12229 12232 12235 12238 12241 12244 12247 12250 12253 12256 12259 12262 12265 12268 12271 12273 12276 12279 12282 12285 12288 12291 12294 12297 12300 12303 12306 12309 12312 12315 12318 12320 12322 12325 12328 12331 12333 12336 12339 12342 12345 12348 12351 12354 12357 12360 12363 12366 12369 12372 12375 12378 12381 12384 12387 12390 12393 12396 12399 12402 12405 12408 12411 12414 12417 12420 12423 12425 12428 12431 12434 12437 12440 12443 12446 12449 12452 12455 12458 12461 12464 12467 12470 12473 12476 12479 12482 12485 12488 12491 12494 12497 12500 12502 12505 12508 12511 12514 12517 12520 12523 12525 12528 12531 12534 12536 12539 12542 12544 12547 12550 12553 12556 12559 12562 12565 12568 12570 12572 12575 12578 12581 12584 12587 12589 12592 12595 12598 12601 12604 12607 12610 12613 12616 12619 12622 12625 12628 12631 12634 12637 12640 12643 12646 12648 12651 12653 12656 12658 12661 12664 12667 12669 12672 12674 12677 12680 12683 12686 12689 12692 12695 12698 12701 12704 12707 12710 12712 12715 12718 12721 12724 12726 12729 12732 12734 12737 12739 12742 12745 12747 12750 12753 12756 12758 12761 12764 12767 12770 12773 12776 12779 12782 12785 12787 12790 12793 12796 12799 12801 12804 12807 12810 12813 12815 12818 12821 12824 12827 12830 12833 12835 12838 12840 12843 12845 12848 12851 12854 12856 12859 12862 12865 12868 12871 12874 12876 12878 12881 12884 12887 12890 12893 12895 12898 12901 12904 12907 12910 12913 12916 12919 12922 12925 12928 12931 12934 12937 12940 12943 12946 12949 12952 12954 12957 12960 12963 12966 12969 12972 12975 12978 12981 12983 12986 12988 12991 12993 12996 12999 13002 13005 13008 13011 13014 13017 13020 13023 13026 13029 13031 13034 13037 13039 13042 13045 13048 13051 13054 13057 13060 13063 13066 13068 13071 13073 13076 13079 13082 13085 13088 13091 13093 13096 13099 13102 13105 13108 13111 13114 13117 13120 13123 13126 13129 13132 13135 13138 13141 13144 13147 13150 13153 13156 13159 13162 13165 13168 13171 13174 13177 13180 13183 13186 13189 13192 13195 13198 13201 13204 13207 13210 13213 13216 13218 13221 13224 13226 13229 13231 13234 13237 13240 13242 13244 13247 13250 13252 13255 13258 13261 13264 13267 13270 13273 13276 13279 13282 13285 13288 13290 13293 13296 13299 13302 13305 13308 13311 13314 13317 13320 13323 13326 13328 13331 13334 13337 13340 13343 13346 13349 13352 13355 13358 13361 13364 13367 13370 13373 13375 13378 13381 13384 13387 13390 13392 13395 13398 13401 13404 13407 13410 13413 13416 13419 13421 13424 13427 13430 13433 13435 13438 13441 13444 13447 13450 13453 13456 13459 13462 13465 13468 13470 13473 13475 13478 13480 13483 13486 13489 13491 13494 13497 13500 13503 13506 13509 13512 13515 13518 13521 13524 13527 13530 13533 13536 13539 13542 13545 13548 13551 13553 13556 13559 13562 13565 13568 13571 13574 13577 13580 13583 13586 13589 13592 13595 13598 13601 13604 13607 13609 13612 13615 13618 13621 13624 13626 13629 13632 13635 13638 13641 13644 13647 13650 13652 13655 13658 13660 13663 13666 13669 13672 13675 13678 13681 13683 13686 13689 13692 13695 13698 13701 13704 13707 13710 13712 13715 13718 13721 13724 13727 13730 13733 13736 13739 13742 13745 13748 13751 13754 13757 13760 13763 13766 13769 13772 13775 13778 13781 13784 13786 13789 13791 13794 13797 13799 13802 13805 13808 13811 13814 13817 13820 13823 13825 13828 13831 13834 13837 13840 13843 13845 13848 13851 13854 13857 13860 13863 13866 13869 13872 13875 13878 13881 13883 13886 13889 13892 13895 13898 13901 13904 13907 13910 13913 13916 13919 13922 13925 13927 13930 13933 13936 13938 13941 13944 13947 13950 13952 13955 13958 13961 13964 13967 13970 13973 13976 13979 13982 13985 13988 13991 13994 13997 14000 14003 14006 14009 14012 14015 14018 14021 14024 14027 14030 14032 14035 14038 14040 14043 14046 14049 14052 14055 14058 14061 14064 14067 14069 14072 14075 14077 14080 14083 14085 14088 14091 14094 14097 14100 14103 14106 14109 14112 14115 14118 14121 14124 14127 14130 14133 14136 14139 14142 14145 14148 14151 14154 14157 14160 14163 14166 14169 14172 14175 14178 14181 14184 14187 14190 14193 14196 14199 14202 14205 14208 14211 14214 14217 14220 14223 14226 14229 14232 14235 14238 14241 14244 14247 14250 14253 14256 14259 14262 14265 14268 14271 14274 14276 14279 14282 14285 14288 14291 14294 14296 14299 14302 14305 14308 14311 14314 14317 14320 14323 14326 14329 14331 14333 14336 14339 14341 14344 14346 14349 14352 14354 14357 14360 14362 14365 14368 14371 14374 14377 14380 14383 14386 14388 14391 14394 14397 14400 14403 14406 14409 14412 14415 14417 14420 14423 14426 14429 14431 14434 14437 14440 14443 14446 14449 14452 14455 14458 14461 14464 14467 14470 14473 14476 14478 14481 14484 14487 14490 14492 14495 14497 14500 14503 14506 14508 14511 14514 14516 14519 14522 14525 14528 14531 14534 14537 14540 14543 14546 14549 14551 14554 14557 14559 14562 14565 14568 14570 14573 14576 14578 14580 14583 14586 14588 14591 14594 14597 14600 14603 14606 14609 14612 14614 14617 14620 14623 14626 14628 14631 14633 14636 14638 14641 14644 14647 14650 14652 14655 14658 14661 14663 14666 14669 14672 14675 14678 14681 14684 14687 14690 14693 14696 14699 14702 14705 14708 14711 14714 14717 14719 14722 14725 14728 14731 14734 14737 14740 14743 14746 14749 14752 14755 14758 14761 14764 14767 14770 14773 14776 14779 14782 14785 14788 14791 14794 14797 14800 14803 14806 14809 14812 14815 14818 14821 14824 14827 14830 14833 14836 14839 14841 14844 14847 14850 14853 14856 14858 14861 14864 14867 14870 14873 14876 14879 14882 14885 14888 14891 14894 14897 14899 14902 14905 14907 14910 14913 14916 14918 14921 14923 14926 14929 14932 14935 14937 14940 14943 14946 14949 14952 14955 14958 14961 14964 14966 14969 14972 14974 14976 14979 14981 14984 14987 14990 14993 14996 14999 15002 15005 15008 15011 15014 15017 15020 15023 15026 15029 15032 15035 15038 15041 15044 15047 15050 15052 15055 15058 15061 15063 15066 15069 15072 15075 15078 15081 15084 15086 15089 15092 15095 15098 15101 15104 15107 15110 15113 15116 15119 15122 15125 15128 15131 15134 15137 15140 15143 15146 15149 15152 15155 15157 15160 15163 15166 15169 15172 15174 15177 15179 15181 15184 15187 15190 15192 15195 15198 15200 15203 15206 15209 15212 15215 15218 15221 15224 15227 15230 15233 15235 15238 15241 15244 15246 15249 15251 15254 15257 15260 15263 15266 15268 15271 15273 15276 15278 15281 15284 15287 15290 15293 15296 15299 15302 15304 15306 15308 15311 15314 15316 15319 15322 15325 15328 15331 15334 15337 15340 15343 15346 15349 15352 15355 15358 15361 15364 15367 15370 15373 15376 15379 15382 15385 15388 15391 15394 15397 15400 15403 15406 15409 15412 15415 15418 15421 15424 15427 15429 15432 15435 15438 15441 15444 15447 15450 15452 15455 15458 15460 15463 15466 15469 15472 15475 15478 15481 15484 15487 15490 15493 15496 15499 15502 15505 15508 15511 15514 15517 15520 15523 15526 15529 15531 15534 15537 15540 15543 15546 15549 15552 15555 15558 15561 15563 15566 15569 15572 15575 15577 15580 15583 15586 15589 15591 15594 15596 15598 15601 15604 15607 15610 15612 15615 15618 15620 15623 15626 15628 15630 15633 15636 15639 15642 15645 15648 15651 15653 15656 15659 15662 15665 15668 15671 15674 15677 15680 15683 15686 15689 15692 15694 15697 15700 15703 15706 15709 15712 15715 15717 15719 15722 15724 15727 15729 15732 15735 15738 15740 15743 15746 15749 15752 15755 15757 15760 15763 15765 15768 15771 15774 15777 15780 15783 15786 15788 15791 15794 15797 15800 15803 15806 15809 15812 15814 15817 15820 15823 15825 15828 15831 15834 15837 15840 15842 15844 15847 15850 15852 15855 15858 15861 15864 15867 15870 15873 15876 15879 15882 15885 15888 15891 15894 15896 15899 15902 15904 15907 15909 15912 15915 15918 15921 15923 15926 15929 15932 15935 15938 15940 15943 15946 15948 15950 15953 15956 15959 15962 15964 15967 15970 15973 15976 15979 15982 15985 15988 15990 15993 15995 15998 16001 16004 16007 16010 16013 16016 16019 16021 16024 16027 16030 16033 16035 16038 16041 16044 16047 16050 16053 16056 16059 16062 16065 16068 16071 16074 16077 16080 16083 16086 16089 16092 16095 16098 16101 16104 16107 16110 16113 16116 16119 16122 16125 16128 16131 16134 16136 16139 16142 16145 16148 16151 16154 16157 16159 16162 16165 16168 16171 16174 16177 16180 16183 16186 16189 16192 16195 16197 16200 16203 16206 16209 16211 16214 16217 16220 16223 16226 16229 16232 16235 16238 16241 16244 16247 16250 16252 16255 16258 16260 16263 16266 16269 16272 16274 16277 16280 16283 16286 16289 16292 16295 16298 16301 16304 16307 16309 16312 16314 16317 16320 16322 16325 16328 16331 16334 16336 16339 16342 16345 16348 16351 16354 16357 16360 16363 16366 16369 16372 16375 16378 16381 16384 16387 16390 16393 16396 16399 16402 16405 16408 16411 16414 16417 16420 16422 16425 16428 16431 16434 16436 16439 16442 16445 16448 16451 16454 16457 16460 16463 16465 16468 16471 16474 16476 16479 16482 16485 16488 16491 16494 16496 16499 16501 16504 16506 16509 16512 16515 16518 16521 16524 16527 16530 16533 16536 16539 16542 16545 16548 16551 16554 16557 16560 16563 16566 16569 16572 16575 16578 16581 16584 16587 16590 16593 16596 16599 16602 16605 16608 16611 16613 16616 16618 16621 16624 16627 16630 16633 16636 16639 16642 16644 16647 16650 16653 16656 16659 16662 16665 16668 16671 16674 16677 16680 16682 16685 16688 16691 16694 16697 16700 16703 16706 16709 16712 16715 16718 16721 16723 16726 16729 16731 16734 16737 16740 16743 16745 16748 16751 16754 16757 16759 16762 16765 16768 16771 16774 16776 16778 16781 16783 16786 16789 16791 16794 16797 16800 16803 16805 16808 16810 16813 16816 16819 16822 16825 16828 16831 16834 16836 16839 16842 16845 16848 16850 16853 16856 16859 16862 16865 16868 16871 16874 16877 16880 16883 16886 16889 16892 16895 16898 16901 16904 16907 16910 16913 16916 16918 16921 16924 16927 16930 16933 16936 16939 16942 16945 16948 16951 16954 16957 16960 16963 16966 16969 16972 16975 16978 16981 16983 16986 16989 16992 16995 16998 17001 17004 17006 17009 17011 17014 17017 17020 17023 17026 17029 17032 17035 17038 17041 17044 17047 17050 17053 17056 17059 17062 17065 17068 17071 17074 17077 17080 17083 17086 17089 17091 17094 17097 17100 17103 17106 17108 17111 17113 17116 17119 17122 17125 17127 17129 17131 17134 17136 17139 17142 17145 17147 17150 17153 17156 17159 17161 17164 17166 17169 17172 17175 17178 17180 17183 17186 17189 17191 17193 17195 17198 17200 17203 17205 17208 17211 17213 17216 17219 17222 17225 17228 17231 17234 17237 17240 17243 17245 17248 17250 17253 17255 17258 17261 17264 17267 17269 17272 17275 17278 17281 17283 17286 17289 17292 17295 17298 17301 17304 17307 17310 17313 17315 17318 17320 17323 17326 17328 17331 17334 17336 17339 17342 17345 17348 17351 17353 17356 17359 17362 17365 17368 17371 17374 17377 17380 17383 17386 17389 17391 17394 17397 17400 17402 17405 17408 17411 17414 17417 17419 17422 17425 17428 17431 17434 17437 17440 17443 17446 17449 17452 17455 17458 17461 17464 17467 17470 17473 17476 17479 17482 17484 17487 17490 17493 17496 17498 17501 17504 17507 17509 17512 17514 17517 17520 17522 17525 17527 17530 17533 17536 17539 17542 17545 17547 17550 17553 17556 17559 17561 17564 17566 17569 17572 17575 17578 17581 17584 17587 17589 17592 17595 17598 17601 17604 17607 17610 17612 17615 17618 17621 17624 17627 17630 17633 17636 17639 17642 17645 17648 17651 17654 17657 17660 17663 17665 17668 17671 17674 17676 17679 17682 17685 17688 17691 17694 17697 17700 17703 17706 17709 17712 17715 17718 17720 17723 17726 17729 17732 17735 17738 17741 17744 17747 17750 17753 17756 17759 17762 17765 17768 17771 17774 17777 17780 17783 17786 17789 17792 17795 17798 17801 17803 17806 17808 17811 17814 17817 17819 17822 17825 17828 17830 17833 17836 17838 17840 17843 17846 17849 17852 17855 17858 17861 17864 17866 17869 17872 17874 17877 17880 17883 17886 17888 17891 17893 17896 17899 17902 17904 17907 17910 17913 17916 17919 17922 17925 17928 17931 17934 17936 17939 17942 17944 17947 17950 17952 17955 17958 17961 17964 17967 17970 17973 17975 17978 17981 17983 17985 17988 17991 17994 17996 17999 18002 18005 18008 18011 18014 18016 18019 18022 18025 18028 18030 18033 18036 18039 18041 18044 18047 18050 18053 18055 18058 18061 18063 18066 18069 18072 18075 18078 18081 18084 18087 18090 18093 18096 18098 18101 18104 18107 18110 18112 18115 18117 18120 18122 18125 18127 18130 18133 18136 18139 18142 18145 18148 18151 18154 18157 18160 18162 18164 18167 18170 18173 18176 18179 18182 18184 18187 18190 18192 18195 18198 18201 18204 18207 18210 18212 18215 18218 18221 18223 18226 18228 18231 18234 18237 18239 18242 18245 18248 18251 18254 18257 18259 18262 18265 18268 18271 18274 18277 18279 18282 18284 18287 18290 18293 18295 18298 18301 18304 18307 18309 18312 18315 18318 18321 18324 18327 18330 18332 18335 18337 18340 18342 18345 18348 18351 18353 18355 18358 18361 18363 18366 18369 18372 18375 18378 18380 18383 18385 18387 18389 18391 18394 18397 18400 18403 18406 18408 18410 18413 18416 18418 18421 18424 18427 18429 18432 18435 18438 18441 18444 18447 18450 18453 18456 18458 18461 18464 18467 18469 18472 18475 18478 18481 18484 18487 18490 18492 18495 18497 18500 18503 18506 18509 18511 18514 18516 18519 18522 18525 18528 18530 18533 18536 18539 18542 18545 18548 18551 18554 18557 18559 18562 18565 18568 18571 18574 18577 18580 18583 18586 18589 18592 18595 18598 18601 18604 18607 18610 18613 18616 18619 18622 18624 18627 18630 18633 18636 18638 18641 18644 18647 18650 18653 18655 18658 18660 18663 18666 18669 18672 18675 18678 18681 18684 18687 18690 18693 18695 18698 18700 18703 18705 18707 18710 18712 18715 18717 18720 18723 18726 18728 18731 18734 18737 18739 18742 18745 18748 18751 18753 18756 18758 18761 18764 18767 18770 18773 18776 18779 18782 18784 18787 18790 18793 18796 18799 18802 18805 18808 18810 18813 18816 18819 18822 18825 18828 18831 18834 18837 18839 18842 18845 18847 18850 18853 18856 18858 18861 18864 18867 18870 18873 18876 18879 18882 18885 18888 18891 18894 18896 18899 18902 18905 18908 18910 18913 18916 18919 18922 18925 18928 18930 18933 18936 18939 18942 18944 18947 18949 18952 18955 18958 18961 18964 18967 18970 18972 18975 18978 18981 18983 18985 18988 18991 18994 18997 18999 19002 19004 19007 19010 19012 19015 19018 19021 19024 19027 19030 19033 19036 19039 19042 19045 19048 19051 19054 19057 19060 19063 19066 19069 19072 19075 19078 19081 19084 19087 19090 19093 19096 19099 19102 19105 19108 19111 19114 19117 19119 19122 19125 19128 19130 19133 19136 19139 19142 19145 19148 19151 19154 19157 19160 19163 19166 19169 19171 19174 19176 19179 19182 19185 19188 19191 19194 19197 19200 19203 19206 19209 19212 19215 19217 19220 19223 19225 19228 19231 19234 19237 19240 19242 19245 19248 19251 19254 19257 19260 19263 19266 19269 19272 19275 19278 19281 19284 19287 19290 19293 19296 19299 19301 19303 19306 19309 19311 19314 19317 19319 19322 19325 19328 19331 19334 19337 19340 19342 19345 19348 19351 19354 19356 19359 19362 19365 19368 19371 19374 19377 19380 19383 19386 19389 19392 19395 19398 19400 19403 19406 19408 19411 19414 19417 19420 19423 19426 19429 19431 19433 19436 19439 19442 19445 19448 19451 19454 19457 19460 19463 19466 19469 19472 19475 19478 19481 19483 19486 19489 19492 19495 19497 19500 19503 19505 19508 19511 19513 19516 19519 19522 19525 19528 19531 19534 19537 19540 19543 19546 19549 19551 19554 19557 19560 19563 19565 19568 19571 19574 19577 19580 19583 19586 19589 19592 19594 19596 19598 19601 19604 19607 19609 19612 19615 19617 19619 19622 19624 19627 19630 19633 19635 19638 19641 19644 19647 19650 19653 19656 19659 19662 19665 19668 19671 19674 19677 19680 19683 19686 19689 19692 19695 19698 19701 19704 19707 19710 19713 19716 19719 19722 19725 19728 19731 19734 19737 19740 19743 19746 19749 19752 19755 19758 19761 19764 19767 19770 19773 19776 19779 19781 19784 19786 19789 19792 19795 19798 19801 19804 19807 19810 19813 19815 19818 19821 19824 19827 19830 19833 19835 19838 19841 19844 19847 19850 19852 19855 19858 19861 19864 19867 19870 19873 19876 19879 19882 19885 19888 19891 19894 19897 19899 19902 19905 19908 19911 19914 19917 19920 19922 19925 19928 19931 19934 19937 19939 19941 19944 19947 19950 19953 19955 19958 19961 19964 19967 19970 19973 19976 19979 19982 19985 19988 19991 19994 19997 20000 20003 20006 20009 20012 20015 20018 20020 20023 20026 20029 20032 20035 20038 20040 20043 20046 20049 20051 20054 20057 20060 20063 20066 20069 20072 20075 20078 20081 20084 20087 20090 20093 20096 20099 20102 20105 20107 20110 20112 20115 20118 20121 20124 20127 20129 20131 20134 20137 20140 20142 20145 20148 20151 20154 20157 20160 20162 20165 20168 20171 20174 20177 20179 20182 20184 20187 20190 20192 20195 20198 20201 20204 20206 20209 20212 20215 20218 20220 20223 20226 20229 20232 20234 20237 20240 20243 20246 20249 20252 20255 20258 20261 20264 20267 20270 20273 20275 20278 20281 20284 20287 20290 20293 20296 20299 20302 20305 20308 20311 20314 20317 20320 20323 20325 20328 20331 20334 20337 20339 20342 20345 20348 20351 20353 20356 20359 20362 20365 20368 20371 20374 20377 20380 20383 20385 20388 20391 20394 20397 20399 20402 20405 20408 20411 20414 20417 20420 20423 20426 20429 20432 20435 20438 20441 20444 20446 20449 20452 20455 20457 20460 20463 20466 20469 20472 20475 20478 20481 20484 20487 20490 20493 20496 20499 20501 20504 20507 20510 20513 20516 20519 20522 20525 20528 20531 20534 20536 20539 20542 20544 20547 20550 20553 20556 20559 20562 20564 20566 20569 20572 20575 20578 20580 20583 20585 20588 20591 20594 20596 20599 20602 20604 20607 20610 20613 20616 20619 20622 20625 20628 20631 20634 20637 20640 20643 20646 20649 20652 20654 20657 20660 20663 20666 20669 20672 20675 20678 20680 20682 20685 20688 20691 20693 20695 20698 20700 20703 20705 20708 20711 20714 20717 20719 20722 20725 20728 20731 20734 20737 20740 20743 20746 20749 20752 20755 20758 20760 20763 20765 20768 20771 20774 20777 20780 20783 20786 20789 20791 20793 20796 20799 20801 20803 20805 20808 20811 20814 20817 20820 20823 20825 20828 20831 20833 20836 20839 20841 20843 20845 20847 20850 20853 20856 20859 20862 20865 20868 20871 20874 20877 20880 20883 20886 20888 20891 20894 20896 20899 20901 20904 20907 20910 20913 20916 20919 20922 20924 20926 20929 20932 20934 20937 20940 20942 20945 20948 20951 20954 20956 20958 20960 20962 20965 20968 20971 20974 20977 20980 20983 20986 20989 20992 20995 20998 21001 21004 21006 21009 21012 21014 21017 21020 21023 21026 21028 21031 21034 21037 21039 21042 21045 21047 21050 21053 21055 21058 21061 21063 21065 21068 21070 21073 21076 21079 21082 21085 21088 21090 21093 21096 21099 21102 21104 21107 21110 21113 21116 21119 21121 21124 21127 21129 21132 21134 21136 21139 21142 21145 21147 21150 21153 21156 21159 21162 21164 21167 21170 21173 21175 21178 21181 21184 21186 21189 21192 21195 21198 21201 21204 21207 21209 21212 21215 21218 21221 21224 21226 21229 21232 21235 21238 21241 21244 21247 21249 21252 21254 21256 21259 21262 21264 21267 21270 21273 21276 21279 21282 21284 21287 21290 21293 21296 21299 21302 21304 21307 21310 21313 21316 21319 21322 21324 21327 21329 21332 21334 21337 21340 21342 21345 21348 21351 21354 21356 21358 21360 21362 21365 21368 21371 21374 21377 21380 21383 21386 21388 21391 21394 21397 21399 21402 21404 21407 21410 21413 21416 21419 21422 21425 21428 21431 21434 21437 21440 21443 21446 21449 21452 21454 21457 21459 21462 21465 21468 21471 21474 21477 21480 21483 21485 21488 21491 21494 21497 21500 21502 21505 21508 21510 21513 21516 21519 21522 21525 21528 21530 21532 21535 21538 21540 21543 21546 21549 21552 21555 21558 21561 21564 21567 21570 21573 21575 21577 21580 21583 21586 21589 21591 21594 21597 21600 21603 21606 21609 21612 21615 21617 21620 21623 21626 21629 21631 21634 21637 21640 21643 21646 21649 21651 21654 21656 21659 21661 21664 21667 21670 21673 21676 21679 21682 21685 21688 21691 21694 21697 21700 21703 21706 21709 21712 21715 21717 21720 21723 21726 21729 21732 21735 21738 21741 21744 21747 21750 21753 21756 21759 21762 21765 21768 21770 21772 21775 21778 21781 21784 21787 21790 21793 21796 21799 21802 21805 21808 21811 21814 21817 21820 21823 21826 21829 21832 21835 21838 21841 21844 21847 21850 21853 21856 21859 21862 21865 21868 21871 21874 21877 21880 21883 21886 21889 21892 21895 21898 21901 21904 21907 21909 21912 21914 21917 21920 21923 21926 21929 21932 21935 21937 21940 21943 21946 21948 21951 21953 21955 21957 21960 21962 21964 21967 21970 21972 21974 21976 21979 21982 21985 21988 21991 21993 21996 21998 22000 22003 22006 22009 22012 22015 22018 22021 22023 22026 22029 22031 22034 22037 22039 22041 22044 22047 22050 22053 22056 22059 22061 22064 22067 22069 22071 22074 22077 22079 22082 22085 22088 22090 22093 22096 22099 22102 22104 22107 22110 22113 22115 22118 22121 22123 22126 22129 22132 22135 22138 22141 22144 22147 22150 22153 22156 22159 22162 22165 22168 22171 22174 22177 22180 22182 22184 22187 22190 22193 22195 22198 22201 22204 22207 22209 22212 22215 22218 22221 22224 22226 22228 22231 22234 22237 22240 22243 22246 22249 22252 22255 22257 22260 22263 22266 22269 22272 22275 22278 22281 22284 22287 22290 22293 22296 22299 22302 22305 22308 22311 22314 22317 22320 22323 22326 22329 22332 22335 22338 22340 22343 22345 22347 22350 22353 22356 22359 22362 22365 22368 22371 22374 22377 22380 22383 22386 22389 22392 22395 22398 22401 22404 22407 22410 22413 22416 22419 22422 22425 22428 22430 22433 22436 22438 22441 22444 22446 22449 22452 22454 22457 22459 22462 22465 22468 22471 22474 22477 22480 22482 22485 22488 22491 22494 22497 22500 22503 22506 22509 22512 22515 22518 22520 22523 22525 22528 22530 22533 22536 22539 22542 22545 22547 22550 22553 22556 22559 22561 22564 22567 22569 22572 22575 22578 22581 22584 22587 22590 22593 22595 22598 22601 22604 22607 22610 22613 22615 22618 22621 22624 22627 22629 22632 22635 22638 22640 22643 22646 22649 22652 22655 22658 22661 22664 22667 22670 22673 22676 22679 22682 22685 22688 22691 22694 22696 22699 22701 22704 22707 22710 22712 22715 22718 22721 22724 22727 22730 22733 22736 22739 22742 22745 22748 22751 22754 22757 22760 22763 22766 22769 22771 22774 22777 22780 22782 22785 22788 22791 22793 22796 22799 22802 22805 22808 22811 22814 22817 22820 22823 22826 22829 22832 22835 22838 22840 22843 22846 22849 22852 22854 22857 22860 22862 22865 22868 22871 22874 22877 22880 22882 22885 22887 22890 22892 22894 22896 22899 22902 22905 22907 22909 22912 22915 22918 22921 22924 22927 22930 22932 22935 22938 22941 22943 22946 22948 22951 22954 22957 22960 22963 22966 22969 22972 22975 22977 22980 22983 22986 22989 22992 22995 22998 23001 23003 23006 23009 23012 23015 23017 23020 23023 23026 23029 23032 23035 23038 23041 23044 23047 23050 23053 23056 23059 23062 23065 23068 23071 23074 23077 23080 23082 23084 23087 23090 23093 23096 23099 23102 23105 23108 23110 23113 23116 23119 23122 23125 23128 23131 23134 23137 23140 23142 23145 23148 23151 23154 23157 23160 23162 23165 23168 23171 23174 23177 23179 23182 23184 23187 23190 23192 23194 23197 23200 23203 23206 23209 23212 23215 23218 23221 23224 23227 23230 23233 23236 23239 23242 23245 23248 23251 23254 23257 23260 23263 23266 23269 23272 23275 23278 23281 23284 23287 23290 23293 23296 23299 23302 23305 23308 23311 23314 23317 23320 23323 23326 23329 23332 23335 23338 23340 23342 23345 23348 23350 23353 23356 23359 23362 23365 23367 23369 23372 23375 23377 23379 23382 23385 23388 23391 23394 23397 23400 23403 23406 23409 23411 23414 23417 23420 23423 23426 23429 23432 23435 23438 23441 23444 23447 23450 23453 23456 23458 23461 23464 23467 23470 23473 23476 23479 23482 23485 23488 23491 23494 23497 23499 23502 23504 23506 23508 23511 23514 23517 23520 23523 23526 23529 23532 23534 23536 23539 23542 23545 23548 23550 23553 23556 23559 23562 23565 23568 23571 23574 23576 23579 23582 23585 23588 23591 23594 23597 23600 23603 23606 23609 23612 23615 23618 23621 23624 23627 23629 23632 23635 23638 23641 23644 23647 23649 23652 23655 23657 23660 23663 23666 23669 23672 23675 23678 23681 23684 23687 23690 23693 23696 23699 23702 23705 23708 23711 23713 23716 23719 23722 23724 23727 23730 23732 23735 23737 23739 23742 23745 23747 23750 23753 23756 23758 23761 23764 23766 23769 23771 23773 23776 23779 23782 23785 23787 23790 23793 23796 23799 23802 23805 23807 23810 23812 23815 23818 23821 23823 23826 23829 23832 23835 23837 23840 23842 23844 23847 23850 23853 23856 23859 23861 23864 23866 23869 23871 23874 23876 23878 23881 23884 23887 23890 23893 23896 23899 23901 23904 23906 23909 23912 23914 23917 23920 23922 23925 23928 23931 23934 23937 23940 23943 23946 23949 23952 23955 23958 23961 23964 23967 23970 23973 23976 23979 23982 23985 23988 23991 23994 23997 24000 24003 24006 24009 24012 24015 24017 24020 24023 24026 24029 24032 24035 24038 24041 24044 24047 24050 24053 24056 24059 24062 24065 24068 24071 24074 24077 24080 24083 24086 24088 24091 24094 24097 24100 24103 24105 24107 24110 24113 24116 24119 24122 24125 24128 24131 24134 24137 24140 24143 24146 24149 24152 24155 24158 24161 24164 24167 24170 24172 24175 24178 24181 24184 24187 24190 24193 24196 24199 24202 24205 24208 24211 24213 24216 24218 24221 24224 24227 24229 24232 24235 24238 24241 24244 24247 24250 24253 24255 24258 24260 24263 24266 24269 24272 24275 24277 24280 24283 24286 24289 24292 24295 24298 24301 24304 24307 24310 24312 24315 24318 24321 24324 24327 24330 24333 24336 24339 24342 24345 24347 24350 24353 24356 24359 24362 24365 24368 24371 24373 24376 24379 24382 24385 24388 24391 24394 24397 24400 24403 24406 24409 24412 24415 24418 24421 24424 24427 24430 24433 24436 24439 24442 24445 24448 24451 24453 24456 24459 24461 24464 24467 24470 24473 24476 24479 24482 24485 24488 24491 24494 24497 24500 24503 24506 24509 24512 24515 24518 24521 24524 24527 24530 24533 24536 24539 24542 24545 24547 24550 24552 24555 24557 24560 24563 24566 24569 24572 24574 24577 24580 24583 24586 24588 24591 24594 24597 24599 24602 24605 24608 24611 24614 24617 24620 24623 24626 24629 24632 24635 24638 24641 24644 24647 24650 24653 24655 24657 24659 24662 24665 24668 24671 24674 24677 24680 24683 24686 24689 24692 24695 24698 24700 24703 24706 24709 24712 24715 24718 24721 24724 24727 24730 24733 24736 24738 24741 24744 24746 24749 24752 24755 24758 24761 24764 24767 24770 24773 24776 24779 24782 24785 24788 24791 24794 24797 24800 24803 24806 24809 24811 24813 24816 24819 24822 24825 24828 24831 24834 24837 24840 24843 24846 24849 24852 24855 24857 24860 24863 24865 24868 24871 24874 24877 24879 24882 24885 24888 24891 24894 24897 24899 24902 24905 24908 24911 24914 24917 24920 24923 24926 24929 24932 24935 24938 24941 24944 24947 24950 24953 24955 24958 24961 24964 24967 24970 24972 24975 24978 24981 24984 24987 24990 24993 24996 24999 25002 25005 25008 25011 25014 25017 25020 25023 25026 25029 25032 25035 25038 25041 25044 25047 25050 25053 25056 25058 25061 25063 25066 25069 25072 25075 25077 25079 25082 25085 25088 25091 25094 25097 25100 25103 25106 25109 25112 25115 25118 25121 25124 25127 25130 25133 25136 25139 25142 25145 25148 25151 25154 25157 25160 25163 25166 25169 25172 25175 25178 25181 25184 25186 25189 25192 25195 25198 25200 25203 25206 25209 25212 25215 25218 25221 25224 25227 25230 25233 25235 25238 25241 25244 25247 25250 25253 25256 25259 25262 25265 25268 25271 25274 25277 25280 25283 25286 25288 25290 25293 25295 25298 25301 25304 25307 25310 25313 25316 25319 25322 25325 25327 25330 25333 25336 25339 25342 25345 25348 25351 25354 25357 25360 25363 25366 25369 25372 25375 25378 25380 25383 25386 25389 25392 25394 25397 25400 25403 25406 25409 25412 25415 25418 25421 25424 25427 25430 25433 25436 25439 25442 25445 25448 25451 25454 25457 25460 25463 25466 25469 25472 25475 25478 25481 25484 25487 25490 25493 25496 25499 25502 25505 25508 25511 25514 25517 25520 25523 25526 25529 25532 25535 25538 25541 25544 25547 25550 25553 25556 25559 25562 25565 25568 25571 25574 25577 25580 25583 25586 25589 25592 25595 25598 25601 25604 25607 25610 25613 25616 25619 25622 25625 25628 25631 25634 25637 25639 25642 25645 25648 25651 25654 25657 25660 25662 25665 25668 25670 25673 25676 25679 25682 25685 25688 25691 25694 25697 25700 25703 25706 25708 25711 25713 25716 25718 25721 25724 25727 25730 25733 25736 25739 25742 25744 25747 25750 25753 25756 25759 25762 25765 25768 25771 25773 25776 25779 25782 25785 25788 25791 25794 25797 25800 25803 25806 25809 25812 25815 25818 25821 25824 25827 25830 25833 25836 25838 25841 25844 25847 25850 25853 25856 25859 25862 25865 25868 25871 25874 25876 25879 25882 25885 25888 25891 25893 25896 25899 25901 25904 25907 25910 25913 25915 25917 25920 25923 25925 25928 25931 25934 25937 25940 25943 25946 25948 25950 25953 25956 25959 25962 25965 25968 25971 25974 25977 25980 25983 25986 25988 25991 25994 25997 26000 26002 26005 26008 26011 26014 26017 26020 26023 26026 26028 26031 26034 26037 26040 26042 26045 26048 26051 26054 26056 26059 26062 26065 26068 26071 26074 26077 26079 26082 26085 26088 26091 26094 26096 26099 26102 26105 26107 26110 26113 26116 26119 26122 26124 26127 26130 26133 26136 26139 26142 26145 26148 26151 26154 26157 26160 26163 26166 26168 26171 26174 26176 26179 26182 26185 26188 26191 26194 26197 26200 26203 26206 26209 26212 26215 26218 26221 26224 26227 26230 26233 26236 26239 26241 26244 26247 26249 26252 26255 26257 26260 26263 26266 26269 26272 26275 26278 26281 26284 26287 26290 26293 26296 26299 26302 26305 26308 26311 26314 26317 26320 26323 26326 26329 26332 26335 26338 26341 26344 26347 26349 26352 26355 26358 26361 26363 26366 26369 26371 26374 26376 26379 26382 26385 26388 26390 26393 26395 26398 26401 26403 26406 26408 26411 26413 26415 26418 26421 26423 26426 26428 26431 26433 26436 26439 26441 26444 26447 26450 26453 26456 26459 26461 26464 26466 26469 26472 26474 26476 26479 26482 26484 26487 26489 26492 26495 26497 26500 26503 26505 26508 26511 26513 26515 26517 26520 26522 26525 26528 26531 26534 26537 26540 26543 26546 26548 26551 26554 26557 26560 26563 26566 26569 26571 26574 26577 26580 26583 26586 26589 26592 26595 26598 26601 26604 26607 26610 26613 26615 26618 26621 26624 26627 26630 26633 26636 26639 26642 26645 26648 26651 26654 26657 26660 26663 26666 26669 26672 26674 26677 26680 26683 26686 26689 26692 26695 26698 26701 26704 26707 26710 26713 26716 26719 26722 26725 26728 26731 26734 26737 26740 26743 26746 26749 26752 26755 26758 26761 26764 26767 26769 26772 26775 26778 26780 26783 26785 26787 26790 26792 26795 26798 26801 26803 26806 26809 26812 26815 26817 26819 26821 26824 26827 26830 26833 26836 26839 26842 26845 26848 26851 26854 26857 26860 26863 26866 26869 26872 26874 26877 26880 26883 26886 26889 26892 26895 26898 26901 26903 26906 26909 26912 26914 26917 26920 26923 26926 26929 26932 26935 26938 26941 26944 26947 26950 26952 26955 26958 26960 26963 26966 26969 26972 26975 26978 26981 26984 26987 26990 26993 26996 26999 27002 27005 27008 27011 27014 27017 27020 27023 27026 27028 27031 27034 27037 27040 27043 27046 27049 27052 27055 27058 27061 27064 27067 27070 27073 27076 27079 27082 27084 27087 27090 27093 27096 27099 27102 27105 27107 27110 27113 27116 27119 27121 27124 27127 27130 27133 27136 27139 27142 27145 27148 27151 27154 27157 27160 27163 27166 27169 27172 27175 27178 27181 27184 27187 27190 27193 27196 27199 27202 27205 27208 27211 27214 27217 27220 27223 27226 27228 27230 27233 27236 27239 27242 27244 27247 27249 27252 27255 27258 27261 27264 27266 27269 27272 27275 27278 27281 27284 27287 27290 27292 27294 27297 27300 27303 27306 27308 27311 27314 27317 27320 27323 27326 27329 27332 27335 27338 27341 27344 27347 27350 27353 27356 27359 27362 27365 27368 27371 27373 27376 27379 27382 27385 27388 27391 27393 27396 27399 27401 27404 27407 27410 27413 27416 27419 27422 27425 27428 27430 27433 27436 27439 27442 27445 27448 27451 27454 27456 27459 27462 27465 27468 27471 27474 27477 27480 27483 27486 27489 27492 27495 27498 27501 27504 27507 27509 27512 27515 27517 27520 27523 27526 27529 27532 27535 27538 27541 27544 27547 27550 27553 27556 27559 27562 27565 27568 27571 27574 27577 27580 27583 27586 27589 27592 27595 27598 27601 27604 27606 27609 27611 27614 27617 27620 27623 27626 27629 27632 27635 27638 27641 27644 27647 27650 27653 27656 27659 27662 27665 27668 27671 27674 27677 27679 27682 27685 27688 27690 27693 27696 27699 27702 27705 27708 27711 27714 27717 27720 27723 27726 27728 27731 27734 27737 27739 27741 27744 27747 27749 27752 27755 27758 27761 27764 27767 27770 27773 27776 27778 27781 27784 27787 27790 27793 27796 27799 27802 27805 27808 27811 27814 27817 27819 27822 27824 27827 27830 27833 27836 27839 27842 27845 27848 27851 27854 27857 27860 27863 27866 27869 27872 27875 27878 27881 27884 27887 27890 27893 27896 27899 27902 27905 27908 27911 27913 27916 27919 27922 27925 27928 27931 27933 27936 27939 27942 27945 27948 27951 27954 27957 27960 27963 27966 27969 27972 27975 27978 27981 27983 27986 27988 27991 27994 27997 28000 28003 28006 28009 28011 28014 28017 28020 28022 28025 28028 28031 28034 28036 28039 28042 28045 28048 28051 28054 28056 28059 28062 28065 28068 28070 28073 28075 28078 28081 28084 28087 28090 28093 28096 28099 28101 28103 28106 28109 28112 28114 28116 28119 28122 28125 28128 28131 28134 28137 28139 28141 28144 28146 28148 28151 28154 28157 28160 28162 28165 28167 28170 28173 28176 28179 28182 28185 28187 28190 28193 28196 28199 28201 28204 28207 28210 28213 28215 28218 28221 28224 28227 28230 28232 28235 28238 28240 28243 28246 28249 28252 28254 28257 28260 28263 28266 28269 28272 28275 28278 28281 28283 28285 28288 28291 28294 28297 28300 28303 28306 28309 28312 28315 28318 28321 28324 28326 28329 28331 28334 28337 28340 28343 28346 28349 28352 28355 28358 28361 28364 28367 28370 28373 28376 28379 28382 28385 28388 28391 28394 28396 28399 28402 28405 28408 28411 28414 28417 28420 28423 28426 28429 28432 28435 28438 28441 28444 28447 28450 28453 28456 28459 28462 28465 28468 28471 28474 28476 28479 28482 28485 28488 28491 28494 28497 28500 28502 28505 28507 28510 28513 28516 28519 28522 28525 28527 28530 28533 28536 28539 28542 28545 28548 28551 28554 28557 28560 28563 28566 28569 28572 28575 28578 28581 28584 28587 28590 28593 28596 28599 28602 28605 28607 28610 28613 28616 28619 28622 28625 28628 28631 28633 28636 28639 28641 28644 28647 28649 28652 28655 28658 28661 28664 28666 28669 28672 28675 28678 28681 28684 28687 28690 28693 28695 28698 28701 28704 28707 28710 28713 28716 28719 28722 28725 28728 28731 28734 28737 28740 28742 28745 28748 28751 28754 28757 28760 28763 28766 28768 28771 28774 28777 28780 28783 28786 28789 28792 28795 28798 28801 28804 28807 28810 28813 28816 28819 28822 28824 28827 28829 28832 28834 28837 28840 28842 28844 28847 28850 28853 28856 28859 28862 28865 28868 28871 28874 28877 28880 28883 28886 28888 28891 28894 28897 28900 28903 28906 28908 28911 28914 28917 28919 28922 28925 28928 28931 28934 28937 28940 28943 28946 28949 28952 28955 28957 28960 28963 28966 28969 28971 28973 28975 28978 28981 28984 28987 28990 28993 28996 28998 29001 29004 29006 29009 29011 29014 29016 29019 29022 29025 29028 29031 29033 29036 29039 29042 29045 29048 29051 29054 29057 29060 29063 29066 29069 29072 29075 29078 29081 29084 29087 29090 29093 29095 29098 29101 29104 29106 29109 29111 29113 29115 29118 29121 29124 29127 29130 29132 29135 29138 29141 29144 29147 29150 29153 29156 29159 29162 29165 29168 29171 29174 29177 29180 29183 29186 29189 29192 29195 29198 29201 29204 29207 29210 29212 29215 29218 29220 29223 29226 29229 29232 29235 29238 29241 29244 29246 29249 29251 29254 29257 29260 29263 29266 29269 29272 29275 29277 29280 29283 29286 29289 29291 29294 29297 29299 29302 29305 29307 29310 29313 29316 29318 29321 29324 29327 29330 29333 29336 29339 29342 29345 29348 29351 29354 29357 29360 29363 29366 29369 29372 29375 29378 29380 29383 29386 29389 29392 29395 29398 29400 29403 29406 29409 29412 29415 29417 29420 29423 29426 29429 29432 29434 29437 29439 29441 29444 29447 29450 29453 29456 29459 29462 29465 29468 29471 29474 29477 29479 29482 29485 29488 29491 29493 29496 29498 29500 29503 29506 29509 29511 29514 29517 29520 29523 29526 29529 29532 29535 29538 29541 29544 29547 29550 29553 29556 29559 29562 29565 29568 29571 29574 29577 29579 29582 29584 29587 29590 29592 29595 29598 29600 29603 29606 29608 29611 29614 29617 29619 29621 29624 29627 29630 29633 29636 29639 29642 29644 29647 29650 29653 29656 29659 29662 29665 29668 29670 29673 29676 29679 29682 29685 29688 29691 29693 29696 29699 29702 29704 29707 29709 29711 29714 29717 29720 29722 29725 29728 29731 29734 29737 29740 29743 29746 29749 29752 29755 29758 29761 29764 29767 29770 29773 29776 29779 29782 29785 29788 29790 29793 29796 29798 29801 29804 29807 29809 29812 29815 29818 29821 29824 29827 29830 29832 29834 29837 29840 29842 29845 29848 29851 29854 29857 29860 29863 29866 29869 29872 29875 29878 29881 29884 29887 29890 29893 29896 29899 29902 29905 29908 29911 29914 29917 29920 29923 29926 29929 29932 29935 29938 29941 29944 29947 29949 29952 29955 29958 29961 29964 29967 29970 29972 29975 29978 29980 29983 29986 29988 29991 29994 29997 30000 30003 30006 30009 30012 30015 30018 30021 30024 30027 30030 30033 30036 30039 30042 30045 30047 30050 30053 30056 30059 30061 30064 30067 30070 30073 30076 30079 30082 30085 30088 30091 30093 30096 30099 30102 30105 30107 30110 30113 30116 30119 30121 30123 30126 30128 30131 30134 30137 30140 30143 30146 30149 30152 30155 30158 30161 30164 30167 30170 30172 30175 30178 30181 30184 30187 30190 30193 30196 30199 30201 30204 30207 30210 30213 30216 30219 30222 30225 30228 30231 30234 30237 30240 30243 30246 30249 30252 30255 30258 30261 30264 30267 30270 30273 30276 30279 30282 30285 30288 30291 30294 30297 30300 30303 30306 30309 30312 30315 30318 30321 30324 30326 30329 30332 30335 30338 30340 30343 30346 30348 30351 30354 30357 30360 30363 30366 30368 30370 30373 30376 30379 30382 30384 30387 30390 30393 30396 30399 30402 30405 30408 30411 30414 30417 30420 30423 30426 30429 30432 30435 30438 30441 30444 30447 30450 30453 30456 30459 30462 30465 30468 30471 30474 30477 30480 30483 30486 30489 30492 30495 30498 30501 30504 30507 30510 30513 30516 30519 30522 30525 30528 30531 30534 30537 30540 30543 30546 30549 30552 30555 30558 30561 30564 30567 30569 30572 30575 30578 30581 30584 30586 30589 30591 30594 30597 30600 30603 30606 30609 30612 30615 30618 
</DataArray>
<DataArray type="UInt32" Name="types" format="ascii">
3 5 5 5 5 5 5 5 5 3 5 5 5 3 5 5 5 5 5 5 5 5 5 5 5 5 5 5 5 3 5 5 3 5 5 5 3 5 5 5 3 5 5 5 5 5 5 5 5 3 5 5 5 5 5 5 3 5 5 5 5 5 5 5 5 5 3 5 5 3 5 5 5 3 5 3 5 3 3 5 5 5 5 5 5 5 5 5 3 5 3 5 5 3 5 5 5 5 5 5 5 5 5 5 5 5 5 5 5 3 5 5 5 5 3 5 5 3 3 5 5 3 5 5 5 3 3 3 5 3 5 5 5 5 5 5 5 5 5 3 3 5 5 5 5 5 5 3 5 5 5 5 5 3 3 5 5 3 5 5 3 3 5 3 3 5 5 5 5 5 5 5 5 5 5 5 5 3 5 5 3 5 5 5 5 5 5 5 5 5 5 5 5 5 5 5 5 5 5 5 5 3 5 5 5 5 5 5 5 5 5 5 5 5 5 5 5 3 5 5 3 5 5 5 5 3 3 5 5 5 5 5 5 5 5 5 5 5 5 5 5 5 3 5 5 5 3 5 5 5 5 5 5 5 5 3 3 5 5 5 5 5 5 5 5 5 3 5 5 5 5 5 3 5 3 5 5 5 5 5 3 3 5 5 5 3 5 3 5 5 5 3 5 3 5 5 3 5 5 5 3 5 5 5 5 5 3 3 5 5 3 5 3 3 5 5 3 5 3 5 5 5 5 3 5 3 5 5 3 3 3 5 3 5 3 3 5 5 5 5 5 5 5 5 5 3 5 5 5 5 5 5 5 5 5 5 5 5 5 5 5 5 5 5 5 5 5 5 5 5 3 5 3 5 5 5 5 5 3 5 3 5 5 3 5 5 5 5 3 5 3 5 5 5 5 5 5 5 5 5 5 5 5 5 3 5 5 3 5 5 5 5 5 5 5 5 5 5 5 5 5 5 5 5 5 3 5 5 5 5 5 5 5 5 5 5 3 5 5 5 3 3 5 5 5 5 5 5 5 5 5 5 5 5 5 5 5 5 5 5 5 5 5 5 5 3 5 5 3 5 5 3 5 3 5 5 5 3 5 3 3 5 5 5 5 5 5 5 5 5 5 3 5 5 5 5 5 5 5 5 5 5 5 5 5 5 5 5 5 5 5 5 5 5 5 5 5 5 5 5 5 5 5 5 3 5 5 5 5 3 5 5 5 5 5 5 5 3 5 5 5 5 5 5 5 5 5 3 5 3 3 5 5 3 5 3 5 5 5 5 5 5 5 5 3 5 5 5 5 5 3 5 5 5 5 5 5 3 5 5 5 5 5 5 5 5 3 5 3 5 5 5 5 5 3 5 3 5 5 5 5 5 5 3 5 5 5 5 5 5 5 5 5 5 3 3 5 5 5 5 3 5 5 5 5 5 5 5 5 5 5 5 5 3 5 5 3 5 5 5 5 5 5 5 5 5 5 3 3 5 5 5 5 5 5 5 5 5 5 3 5 3 5 5 5 5 5 5 5 5 5 5 5 5 5 5 5 5 5 5 5 5 5 5 5 5 5 5 5 5 5 5 5 5 5 5 5 5 5 5 5 3 5 5 5 3 5 3 5 3 5 5 3 5 3 5 3 5 5 3 5 5 5 5 5 5 5 5 3 5 5 3 5 5 5 5 3 5 5 5 5 5 5 5 5 5 5 3 5 3 5 3 5 3 5 3 5 5 5 3 5 3 5 5 5 5 5 5 5 5 5 5 5 5 3 5 5 3 3 5 5 5 3 5 5 3 5 5 3 5 5 5 3 5 5 5 5 5 3 5 5 3 3 5 5 5 3 3 3 5 5 3 5 5 3 5 5 5 5 5 5 3 5 5 3 5 5 3 5 5 5 5 5 5 5 5 3 5 5 5 5 5 3 3 3 5 5 5 5 5 5 5 5 5 5 5 3 5 5 5 5 3 5 5 5 5 5 5 5 3 5 5 5 3 5 3 5 3 5 3 5 5 5 5 5 5 5 5 5 5 3 5 5 5 5 5 5 5 5 3 5 5 3 5 5 5 5 3 5 5 5 5 5 5 3 5 3 5 5 5 5 5 5 3 3 5 5 5 5 3 5 3 5 5 5 3 5 5 5 5 5 5 5 3 3 5 5 3 5 3 3 3 5 5 5 5 5 5 5 3 5 5 5 5 5 5 5 5 5 5 5 5 5 3 5 5 5 5 5 5 5 5 5 5 3 5 5 3 5 5 5 5 5 3 5 5 5 5 5 5 5 5 3 5 3 5 5 3 5 5 3 5 5 5 5 3 5 5 5 5 5 3 5 5 5 5 5 5 5 5 5 3 5 5 3 3 5 5 5 5 3 5 3 5 5 3 3 5 3 5 3 5 5 5 5 5 3 5 5 5 3 5 5 5 3 5 5 5 5 5 5 5 5 5 5 3 5 5 5 5 5 5 5 5 5 5 5 5 5 5 5 5 5 5 3 5 5 3 5 5 5 5 3 5 5 5 5 5 5 5 5 5 5 5 5 5 5 5 5 5 5 5 5 5 5 5 5 5 5 5 5 5 5 5 5 5 5 5 5 5 5 5 5 5 5 5 5 5 5 5 5 5 5 5 5 5 5 5 5 5 5 3 5 5 5 5 5 5 5 5 5 5 5 5 5 5 5 5 5 5 5 3 5 5 5 5 3 5 5 5 5 5 5 5 5 5 5 5 5 5 5 5 5 5 5 3 5 5 5 5 3 5 5 5 5 5 3 3 5 5 5 5 5 5 5 5 5 5 5 5 5 5 5 5 5 5 3 5 5 5 3 5 3 5 5 5 5 5 5 5 5 5 3 5 5 5 5 3 3 5 5 5 5 5 5 5 5 5 5 5 5 5 5 5 5 5 5 5 3 5 5 5 5 5 5 5 5 5 5 5 5 5 3 5 5 5 5 5 5 5 5 5 5 5 5 5 5 5 5 5 5 5 5 5 5 3 5 5 5 5 5 5 5 3 5 5 5 3 5 5 5 5 5 5 5 5 5 5 5 5 5 5 5 5 5 5 5 5 5 5 5 5 3 5 3 5 5 5 5 3 5 3 5 5 5 5 5 5 5 3 5 5 5 5 3 5 5 5 5 5 5 5 5 5 5 5 3 5 5 5 5 5 5 3 5 3 5 5 5 5 5 3 5 5 3 5 5 3 5 5 5 5 5 5 5 5 5 5 5 5 5 5 5 5 5 5 5 5 5 5 5 5 5 5 5 3 5 5 5 3 5 3 5 5 3 3 5 5 5 3 5 5 5 5 3 5 3 5 5 3 5 5 5 5 5 3 5 5 5 5 5 3 5 5 5 5 5 5 5 5 5 5 5 5 5 5 5 5 5 5 5 5 5 5 5 5 5 5 5 5 5 5 5 5 5 5 5 5 5 5 5 5 5 5 5 3 3 5 5 5 5 5 5 5 5 5 5 5 5 5 5 5 5 5 5 5 5 5 5 5 5 5 5 5 5 3 5 5 5 5 3 5 5 5 5 3 5 5 5 5 5 5 5 3 5 3 5 5 5 5 5 3 5 5 5 5 5 5 5 5 5 5 3 5 5 5 5 5 5 5 5 5 5 5 5 5 5 5 5 5 5 5 5 5 5 5 5 5 3 5 5 5 5 3 5 3 5 5 3 5 3 5 5 5 5 5 5 3 5 5 5 3 5 5 5 5 5 5 5 5 5 5 5 5 5 5 5 5 5 3 5 3 5 5 5 5 5 3 5 3 5 5 5 5 5 5 5 5 3 5 5 5 5 5 5 5 5 5 5 5 5 5 5 5 5 5 5 5 5 5 5 5 3 5 3 5 5 5 5 5 5 5 5 5 5 5 5 3 5 5 5 5 5 5 5 5 5 5 5 5 5 5 5 5 5 5 5 5 5 5 5 5 5 5 5 3 5 5 5 3 5 3 3 5 5 5 5 5 3 5 5 5 5 5 5 5 5 5 5 5 5 5 5 5 5 5 5 5 5 5 5 5 5 3 5 5 3 5 5 5 5 5 5 5 5 3 3 5 5 5 5 5 5 5 5 5 5 3 5 5 3 3 5 3 5 5 5 5 5 3 5 3 3 3 5 5 5 5 5 5 3 5 5 5 5 5 5 5 5 5 3 5 3 5 5 3 5 5 5 5 5 5 5 5 5 5 5 5 5 5 5 5 5 5 5 5 5 5 5 5 5 5 3 3 5 5 5 5 5 5 5 5 5 5 5 5 5 5 5 5 5 5 5 5 5 5 5 5 5 5 5 5 5 5 5 5 5 5 5 5 5 5 5 5 5 5 5 5 5 5 5 5 5 5 5 5 5 5 5 5 3 5 5 5 5 5 5 5 5 5 3 3 5 5 5 3 5 5 5 5 5 5 5 5 5 5 5 5 5 5 5 5 5 5 5 5 5 5 5 5 5 5 5 5 5 5 3 5 5 5 5 5 5 5 3 5 5 5 5 5 5 5 3 5 5 3 5 5 5 5 5 5 5 5 5 3 5 5 3 3 5 5 5 3 5 5 5 5 5 5 5 5 5 5 5 3 5 5 5 5 3 5 3 5 5 3 5 5 3 3 5 5 5 5 5 5 5 5 5 5 3 3 5 5 5 5 5 5 3 5 5 5 5 5 5 3 5 3 5 5 5 5 5 3 3 5 5 5 5 5 5 5 5 5 5 5 5 5 5 5 5 5 5 5 3 3 5 5 3 5 5 5 5 5 5 5 5 5 5 5 3 5 5 5 5 5 5 5 5 5 5 5 5 5 5 5 5 5 5 5 5 5 5 5 5 5 5 5 5 3 5 5 5 5 3 3 5 5 5 5 5 5 5 3 5 3 5 5 5 5 5 5 5 5 5 5 5 5 5 5 5 5 5 5 5 5 3 3 5 3 5 5 5 5 5 3 5 5 5 5 5 5 5 5 5 5 5 5 5 5 5 5 5 3 5 5 5 5 5 5 5 5 5 5 5 3 5 5 5 5 5 5 5 5 5 5 3 5 5 5 5 5 5 5 5 5 3 5 5 5 5 3 5 5 5 3 5 5 5 5 3 5 5 5 5 5 5 5 5 5 3 5 5 5 5 3 5 5 5 5 5 5 5 5 3 5 3 3 5 3 3 5 5 5 3 5 5 5 3 5 3 5 5 5 5 5 3 5 5 5 3 5 5 5 5 5 5 3 3 5 5 5 5 5 5 5 5 5 5 5 3 5 3 3 5 5 5 5 5 3 3 5 5 3 5 5 5 5 3 5 5 5 5 5 3 5 5 5 5 3 3 5 5 3 5 3 3 5 5 5 5 5 5 5 5 5 5 5 5 5 5 5 5 5 5 5 5 5 3 5 5 3 5 3 5 5 5 3 5 5 5 5 5 5 3 3 5 5 5 5 5 5 3 5 5 3 5 5 5 5 5 5 3 5 5 5 3 5 5 5 5 5 5 3 5 5 5 5 5 5 5 5 5 5 5 5 5 3 5 3 5 5 5 5 5 5 5 5 5 3 5 5 5 3 5 5 5 5 5 5 5 5 5 5 3 5 5 5 5 5 5 5 5 5 5 5 5 5 5 5 5 5 5 5 5 5 5 5 5 5 3 5 5 5 3 5 5 3 5 5 5 5 5 3 5 5 5 3 5 5 5 5 5 5 5 3 5 5 5 5 5 5 5 5 5 5 5 5 5 5 5 5 5 3 5 3 5 5 5 5 5 5 5 5 5 3 5 3 5 3 5 3 3 5 5 5 5 3 5 5 5 5 3 5 5 5 5 5 3 5 3 5 5 3 5 5 5 5 5 5 5 5 5 5 5 5 5 5 5 5 5 3 5 5 5 5 5 5 3 5 5 5 5 5 3 5 5 5 5 5 5 5 3 5 5 3 5 5 5 5 5 5 3 5 5 5 3 5 5 5 5 5 5 5 5 5 5 5 5 5 5 5 5 5 3 5 5 5 5 5 3 3 5 5 5 5 5 3 5 3 5 3 5 3 3 5 5 5 3 3 5 5 5 5 5 5 5 5 5 5 5 5 5 5 5 5 5 5 5 5 5 5 5 5 5 5 5 5 5 5 5 5 5 5 5 5 5 5 3 5 5 5 5 5 5 5 3 5 3 5 5 5 5 5 5 3 5 5 5 3 5 5 5 3 3 5 3 5 5 5 5 5 5 3 5 5 3 5 5 5 5 5 5 5 5 5 5 5 5 3 3 3 5 5 5 3 5 5 5 5 5 5 5 5 5 5 5 5 5 5 5 5 5 5 5 5 5 5 3 5 5 5 5 3 5 5 5 5 5 5 5 3 5 5 5 5 5 3 5 5 5 5 5 3 5 5 5 5 5 5 5 5 5 3 5 5 5 5 3 5 5 5 5 5 5 5 5 5 5 3 5 5 3 5 5 5 5 5 5 5 5 5 5 5 5 5 5 5 5 5 5 5 5 3 5 5 5 5 3 5 5 5 5 5 5 5 5 3 5 5 5 5 5 3 5 5 3 5 5 5 5 5 5 5 5 5 5 5 5 3 5 5 5 5 5 5 5 5 5 5 5 5 5 5 5 5 5 5 5 5 5 5 5 5 5 5 5 5 3 5 5 5 5 5 5 5 5 5 5 5 5 5 5 3 5 5 5 5 5 5 5 5 5 5 5 5 5 5 5 5 5 5 5 3 5 5 5 5 5 5 5 3 5 5 5 5 5 5 5 5 5 5 5 5 5 5 5 5 5 5 5 5 5 5 5 5 3 5 5 5 5 5 3 5 5 5 5 5 5 5 5 5 5 3 5 5 3 5 3 5 5 5 5 5 5 5 3 5 3 5 3 5 5 5 5 5 5 5 5 5 5 5 5 5 5 5 5 5 5 5 5 5 5 5 5 5 5 5 5 5 5 5 5 5 5 5 5 3 5 5 5 5 5 5 5 5 5 5 5 5 5 5 5 5 5 5 5 5 5 5 5 5 5 5 5 5 5 5 5 3 5 5 5 5 5 5 3 3 5 5 5 5 5 5 5 5 5 5 5 5 5 3 5 5 5 5 5 5 5 5 5 5 3 3 5 3 5 5 5 3 5 3 3 5 3 5 5 5 5 5 5 5 3 3 5 5 5 5 3 5 5 5 5 3 5 3 5 3 3 5 3 5 5 5 5 5 3 5 3 3 3 3 5 5 5 5 5 3 5 5 3 3 5 5 5 3 5 5 3 5 5 5 5 3 5 5 3 5 5 3 5 5 5 5 5 5 5 5 5 5 5 5 5 5 3 5 3 5 5 5 5 5 3 5 5 3 5 5 5 5 5 3 5 5 5 5 5 5 5 5 5 5 3 5 5 5 5 5 5 5 5 5 5 5 3 5 5 5 5 5 5 3 5 5 5 5 5 5 5 5 5 5 5 5 5 5 3 5 5 5 3 5 5 5 5 5 5 5 3 5 3 5 5 5 5 5 5 5 5 5 5 5 5 5 5 5 5 5 5 5 5 5 5 5 5 5 5 5 5 5 5 5 5 5 5 5 5 3 5 3 5 5 3 5 3 5 5 5 5 5 5 3 5 5 3 3 5 5 5 5 5 5 3 5 5 5 5 5 5 5 3 5 5 5 5 5 5 5 5 5 5 5 5 5 5 5 5 5 5 5 3 5 5 5 3 5 3 5 3 5 5 5 5 3 5 5 5 5 5 5 3 5 5 5 5 5 5 3 5 5 3 5 5 5 5 5 5 3 5 5 5 5 5 5 5 5 5 3 5 3 5 5 5 5 5 3 3 5 5 5 3 3 5 5 5 5 5 5 3 5 5 3 3 5 5 3 5 5 3 5 5 5 5 3 5 5 5 5 5 5 3 5 5 5 5 5 5 5 5 5 5 3 5 5 5 3 3 5 5 5 5 5 5 5 5 5 3 5 5 5 5 5 5 5 5 5 5 5 3 3 5 5 5 5 3 5 5 5 5 3 5 5 5 5 3 5 5 5 3 5 5 5 5 3 5 5 5 5 5 3 5 5 5 5 3 5 5 5 5 5 5 5 5 5 5 5 5 5 5 5 5 5 5 5 5 5 5 5 5 5 5 5 5 5 5 5 5 3 5 5 5 5 3 5 5 5 5 5 5 3 5 5 5 3 5 3 5 5 5 5 5 5 5 5 5 5 5 5 5 5 5 5 5 5 5 5 5 5 5 3 5 3 5 5 5 3 5 5 5 5 5 5 5 5 5 5 5 5 5 3 5 5 3 5 5 3 3 5 3 5 5 5 5 5 5 5 5 5 5 5 5 5 5 5 5 5 3 5 5 5 5 5 3 5 5 5 5 5 5 5 3 5 5 5 5 5 5 5 3 5 5 5 5 5 5 5 5 5 5 5 5 5 5 5 3 5 5 5 3 5 5 5 5 5 5 5 5 5 5 5 3 5 5 5 5 5 5 3 5 5 3 5 3 5 5 5 3 5 5 5 5 5 5 5 5 5 5 5 3 5 5 5 5 5 3 5 5 5 3 5 5 5 3 5 5 5 5 5 3 5 3 5 5 5 5 5 5 5 5 3 5 3 5 5 3 5 3 5 3 5 5 5 5 5 5 5 5 5 5 3 5 3 5 5 5 5 3 5 5 5 3 3 5 5 5 3 5 3 3 5 5 3 3 5 3 3 5 5 3 3 5 5 3 5 5 3 5 3 5 5 3 5 5 3 5 3 5 5 5 3 5 3 5 5 3 3 5 5 5 3 3 5 3 5 5 5 5 5 5 5 5 3 5 5 3 3 5 3 5 3 3 5 5 5 3 5 5 3 5 5 5 5 5 5 3 3 5 5 5 5 5 5 5 3 3 5 5 5 5 3 5 5 5 3 5 5 3 5 5 5 5 5 3 5 5 3 5 5 5 3 3 5 5 3 5 5 5 3 5 5 5 3 3 5 5 3 5 5 5 5 3 3 5 5 3 3 5 3 3 5 5 5 5 5 5 3 5 5 5 5 5 5 5 5 5 5 3 3 5 5 5 5 5 5 5 3 5 5 5 5 5 5 5 5 5 3 5 5 3 5 5 3 5 5 5 5 5 5 5 5 5 5 5 5 5 5 5 5 5 5 3 3 5 5 5 5 3 5 5 3 5 5 5 5 5 5 5 5 5 3 5 5 3 5 5 5 5 5 5 5 5 5 5 5 3 5 3 5 5 5 5 5 5 5 5 5 5 3 5 5 5 5 5 5 5 5 5 5 5 5 5 5 5 5 5 5 5 5 5 5 5 5 5 5 5 5 5 5 5 5 5 5 5 5 5 5 5 3 5 5 5 5 5 5 5 5 5 3 5 5 3 5 5 5 5 5 5 5 5 5 5 5 5 5 5 5 5 3 5 3 5 5 3 5 5 5 3 3 5 3 3 5 3 5 5 3 5 5 3 5 5 5 5 5 5 5 5 5 5 5 5 5 5 5 5 5 5 5 5 5 3 5 5 5 5 5 5 5 5 5 5 5 5 5 5 5 5 5 5 5 3 5 5 5 5 5 3 5 5 5 5 5 5 5 5 5 5 5 5 5 5 5 5 5 5 5 5 5 5 5 5 3 5 5 5 5 5 5 3 5 5 5 5 5 5 5 5 5 5 5 5 5 5 5 3 5 5 5 3 3 5 5 5 3 5 5 5 5 5 5 5 5 3 5 5 5 5 3 5 5 5 5 5 5 5 5 5 5 5 5 5 3 5 5 5 5 5 5 5 5 5 5 5 5 5 5 5 5 5 5 5 5 5 5 5 5 5 5 5 3 5 5 5 5 5 5 5 5 5 5 5 5 5 5 5 3 3 5 5 5 3 5 5 5 5 5 5 5 5 5 5 5 5 5 5 5 5 5 5 5 5 5 5 5 5 5 5 5 5 5 5 3 5 5 5 5 5 5 5 5 5 5 5 5 5 5 5 5 5 5 5 5 5 5 5 5 5 3 5 5 5 5 5 5 5 3 5 5 5 3 5 5 3 5 5 5 5 5 5 5 5 3 3 5 5 5 5 5 3 5 5 5 5 5 5 5 5 5 5 5 5 5 5 5 5 5 5 5 3 5 3 5 3 5 5 5 3 5 3 5 5 5 5 5 5 5 5 5 5 5 5 3 5 5 5 5 3 5 5 3 5 3 5 5 3 5 5 5 3 5 5 5 5 5 5 5 5 5 3 5 5 5 5 3 5 5 5 5 3 5 5 5 5 5 5 3 5 3 5 3 5 5 5 3 5 5 5 5 5 5 3 3 5 5 5 5 5 3 5 5 5 5 5 5 5 5 5 5 5 5 5 5 5 5 5 5 5 3 5 5 5 5 5 5 5 5 5 3 5 3 5 3 5 5 5 5 5 5 5 5 5 5 5 5 3 5 5 3 5 5 5 5 5 5 5 5 5 3 5 3 5 5 5 5 5 5 3 5 5 5 5 5 5 5 5 5 5 5 5 5 5 5 5 5 5 5 5 5 5 5 5 5 5 5 5 5 5 5 5 5 5 5 5 5 5 5 5 5 3 5 5 3 5 3 5 5 5 3 3 5 5 3 5 5 5 5 5 5 5 5 5 5 5 5 3 5 5 5 5 5 5 5 5 5 5 5 5 3 5 5 5 5 5 5 5 5 5 5 5 5 5 5 5 3 5 5 5 5 5 3 5 5 5 5 5 5 5 5 5 3 5 5 5 5 3 5 5 5 5 5 5 5 5 5 5 5 3 5 3 5 3 5 5 5 3 5 5 5 5 5 5 5 5 5 5 5 5 5 5 5 5 5 5 5 5 3 5 5 5 5 5 5 5 5 5 5 5 5 5 5 5 5 5 5 3 5 5 5 5 5 3 5 5 5 5 5 5 5 5 3 5 5 3 5 5 5 5 5 5 5 3 5 5 5 5 5 5 5 5 5 3 5 5 5 5 5 5 5 5 5 5 5 5 5 5 5 5 5 5 5 5 5 5 5 5 3 5 3 5 5 3 5 5 5 5 5 5 5 5 3 5 5 5 5 5 5 3 5 5 5 5 5 5 5 5 5 5 5 5 3 5 5 5 5 5 5 5 5 5 5 5 5 5 5 3 5 5 5 3 5 5 5 5 3 5 5 5 5 5 5 5 5 5 5 5 5 5 5 5 5 5 5 5 5 5 5 5 5 5 5 3 5 5 3 5 5 5 5 5 5 5 5 5 3 5 5 3 5 5 3 5 5 5 5 5 5 5 5 5 5 5 5 5 5 5 5 5 5 5 5 5 5 5 5 5 5 5 5 5 5 5 5 5 5 5 5 5 5 5 5 5 5 5 5 5 5 5 5 5 5 5 5 5 5 5 5 5 5 5 5 5 5 5 3 5 5 5 5 5 5 3 5 5 5 5 5 5 5 5 5 5 5 3 3 5 5 3 5 3 5 5 3 5 5 3 5 5 5 5 5 5 5 5 3 5 5 5 5 5 5 5 5 5 3 5 5 5 5 3 5 5 5 5 5 5 5 5 5 5 5 5 5 5 5 3 5 5 5 5 3 5 3 5 5 5 3 5 5 3 5 5 5 5 5 5 5 5 5 5 5 3 5 5 3 5 5 5 3 5 5 3 3 5 5 3 5 5 5 5 5 5 5 5 3 5 5 5 5 3 5 3 5 3 5 5 5 5 3 5 5 5 3 5 5 5 5 5 5 5 5 5 5 5 5 5 5 5 5 5 5 3 5 5 5 5 5 5 5 5 5 5 5 5 5 5 5 5 5 5 5 5 5 5 5 5 5 5 5 5 5 5 5 5 5 5 5 5 5 5 5 5 3 5 5 5 5 5 3 5 5 5 5 5 5 5 5 5 5 5 5 5 3 5 5 3 5 5 5 3 5 3 5 5 5 5 3 5 5 5 5 5 5 5 5 5 3 5 5 3 3 5 3 5 5 5 5 5 5 5 5 5 5 5 5 5 5 5 5 5 5 5 5 5 5 5 3 5 5 5 3 5 5 5 5 5 5 5 3 5 5 5 5 5 5 5 5 5 5 5 5 5 5 5 5 5 5 5 5 5 5 5 3 5 5 5 5 5 3 5 3 3 5 5 5 3 5 5 3 5 5 5 5 5 5 5 5 5 5 5 3 5 5 5 3 5 3 5 5 5 5 5 3 5 3 5 3 5 5 5 5 5 5 5 5 3 3 3 5 5 3 5 5 5 5 5 5 5 5 5 5 5 5 5 5 5 5 5 5 5 5 5 5 5 5 5 5 5 5 5 5 5 5 5 5 5 5 5 3 5 5 5 5 5 5 5 3 5 5 3 5 5 5 5 5 5 5 5 5 5 5 5 5 5 5 5 5 5 5 5 5 5 5 3 5 5 5 5 5 5 5 5 5 5 3 5 5 5 5 3 5 5 5 5 3 5 3 3 5 5 5 5 3 5 5 3 5 5 3 3 5 5 5 5 5 5 5 3 5 5 5 5 5 5 5 5 5 5 5 5 5 3 5 5 5 5 5 5 5 3 3 5 3 5 3 5 5 5 3 5 5 5 5 5 3 5 5 3 5 5 5 5 5 5 5 3 5 5 5 5 5 5 5 5 3 5 5 5 3 5 5 5 5 5 3 3 5 5 3 5 5 5 5 5 5 5 5 5 5 5 5 5 5 3 5 5 3 5 3 5 5 5 5 3 5 5 5 5 5 3 5 5 3 3 5 5 5 5 3 5 5 5 5 5 5 5 5 3 5 3 5 5 5 5 5 5 5 5 3 5 5 5 5 3 5 5 5 5 5 5 5 5 5 5 5 5 5 5 5 5 5 5 5 5 5 5 5 5 5 5 5 5 5 5 5 5 5 3 5 5 5 5 5 5 5 3 5 5 5 5 5 5 5 5 5 5 5 5 3 5 5 5 5 3 5 5 5 5 5 5 5 5 5 5 5 5 5 3 5 5 3 5 5 5 5 3 5 5 5 5 5 5 5 5 5 5 5 3 5 3 5 5 3 5 5 5 5 3 5 5 5 5 5 5 5 5 5 5 5 5 5 5 5 5 5 5 5 5 5 5 5 5 5 5 5 5 3 5 5 5 5 3 5 5 5 5 5 5 5 5 5 3 5 5 5 3 5 5 5 5 5 5 3 5 3 5 3 5 5 5 5 5 5 5 5 5 5 5 5 5 5 5 5 5 5 5 5 5 5 5 5 5 5 5 5 5 5 5 5 5 5 5 3 5 3 5 5 5 5 5 5 5 5 3 5 5 5 5 5 5 5 5 5 5 5 5 3 5 5 5 5 5 5 5 5 5 5 5 5 5 3 5 5 3 5 5 5 5 3 5 5 5 5 3 5 5 5 5 5 3 3 5 3 5 5 3 5 5 5 5 3 5 3 5 5 5 5 5 5 5 5 3 5 5 5 5 3 5 5 5 5 5 5 5 5 5 5 5 5 5 5 5 5 5 5 5 5 5 5 3 5 5 5 5 5 5 5 5 5 5 5 5 5 5 5 5 5 5 5 5 5 3 5 5 5 5 5 5 5 3 5 3 5 5 5 5 5 5 5 5 5 5 5 5 5 5 5 5 5 5 5 5 5 5 5 5 5 5 3 5 5 5 5 5 3 5 3 5 5 5 5 3 3 3 5 3 5 5 5 3 5 5 5 5 3 5 3 5 5 5 5 3 5 5 5 3 3 3 5 3 5 3 5 5 3 5 5 5 5 5 5 5 5 5 5 3 5 3 5 3 5 5 5 5 3 5 5 5 5 3 5 5 5 5 5 5 5 5 5 5 3 5 3 5 5 3 5 5 3 5 5 5 5 5 3 5 5 5 5 5 5 5 5 5 5 5 5 3 5 5 5 3 5 5 5 5 5 3 5 5 5 5 5 5 5 5 5 5 5 5 5 5 5 5 5 5 5 5 5 3 5 5 5 5 3 5 5 5 3 5 3 5 5 3 5 3 5 5 5 5 5 5 3 5 5 5 5 3 5 3 5 5 5 5 5 5 5 3 5 5 5 5 5 5 5 3 5 5 5 5 5 5 5 5 5 5 5 5 5 5 5 5 5 3 5 5 5 3 5 5 5 5 5 5 5 5 5 5 5 5 5 5 3 5 5 5 5 5 5 5 5 5 5 5 5 5 5 5 5 5 5 5 5 5 5 5 5 5 5 5 3 5 3 5 5 5 3 5 5 5 3 5 5 3 3 5 5 5 5 5 5 5 5 3 5 5 3 5 5 5 5 3 5 3 5 5 5 3 5 5 5 5 5 5 5 5 5 5 3 5 5 3 5 5 3 5 5 5 5 5 5 5 3 5 5 3 3 5 5 5 3 5 5 5 5 5 5 3 5 5 5 5 3 5 5 5 3 5 5 5 5 3 5 5 3 5 5 5 5 5 5 5 5 5 5 5 3 5 5 5 5 3 5 3 5 3 5 3 5 5 5 5 5 5 5 5 5 5 5 3 3 5 5 5 5 5 5 3 5 5 3 5 5 5 5 5 5 3 5 5 5 3 5 3 5 5 5 3 5 5 5 5 5 5 3 5 5 5 5 5 5 3 5 3 5 5 5 3 5 5 5 5 3 5 5 5 5 5 5 5 3 5 3 5 3 5 5 5 3 3 5 5 3 5 5 5 5 5 3 5 3 3 3 3 5 5 5 5 5 3 3 5 5 3 5 5 5 3 5 5 5 5 5 5 5 5 5 3 5 5 5 3 5 5 5 5 5 5 5 3 5 3 5 5 5 5 3 5 3 5 5 5 5 3 5 5 5 5 5 5 5 5 5 3 5 5 5 5 5 5 5 5 5 5 5 5 5 5 5 5 5 5 5 5 5 3 5 5 5 5 3 5 5 5 5 5 3 5 3 5 5 5 5 5 5 5 5 5 5 5 3 5 3 5 3 3 5 3 5 3 5 5 5 3 5 5 5 3 5 5 5 5 3 5 3 5 5 5 5 5 5 5 5 3 5 5 5 5 5 5 5 5 3 5 5 5 5 5 5 5 5 5 3 5 5 3 5 5 5 3 5 5 5 5 5 5 5 5 5 5 5 5 3 5 5 5 5 3 5 5 5 5 5 5 3 5 5 5 5 3 5 3 5 5 5 5 5 5 5 3 5 5 5 3 3 5 5 5 5 3 5 3 5 5 3 5 5 5 5 5 5 5 5 5 5 5 5 5 5 5 5 5 5 5 5 5 5 5 5 5 5 5 5 5 5 5 5 5 5 5 3 5 5 5 3 5 5 5 5 5 5 5 5 5 5 5 5 5 3 5 3 5 5 5 5 5 5 5 5 5 5 5 5 5 3 5 5 3 5 5 5 5 5 3 5 5 5 5 5 5 5 5 5 5 5 5 5 5 5 5 5 5 5 3 3 5 5 3 5 5 3 5 5 5 5 5 5 5 3 5 5 5 5 3 5 5 5 5 5 5 5 5 5 5 5 5 5 5 3 5 5 3 5 5 5 5 5 5 5 3 3 5 5 5 5 5 5 5 5 5 5 5 5 5 5 5 5 3 5 5 5 5 3 5 5 3 5 5 3 5 5 5 5 5 5 5 5 5 5 5 5 3 5 5 5 5 3 5 5 5 5 5 5 5 5 5 3 3 3 5 5 5 3 5 5 3 3 5 3 5 5 5 3 5 5 5 5 5 5 5 5 5 5 5 5 5 5 5 5 5 5 5 5 5 5 5 5 5 5 5 5 5 5 5 5 5 5 5 5 5 5 5 5 5 5 5 5 5 5 5 5 3 5 3 5 5 5 5 5 5 5 5 5 3 5 5 5 5 5 5 3 5 5 5 5 5 3 5 5 5 5 5 5 5 5 5 5 5 5 5 5 5 3 5 5 5 5 5 5 5 3 5 5 5 5 5 3 3 5 5 5 5 3 5 5 5 5 5 5 5 5 5 5 5 5 5 5 5 5 5 5 5 5 5 3 5 5 5 5 5 5 3 5 5 5 3 5 5 5 5 5 5 5 5 5 5 5 5 5 5 5 5 5 5 3 5 3 5 5 5 5 5 3 3 5 5 5 3 5 5 5 5 5 5 3 5 5 5 5 5 3 5 3 5 5 3 5 5 5 5 3 5 5 5 5 3 5 5 5 5 3 5 5 5 5 5 5 5 5 5 5 5 5 5 3 5 5 5 5 5 5 5 5 5 5 5 5 5 5 5 5 3 5 5 5 5 3 5 5 5 5 3 5 5 5 5 5 5 5 5 5 5 3 5 5 5 5 3 5 5 5 5 5 5 5 5 5 5 5 5 5 5 5 3 5 5 5 3 5 5 5 5 5 5 5 5 5 5 5 5 5 5 3 5 5 5 5 5 5 5 5 5 5 5 3 5 5 3 5 5 5 5 5 5 3 3 5 5 5 5 3 5 3 5 5 5 3 5 5 3 5 5 5 5 5 5 5 5 5 5 5 5 5 5 5 5 3 5 5 5 5 5 5 5 5 3 3 5 5 5 3 3 5 3 5 3 5 5 5 5 3 5 5 5 5 5 5 5 5 5 5 5 5 5 3 5 3 5 5 5 5 5 5 5 5 3 3 5 5 3 3 3 5 5 5 5 5 5 3 5 5 3 5 5 3 3 3 3 5 5 5 5 5 5 5 5 5 5 5 5 5 3 5 5 3 5 3 5 5 5 5 5 5 5 3 3 5 5 3 5 5 3 5 5 5 5 3 3 3 3 5 5 5 5 5 5 5 5 5 5 5 5 5 5 3 5 5 3 5 5 5 5 3 5 5 5 3 5 5 3 5 5 3 5 5 3 3 5 3 5 5 5 5 5 5 3 5 5 5 5 3 5 5 5 5 5 3 5 5 3 5 3 3 5 5 5 3 5 5 5 5 5 3 5 5 5 3 5 5 5 3 5 5 5 5 5 5 5 3 5 5 5 5 5 3 5 5 5 5 5 5 5 3 5 3 3 5 5 3 5 5 5 5 5 5 3 5 5 5 5 5 5 3 5 5 5 5 5 5 3 5 3 5 3 5 5 3 5 5 5 5 3 3 3 3 5 5 5 5 5 5 5 5 3 5 5 5 3 5 3 5 5 5 5 5 5 5 5 5 5 5 5 5 5 5 5 3 5 3 5 5 5 5 5 5 5 5 3 5 5 5 5 5 3 5 5 3 5 5 5 5 5 5 3 3 5 5 3 5 5 5 5 5 5 5 5 5 5 5 3 3 5 5 5 5 3 5 5 5 5 5 5 5 5 3 5 5 5 5 3 5 5 5 5 5 5 3 5 3 5 3 5 5 5 5 5 5 5 5 5 5 5 5 5 5 5 5 5 5 3 5 5 5 5 5 5 5 5 5 5 5 5 5 5 5 5 5 3 3 5 5 5 5 5 5 5 5 5 5 5 5 5 5 5 5 5 5 5 5 5 5 5 5 5 5 5 5 5 5 5 5 5 5 5 5 5 5 5 5 5 5 5 5 5 3 5 3 5 5 5 5 5 5 5 3 5 5 5 3 5 3 3 3 5 3 3 5 5 3 3 3 5 5 5 5 5 3 5 3 3 5 5 5 5 5 5 5 3 5 5 3 5 5 3 3 5 5 5 5 5 5 3 5 5 3 3 5 5 3 5 5 5 3 5 5 5 5 3 5 5 5 3 5 5 3 5 5 5 5 5 5 5 5 5 5 5 5 5 5 5 5 5 5 5 3 3 5 5 5 3 5 5 5 5 3 5 5 5 5 5 3 3 5 5 5 5 5 5 5 5 5 3 5 5 5 5 5 5 5 5 5 5 5 5 5 5 5 5 5 5 5 5 5 5 5 5 5 5 5 3 5 3 3 5 5 5 5 5 5 5 5 5 5 5 5 5 5 5 5 5 5 5 5 5 5 5 5 5 5 5 3 5 5 3 5 5 3 5 5 3 5 3 5 5 5 5 5 5 5 3 5 5 5 5 5 5 5 5 5 5 5 5 3 5 3 5 3 5 5 5 5 5 3 5 5 5 5 3 5 5 3 5 5 5 5 5 5 5 5 3 5 5 5 5 5 5 3 5 5 5 5 3 5 5 5 3 5 5 5 5 5 5 5 5 5 5 5 5 5 5 5 5 5 5 3 5 3 5 5 5 3 5 5 5 5 5 5 5 5 5 5 5 5 5 5 5 5 5 5 5 3 5 5 5 3 5 5 5 3 5 5 5 5 5 5 5 5 5 5 5 5 5 5 5 3 5 5 5 5 3 5 5 3 5 5 5 5 5 5 3 5 3 5 3 3 3 5 5 5 3 3 5 5 5 5 5 5 5 3 5 5 5 3 5 3 5 5 5 5 5 5 5 5 5 3 5 5 5 5 5 5 5 5 3 5 5 5 5 3 5 5 5 5 5 5 5 5 5 5 5 5 5 5 5 5 5 5 5 5 5 3 3 5 5 5 5 5 5 5 5 3 5 5 5 5 5 5 5 5 5 5 3 5 5 5 5 5 5 3 5 5 5 5 5 3 5 3 5 5 3 3 5 5 5 5 5 5 5 5 5 5 5 5 5 5 5 5 5 5 5 5 5 5 5 5 5 5 5 5 5 5 5 5 5 5 5 5 5 5 5 5 5 5 5 5 5 5 5 5 3 3 5 5 3 5 5 5 5 5 3 3 5 5 3 3 5 5 5 5 5 5 5 5 5 5 3 5 5 5 5 5 5 5 5 5 5 5 5 5 5 5 3 5 5 5 5 5 5 5 5 5 5 5 5 5 3 5 3 3 3 5 5 5 5 5 5 5 5 3 3 5 5 5 5 3 5 5 5 5 5 5 5 5 3 5 5 5 5 5 5 5 5 5 5 5 5 5 5 5 5 5 3 5 5 5 5 5 5 3 5 5 3 5 5 5 5 5 5 5 5 5 5 5 5 5 5 5 5 5 5 3 5 5 5 3 5 5 3 5 3 3 5 5 3 5 5 5 3 5 5 3 5 3 3 5 5 5 5 3 5 5 5 5 5 5 3 5 3 5 5 5 3 5 5 5 5 3 5 3 3 5 5 5 5 5 3 5 3 5 3 5 3 3 5 5 5 5 5 5 5 3 5 3 5 5 3 5 5 3 5 5 5 5 5 5 5 5 5 5 5 5 5 5 5 5 5 5 5 5 5 5 5 5 5 5 5 5 5 5 5 3 5 5 5 5 5 5 5 5 5 5 5 5 5 5 5 5 5 5 5 5 5 5 5 3 5 5 5 5 5 3 3 5 5 5 5 5 5 5 5 5 5 5 5 5 5 5 5 5 5 5 5 5 3 5 5 5 5 5 5 5 5 5 5 5 5 5 3 5 3 5 5 5 3 5 5 5 5 5 5 5 5 3 5 3 5 5 5 5 5 3 5 5 5 5 5 5 5 5 5 5 5 3 5 5 5 5 5 5 5 5 5 5 5 3 5 5 5 5 5 5 5 5 3 5 5 5 5 5 5 5 5 5 5 5 5 5 5 5 5 5 5 5 5 5 5 5 5 5 5 3 5 5 3 5 5 5 5 5 5 5 5 5 5 5 5 5 5 5 5 5 5 5 5 5 5 5 5 5 5 5 5 3 5 3 5 3 5 5 5 5 5 3 5 5 5 5 3 5 5 5 3 5 5 5 5 5 5 5 5 5 5 5 5 5 5 5 5 5 5 3 3 3 5 5 5 5 5 5 5 5 5 5 5 5 5 3 5 5 5 5 5 5 5 5 5 5 5 5 3 5 5 3 5 5 5 5 5 5 5 5 5 5 5 5 5 5 5 5 5 5 5 5 5 3 3 5 5 5 5 5 5 5 5 5 5 5 5 5 5 3 5 5 3 5 5 5 5 3 5 5 5 5 5 5 3 5 5 5 5 5 5 5 5 5 5 5 5 5 5 5 5 5 5 3 5 5 5 5 5 3 5 5 5 5 5 5 5 5 5 5 5 5 5 5 5 5 5 5 5 5 5 5 5 5 5 5 5 5 3 5 3 5 5 5 5 3 3 5 5 5 5 5 5 5 5 5 5 5 5 5 5 5 5 5 5 5 5 5 5 5 5 5 5 5 5 5 5 5 5 5 5 5 3 5 5 5 5 3 5 5 5 5 5 5 5 5 5 5 5 3 5 5 5 5 5 5 5 5 5 5 5 5 5 5 5 5 5 3 3 5 3 5 5 5 5 5 5 5 5 5 5 3 5 5 5 5 5 5 5 5 5 5 5 5 5 5 5 5 5 3 5 5 5 5 3 5 5 5 5 5 5 5 5 5 5 5 5 5 5 5 5 5 5 5 5 5 5 5 5 5 5 5 5 5 5 5 5 5 5 5 5 5 5 5 5 5 5 5 5 5 5 5 5 5 5 5 5 5 5 5 5 5 5 5 5 5 5 5 5 5 5 5 5 5 5 5 5 5 5 5 5 5 5 5 5 5 3 5 5 5 5 5 5 5 3 5 5 3 5 5 5 5 5 5 5 5 5 5 5 5 3 5 3 5 3 5 5 5 5 5 5 5 5 3 5 5 5 5 5 5 5 5 5 3 5 5 5 5 5 5 5 5 5 5 5 5 5 5 5 5 5 5 5 5 5 3 5 5 5 5 5 5 5 5 5 5 5 5 3 5 5 5 5 5 3 5 5 3 5 5 5 5 3 3 5 5 3 5 5 5 5 5 5 5 3 3 5 5 5 5 5 5 5 5 5 5 5 5 3 5 5 5 5 3 5 5 5 5 5 5 5 5 3 5 5 5 5 3 5 5 5 5 3 5 5 5 5 5 5 5 3 5 5 5 5 5 3 5 5 5 3 5 5 5 5 5 3 5 5 5 5 5 5 5 5 5 5 5 5 5 5 3 5 5 3 5 5 5 5 5 5 5 5 5 5 5 5 5 5 5 5 5 5 5 5 5 3 5 5 3 5 5 3 5 5 5 5 5 5 5 5 5 5 5 5 5 5 5 5 5 5 5 5 5 5 5 5 5 5 5 5 5 5 3 5 5 5 5 3 5 5 3 5 3 5 5 5 5 3 5 3 5 5 3 5 3 5 3 3 5 5 3 5 3 5 3 5 5 3 5 5 5 5 5 5 3 5 3 5 5 3 3 5 5 3 5 3 5 5 3 5 5 3 5 5 3 3 3 5 3 5 5 5 5 5 5 5 5 3 5 5 5 5 5 5 5 3 5 5 5 5 5 5 5 5 5 5 5 5 5 5 3 5 5 5 5 5 5 5 5 5 5 5 5 5 5 5 5 5 5 5 3 5 5 5 5 5 5 5 5 5 5 5 5 5 5 5 5 5 5 5 5 5 5 5 5 5 5 5 5 5 5 5 3 5 5 5 3 5 3 3 5 3 5 5 5 3 5 5 5 5 3 3 3 5 5 5 5 5 5 5 5 5 5 5 5 5 5 5 5 5 3 5 5 5 5 5 5 5 5 5 3 5 5 5 3 5 5 5 5 5 5 5 5 5 5 5 5 3 5 5 3 5 5 5 5 5 5 5 5 5 5 5 5 5 5 5 5 5 5 5 5 5 5 3 5 5 5 5 5 5 5 5 5 5 5 5 5 5 5 5 5 5 3 5 5 5 5 5 5 5 3 5 5 5 5 3 5 5 5 5 5 5 5 5 5 5 5 5 5 5 5 5 5 5 5 5 5 5 5 5 5 5 5 5 5 5 5 5 5 5 5 3 3 5 5 5 5 3 5 3 5 5 5 5 5 3 5 5 5 5 5 5 5 5 3 3 5 5 5 5 3 5 5 5 5 5 5 5 5 5 5 5 5 5 5 5 5 5 5 5 5 5 3 5 5 5 5 5 5 3 5 5 3 5 5 5 5 5 5 5 5 5 3 5 5 5 5 5 5 5 5 3 5 5 5 5 5 5 5 5 5 5 5 5 5 5 5 5 5 3 5 5 3 5 5 5 5 5 5 5 5 5 5 5 5 5 5 5 5 5 5 5 5 5 5 5 5 5 5 5 5 5 3 5 3 5 5 5 5 5 5 5 5 5 5 5 5 5 5 5 5 5 5 5 5 5 5 3 5 5 5 3 5 5 5 5 5 5 5 5 5 5 5 5 3 5 5 5 3 3 5 5 3 5 5 5 5 5 5 5 5 5 3 5 5 5 5 5 5 5 5 5 5 5 5 5 3 5 3 5 5 5 5 5 5 5 5 5 5 5 5 5 5 5 5 5 5 5 5 5 5 5 5 5 5 5 5 5 3 5 5 5 5 5 5 3 5 5 5 5 5 5 5 5 5 5 5 5 5 5 5 5 3 5 3 5 5 5 5 5 5 5 3 5 5 5 3 5 5 5 5 3 5 5 5 5 5 5 3 5 5 5 5 3 5 3 5 5 5 5 5 5 5 5 3 3 5 5 5 3 3 5 5 5 5 5 5 5 3 3 5 3 3 5 5 5 5 3 5 3 5 5 5 5 5 5 3 5 5 5 5 3 5 5 5 5 3 5 5 5 5 5 3 5 5 3 5 5 5 5 3 5 5 5 5 5 5 5 5 5 3 3 5 5 5 5 5 5 5 5 5 5 5 5 5 3 5 3 5 5 5 5 5 5 5 5 5 5 5 5 5 5 5 5 5 5 5 5 5 3 5 5 5 5 5 5 5 5 5 5 5 5 5 5 5 5 5 5 5 5 5 5 5 5 5 5 3 5 5 5 5 5 5 5 5 3 5 3 5 5 5 5 5 5 3 5 5 5 5 5 5 5 5 5 5 5 5 5 5 5 5 5 5 5 5 5 5 5 5 5 5 3 5 5 5 5 5 5 5 5 3 5 5 3 5 5 3 5 5 5 5 5 3 5 5 5 5 5 5 5 5 5 3 5 5 5 5 5 5 5 5 5 5 5 5 5 5 5 3 5 5 5 5 5 5 5 5 3 5 5 5 5 5 5 5 5 5 5 5 5 5 5 5 5 5 5 3 5 3 5 3 5 5 3 3 5 5 5 5 5 5 5 5 5 5 5 5 5 5 3 5 5 5 5 5 5 3 5 5 5 3 5 5 5 5 5 5 5 5 5 5 5 5 3 5 5 5 5 3 3 3 5 5 5 5 5 5 5 3 5 5 3 5 3 5 3 5 5 5 5 5 3 5 5 5 5 5 5 5 5 5 5 5 5 5 5 5 5 5 5 5 5 3 5 5 5 3 5 3 3 3 5 5 5 5 5 3 5 5 5 5 5 5 5 5 5 5 5 5 5 5 5 5 5 5 5 5 5 5 5 5 5 5 3 5 5 3 5 5 5 5 5 5 5 5 3 5 3 5 5 5 5 5 5 5 5 3 5 5 5 5 3 5 5 3 5 5 3 5 5 5 3 5 5 5 5 5 5 5 5 5 5 5 5 5 5 5 5 5 5 5 5 3 5 5 5 5 5 5 3 5 5 5 5 5 3 5 5 5 5 5 3 5 3 3 5 5 5 5 5 5 5 5 5 5 5 5 3 5 5 5 5 3 5 3 3 5 5 5 3 5 5 5 5 5 5 5 5 5 5 5 5 5 5 5 5 5 5 5 5 5 5 3 5 3 5 5 3 5 5 3 5 5 3 5 5 5 3 3 5 5 5 5 5 5 5 3 5 5 5 5 5 5 5 5 3 5 5 5 5 5 5 5 3 5 5 5 3 5 3 3 5 5 5 3 5 5 5 5 5 5 5 5 5 5 5 5 5 5 5 5 5 5 5 5 5 5 3 5 5 3 5 5 5 3 5 5 5 5 5 5 5 3 3 5 5 3 5 5 5 5 5 5 5 5 5 5 5 5 5 5 5 5 5 5 5 5 5 5 5 5 5 5 5 5 5 5 5 5 5 5 5 3 5 5 5 5 5 5 5 3 5 5 3 5 5 3 5 5 5 5 5 5 5 5 5 5 5 5 5 5 5 5 5 5 5 3 5 5 5 5 3 5 5 5 5 5 5 5 5 5 5 3 5 5 5 5 3 5 5 5 5 3 3 5 3 5 5 5 5 5 5 5 5 5 5 5 5 5 5 3 5 5 5 5 5 5 5 5 5 3 5 5 5 5 5 5 5 5 5 5 5 5 5 5 5 5 5 5 5 5 5 5 5 5 5 5 5 5 5 5 5 5 5 5 5 5 5 5 5 5 5 3 5 5 5 5 3 5 5 3 5 5 5 5 5 5 3 3 5 5 5 5 3 5 5 5 5 5 5 5 5 5 5 5 5 5 5 5 5 5 5 5 5 5 5 5 5 5 5 5 5 5 5 5 5 5 5 5 5 5 5 5 5 5 5 5 5 5 5 5 5 5 5 5 5 5 5 5 5 5 5 5 5 5 3 5 5 5 5 5 3 5 3 5 5 5 5 5 5 5 5 5 
</DataArray>
</Cells>
<PointData Scalars="" Vectors="displacement," Tensors="">
<DataArray type="Float64" Name="displacement" NumberOfComponents="3" format="ascii">
0.034999629403585308 0.034599543181021597 0 0.034454298863544661 0.034468238755886213 0 0.034999174870261891 0.034603989560678811 0 0.035000528277007489 0.034997086289146016 0 0.033184636423364756 0.035360110373466432 0 0.035000528277007489 0.034997086289146016 0 0.033184636423364756 0.035360110373466432 0 0.03090447684198017 0.035001520748495211 0 0.035000107585533985 0.034598512842786644 0 0.035917558463309539 0.033620763301011457 0 0.035557525528837439 0.033720246859398284 0 0.035000107585533985 0.034598512842786644 0 0.034999828397813251 0.03335506766184522 0 0.035557525528837439 0.033720246859398284 0 0.035917558463309539 0.033620763301011457 0 0.035946092772845953 0.033356263880584082 0 0.035557525528837439 0.033720246859398284 0 0.035946092772845953 0.033356263880584082 0 0.034999828397813251 0.03335506766184522 0 0.035557525528837439 0.033720246859398284 0 0.035311930263858926 0.033106798249410353 0 0.034999356410959019 0.032109303168375479 0 0.035212134851958357 0.032186525882458655 0 0.035946092772845953 0.033356263880584082 0 0.034999828397813251 0.03335506766184522 0 0.034999947861685358 0.032111184916675153 0 0.035615663867187432 0.033193022247026624 0 0.035000102690170488 0.032110859502164399 0 0.035311930263858926 0.033106798249410353 0 0.035212134851958357 0.032186525882458655 0 0.035370658349601687 0.032810256365296032 0 0.035157653300520911 0.031959166354106922 0 0.035212134851958357 0.032186525882458655 0 0.035370658349601687 0.032810256365296032 0 0.035157653300520911 0.031959166354106922 0 0.034999797895697786 0.031006604275785919 0 0.035212134851958357 0.032186525882458655 0 0.035436301069559015 0.031323934931271287 0 0.034999869262352074 0.031003956877842964 0 0.034999356410959019 0.032109303168375479 0 0.034999797895697786 0.031006604275785919 0 0.035212134851958357 0.032186525882458655 0 0.035721316447100471 0.033294076544800662 0 0.035887975578858984 0.031512262457906538 0 0.036241671591773793 0.032280086947300453 0 0.035721316447100471 0.033294076544800662 0 0.036036023133129959 0.033147706644351987 0 0.036241671591773793 0.032280086947300453 0 0.035721316447100471 0.033294076544800662 0 0.035370658349601687 0.032810256365296032 0 0.035495661886723956 0.033342273452013765 0 0.035721316447100471 0.033294076544800662 0 0.035370658349601687 0.032810256365296032 0 0.035887975578858984 0.031512262457906538 0 0.035157653300520911 0.031959166354106922 0 0.035370658349601687 0.032810256365296032 0 0.035887975578858984 0.031512262457906538 0 0.035311930263858926 0.033106798249410353 0 0.035370658349601687 0.032810256365296032 0 0.035446438669413716 0.033461861299236569 0 0.035370658349601687 0.032810256365296032 0 0.035495661886723956 0.033342273452013765 0 0.035446438669413716 0.033461861299236569 0 0.035721316447100471 0.033294076544800662 0 0.03523059361794794 0.034046003879317055 0 0.034699332545763135 0.035119863398999349 0 0.035721316447100471 0.033294076544800662 0 0.035495661886723956 0.033342273452013765 0 0.03523059361794794 0.034046003879317055 0 0.035495661886723956 0.033342273452013765 0 0.035446438669413716 0.033461861299236569 0 0.03523059361794794 0.034046003879317055 0 0.033184636423364756 0.035360110373466432 0 0.03090447684198017 0.035001520748495211 0 0.031298225067171226 0.035384635765981665 0 0.03523059361794794 0.034046003879317055 0 0.034675537779768062 0.033459556282365299 0 0.033916933739062155 0.033764775779682822 0 0.03523059361794794 0.034046003879317055 0 0.035456349708615054 0.033506524529969356 0 0.034675537779768062 0.033459556282365299 0 0.035446438669413716 0.033461861299236569 0 0.03523059361794794 0.034046003879317055 0 0.035456349708615054 0.033506524529969356 0 0.035615663867187432 0.033193022247026624 0 0.035486801150508493 0.033467959754199784 0 0.035917558463309539 0.033620763301011457 0 0.035946092772845953 0.033356263880584082 0 0.035456349708615054 0.033506524529969356 0 0.035311930263858926 0.033106798249410353 0 0.035446438669413716 0.033461861299236569 0 0.035456349708615054 0.033506524529969356 0 0.034454298863544661 0.034468238755886213 0 0.033243171140041099 0.03414774315284369 0 0.035917558463309539 0.033620763301011457 0 0.035456349708615054 0.033506524529969356 0 0.035263492347936055 0.032892552997772252 0 0.035456349708615054 0.033506524529969356 0 0.034675537779768062 0.033459556282365299 0 0.035263492347936055 0.032892552997772252 0 0.03090447684198017 0.035001520748495211 0 0.029407154606067423 0.035372859002674333 0 0.027762445624363502 0.034996498173858068 0 0.033243171140041099 0.03414774315284369 0 0.03097482509379245 0.034126405201998125 0 0.034675537779768062 0.033459556282365299 0 0.032552133737128244 0.032651667510606844 0 0.033916933739062155 0.033764775779682822 0 0.03090447684198017 0.035001520748495211 0 0.031298225067171226 0.035384635765981665 0 0.029407154606067423 0.035372859002674333 0 0.034675537779768062 0.033459556282365299 0 0.035263492347936055 0.032892552997772252 0 0.032552133737128244 0.032651667510606844 0 0.03097482509379245 0.034126405201998125 0 0.028121170287557402 0.034745107056096437 0 0.032552133737128244 0.032651667510606844 0 0.030361084255959955 0.034453648413752626 0 0.027772669546502479 0.034935335496412749 0 0.032552133737128244 0.032651667510606844 0 0.030361084255959955 0.034453648413752626 0 0.032700849166394812 0.034689699843286806 0 0.030361084255959955 0.034453648413752626 0 0.032700849166394812 0.034689699843286806 0 0.028832241563503939 0.03537782807098365 0 0.03523059361794794 0.034046003879317055 0 0.032700849166394812 0.034689699843286806 0 0.033916933739062155 0.033764775779682822 0 0.032552133737128244 0.032651667510606844 0 0.032700849166394812 0.034689699843286806 0 0.033916933739062155 0.033764775779682822 0 0.027762445624363502 0.034996498173858068 0 0.027772669546502479 0.034935335496412749 0 0.026150129376314155 0.035844806059435061 0 0.029407154606067423 0.035372859002674333 0 0.027762445624363502 0.034996498173858068 0 0.027772669546502479 0.034935335496412749 0 0.030361084255959955 0.034453648413752626 0 0.027772669546502479 0.034935335496412749 0 0.028832241563503939 0.03537782807098365 0 0.02859591360402829 0.035423379479306127 0 0.026490957861560738 0.035227426645902046 0 0.027772669546502479 0.034935335496412749 0 0.028832241563503939 0.03537782807098365 0 0.026150129376314155 0.035844806059435061 0 0.028832241563503939 0.03537782807098365 0 0.02753819203533129 0.0361340406989972 0 0.026695461314857522 0.034735983003853416 0 0.02753819203533129 0.0361340406989972 0 0.030583170576909242 0.036365077731409096 0 0.027955496962460701 0.037985382333994407 0 0.028832241563503939 0.03537782807098365 0 0.02753819203533129 0.0361340406989972 0 0.030583170576909242 0.036365077731409096 0 0.030583170576909242 0.036365077731409096 0 0.030466142686107339 0.038740799865283303 0 0.027955496962460701 0.037985382333994407 0 0.028703754609181262 0.030691230695994255 0 0.028666574121558538 0.030612325060061486 0 0.02877736463315058 0.030571541125917957 0 0.029253586994224159 0.034859020690923274 0 0.028804582473923066 0.034277031531269 0 0.03523059361794794 0.034046003879317055 0 0.032700849166394812 0.034689699843286806 0 0.034699332545763135 0.035119863398999349 0 0.032700849166394812 0.034689699843286806 0 0.028832241563503939 0.03537782807098365 0 0.030583170576909242 0.036365077731409096 0 0.032700849166394812 0.034689699843286806 0 0.030583170576909242 0.036365077731409096 0 0.034699332545763135 0.035119863398999349 0 0.030583170576909242 0.036365077731409096 0 0.034699332545763135 0.035119863398999349 0 0.032760409054295218 0.037976539019484661 0 0.030583170576909242 0.036365077731409096 0 0.030466142686107339 0.038740799865283303 0 0.032760409054295218 0.037976539019484661 0 0.030466142686107339 0.038740799865283303 0 0.032760409054295218 0.037976539019484661 0 0.034060752014437951 0.039985439716079582 0 0.035721316447100471 0.033294076544800662 0 0.034699332545763135 0.035119863398999349 0 0.036036023133129959 0.033147706644351987 0 0.034699332545763135 0.035119863398999349 0 0.036036023133129959 0.033147706644351987 0 0.037569994472386604 0.031852296671474184 0 0.034699332545763135 0.035119863398999349 0 0.032760409054295218 0.037976539019484661 0 0.034599860644434675 0.040145734370518146 0 0.035270494282096373 0.035943826337324465 0 0.034660307892623254 0.033626638890081162 0 0.036036023133129959 0.033147706644351987 0 0.037109092914212896 0.031632685956259322 0 0.036241671591773793 0.032280086947300453 0 0.036036023133129959 0.033147706644351987 0 0.037109092914212896 0.031632685956259322 0 0.037569994472386604 0.031852296671474184 0 0.03610107149083211 0.033376857498304054 0 0.034660307892623254 0.033626638890081162 0 0.037109092914212896 0.031632685956259322 0 0.037805933905223417 0.031046047228273903 0 0.037257757273153627 0.030574165869832113 0 0.037109092914212896 0.031632685956259322 0 0.037805933905223417 0.031046047228273903 0 0.037781024035128216 0.031836964328609413 0 0.027302748152990265 0.03005050899389761 0 0.027495614306031962 0.030468097699948186 0 0.027835289932087715 0.029880627155048661 0 0.034553931422503806 0.030321987755094048 0 0.032422099466471163 0.032926748232993373 0 0.033730293735354418 0.031168266610050274 0 0.034631001601004706 0.033398501238621647 0 0.03374672490228893 0.033159092713581952 0 0.034553931422503806 0.030321987755094048 0 0.034660307892623254 0.033626638890081162 0 0.032760409054295218 0.037976539019484661 0 0.034060752014437951 0.039985439716079582 0 0.034599860644434675 0.040145734370518146 0 0.032422099466471163 0.032926748232993373 0 0.034660307892623254 0.033626638890081162 0 0.029253586994224159 0.034859020690923274 0 0.032422099466471163 0.032926748232993373 0 0.028703754609181262 0.030691230695994255 0 0.027495614306031962 0.030468097699948186 0 0.028194681365166566 0.030187935263386183 0 0.028703754609181262 0.030691230695994255 0 0.028194681365166566 0.030187935263386183 0 0.028589280855028282 0.030253671205542829 0 0.028194681365166566 0.030187935263386183 0 0.027835289932087715 0.029880627155048661 0 0.028312425870490092 0.029546466916241177 0 0.028194681365166566 0.030187935263386183 0 0.028312425870490092 0.029546466916241177 0 0.028589280855028282 0.030253671205542829 0 0.027495614306031962 0.030468097699948186 0 0.028194681365166566 0.030187935263386183 0 0.027835289932087715 0.029880627155048661 0 0.028312425870490092 0.029546466916241177 0 0.027765765870867664 0.02933873944257007 0 0.028158128329390467 0.028563520898154209 0 0.028312425870490092 0.029546466916241177 0 0.028777608111635669 0.028800680919486631 0 0.028158128329390467 0.028563520898154209 0 0.027835289932087715 0.029880627155048661 0 0.028312425870490092 0.029546466916241177 0 0.027765765870867664 0.02933873944257007 0 0.037805933905223417 0.031046047228273903 0 0.037257757273153627 0.030574165869832113 0 0.037722127500393263 0.029041313381917899 0 0.034553931422503806 0.030321987755094048 0 0.03818616772757831 0.028281900441529194 0 0.038356065435523182 0.028601556671094066 0 0.037999104188639998 0.027453969606893041 0 0.038422873603315394 0.027350920615634721 0 0.034553931422503806 0.030321987755094048 0 0.03266030516514009 0.027712714504077657 0 0.027302748152990265 0.03005050899389761 0 0.027765765870867664 0.02933873944257007 0 0.027222098388931797 0.028625051651217526 0 0.027302748152990265 0.03005050899389761 0 0.027835289932087715 0.029880627155048661 0 0.027765765870867664 0.02933873944257007 0 0.030458425719717238 0.02973172205129742 0 0.02537537840331756 0.031996727965186031 0 0.02877736463315058 0.030571541125917957 0 0.029349802048732835 0.029640169970240198 0 0.030175835949895168 0.029706473433879138 0 0.028644475703054319 0.030667304852327347 0 0.02877736463315058 0.030571541125917957 0 0.028587810845792087 0.030805470942239 0 0.028666574121558538 0.030612325060061486 0 0.028644475703054319 0.030667304852327347 0 0.02877736463315058 0.030571541125917957 0 0.028644475703054319 0.030667304852327347 0 0.028587810845792087 0.030805470942239 0 0.028522011797263137 0.030688341723076759 0 0.028666574121558538 0.030612325060061486 0 0.028644475703054319 0.030667304852327347 0 0.028522011797263137 0.030688341723076759 0 0.02877736463315058 0.030571541125917957 0 0.028776869947845302 0.029873503879321636 0 0.029349802048732835 0.029640169970240198 0 0.028703754609181262 0.030691230695994255 0 0.02877736463315058 0.030571541125917957 0 0.028589280855028282 0.030253671205542829 0 0.02877736463315058 0.030571541125917957 0 0.028589280855028282 0.030253671205542829 0 0.028776869947845302 0.029873503879321636 0 0.028312425870490092 0.029546466916241177 0 0.028589280855028282 0.030253671205542829 0 0.028776869947845302 0.029873503879321636 0 0.029162146270789318 0.028921831386028458 0 0.029349802048732835 0.029640169970240198 0 0.029730445474346664 0.028604568015779458 0 0.028312425870490092 0.029546466916241177 0 0.028776869947845302 0.029873503879321636 0 0.028874235184799257 0.029357921345721353 0 0.028312425870490092 0.029546466916241177 0 0.028874235184799257 0.029357921345721353 0 0.028777608111635669 0.028800680919486631 0 0.028874235184799257 0.029357921345721353 0 0.029162146270789318 0.028921831386028458 0 0.028777608111635669 0.028800680919486631 0 0.028874235184799257 0.029357921345721353 0 0.029162146270789318 0.028921831386028458 0 0.029349802048732835 0.029640169970240198 0 0.028776869947845302 0.029873503879321636 0 0.028874235184799257 0.029357921345721353 0 0.029349802048732835 0.029640169970240198 0 0.029365668357623869 0.029601114548770797 0 0.027385308482791679 0.027638490426944818 0 0.029349802048732835 0.029640169970240198 0 0.029896518378952682 0.029175340759414782 0 0.029621988130977221 0.028654615048649159 0 0.029349802048732835 0.029640169970240198 0 0.029904672600832398 0.02952410394924378 0 0.030175835949895168 0.029706473433879138 0 0.029349802048732835 0.029640169970240198 0 0.029900477337253848 0.029324981513745699 0 0.029904672600832398 0.02952410394924378 0 0.029349802048732835 0.029640169970240198 0 0.029900477337253848 0.029324981513745699 0 0.029896518378952682 0.029175340759414782 0 0.025361290138095564 0.029267536132110861 0 0.025945980945320617 0.028431169907636781 0 0.029900477337253848 0.029324981513745699 0 0.030016774821479471 0.029409020670389339 0 0.029893537793173729 0.029174675373180716 0 0.022743914364499358 0.027177259738032707 0 0.022611891994364745 0.026919106835181214 0 0.023570862461593074 0.026364056977592729 0 0.026186494424026686 0.028617276561966894 0 0.025945980945320617 0.028431169907636781 0 0.025361290138095564 0.029267536132110861 0 0.02537537840331756 0.031996727965186031 0 0.030016459091474657 0.029414073131290512 0 0.029904672600832398 0.02952410394924378 0 0.030175835949895168 0.029706473433879138 0 0.029900477337253848 0.029324981513745699 0 0.030016774821479471 0.029409020670389339 0 0.029904672600832398 0.02952410394924378 0 0.025361290138095564 0.029267536132110861 0 0.026122102338071131 0.028883731021277639 0 0.025187848602113792 0.02846195570983958 0 0.025146672463051481 0.024592324773263199 0 0.024263319533885677 0.026658888570931731 0 0.026202874405367314 0.025306779741817803 0 0.026089661908632981 0.025585155002788219 0 0.025824239366687055 0.025034483809457234 0 0.022611891994364745 0.026919106835181214 0 0.022594543961421746 0.025678318924656274 0 0.023570862461593074 0.026364056977592729 0 0.025945980945320617 0.028431169907636781 0 0.022835734057281017 0.023642503342959264 0 0.025945980945320617 0.028431169907636781 0 0.027385308482791679 0.027638490426944818 0 0.022835734057281017 0.023642503342959264 0 0.027385308482791679 0.027638490426944818 0 0.029730445474346664 0.028604568015779458 0 0.029104352417765423 0.028211360461782787 0 0.02912535599972331 0.027386399906823039 0 0.027385308482791679 0.027638490426944818 0 0.026888858038630867 0.024885918373652394 0 0.029162146270789318 0.028921831386028458 0 0.029104352417765423 0.028211360461782787 0 0.028777608111635669 0.028800680919486631 0 0.029162146270789318 0.028921831386028458 0 0.029730445474346664 0.028604568015779458 0 0.029104352417765423 0.028211360461782787 0 0.029104352417765423 0.028211360461782787 0 0.028777608111635669 0.028800680919486631 0 0.028705843307619182 0.028303621306591292 0 0.028777608111635669 0.028800680919486631 0 0.028705843307619182 0.028303621306591292 0 0.028158128329390467 0.028563520898154209 0 0.028705843307619182 0.028303621306591292 0 0.028870834001843194 0.027741761029850476 0 0.028484278468381915 0.027884338018821526 0 0.029104352417765423 0.028211360461782787 0 0.028705843307619182 0.028303621306591292 0 0.028870834001843194 0.027741761029850476 0 0.028639819541835282 0.027258001490847471 0 0.028876221531169033 0.027264527052915807 0 0.028484278468381915 0.027884338018821526 0 0.028876221531169033 0.027264527052915807 0 0.029274205606793349 0.027131947313331347 0 0.028484278468381915 0.027884338018821526 0 0.028870834001843194 0.027741761029850476 0 0.029008205270504094 0.027310857625110849 0 0.028484278468381915 0.027884338018821526 0 0.027161215694389378 0.024499341929202247 0 0.028097154764989779 0.027468218093314321 0 0.027161215694389378 0.024499341929202247 0 0.026977068225261483 0.021341852932992209 0 0.029005852475485681 0.026812061907782916 0 0.029270346013940619 0.027125593211685801 0 0.029061686638766352 0.026459865961540544 0 0.028639819541835282 0.027258001490847471 0 0.028876221531169033 0.027264527052915807 0 0.028860131811972941 0.02700387589801858 0 0.028639819541835282 0.027258001490847471 0 0.028668984250629952 0.026797760356221764 0 0.028860131811972941 0.02700387589801858 0 0.028668984250629952 0.026797760356221764 0 0.028860131811972941 0.02700387589801858 0 0.029005852475485681 0.026812061907782916 0 0.028860131811972941 0.02700387589801858 0 0.029005852475485681 0.026812061907782916 0 0.029121222524742179 0.027019839377341183 0 0.029005852475485681 0.026812061907782916 0 0.029121222524742179 0.027019839377341183 0 0.029270346013940619 0.027125593211685801 0 0.02761129436851717 0.024867900425561366 0 0.027161215694389378 0.024499341929202247 0 0.028876221531169033 0.027264527052915807 0 0.029121222524742179 0.027019839377341183 0 0.029274205606793349 0.027131947313331347 0 0.028876221531169033 0.027264527052915807 0 0.028860131811972941 0.02700387589801858 0 0.029121222524742179 0.027019839377341183 0 0.026864908268107165 0.021774498779748561 0 0.026984928196509238 0.021645701622477309 0 0.026780153780893795 0.021520769550142888 0 0.025114962043136475 0.022047722224184944 0 0.024724470871108125 0.023097772270644926 0 0.022239807160193897 0.021634343119094186 0 0.025114962043136475 0.022047722224184944 0 0.025503502657978121 0.022312531224426509 0 0.024724470871108125 0.023097772270644926 0 0.026888858038630867 0.024885918373652394 0 0.027161215694389378 0.024499341929202247 0 0.027161215694389378 0.024499341929202247 0 0.025535739064652199 0.020320592049344974 0 0.029104352417765423 0.028211360461782787 0 0.028870834001843194 0.027741761029850476 0 0.02912535599972331 0.027386399906823039 0 0.028870834001843194 0.027741761029850476 0 0.02912535599972331 0.027386399906823039 0 0.029008205270504094 0.027310857625110849 0 0.022835734057281017 0.023642503342959264 0 0.026888858038630867 0.024885918373652394 0 0.025114962043136475 0.022047722224184944 0 0.022239807160193897 0.021634343119094186 0 0.022234363980667887 0.020809477396039482 0 0.022229094832518146 0.02009836849139103 0 0.025114962043136475 0.022047722224184944 0 0.022234363980667887 0.020809477396039482 0 0.025535739064652199 0.020320592049344974 0 0.019115691777771997 0.017067912577210322 0 0.019115691777771997 0.017067912577210322 0 0.016330726764956581 0.01287726650257256 0 0.013231459978750519 0.012925835719308706 0 0.01392548498838026 0.012166262437946041 0 0.01385380103768211 0.011549352771586245 0 0.019115691777771997 0.017067912577210322 0 0.021097139200658498 0.02094402643806589 0 0.022835734057281017 0.023642503342959264 0 0.021097139200658498 0.02094402643806589 0 0.038117040326092651 0.026807773097334738 0 0.037999104188639998 0.027453969606893041 0 0.038422873603315394 0.027350920615634721 0 0.027765765870867664 0.02933873944257007 0 0.027222098388931797 0.028625051651217526 0 0.028158128329390467 0.028563520898154209 0 0.027222098388931797 0.028625051651217526 0 0.028158128329390467 0.028563520898154209 0 0.027857128033899798 0.027735264502882342 0 0.028158128329390467 0.028563520898154209 0 0.027857128033899798 0.027735264502882342 0 0.028484278468381915 0.027884338018821526 0 0.028705843307619182 0.028303621306591292 0 0.028158128329390467 0.028563520898154209 0 0.028484278468381915 0.027884338018821526 0 0.028639819541835282 0.027258001490847471 0 0.028484278468381915 0.027884338018821526 0 0.028267812807883121 0.027356791168152584 0 0.027857128033899798 0.027735264502882342 0 0.028484278468381915 0.027884338018821526 0 0.028267812807883121 0.027356791168152584 0 0.028639819541835282 0.027258001490847471 0 0.028668984250629952 0.026797760356221764 0 0.028267812807883121 0.027356791168152584 0 0.027857128033899798 0.027735264502882342 0 0.028267812807883121 0.027356791168152584 0 0.027835953983928893 0.026861804629765687 0 0.027857128033899798 0.027735264502882342 0 0.027205255391911261 0.027128154886924064 0 0.027835953983928893 0.026861804629765687 0 0.038117040326092651 0.026807773097334738 0 0.038452635188708013 0.026216004710938785 0 0.037692868967156554 0.026392783611840914 0 0.027222098388931797 0.028625051651217526 0 0.027857128033899798 0.027735264502882342 0 0.027205255391911261 0.027128154886924064 0 0.03266030516514009 0.027712714504077657 0 0.032976034920528037 0.027000877066248746 0 0.038117040326092651 0.026807773097334738 0 0.038422873603315394 0.027350920615634721 0 0.038452635188708013 0.026216004710938785 0 0.038452635188708013 0.026216004710938785 0 0.037692868967156554 0.026392783611840914 0 0.038022445943190125 0.025575784804900865 0 0.03818616772757831 0.028281900441529194 0 0.037629666802883065 0.026765689258834838 0 0.037722127500393263 0.029041313381917899 0 0.037688166999933277 0.027266914991318444 0 0.037138446866770022 0.028575456227392194 0 0.037688166999933277 0.027266914991318444 0 0.037138446866770022 0.028575456227392194 0 0.036651793538898948 0.027934468529571869 0 0.038117040326092651 0.026807773097334738 0 0.037999104188639998 0.027453969606893041 0 0.037692868967156554 0.026392783611840914 0 0.037138446866770022 0.028575456227392194 0 0.036950590600261658 0.029453383157213797 0 0.036532137527068326 0.029165522981045466 0 0.037722127500393263 0.029041313381917899 0 0.037138446866770022 0.028575456227392194 0 0.036950590600261658 0.029453383157213797 0 0.036651793538898948 0.027934468529571869 0 0.036093022565028429 0.028627540264234169 0 0.036532137527068326 0.029165522981045466 0 0.037138446866770022 0.028575456227392194 0 0.036651793538898948 0.027934468529571869 0 0.036532137527068326 0.029165522981045466 0 0.037688166999933277 0.027266914991318444 0 0.036651793538898948 0.027934468529571869 0 0.036678310884777743 0.026559196013138296 0 0.036651793538898948 0.027934468529571869 0 0.035967202410343777 0.027418756208445996 0 0.036678310884777743 0.026559196013138296 0 0.035967202410343777 0.027418756208445996 0 0.036060841148509569 0.025850821404986863 0 0.036678310884777743 0.026559196013138296 0 0.035967202410343777 0.027418756208445996 0 0.034999428973081365 0.027055094963904871 0 0.036060841148509569 0.025850821404986863 0 0.034999428973081365 0.027055094963904871 0 0.035523734820168497 0.028435802484179779 0 0.034999637114246807 0.029030076215180268 0 0.035967202410343777 0.027418756208445996 0 0.034999428973081365 0.027055094963904871 0 0.035523734820168497 0.028435802484179779 0 0.036651793538898948 0.027934468529571869 0 0.035967202410343777 0.027418756208445996 0 0.036093022565028429 0.028627540264234169 0 0.035967202410343777 0.027418756208445996 0 0.035523734820168497 0.028435802484179779 0 0.036093022565028429 0.028627540264234169 0 0.035523734820168497 0.028435802484179779 0 0.036093022565028429 0.028627540264234169 0 0.035857841612170607 0.029745762679467491 0 0.035523734820168497 0.028435802484179779 0 0.035857841612170607 0.029745762679467491 0 0.034999637114246807 0.029030076215180268 0 0.035742694151904855 0.030705304059816491 0 0.03499955005485085 0.031002798552587453 0 0.034999637114246807 0.029030076215180268 0 0.035742694151904855 0.030705304059816491 0 0.035857841612170607 0.029745762679467491 0 0.034999637114246807 0.029030076215180268 0 0.035742694151904855 0.030705304059816491 0 0.035857841612170607 0.029745762679467491 0 0.035887975578858984 0.031512262457906538 0 0.035436301069559015 0.031323934931271287 0 0.035934548689483134 0.031440159902824061 0 0.035857841612170607 0.029745762679467491 0 0.035887975578858984 0.031512262457906538 0 0.036438778327297167 0.030299756313572651 0 0.035887975578858984 0.031512262457906538 0 0.036241671591773793 0.032280086947300453 0 0.036597742034594434 0.031146658743013783 0 0.037109092914212896 0.031632685956259322 0 0.036241671591773793 0.032280086947300453 0 0.036597742034594434 0.031146658743013783 0 0.037109092914212896 0.031632685956259322 0 0.037257757273153627 0.030574165869832113 0 0.036597742034594434 0.031146658743013783 0 0.035887975578858984 0.031512262457906538 0 0.036597742034594434 0.031146658743013783 0 0.036438778327297167 0.030299756313572651 0 0.036438778327297167 0.030299756313572651 0 0.036998730737660378 0.030189177209233878 0 0.036950590600261658 0.029453383157213797 0 0.037257757273153627 0.030574165869832113 0 0.037722127500393263 0.029041313381917899 0 0.036998730737660378 0.030189177209233878 0 0.036597742034594434 0.031146658743013783 0 0.036438778327297167 0.030299756313572651 0 0.036998730737660378 0.030189177209233878 0 0.037257757273153627 0.030574165869832113 0 0.036597742034594434 0.031146658743013783 0 0.036998730737660378 0.030189177209233878 0 0.037722127500393263 0.029041313381917899 0 0.036998730737660378 0.030189177209233878 0 0.036950590600261658 0.029453383157213797 0 0.036438778327297167 0.030299756313572651 0 0.036950590600261658 0.029453383157213797 0 0.036532137527068326 0.029165522981045466 0 0.035857841612170607 0.029745762679467491 0 0.036438778327297167 0.030299756313572651 0 0.036532137527068326 0.029165522981045466 0 0.036093022565028429 0.028627540264234169 0 0.035857841612170607 0.029745762679467491 0 0.036532137527068326 0.029165522981045466 0 0.015634365064059016 0.023503149508705318 0 0.016455602630754153 0.022561388091851875 0 0.017180990092763276 0.024601861349635868 0 0.015634365064059016 0.023503149508705318 0 0.016455602630754153 0.022561388091851875 0 0.015382044162799568 0.022137157362818169 0 0.016388915306452555 0.026380599912284673 0 0.015384468061136856 0.02612196969744391 0 0.017526984314555249 0.03000966099088849 0 0.017524331686301346 0.030035631320080618 0 0.01741351080726896 0.029855321767491977 0 0.017526984314555249 0.03000966099088849 0 0.017416427664294833 0.02982045895742777 0 0.01741351080726896 0.029855321767491977 0 0.018163384904151751 0.03402694391832789 0 0.018453363139845812 0.033873459685904876 0 0.015634365064059016 0.023503149508705318 0 0.013982372492684551 0.022441730507386796 0 0.015382044162799568 0.022137157362818169 0 0.019308899137578901 0.036892557155882494 0 0.018554229527114417 0.037508441183310842 0 0.018619297761557251 0.036249481622776282 0 0.019308899137578901 0.036892557155882494 0 0.018554229527114417 0.037508441183310842 0 0.019587276114781324 0.037823440573125859 0 0.017526984314555249 0.03000966099088849 0 0.017524331686301346 0.030035631320080618 0 0.017725879636225184 0.030282309593823668 0 0.016388915306452555 0.026380599912284673 0 0.01770607633323501 0.030796643940251077 0 0.018163384904151751 0.03402694391832789 0 0.01770607633323501 0.030796643940251077 0 0.018554229527114417 0.037508441183310842 0 0.018619297761557251 0.036249481622776282 0 0.017310553908174084 0.036988158401709735 0 0.018619297761557251 0.036249481622776282 0 0.017505715504421631 0.035807139863225854 0 0.017310553908174084 0.036988158401709735 0 0.018619297761557251 0.036249481622776282 0 0.01831847619306233 0.035518480162633183 0 0.017505715504421631 0.035807139863225854 0 0.01831847619306233 0.035518480162633183 0 0.017605456627965019 0.034999805723682095 0 0.019566028766612148 0.034999898179890972 0 0.01831847619306233 0.035518480162633183 0 0.017605456627965019 0.034999805723682095 0 0.017505715504421631 0.035807139863225854 0 0.018619297761557251 0.036249481622776282 0 0.019566028766612148 0.034999898179890972 0 0.020038115935755618 0.035864976978918509 0 0.018619297761557251 0.036249481622776282 0 0.01831847619306233 0.035518480162633183 0 0.019566028766612148 0.034999898179890972 0 0.019308899137578901 0.036892557155882494 0 0.018619297761557251 0.036249481622776282 0 0.020038115935755618 0.035864976978918509 0 0.019308899137578901 0.036892557155882494 0 0.020316472409595627 0.036734265832245823 0 0.020038115935755618 0.035864976978918509 0 0.020316472409595627 0.036734265832245823 0 0.020038115935755618 0.035864976978918509 0 0.020663257614900201 0.035948315117944912 0 0.019566028766612148 0.034999898179890972 0 0.021526900195018527 0.034999946474954018 0 0.020953710500538014 0.035254752502946067 0 0.019566028766612148 0.034999898179890972 0 0.020038115935755618 0.035864976978918509 0 0.020953710500538014 0.035254752502946067 0 0.020038115935755618 0.035864976978918509 0 0.020953710500538014 0.035254752502946067 0 0.020663257614900201 0.035948315117944912 0 0.020953710500538014 0.035254752502946067 0 0.021228802467744758 0.03611939181567627 0 0.021956300666065506 0.035540184152496872 0 0.020953710500538014 0.035254752502946067 0 0.021228802467744758 0.03611939181567627 0 0.020663257614900201 0.035948315117944912 0 0.021073831813980367 0.035283086359142721 0 0.022137901020875945 0.035601543564236747 0 0.021526900195018527 0.034999946474954018 0 0.020953710500538014 0.035254752502946067 0 0.022496312361249174 0.035614690422513827 0 0.020316472409595627 0.036734265832245823 0 0.021228802467744758 0.03611939181567627 0 0.021671187816031078 0.037036301240052312 0 0.020316472409595627 0.036734265832245823 0 0.021228802467744758 0.03611939181567627 0 0.020663257614900201 0.035948315117944912 0 0.020309476793306139 0.036754741125494837 0 0.021123696034503963 0.036991502971153681 0 0.020316472409595627 0.036734265832245823 0 0.020481165469433311 0.037041291142957053 0 0.02041754494457584 0.036983032278624782 0 0.020481165469433311 0.037041291142957053 0 0.020366614525615698 0.03673032708902195 0 0.02041754494457584 0.036983032278624782 0 0.019308899137578901 0.036892557155882494 0 0.019897735523048923 0.037182997866541535 0 0.019587276114781324 0.037823440573125859 0 0.019308899137578901 0.036892557155882494 0 0.020316472409595627 0.036734265832245823 0 0.019897735523048923 0.037182997866541535 0 0.020316472409595627 0.036734265832245823 0 0.020481165469433311 0.037041291142957053 0 0.019897735523048923 0.037182997866541535 0 0.020481165469433311 0.037041291142957053 0 0.019587276114781324 0.037823440573125859 0 0.020450087845319903 0.038250274727121406 0 0.017416427664294833 0.02982045895742777 0 0.01741351080726896 0.029855321767491977 0 0.017350015520054399 0.029736279920088812 0 0.020481165469433311 0.037041291142957053 0 0.019897735523048923 0.037182997866541535 0 0.019587276114781324 0.037823440573125859 0 0.018453363139845812 0.033873459685904876 0 0.019171421073009343 0.033236345661294985 0 0.020753956498061634 0.038689412673230512 0 0.019171421073009343 0.033236345661294985 0 0.020481165469433311 0.037041291142957053 0 0.020366614525615698 0.03673032708902195 0 0.020776473058626503 0.036366558758339454 0 0.020366614525615698 0.03673032708902195 0 0.020129383235412801 0.036611447976569636 0 0.02041754494457584 0.036983032278624782 0 0.020366614525615698 0.03673032708902195 0 0.020129383235412801 0.036611447976569636 0 0.020152491823295354 0.036369292207556199 0 0.020129383235412801 0.036611447976569636 0 0.020007340845014956 0.036760798511410647 0 0.019940739931113189 0.036481458195538094 0 0.020129383235412801 0.036611447976569636 0 0.019940739931113189 0.036481458195538094 0 0.020054940045300756 0.036421872459872572 0 0.02282639072175132 0.037304466568658205 0 0.022938127009656809 0.036515214856914203 0 0.023499002772050803 0.036714853626156001 0 0.02282639072175132 0.037304466568658205 0 0.022342188968800317 0.036380979754641933 0 0.022938127009656809 0.036515214856914203 0 0.020129383235412801 0.036611447976569636 0 0.020007340845014956 0.036760798511410647 0 0.02041754494457584 0.036983032278624782 0 0.02282639072175132 0.037304466568658205 0 0.021671187816031078 0.037036301240052312 0 0.022342188968800317 0.036380979754641933 0 0.020909873420418557 0.037136030481104393 0 0.021123696034503963 0.036991502971153681 0 0.021800831117041827 0.036265255195679136 0 0.021956300666065506 0.035540184152496872 0 0.022342188968800317 0.036380979754641933 0 0.021228802467744758 0.03611939181567627 0 0.021671187816031078 0.037036301240052312 0 0.021800831117041827 0.036265255195679136 0 0.021671187816031078 0.037036301240052312 0 0.021800831117041827 0.036265255195679136 0 0.022342188968800317 0.036380979754641933 0 0.021228802467744758 0.03611939181567627 0 0.021800831117041827 0.036265255195679136 0 0.021956300666065506 0.035540184152496872 0 0.021526900195018527 0.034999946474954018 0 0.022496312361249174 0.035614690422513827 0 0.023488295318532453 0.035000030271201646 0 0.022137901020875945 0.035601543564236747 0 0.02392724284163416 0.035286095661493377 0 0.022496312361249174 0.035614690422513827 0 0.023488295318532453 0.035000030271201646 0 0.023969827239357235 0.035942111182383288 0 0.023488530819917457 0.0350005618740949 0 0.02392724284163416 0.035286095661493377 0 0.023047500284099506 0.035803790982475679 0 0.022342188968800317 0.036380979754641933 0 0.022938127009656809 0.036515214856914203 0 0.021956300666065506 0.035540184152496872 0 0.023047500284099506 0.035803790982475679 0 0.022342188968800317 0.036380979754641933 0 0.023047500284099506 0.035803790982475679 0 0.022938127009656809 0.036515214856914203 0 0.023499002772050803 0.036714853626156001 0 0.023488103001318417 0.03500099839918118 0 0.024092076369587528 0.035778865442765699 0 0.026150129376314155 0.035844806059435061 0 0.024417089863454568 0.034213280506117501 0 0.026695461314857522 0.034735983003853416 0 0.02521683755090047 0.035763270557873116 0 0.02392724284163416 0.035286095661493377 0 0.024469357814399701 0.036555370253116566 0 0.02392724284163416 0.035286095661493377 0 0.026490957861560738 0.035227426645902046 0 0.027762445624363502 0.034996498173858068 0 0.023488103001318417 0.03500099839918118 0 0.026150129376314155 0.035844806059435061 0 0.02753819203533129 0.0361340406989972 0 0.026695461314857522 0.034735983003853416 0 0.02521683755090047 0.035763270557873116 0 0.02753819203533129 0.0361340406989972 0 0.02521683755090047 0.035763270557873116 0 0.025978144867264286 0.037341375755505363 0 0.020909873420418557 0.037136030481104393 0 0.024729372582037897 0.035217971019275388 0 0.02282639072175132 0.037304466568658205 0 0.023499002772050803 0.036714853626156001 0 0.023951076111277371 0.037584207585844159 0 0.024469357814399701 0.036555370253116566 0 0.024729372582037897 0.035217971019275388 0 0.020007340845014956 0.036760798511410647 0 0.019940739931113189 0.036481458195538094 0 0.019805997940270447 0.036599376080765217 0 0.019940739931113189 0.036481458195538094 0 0.019805997940270447 0.036599376080765217 0 0.019837225717175881 0.036446298946117117 0 0.019805997940270447 0.036599376080765217 0 0.019742711524838363 0.036402678777870845 0 0.019837225717175881 0.036446298946117117 0 0.024729372582037897 0.035217971019275388 0 0.024054494019131532 0.03341075958087808 0 0.028666574121558538 0.030612325060061486 0 0.028425277642762207 0.030596391478606398 0 0.028522011797263137 0.030688341723076759 0 0.028804582473923066 0.034277031531269 0 0.024729372582037897 0.035217971019275388 0 0.02753819203533129 0.0361340406989972 0 0.027955496962460701 0.037985382333994407 0 0.025978144867264286 0.037341375755505363 0 0.019689283452659915 0.036220554274472821 0 0.019742711524838363 0.036402678777870845 0 0.019858209086189234 0.036305413104339407 0 0.02537537840331756 0.031996727965186031 0 0.024054494019131532 0.03341075958087808 0 0.019742711524838363 0.036402678777870845 0 0.019837225717175881 0.036446298946117117 0 0.019858209086189234 0.036305413104339407 0 0.019940739931113189 0.036481458195538094 0 0.019858209086189234 0.036305413104339407 0 0.020008849364115521 0.036277141960712814 0 0.019940739931113189 0.036481458195538094 0 0.019837225717175881 0.036446298946117117 0 0.019858209086189234 0.036305413104339407 0 0.018840798491336675 0.032362982417753684 0 0.019800260185376582 0.036389492352694827 0 0.019858209086189234 0.036305413104339407 0 0.019842810805544408 0.036120358736335102 0 0.020008849364115521 0.036277141960712814 0 0.017998495783462319 0.034896650139142921 0 0.018527475021876294 0.034583809956580044 0 0.019144803698840394 0.035746208704970944 0 0.023298693395150751 0.028866032210984445 0 0.020326624732963157 0.030631061387294378 0 0.021654128214153998 0.031525719542875641 0 0.023692079525462859 0.029632974366101471 0 0.023298693395150751 0.028866032210984445 0 0.021654128214153998 0.031525719542875641 0 0.019689283452659915 0.036220554274472821 0 0.019858209086189234 0.036305413104339407 0 0.019842810805544408 0.036120358736335102 0 0.02537537840331756 0.031996727965186031 0 0.018840798491336675 0.032362982417753684 0 0.025361290138095564 0.029267536132110861 0 0.019797398614494123 0.026193558028435787 0 0.019531365688828871 0.02158562635857797 0 0.019530911503130768 0.021600048216468232 0 0.019383428943637992 0.021571853812246414 0 0.019531365688828871 0.02158562635857797 0 0.019426129672669223 0.021545881103805679 0 0.019383428943637992 0.021571853812246414 0 0.018840798491336675 0.032362982417753684 0 0.019797398614494123 0.026193558028435787 0 0.01809252651438303 0.026833379469084262 0 0.017710247255880125 0.026557638922615572 0 0.017973216720443132 0.026296341831972408 0 0.019797398614494123 0.026193558028435787 0 0.016552670822938972 0.020557780101624127 0 0.022835734057281017 0.023642503342959264 0 0.019797398614494123 0.026193558028435787 0 0.01953090037175189 0.021616997690524119 0 0.019530911503130768 0.021600048216468232 0 0.019383428943637992 0.021571853812246414 0 0.013231459978750519 0.012925835719308706 0 0.015386819322438619 0.014327241685124711 0 0.01392548498838026 0.012166262437946041 0 0.013896769344835967 0.011864927603420176 0 0.015566524675379417 0.01455028742398151 0 0.015386819322438619 0.014327241685124711 0 0.01392548498838026 0.012166262437946041 0 0.01608769721576396 0.013664282155320643 0 0.019115691777771997 0.017067912577210322 0 0.016552670822938972 0.020557780101624127 0 0.01392548498838026 0.012166262437946041 0 0.015077792366883905 0.012829247829613231 0 0.014545185285278706 0.011880426140070626 0 0.015129385612369081 0.011995359437964988 0 0.015077792366883905 0.012829247829613231 0 0.014545185285278706 0.011880426140070626 0 0.015129385612369081 0.011995359437964988 0 0.015077792366883905 0.012829247829613231 0 0.015858942432041088 0.012048804545943231 0 0.014572974810040083 0.013199315538824394 0 0.015389342340027097 0.013018422157977548 0 0.015598303811171478 0.012206023035404936 0 0.015566524675379417 0.01455028742398151 0 0.015772453461269275 0.011998042898385103 0 0.014572974810040083 0.013199315538824394 0 0.015432900461224386 0.013796708899548631 0 0.015389342340027097 0.013018422157977548 0 0.015566524675379417 0.01455028742398151 0 0.016286372498919722 0.020402203838844796 0 0.016351197611542332 0.019733482252519884 0 0.01676058178485848 0.020979966104377121 0 0.017489613667570868 0.02053201146633437 0 0.015715817632242168 0.020346742433474577 0 0.016351197611542332 0.019733482252519884 0 0.01676058178485848 0.020979966104377121 0 0.016552670822938972 0.020557780101624127 0 0.015566524675379417 0.01455028742398151 0 0.018840798491336675 0.032362982417753684 0 0.017738321558440569 0.027178365940430552 0 0.016552670822938972 0.020557780101624127 0 0.017738321558440569 0.027178365940430552 0 0.01809252651438303 0.026833379469084262 0 0.017973216720443132 0.026296341831972408 0 0.018463384718189792 0.026602710529021203 0 0.017738321558440569 0.027178365940430552 0 0.016286372498919722 0.020402203838844796 0 0.014475584898541387 0.019446346888553678 0 0.016396216367395699 0.01830270644119112 0 0.016034806431812491 0.018925316340097274 0 0.016286372498919722 0.020402203838844796 0 0.017727612493929186 0.02457041670744068 0 0.016286372498919722 0.020402203838844796 0 0.016786394613997571 0.014516695000173257 0 0.014475584898541387 0.019446346888553678 0 0.016176240425658791 0.019510798448108047 0 0.016634945252939719 0.020965777328229674 0 0.016405377517750518 0.026555629360493754 0 0.016864150393988704 0.026271568991177264 0 0.017897600140265112 0.027495881322899474 0 0.014475584898541387 0.019446346888553678 0 0.016034806431812491 0.018925316340097274 0 0.016176240425658791 0.019510798448108047 0 0.015432900461224386 0.013796708899548631 0 0.015389342340027097 0.013018422157977548 0 0.015952274906727428 0.012880357745132709 0 0.015432900461224386 0.013796708899548631 0 0.015952274906727428 0.012880357745132709 0 0.016756149448620649 0.012952281793168914 0 0.015389342340027097 0.013018422157977548 0 0.015952274906727428 0.012880357745132709 0 0.015598303811171478 0.012206023035404936 0 0.015952274906727428 0.012880357745132709 0 0.016446602813140008 0.012643768430255477 0 0.016756149448620649 0.012952281793168914 0 0.015952274906727428 0.012880357745132709 0 0.016359076783174335 0.0122839395451257 0 0.015598303811171478 0.012206023035404936 0 0.015952274906727428 0.012880357745132709 0 0.016359076783174335 0.0122839395451257 0 0.016446602813140008 0.012643768430255477 0 0.016786394613997571 0.014516695000173257 0 0.017977364788280117 0.011924450342616121 0 0.016756149448620649 0.012952281793168914 0 0.017908717230195815 0.012149477098009315 0 0.017465553710837439 0.012254122141017482 0 0.016981149417550155 0.012436055442741286 0 0.016756149448620649 0.012952281793168914 0 0.017465553710837439 0.012254122141017482 0 0.016981149417550155 0.012436055442741286 0 0.017465553710837439 0.012254122141017482 0 0.01698774004152756 0.012072899132512251 0 0.016981149417550155 0.012436055442741286 0 0.016739496927324723 0.012477227506385717 0 0.01698774004152756 0.012072899132512251 0 0.016359076783174335 0.0122839395451257 0 0.016739496927324723 0.012477227506385717 0 0.01698774004152756 0.012072899132512251 0 0.016359076783174335 0.0122839395451257 0 0.016446602813140008 0.012643768430255477 0 0.016739496927324723 0.012477227506385717 0 0.016981149417550155 0.012436055442741286 0 0.016739496927324723 0.012477227506385717 0 0.016756149448620649 0.012952281793168914 0 0.016446602813140008 0.012643768430255477 0 0.016739496927324723 0.012477227506385717 0 0.016756149448620649 0.012952281793168914 0 0.016529722039302325 0.018559921176867087 0 0.016396216367395699 0.01830270644119112 0 0.016034806431812491 0.018925316340097274 0 0.016529722039302325 0.018559921176867087 0 0.017245012170847146 0.018410562782776408 0 0.016624903330396484 0.018912406449125011 0 0.016529722039302325 0.018559921176867087 0 0.017291502792943 0.018118398149987416 0 0.017245012170847146 0.018410562782776408 0 0.016529722039302325 0.018559921176867087 0 0.016396216367395699 0.01830270644119112 0 0.017291502792943 0.018118398149987416 0 0.017245012170847146 0.018410562782776408 0 0.017139192525115917 0.018847588539708235 0 0.017844238167852952 0.018416883184488819 0 0.017139192525115917 0.018847588539708235 0 0.017046481721790005 0.019397043987671468 0 0.016624903330396484 0.018912406449125011 0 0.017245012170847146 0.018410562782776408 0 0.017139192525115917 0.018847588539708235 0 0.016624903330396484 0.018912406449125011 0 0.017139192525115917 0.018847588539708235 0 0.017046481721790005 0.019397043987671468 0 0.017652529249711529 0.01900296649039775 0 0.017046481721790005 0.019397043987671468 0 0.016624903330396484 0.018912406449125011 0 0.016176240425658791 0.019510798448108047 0 0.016529722039302325 0.018559921176867087 0 0.016034806431812491 0.018925316340097274 0 0.016624903330396484 0.018912406449125011 0 0.016034806431812491 0.018925316340097274 0 0.016624903330396484 0.018912406449125011 0 0.016176240425658791 0.019510798448108047 0 0.017046481721790005 0.019397043987671468 0 0.016176240425658791 0.019510798448108047 0 0.016634945252939719 0.020965777328229674 0 0.017046481721790005 0.019397043987671468 0 0.016634945252939719 0.020965777328229674 0 0.017826584982090006 0.019590140956502588 0 0.017897600140265112 0.027495881322899474 0 0.018124955049202331 0.027201632792952145 0 0.019308043958638655 0.028090519303883503 0 0.016864150393988704 0.026271568991177264 0 0.017897600140265112 0.027495881322899474 0 0.018124955049202331 0.027201632792952145 0 0.018527475021876294 0.034583809956580044 0 0.019994239516310568 0.035630400065619988 0 0.019144803698840394 0.035746208704970944 0 0.017738321558440569 0.027178365940430552 0 0.019136384590584588 0.031977936721000945 0 0.019994239516310568 0.035630400065619988 0 0.019144803698840394 0.035746208704970944 0 0.020152491823295354 0.036369292207556199 0 0.019800260185376582 0.036389492352694827 0 0.019992455509374698 0.036234203805772726 0 0.020008849364115521 0.036277141960712814 0 0.020054940045300756 0.036421872459872572 0 0.020152491823295354 0.036369292207556199 0 0.019940739931113189 0.036481458195538094 0 0.020008849364115521 0.036277141960712814 0 0.020054940045300756 0.036421872459872572 0 0.020129383235412801 0.036611447976569636 0 0.020054940045300756 0.036421872459872572 0 0.020152491823295354 0.036369292207556199 0 0.019994239516310568 0.035630400065619988 0 0.020152491823295354 0.036369292207556199 0 0.020776473058626503 0.036366558758339454 0 0.020366614525615698 0.03673032708902195 0 0.020152491823295354 0.036369292207556199 0 0.020776473058626503 0.036366558758339454 0 0.019136384590584588 0.031977936721000945 0 0.019171421073009343 0.033236345661294985 0 0.017897600140265112 0.027495881322899474 0 0.019308043958638655 0.028090519303883503 0 0.019296069073170264 0.028395885034945161 0 0.017267461833030188 0.024719145383656566 0 0.019171421073009343 0.033236345661294985 0 0.013982372492684551 0.022441730507386796 0 0.012141084927213776 0.021278560382058775 0 0.013630255723232764 0.020142534184838762 0 0.017416427664294833 0.02982045895742777 0 0.017353857589445233 0.029693784789555602 0 0.017350015520054399 0.029736279920088812 0 0.015384468061136856 0.02612196969744391 0 0.017267461833030188 0.024719145383656566 0 0.012141084927213776 0.021278560382058775 0 0.012843378932281048 0.019364833528630845 0 0.012063091579004544 0.018526798100314705 0 0.012141084927213776 0.021278560382058775 0 0.013630255723232764 0.020142534184838762 0 0.012843378932281048 0.019364833528630845 0 0.013630255723232764 0.020142534184838762 0 0.013316847241642333 0.019055303432609388 0 0.012843378932281048 0.019364833528630845 0 0.013630255723232764 0.020142534184838762 0 0.013316847241642333 0.019055303432609388 0 0.014016219523994526 0.018913466924595231 0 0.017267461833030188 0.024719145383656566 0 0.015127559742695173 0.018881844046269376 0 0.016634945252939719 0.020965777328229674 0 0.018821925627727484 0.022509265726949959 0 0.018915625662292337 0.01985141133765651 0 0.017727612493929186 0.02457041670744068 0 0.017267461833030188 0.024719145383656566 0 0.016634945252939719 0.020965777328229674 0 0.017826584982090006 0.019590140956502588 0 0.018915625662292337 0.01985141133765651 0 0.018915625662292337 0.01985141133765651 0 0.018456326829017718 0.019012839273383961 0 0.018995336793457499 0.017198812411170914 0 0.017826584982090006 0.019590140956502588 0 0.018915625662292337 0.01985141133765651 0 0.018456326829017718 0.019012839273383961 0 0.017046481721790005 0.019397043987671468 0 0.017826584982090006 0.019590140956502588 0 0.017652529249711529 0.01900296649039775 0 0.017826584982090006 0.019590140956502588 0 0.018066929178113322 0.019139222360794541 0 0.017652529249711529 0.01900296649039775 0 0.017826584982090006 0.019590140956502588 0 0.018456326829017718 0.019012839273383961 0 0.018066929178113322 0.019139222360794541 0 0.018066929178113322 0.019139222360794541 0 0.017652529249711529 0.01900296649039775 0 0.018188969494778405 0.018621082592392924 0 0.018456326829017718 0.019012839273383961 0 0.018066929178113322 0.019139222360794541 0 0.018188969494778405 0.018621082592392924 0 0.017652529249711529 0.01900296649039775 0 0.017844238167852952 0.018416883184488819 0 0.018188969494778405 0.018621082592392924 0 0.017139192525115917 0.018847588539708235 0 0.017652529249711529 0.01900296649039775 0 0.017844238167852952 0.018416883184488819 0 0.017245012170847146 0.018410562782776408 0 0.017844238167852952 0.018416883184488819 0 0.018995336793457499 0.017198812411170914 0 0.017291502792943 0.018118398149987416 0 0.017245012170847146 0.018410562782776408 0 0.018995336793457499 0.017198812411170914 0 0.018456326829017718 0.019012839273383961 0 0.018188969494778405 0.018621082592392924 0 0.018995336793457499 0.017198812411170914 0 0.015127559742695173 0.018881844046269376 0 0.017298710310914362 0.014693308935948016 0 0.016396216367395699 0.01830270644119112 0 0.017291502792943 0.018118398149987416 0 0.018995336793457499 0.017198812411170914 0 0.0166615626342131 0.01300774262401262 0 0.018399142409942257 0.012213855965954701 0 0.017908717230195815 0.012149477098009315 0 0.016786394613997571 0.014516695000173257 0 0.017298710310914362 0.014693308935948016 0 0.017844238167852952 0.018416883184488819 0 0.018188969494778405 0.018621082592392924 0 0.018995336793457499 0.017198812411170914 0 0.012063091579004544 0.018526798100314705 0 0.012143622716065868 0.014943749683182765 0 0.013027342084213429 0.0164156183043929 0 0.012143622716065868 0.014943749683182765 0 0.013857198736286666 0.015378203996380962 0 0.014137236137078631 0.014171201177966946 0 0.012143622716065868 0.014943749683182765 0 0.013857198736286666 0.015378203996380962 0 0.013027342084213429 0.0164156183043929 0 0.013027342084213429 0.0164156183043929 0 0.013748646579453043 0.01710456815465855 0 0.01452557431780812 0.016284585847160374 0 0.013857198736286666 0.015378203996380962 0 0.013027342084213429 0.0164156183043929 0 0.01452557431780812 0.016284585847160374 0 0.013748646579453043 0.01710456815465855 0 0.014751785518344709 0.017109390377949587 0 0.01452557431780812 0.016284585847160374 0 0.013748646579453043 0.01710456815465855 0 0.012808555395908331 0.018189834670604064 0 0.014751785518344709 0.017109390377949587 0 0.013027342084213429 0.0164156183043929 0 0.013748646579453043 0.01710456815465855 0 0.012905824571231376 0.017562662261673023 0 0.012063091579004544 0.018526798100314705 0 0.013027342084213429 0.0164156183043929 0 0.012905824571231376 0.017562662261673023 0 0.013748646579453043 0.01710456815465855 0 0.012905824571231376 0.017562662261673023 0 0.012808555395908331 0.018189834670604064 0 0.013316847241642333 0.019055303432609388 0 0.012843378932281048 0.019364833528630845 0 0.012808555395908331 0.018189834670604064 0 0.012843378932281048 0.019364833528630845 0 0.012063091579004544 0.018526798100314705 0 0.012808555395908331 0.018189834670604064 0 0.012063091579004544 0.018526798100314705 0 0.012905824571231376 0.017562662261673023 0 0.012808555395908331 0.018189834670604064 0 0.013316847241642333 0.019055303432609388 0 0.012808555395908331 0.018189834670604064 0 0.014016219523994526 0.018913466924595231 0 0.014016219523994526 0.018913466924595231 0 0.015643984453167472 0.018464400775810259 0 0.015162436959591527 0.019247023773448644 0 0.012808555395908331 0.018189834670604064 0 0.014016219523994526 0.018913466924595231 0 0.015643984453167472 0.018464400775810259 0 0.012931025679216616 0.018191873634849177 0 0.016004202484581134 0.017999463806751079 0 0.012808555395908331 0.018189834670604064 0 0.014751785518344709 0.017109390377949587 0 0.016492275082638695 0.017635704477191632 0 0.014751785518344709 0.017109390377949587 0 0.016136714444978838 0.016386864126730103 0 0.016492275082638695 0.017635704477191632 0 0.014751785518344709 0.017109390377949587 0 0.01452557431780812 0.016284585847160374 0 0.016136714444978838 0.016386864126730103 0 0.01452557431780812 0.016284585847160374 0 0.016136714444978838 0.016386864126730103 0 0.015333162453192221 0.015117619118923852 0 0.016136714444978838 0.016386864126730103 0 0.015333162453192221 0.015117619118923852 0 0.017036392765391515 0.015307152525581126 0 0.013857198736286666 0.015378203996380962 0 0.015333162453192221 0.015117619118923852 0 0.014137236137078631 0.014171201177966946 0 0.013857198736286666 0.015378203996380962 0 0.01452557431780812 0.016284585847160374 0 0.015333162453192221 0.015117619118923852 0 0.016798667089155297 0.014789483864755284 0 0.018065093720980935 0.01692242421580252 0 0.019169148685326962 0.014656956293932514 0 0.016798667089155297 0.014789483864755284 0 0.018032648865965444 0.013402926039615534 0 0.019169148685326962 0.014656956293932514 0 0.016136714444978838 0.016386864126730103 0 0.017036392765391515 0.015307152525581126 0 0.018065093720980935 0.01692242421580252 0 0.016948409123475405 0.015034336823351443 0 0.017919377830028376 0.016716989288392808 0 0.018065093720980935 0.01692242421580252 0 0.016492275082638695 0.017635704477191632 0 0.020047570097763912 0.017166203722717502 0 0.016899454845504799 0.018828428531895137 0 0.015643984453167472 0.018464400775810259 0 0.015162436959591527 0.019247023773448644 0 0.016899454845504799 0.018828428531895137 0 0.015643984453167472 0.018464400775810259 0 0.018645545863376571 0.018368187778654104 0 0.016488159625804515 0.018998767400189562 0 0.015411313755040042 0.019219764920170634 0 0.016004202484581134 0.017999463806751079 0 0.019353259316174733 0.018073920746868817 0 0.016136714444978838 0.016386864126730103 0 0.018065093720980935 0.01692242421580252 0 0.016492275082638695 0.017635704477191632 0 0.016552928014460982 0.019074688434710003 0 0.016129325037675005 0.020094025620386407 0 0.015162436959591527 0.019247023773448644 0 0.016552928014460982 0.019074688434710003 0 0.016129325037675005 0.020094025620386407 0 0.017472654327881493 0.020164357171006571 0 0.016129325037675005 0.020094025620386407 0 0.016350413044565006 0.021299990824551307 0 0.017472654327881493 0.020164357171006571 0 0.016129325037675005 0.020094025620386407 0 0.015016596277450776 0.020732111092493698 0 0.016350413044565006 0.021299990824551307 0 0.015162436959591527 0.019247023773448644 0 0.014445605309471784 0.019744755945978194 0 0.015016596277450776 0.020732111092493698 0 0.014016219523994526 0.018913466924595231 0 0.015162436959591527 0.019247023773448644 0 0.014445605309471784 0.019744755945978194 0 0.013630255723232764 0.020142534184838762 0 0.014016219523994526 0.018913466924595231 0 0.014445605309471784 0.019744755945978194 0 0.013630255723232764 0.020142534184838762 0 0.014445605309471784 0.019744755945978194 0 0.015016596277450776 0.020732111092493698 0 0.016129325037675005 0.020094025620386407 0 0.015162436959591527 0.019247023773448644 0 0.015016596277450776 0.020732111092493698 0 0.013982372492684551 0.022441730507386796 0 0.015016596277450776 0.020732111092493698 0 0.015382044162799568 0.022137157362818169 0 0.013982372492684551 0.022441730507386796 0 0.013630255723232764 0.020142534184838762 0 0.015016596277450776 0.020732111092493698 0 0.016455602630754153 0.022561388091851875 0 0.015382044162799568 0.022137157362818169 0 0.016350413044565006 0.021299990824551307 0 0.015016596277450776 0.020732111092493698 0 0.015382044162799568 0.022137157362818169 0 0.016350413044565006 0.021299990824551307 0 0.020117435355132593 0.0087709563063654416 0 0.019895805892455661 0.0077573406540349119 0 0.02066187268821339 0.008052332003862123 0 0.020117435355132593 0.0087709563063654416 0 0.0192006590188868 0.0082252190170707153 0 0.019342429014519456 0.0090694209957902505 0 0.020117435355132593 0.0087709563063654416 0 0.0192006590188868 0.0082252190170707153 0 0.019895805892455661 0.0077573406540349119 0 0.0192006590188868 0.0082252190170707153 0 0.019342429014519456 0.0090694209957902505 0 0.018600552472582361 0.0089136162595950339 0 0.019342429014519456 0.0090694209957902505 0 0.019968999400306074 0.0097073670489718558 0 0.019070075913680089 0.0098478593408721227 0 0.020117435355132593 0.0087709563063654416 0 0.019342429014519456 0.0090694209957902505 0 0.019968999400306074 0.0097073670489718558 0 0.020117435355132593 0.0087709563063654416 0 0.019968999400306074 0.0097073670489718558 0 0.020759259468886099 0.0097212837562523496 0 0.019968999400306074 0.0097073670489718558 0 0.020516016965828152 0.010457644399233672 0 0.020759259468886099 0.0097212837562523496 0 0.019968999400306074 0.0097073670489718558 0 0.019577757152526739 0.010823123512444082 0 0.020516016965828152 0.010457644399233672 0 0.017885338559020591 0.012128114278415562 0 0.019443518572384473 0.010986279113015019 0 0.016798667089155297 0.014789483864755284 0 0.018032648865965444 0.013402926039615534 0 0.015613757454510954 0.012686714164614048 0 0.018032648865965444 0.013402926039615534 0 0.015613757454510954 0.012686714164614048 0 0.018342573421232768 0.011535666009093847 0 0.016948409123475405 0.015034336823351443 0 0.017885338559020591 0.012128114278415562 0 0.020071654332385683 0.011558839145485162 0 0.019345848070793915 0.010218754319473193 0 0.01907069218357605 0.011973823608951811 0 0.015333162453192221 0.015117619118923852 0 0.016014645706646603 0.013431110386463123 0 0.014137236137078631 0.014171201177966946 0 0.017885338559020591 0.012128114278415562 0 0.016382056678947071 0.013211205038251727 0 0.015333162453192221 0.015117619118923852 0 0.017036392765391515 0.015307152525581126 0 0.016014645706646603 0.013431110386463123 0 0.017885338559020591 0.012128114278415562 0 0.019350011049241181 0.0099683649671666024 0 0.019968999400306074 0.0097073670489718558 0 0.019577757152526739 0.010823123512444082 0 0.019070075913680089 0.0098478593408721227 0 0.019345848070793915 0.010218754319473193 0 0.018135750261348227 0.01084810212851121 0 0.018259810278901275 0.0093357084646312656 0 0.019345848070793915 0.010218754319473193 0 0.01907069218357605 0.011973823608951811 0 0.018135750261348227 0.01084810212851121 0 0.018332775700121404 0.010273288568923426 0 0.018251867778074617 0.0096641482849709713 0 0.018051543200982095 0.012403136919431118 0 0.01907069218357605 0.011973823608951811 0 0.018135750261348227 0.01084810212851121 0 0.017298710310914362 0.014693308935948016 0 0.016382056678947071 0.013211205038251727 0 0.017298710310914362 0.014693308935948016 0 0.018332775700121404 0.010273288568923426 0 0.018399142409942257 0.012213855965954701 0 0.017547210831909781 0.011203506363411636 0 0.018380581228863255 0.010736682050442228 0 0.017908717230195815 0.012149477098009315 0 0.017547210831909781 0.011203506363411636 0 0.01740297024186635 0.011776749170788811 0 0.017908717230195815 0.012149477098009315 0 0.017465553710837439 0.012254122141017482 0 0.01740297024186635 0.011776749170788811 0 0.018399142409942257 0.012213855965954701 0 0.017908717230195815 0.012149477098009315 0 0.017547210831909781 0.011203506363411636 0 0.017547210831909781 0.011203506363411636 0 0.018380581228863255 0.010736682050442228 0 0.017388130679891867 0.01024627322836384 0 0.018380581228863255 0.010736682050442228 0 0.017904941736720997 0.0098995553859725464 0 0.017388130679891867 0.01024627322836384 0 0.018380581228863255 0.010736682050442228 0 0.017904941736720997 0.0098995553859725464 0 0.018259810278901275 0.0093357084646312656 0 0.017601523075413784 0.0093158338257526042 0 0.017904941736720997 0.0098995553859725464 0 0.017388130679891867 0.01024627322836384 0 0.017601523075413784 0.0093158338257526042 0 0.017904941736720997 0.0098995553859725464 0 0.018259810278901275 0.0093357084646312656 0 0.017601523075413784 0.0093158338257526042 0 0.018259810278901275 0.0093357084646312656 0 0.018124313313580224 0.0088860979980567561 0 0.019350011049241181 0.0099683649671666024 0 0.018621289231335835 0.0090066684122333887 0 0.019345848070793915 0.010218754319473193 0 0.018259810278901275 0.0093357084646312656 0 0.018600552472582361 0.0089136162595950339 0 0.019342429014519456 0.0090694209957902505 0 0.019070075913680089 0.0098478593408721227 0 0.018600552472582361 0.0089136162595950339 0 0.018259810278901275 0.0093357084646312656 0 0.018600552472582361 0.0089136162595950339 0 0.018124313313580224 0.0088860979980567561 0 0.018600552472582361 0.0089136162595950339 0 0.018409323674378898 0.0083272929495011166 0 0.018124313313580224 0.0088860979980567561 0 0.0192006590188868 0.0082252190170707153 0 0.018600552472582361 0.0089136162595950339 0 0.018409323674378898 0.0083272929495011166 0 0.018409323674378898 0.0083272929495011166 0 0.017761831942364883 0.0085553682161413711 0 0.017966605418108145 0.0079320784034747193 0 0.017761831942364883 0.0085553682161413711 0 0.017390023898892024 0.0081185636365793817 0 0.017966605418108145 0.0079320784034747193 0 0.017761831942364883 0.0085553682161413711 0 0.016988919372320554 0.0087584020961069663 0 0.017390023898892024 0.0081185636365793817 0 0.017601523075413784 0.0093158338257526042 0 0.017761831942364883 0.0085553682161413711 0 0.016988919372320554 0.0087584020961069663 0 0.017601523075413784 0.0093158338257526042 0 0.017761831942364883 0.0085553682161413711 0 0.018124313313580224 0.0088860979980567561 0 0.018409323674378898 0.0083272929495011166 0 0.017761831942364883 0.0085553682161413711 0 0.018124313313580224 0.0088860979980567561 0 0.016988919372320554 0.0087584020961069663 0 0.016606980713060934 0.0078382842029182179 0 0.017390023898892024 0.0081185636365793817 0 0.016988919372320554 0.0087584020961069663 0 0.016202319627771668 0.0086810011913513591 0 0.016606980713060934 0.0078382842029182179 0 0.016988919372320554 0.0087584020961069663 0 0.016202319627771668 0.0086810011913513591 0 0.016652053566228144 0.0095554994710280259 0 0.016202319627771668 0.0086810011913513591 0 0.015300391641990299 0.0092459679674864962 0 0.01565549885674453 0.0077871491348502561 0 0.016202319627771668 0.0086810011913513591 0 0.016002588229139629 0.0093894394227833841 0 0.015300391641990299 0.0092459679674864962 0 0.016202319627771668 0.0086810011913513591 0 0.016002588229139629 0.0093894394227833841 0 0.016652053566228144 0.0095554994710280259 0 0.016002588229139629 0.0093894394227833841 0 0.015848794506387476 0.010089942459747574 0 0.015300391641990299 0.0092459679674864962 0 0.016652053566228144 0.0095554994710280259 0 0.016607459356783622 0.010403785118629539 0 0.015848794506387476 0.010089942459747574 0 0.016002588229139629 0.0093894394227833841 0 0.016652053566228144 0.0095554994710280259 0 0.015848794506387476 0.010089942459747574 0 0.017601523075413784 0.0093158338257526042 0 0.016652053566228144 0.0095554994710280259 0 0.017388130679891867 0.01024627322836384 0 0.017601523075413784 0.0093158338257526042 0 0.016988919372320554 0.0087584020961069663 0 0.016652053566228144 0.0095554994710280259 0 0.016652053566228144 0.0095554994710280259 0 0.017388130679891867 0.01024627322836384 0 0.016607459356783622 0.010403785118629539 0 0.017547210831909781 0.011203506363411636 0 0.016607459356783622 0.010403785118629539 0 0.016634205046648396 0.011255020728737575 0 0.017547210831909781 0.011203506363411636 0 0.017388130679891867 0.01024627322836384 0 0.016607459356783622 0.010403785118629539 0 0.017547210831909781 0.011203506363411636 0 0.016634205046648396 0.011255020728737575 0 0.01740297024186635 0.011776749170788811 0 0.016359076783174335 0.0122839395451257 0 0.016634205046648396 0.011255020728737575 0 0.01698774004152756 0.012072899132512251 0 0.016634205046648396 0.011255020728737575 0 0.01698774004152756 0.012072899132512251 0 0.01740297024186635 0.011776749170788811 0 0.017465553710837439 0.012254122141017482 0 0.01698774004152756 0.012072899132512251 0 0.01740297024186635 0.011776749170788811 0 0.015858942432041088 0.012048804545943231 0 0.016634205046648396 0.011255020728737575 0 0.01589043521937376 0.011030233521032955 0 0.015858942432041088 0.012048804545943231 0 0.01589043521937376 0.011030233521032955 0 0.015366223164432468 0.011470846998042482 0 0.016359076783174335 0.0122839395451257 0 0.015598303811171478 0.012206023035404936 0 0.016634205046648396 0.011255020728737575 0 0.015772453461269275 0.011998042898385103 0 0.016522797145369618 0.011371947264743571 0 0.016607459356783622 0.010403785118629539 0 0.016634205046648396 0.011255020728737575 0 0.01589043521937376 0.011030233521032955 0 0.016607459356783622 0.010403785118629539 0 0.01589043521937376 0.011030233521032955 0 0.015848794506387476 0.010089942459747574 0 0.015848794506387476 0.010089942459747574 0 0.015143596797383727 0.010093292321675964 0 0.015071920463158589 0.010797574487333886 0 0.015143596797383727 0.010093292321675964 0 0.015071920463158589 0.010797574487333886 0 0.01432057286456073 0.010241438896213763 0 0.014735493490410409 0.01054943258291997 0 0.015253113739204995 0.010925199545495977 0 0.015071920463158589 0.010797574487333886 0 0.01482989868272217 0.011380451406795581 0 0.01457182673501254 0.010872274634116316 0 0.01589043521937376 0.011030233521032955 0 0.015848794506387476 0.010089942459747574 0 0.015071920463158589 0.010797574487333886 0 0.01589043521937376 0.011030233521032955 0 0.015071920463158589 0.010797574487333886 0 0.015366223164432468 0.011470846998042482 0 0.015071920463158589 0.010797574487333886 0 0.015366223164432468 0.011470846998042482 0 0.01482989868272217 0.011380451406795581 0 0.015129385612369081 0.011995359437964988 0 0.015366223164432468 0.011470846998042482 0 0.01482989868272217 0.011380451406795581 0 0.015129385612369081 0.011995359437964988 0 0.01482989868272217 0.011380451406795581 0 0.014545185285278706 0.011880426140070626 0 0.015129385612369081 0.011995359437964988 0 0.015858942432041088 0.012048804545943231 0 0.015366223164432468 0.011470846998042482 0 0.017186466681595385 0.012145697156900075 0 0.016330726764956581 0.01287726650257256 0 0.014353094342622361 0.011213461716274756 0 0.014161882706441057 0.010654863193980084 0 0.01385380103768211 0.011549352771586245 0 0.014545185285278706 0.011880426140070626 0 0.014353094342622361 0.011213461716274756 0 0.01385380103768211 0.011549352771586245 0 0.01392548498838026 0.012166262437946041 0 0.014545185285278706 0.011880426140070626 0 0.01385380103768211 0.011549352771586245 0 0.01482989868272217 0.011380451406795581 0 0.014353094342622361 0.011213461716274756 0 0.01457182673501254 0.010872274634116316 0 0.01482989868272217 0.011380451406795581 0 0.014545185285278706 0.011880426140070626 0 0.014353094342622361 0.011213461716274756 0 0.015071920463158589 0.010797574487333886 0 0.01457182673501254 0.010872274634116316 0 0.014454729173166467 0.010359330549168289 0 0.014353094342622361 0.011213461716274756 0 0.014161882706441057 0.010654863193980084 0 0.01457182673501254 0.010872274634116316 0 0.014161882706441057 0.010654863193980084 0 0.01457182673501254 0.010872274634116316 0 0.014454729173166467 0.010359330549168289 0 0.014588130113353581 0.0099615898935650916 0 0.01445779728792332 0.0098587418577579279 0 0.014547072603806789 0.0097511193579506421 0 0.015253113739204995 0.010925199545495977 0 0.016494822111065035 0.011662792929668247 0 0.019830171581870941 0.013324166126429941 0 0.019896264592580423 0.013089420199617596 0 0.019667566424506542 0.01319776851250351 0 0.017186466681595385 0.012145697156900075 0 0.016494822111065035 0.011662792929668247 0 0.017186466681595385 0.012145697156900075 0 0.015253113739204995 0.010925199545495977 0 0.016426928356233699 0.011807649758282081 0 0.016795124187779144 0.011425936983847976 0 0.016592774105414518 0.011274644189717256 0 0.01445779728792332 0.0098587418577579279 0 0.014445211288031255 0.0096572482959386904 0 0.014034450484762522 0.0095465257022733143 0 0.016494822111065035 0.011662792929668247 0 0.018910868297593975 0.011213961145727484 0 0.019896264592580423 0.013089420199617596 0 0.019667566424506542 0.01319776851250351 0 0.019619954066966511 0.012877199462015983 0 0.016515493966029176 0.0082175981134465954 0 0.018910868297593975 0.011213961145727484 0 0.014445211288031255 0.0096572482959386904 0 0.01452570731041336 0.0093695814013403309 0 0.014034450484762522 0.0095465257022733143 0 0.01452570731041336 0.0093695814013403309 0 0.014756338322848532 0.0087340475650106563 0 0.014034450484762522 0.0095465257022733143 0 0.014765085091246816 0.0092698960651128801 0 0.01452570731041336 0.0093695814013403309 0 0.014756338322848532 0.0087340475650106563 0 0.014765085091246816 0.0092698960651128801 0 0.01452570731041336 0.0093695814013403309 0 0.014694397274838752 0.0095409149699259635 0 0.014588130113353581 0.0099615898935650916 0 0.014694397274838752 0.0095409149699259635 0 0.014547072603806789 0.0097511193579506421 0 0.014445211288031255 0.0096572482959386904 0 0.014694397274838752 0.0095409149699259635 0 0.014547072603806789 0.0097511193579506421 0 0.014445211288031255 0.0096572482959386904 0 0.01452570731041336 0.0093695814013403309 0 0.014694397274838752 0.0095409149699259635 0 0.01445779728792332 0.0098587418577579279 0 0.014445211288031255 0.0096572482959386904 0 0.014547072603806789 0.0097511193579506421 0 0.015253113739204995 0.010925199545495977 0 0.015129704639212328 0.0091840939489080033 0 0.015143596797383727 0.010093292321675964 0 0.01432057286456073 0.010241438896213763 0 0.015300391641990299 0.0092459679674864962 0 0.014588130113353581 0.0099615898935650916 0 0.014694397274838752 0.0095409149699259635 0 0.015300391641990299 0.0092459679674864962 0 0.015848794506387476 0.010089942459747574 0 0.015143596797383727 0.010093292321675964 0 0.015300391641990299 0.0092459679674864962 0 0.014765085091246816 0.0092698960651128801 0 0.014694397274838752 0.0095409149699259635 0 0.015300391641990299 0.0092459679674864962 0 0.015300391641990299 0.0092459679674864962 0 0.014756338322848532 0.0087340475650106563 0 0.01565549885674453 0.0077871491348502561 0 0.016515493966029176 0.0082175981134465954 0 0.017674840130998973 0.0074779849980254809 0 0.014765085091246816 0.0092698960651128801 0 0.015300391641990299 0.0092459679674864962 0 0.014756338322848532 0.0087340475650106563 0 0.018320902225484541 0.0081482841981235666 0 0.018884152232184113 0.0079567130031033342 0 0.018531872468343872 0.0075016490355845622 0 0.018320902225484541 0.0081482841981235666 0 0.018884152232184113 0.0079567130031033342 0 0.018117168287174149 0.0087544380146081339 0 0.018320902225484541 0.0081482841981235666 0 0.018531872468343872 0.0075016490355845622 0 0.017888436189656038 0.0076125611382083461 0 0.018531872468343872 0.0075016490355845622 0 0.018961987166360519 0.007194733773234617 0 0.01855270902995438 0.0067313813449283643 0 0.018884152232184113 0.0079567130031033342 0 0.018531872468343872 0.0075016490355845622 0 0.018961987166360519 0.007194733773234617 0 0.018912344864644756 0.006228659080973099 0 0.02174948023153999 0.0089308608824428676 0 0.018531872468343872 0.0075016490355845622 0 0.01855270902995438 0.0067313813449283643 0 0.017888436189656038 0.0076125611382083461 0 0.018961987166360519 0.007194733773234617 0 0.019216968198570869 0.0066335970628071343 0 0.01855270902995438 0.0067313813449283643 0 0.018884152232184113 0.0079567130031033342 0 0.018961987166360519 0.007194733773234617 0 0.019606185108719823 0.0071712844442408646 0 0.018961987166360519 0.007194733773234617 0 0.019216968198570869 0.0066335970628071343 0 0.019606185108719823 0.0071712844442408646 0 0.019216968198570869 0.0066335970628071343 0 0.019218832726834049 0.0059203269762002526 0 0.019670758844111787 0.0062801076853752184 0 0.019216968198570869 0.0066335970628071343 0 0.01855270902995438 0.0067313813449283643 0 0.019218832726834049 0.0059203269762002526 0 0.019216968198570869 0.0066335970628071343 0 0.019670758844111787 0.0062801076853752184 0 0.019606185108719823 0.0071712844442408646 0 0.019873842667328671 0.0060040327264088691 0 0.019853054813053057 0.0057513714113059944 0 0.019975599525600678 0.0056483345210812334 0 0.018912344864644756 0.006228659080973099 0 0.019628986796121982 0.005807977845515378 0 0.019873842667328671 0.0060040327264088691 0 0.019853054813053057 0.0057513714113059944 0 0.01965218034902011 0.0057882283750480051 0 0.022499566690660871 0.0064219266505801606 0 0.026085736878392357 0.0091993758237329474 0 0.019853054813053057 0.0057513714113059944 0 0.019874873092834283 0.0055641717542569717 0 0.01965218034902011 0.0057882283750480051 0 0.019853054813053057 0.0057513714113059944 0 0.019874873092834283 0.0055641717542569717 0 0.019975599525600678 0.0056483345210812334 0 0.026383358599417796 0.0069848768052295125 0 0.026136520562312505 0.0068831709090827293 0 0.026394485065099123 0.0066625884259057279 0 0.019914098506886996 0.0053742059532266642 0 0.019975599525600678 0.0056483345210812334 0 0.01994336770771845 0.005389888483450401 0 0.019874873092834283 0.0055641717542569717 0 0.019914098506886996 0.0053742059532266642 0 0.019975599525600678 0.0056483345210812334 0 0.022499566690660871 0.0064219266505801606 0 0.024500505301896482 0.0042178243020179343 0 0.026383358599417796 0.0069848768052295125 0 0.026616301804430195 0.0067524540933592957 0 0.026394485065099123 0.0066625884259057279 0 0.019628986796121982 0.005807977845515378 0 0.019892270901109566 0.0054332117297966435 0 0.019218832726834049 0.0059203269762002526 0 0.019714192898269759 0.0057396665370438096 0 0.01994336770771845 0.005389888483450401 0 0.019218832726834049 0.0059203269762002526 0 0.019714192898269759 0.0057396665370438096 0 0.019670758844111787 0.0062801076853752184 0 0.020063674763744162 0.0059510327606321998 0 0.019714192898269759 0.0057396665370438096 0 0.019670758844111787 0.0062801076853752184 0 0.020063674763744162 0.0059510327606321998 0 0.019929286453553654 0.0056584913662316751 0 0.020039409986065789 0.0054722607492061299 0 0.020063674763744162 0.0059510327606321998 0 0.019929286453553654 0.0056584913662316751 0 0.019714192898269759 0.0057396665370438096 0 0.019929286453553654 0.0056584913662316751 0 0.019714192898269759 0.0057396665370438096 0 0.019945013425989606 0.0054999252108748802 0 0.024500505301896482 0.0042178243020179343 0 0.018628726473769952 0.0050347684037530729 0 0.019914098506886996 0.0053742059532266642 0 0.01999962645353574 0.0053980391646841217 0 0.01994336770771845 0.005389888483450401 0 0.019714192898269759 0.0057396665370438096 0 0.019945013425989606 0.0054999252108748802 0 0.01994336770771845 0.005389888483450401 0 0.019945013425989606 0.0054999252108748802 0 0.01999962645353574 0.0053980391646841217 0 0.01994336770771845 0.005389888483450401 0 0.019929286453553654 0.0056584913662316751 0 0.019945013425989606 0.0054999252108748802 0 0.020039409986065789 0.0054722607492061299 0 0.019945013425989606 0.0054999252108748802 0 0.020039409986065789 0.0054722607492061299 0 0.01999962645353574 0.0053980391646841217 0 0.020076257500914796 0.0053872280164313589 0 0.020133738003238439 0.0053342043187810367 0 0.020061841793652335 0.0052478063709879147 0 0.01999962645353574 0.0053980391646841217 0 0.020076257500914796 0.0053872280164313589 0 0.020061841793652335 0.0052478063709879147 0 0.020039409986065789 0.0054722607492061299 0 0.01999962645353574 0.0053980391646841217 0 0.020076257500914796 0.0053872280164313589 0 0.020039409986065789 0.0054722607492061299 0 0.020076257500914796 0.0053872280164313589 0 0.020120300461408884 0.0054497319637346678 0 0.020063674763744162 0.0059510327606321998 0 0.020230452037838957 0.0064614892598714889 0 0.020855014896399817 0.0058348297476556506 0 0.020427322653162935 0.0055387486674801714 0 0.019409531276926288 0.005857572389449452 0 0.018384905275474549 0.0066876919132500719 0 0.019409531276926288 0.005857572389449452 0 0.020063674763744162 0.0059510327606321998 0 0.020039409986065789 0.0054722607492061299 0 0.020855014896399817 0.0058348297476556506 0 0.016620110495550022 0.0068558059782077903 0 0.017609548081706589 0.0072348632845515657 0 0.017561198230691043 0.005984264960496726 0 0.020230452037838957 0.0064614892598714889 0 0.019670758844111787 0.0062801076853752184 0 0.019606185108719823 0.0071712844442408646 0 0.020063674763744162 0.0059510327606321998 0 0.020230452037838957 0.0064614892598714889 0 0.019670758844111787 0.0062801076853752184 0 0.018384905275474549 0.0066876919132500719 0 0.017674840130998973 0.0074779849980254809 0 0.016202319627771668 0.0086810011913513591 0 0.01565549885674453 0.0077871491348502561 0 0.016606980713060934 0.0078382842029182179 0 0.016620110495550022 0.0068558059782077903 0 0.01565549885674453 0.0077871491348502561 0 0.016606980713060934 0.0078382842029182179 0 0.016606980713060934 0.0078382842029182179 0 0.017390023898892024 0.0081185636365793817 0 0.017609548081706589 0.0072348632845515657 0 0.016620110495550022 0.0068558059782077903 0 0.016606980713060934 0.0078382842029182179 0 0.017609548081706589 0.0072348632845515657 0 0.017966605418108145 0.0079320784034747193 0 0.018521583837412328 0.0075601412109606936 0 0.017609548081706589 0.0072348632845515657 0 0.017390023898892024 0.0081185636365793817 0 0.017966605418108145 0.0079320784034747193 0 0.017609548081706589 0.0072348632845515657 0 0.0192006590188868 0.0082252190170707153 0 0.018409323674378898 0.0083272929495011166 0 0.018521583837412328 0.0075601412109606936 0 0.018409323674378898 0.0083272929495011166 0 0.017966605418108145 0.0079320784034747193 0 0.018521583837412328 0.0075601412109606936 0 0.0192006590188868 0.0082252190170707153 0 0.018521583837412328 0.0075601412109606936 0 0.019203816536381597 0.0074780782477711031 0 0.018521583837412328 0.0075601412109606936 0 0.018560121158225532 0.0064368185755588232 0 0.017609548081706589 0.0072348632845515657 0 0.018521583837412328 0.0075601412109606936 0 0.018560121158225532 0.0064368185755588232 0 0.019203816536381597 0.0074780782477711031 0 0.018560121158225532 0.0064368185755588232 0 0.017609548081706589 0.0072348632845515657 0 0.017561198230691043 0.005984264960496726 0 0.019193605781516878 0.0062447141695790142 0 0.019409531276926288 0.005857572389449452 0 0.020110961129643508 0.006117253033675143 0 0.019629191660821079 0.0058705012304485736 0 0.02019944913202934 0.005414662470349791 0 0.020120300461408884 0.0054497319637346678 0 0.020133738003238439 0.0053342043187810367 0 0.02019944913202934 0.005414662470349791 0 0.019409531276926288 0.005857572389449452 0 0.020330341074365321 0.0053190772584543466 0 0.020133738003238439 0.0053342043187810367 0 0.02019944913202934 0.005414662470349791 0 0.020195183811920165 0.0050972770583062391 0 0.020076257500914796 0.0053872280164313589 0 0.020120300461408884 0.0054497319637346678 0 0.020133738003238439 0.0053342043187810367 0 0.020110961129643508 0.006117253033675143 0 0.02019944913202934 0.005414662470349791 0 0.020566388122624461 0.005714707750408477 0 0.020110961129643508 0.006117253033675143 0 0.020566388122624461 0.005714707750408477 0 0.020388240902619544 0.0064536634731257496 0 0.02019944913202934 0.005414662470349791 0 0.020566388122624461 0.005714707750408477 0 0.020522818583730312 0.0051938430597942 0 0.020566388122624461 0.005714707750408477 0 0.020897450439630025 0.0051923446911556412 0 0.020522818583730312 0.0051938430597942 0 0.020566388122624461 0.005714707750408477 0 0.020897450439630025 0.0051923446911556412 0 0.021209528588515852 0.0054149863984885582 0 0.020566388122624461 0.005714707750408477 0 0.020877075999847422 0.0062433597584730044 0 0.021209528588515852 0.0054149863984885582 0 0.020566388122624461 0.005714707750408477 0 0.020877075999847422 0.0062433597584730044 0 0.020388240902619544 0.0064536634731257496 0 0.020877075999847422 0.0062433597584730044 0 0.020388240902619544 0.0064536634731257496 0 0.020645613426630346 0.0070770420940341906 0 0.020024659109770238 0.0066734085454935067 0 0.020624814131127715 0.0070327186146820651 0 0.019193605781516878 0.0062447141695790142 0 0.020024659109770238 0.0066734085454935067 0 0.018560121158225532 0.0064368185755588232 0 0.019526554621332817 0.0068187359838201575 0 0.019203816536381597 0.0074780782477711031 0 0.019526554621332817 0.0068187359838201575 0 0.019203816536381597 0.0074780782477711031 0 0.019895805892455661 0.0077573406540349119 0 0.0192006590188868 0.0082252190170707153 0 0.019203816536381597 0.0074780782477711031 0 0.019895805892455661 0.0077573406540349119 0 0.019526554621332817 0.0068187359838201575 0 0.019895805892455661 0.0077573406540349119 0 0.020645613426630346 0.0070770420940341906 0 0.019895805892455661 0.0077573406540349119 0 0.020645613426630346 0.0070770420940341906 0 0.02066187268821339 0.008052332003862123 0 0.037307659913050704 0.023807655358643758 0 0.038354193473176965 0.023379732728997116 0 0.037274073029663728 0.022979578705758997 0 0.037307659913050704 0.023807655358643758 0 0.038354193473176965 0.023379732728997116 0 0.037311575890392017 0.024964675082856543 0 0.037307659913050704 0.023807655358643758 0 0.037274073029663728 0.022979578705758997 0 0.036611989903091294 0.023442287322485354 0 0.037307659913050704 0.023807655358643758 0 0.036611989903091294 0.023442287322485354 0 0.036868003167040614 0.024425053532879267 0 0.03774564311736691 0.024033784893296675 0 0.037311575890392017 0.024964675082856543 0 0.037853702474213026 0.024586987586129462 0 0.03836043237708766 0.024027945776681207 0 0.03730671873103087 0.024793655225060822 0 0.03774564311736691 0.024033784893296675 0 0.037853702474213026 0.024586987586129462 0 0.038495439593480028 0.024180000060435709 0 0.03836043237708766 0.024027945776681207 0 0.035341671729795958 0.019818402986725631 0 0.038354193473176965 0.023379732728997116 0 0.037593624082798031 0.022054256261919834 0 0.038335945814261689 0.021848474412810018 0 0.038354193473176965 0.023379732728997116 0 0.03915072288871653 0.021975137368595726 0 0.038335945814261689 0.021848474412810018 0 0.037593624082798031 0.022054256261919834 0 0.037274073029663728 0.022979578705758997 0 0.036579057011498474 0.022252305599162244 0 0.037274073029663728 0.022979578705758997 0 0.036579057011498474 0.022252305599162244 0 0.036611989903091294 0.023442287322485354 0 0.038354193473176965 0.023379732728997116 0 0.037593624082798031 0.022054256261919834 0 0.037274073029663728 0.022979578705758997 0 0.036579057011498474 0.022252305599162244 0 0.035941380604382664 0.022882872065307355 0 0.036611989903091294 0.023442287322485354 0 0.036579057011498474 0.022252305599162244 0 0.035941380604382664 0.022882872065307355 0 0.035557574697945682 0.022068820229528455 0 0.035941380604382664 0.022882872065307355 0 0.035557574697945682 0.022068820229528455 0 0.034999812696466889 0.023105866889093836 0 0.035557574697945682 0.022068820229528455 0 0.034999812696466889 0.023105866889093836 0 0.034999903805311872 0.02113122817270122 0 0.034999812696466889 0.023105866889093836 0 0.035759418210712456 0.023767302517737163 0 0.034999751442981938 0.025080382373445221 0 0.035941380604382664 0.022882872065307355 0 0.034999812696466889 0.023105866889093836 0 0.035759418210712456 0.023767302517737163 0 0.035759418210712456 0.023767302517737163 0 0.036611989903091294 0.023442287322485354 0 0.036156446253410801 0.024661311662873577 0 0.036611989903091294 0.023442287322485354 0 0.036156446253410801 0.024661311662873577 0 0.036868003167040614 0.024425053532879267 0 0.035941380604382664 0.022882872065307355 0 0.035759418210712456 0.023767302517737163 0 0.036611989903091294 0.023442287322485354 0 0.036156446253410801 0.024661311662873577 0 0.036060841148509569 0.025850821404986863 0 0.036727723022089244 0.025452530390612637 0 0.036156446253410801 0.024661311662873577 0 0.036727723022089244 0.025452530390612637 0 0.036868003167040614 0.024425053532879267 0 0.035759418210712456 0.023767302517737163 0 0.036156446253410801 0.024661311662873577 0 0.034999751442981938 0.025080382373445221 0 0.036156446253410801 0.024661311662873577 0 0.034999751442981938 0.025080382373445221 0 0.036060841148509569 0.025850821404986863 0 0.034999428973081365 0.027055094963904871 0 0.034999751442981938 0.025080382373445221 0 0.036060841148509569 0.025850821404986863 0 0.036060841148509569 0.025850821404986863 0 0.036678310884777743 0.026559196013138296 0 0.036727723022089244 0.025452530390612637 0 0.037688166999933277 0.027266914991318444 0 0.036678310884777743 0.026559196013138296 0 0.037425868345984041 0.025478273016523546 0 0.036678310884777743 0.026559196013138296 0 0.037425868345984041 0.025478273016523546 0 0.036727723022089244 0.025452530390612637 0 0.036727723022089244 0.025452530390612637 0 0.037311575890392017 0.024964675082856543 0 0.036868003167040614 0.024425053532879267 0 0.037425868345984041 0.025478273016523546 0 0.037311575890392017 0.024964675082856543 0 0.037646205375833172 0.025051490336463984 0 0.037425868345984041 0.025478273016523546 0 0.036727723022089244 0.025452530390612637 0 0.037311575890392017 0.024964675082856543 0 0.037307659913050704 0.023807655358643758 0 0.037311575890392017 0.024964675082856543 0 0.036868003167040614 0.024425053532879267 0 0.03802392839782294 0.024830078347986652 0 0.037853702474213026 0.024586987586129462 0 0.038262251957731204 0.02476610277733771 0 0.037853702474213026 0.024586987586129462 0 0.037646205375833172 0.025051490336463984 0 0.037875602059835402 0.024942346942744682 0 0.03802392839782294 0.024830078347986652 0 0.037853702474213026 0.024586987586129462 0 0.037875602059835402 0.024942346942744682 0 0.03802392839782294 0.024830078347986652 0 0.037875602059835402 0.024942346942744682 0 0.038107980580307198 0.025020775963888284 0 0.037311575890392017 0.024964675082856543 0 0.037853702474213026 0.024586987586129462 0 0.037646205375833172 0.025051490336463984 0 0.037425868345984041 0.025478273016523546 0 0.037646205375833172 0.025051490336463984 0 0.037794136446935044 0.025332162042875826 0 0.037646205375833172 0.025051490336463984 0 0.037906512638906958 0.025159319938918585 0 0.037794136446935044 0.025332162042875826 0 0.037906512638906958 0.025159319938918585 0 0.037794136446935044 0.025332162042875826 0 0.038055729986954792 0.025264285534865902 0 0.037646205375833172 0.025051490336463984 0 0.037906512638906958 0.025159319938918585 0 0.037875602059835402 0.024942346942744682 0 0.037906512638906958 0.025159319938918585 0 0.037875602059835402 0.024942346942744682 0 0.038107980580307198 0.025020775963888284 0 0.037906512638906958 0.025159319938918585 0 0.038107980580307198 0.025020775963888284 0 0.038055729986954792 0.025264285534865902 0 0.037794136446935044 0.025332162042875826 0 0.038055729986954792 0.025264285534865902 0 0.038022445943190125 0.025575784804900865 0 0.037692868967156554 0.026392783611840914 0 0.037425868345984041 0.025478273016523546 0 0.038022445943190125 0.025575784804900865 0 0.037629666802883065 0.026765689258834838 0 0.037412700737589892 0.02558902328013515 0 0.037425868345984041 0.025478273016523546 0 0.037794136446935044 0.025332162042875826 0 0.038022445943190125 0.025575784804900865 0 0.027205255391911261 0.027128154886924064 0 0.027835953983928893 0.026861804629765687 0 0.027231756279591672 0.025670258023596255 0 0.038452635188708013 0.026216004710938785 0 0.038022445943190125 0.025575784804900865 0 0.038493154944369987 0.025131371990435535 0 0.032976034920528037 0.027000877066248746 0 0.031381358392531852 0.02404921255139892 0 0.038055729986954792 0.025264285534865902 0 0.038022445943190125 0.025575784804900865 0 0.038277962696046462 0.025170725361332164 0 0.02772769568546599 0.018154131313729151 0 0.026977068225261483 0.021341852932992209 0 0.027835953983928893 0.026861804629765687 0 0.02824568035327274 0.026306113681305678 0 0.027231756279591672 0.025670258023596255 0 0.028309998515704034 0.027962931542838559 0 0.028760847538882493 0.023745037906090508 0 0.028668984250629952 0.026797760356221764 0 0.028267812807883121 0.027356791168152584 0 0.02813266188068738 0.025893891416560424 0 0.028267812807883121 0.027356791168152584 0 0.027835953983928893 0.026861804629765687 0 0.02824568035327274 0.026306113681305678 0 0.028760847538882493 0.023745037906090508 0 0.031381358392531852 0.02404921255139892 0 0.027431671919103531 0.021224548959002457 0 0.027345131553995657 0.019538361684476105 0 0.028504222298812481 0.02187165307375339 0 0.028760847538882493 0.023745037906090508 0 0.026977068225261483 0.021341852932992209 0 0.030924872048747047 0.021783944368535896 0 0.030899745289792065 0.021108561923557534 0 0.030294726172575864 0.021393010331508748 0 0.028760847538882493 0.023745037906090508 0 0.02772769568546599 0.018154131313729151 0 0.030899745289792065 0.021108561923557534 0 0.030294726172575864 0.021393010331508748 0 0.030306207328576466 0.020623264462880049 0 0.038262251957731204 0.02476610277733771 0 0.038493154944369987 0.025131371990435535 0 0.038495439593480028 0.024180000060435709 0 0.031381358392531852 0.02404921255139892 0 0.034597830482508085 0.022748075951863872 0 0.03802392839782294 0.024830078347986652 0 0.038107980580307198 0.025020775963888284 0 0.038262251957731204 0.02476610277733771 0 0.038107980580307198 0.025020775963888284 0 0.038262251957731204 0.02476610277733771 0 0.038279843604630368 0.025018865485354366 0 0.038262251957731204 0.02476610277733771 0 0.038279843604630368 0.025018865485354366 0 0.038493154944369987 0.025131371990435535 0 0.038022445943190125 0.025575784804900865 0 0.038277962696046462 0.025170725361332164 0 0.038493154944369987 0.025131371990435535 0 0.038279843604630368 0.025018865485354366 0 0.038277962696046462 0.025170725361332164 0 0.038493154944369987 0.025131371990435535 0 0.038107980580307198 0.025020775963888284 0 0.038279843604630368 0.025018865485354366 0 0.038277962696046462 0.025170725361332164 0 0.038107980580307198 0.025020775963888284 0 0.038055729986954792 0.025264285534865902 0 0.038277962696046462 0.025170725361332164 0 0.018152232046082253 0.016044886285176252 0 0.018134761606630301 0.014127289487871959 0 0.018741206170514748 0.014547069676322787 0 0.019115691777771997 0.017067912577210322 0 0.021529970777790557 0.015386052549699703 0 0.019209314606352921 0.012996990329165011 0 0.018134761606630301 0.014127289487871959 0 0.018741206170514748 0.014547069676322787 0 0.0219471147902023 0.017529879603058643 0 0.021922467734858713 0.017518869494518276 0 0.021931970124777253 0.017520345788989158 0 0.025535739064652199 0.020320592049344974 0 0.021529970777790557 0.015386052549699703 0 0.025648362050225904 0.017441089653744486 0 0.02620385147799989 0.016830210670709486 0 0.025722701403354219 0.016940046773928033 0 0.02620385147799989 0.016830210670709486 0 0.025722701403354219 0.016940046773928033 0 0.025489000868382818 0.01653751897498109 0 0.025722701403354219 0.016940046773928033 0 0.025341246316133468 0.017253987145420306 0 0.025489000868382818 0.01653751897498109 0 0.025648362050225904 0.017441089653744486 0 0.025722701403354219 0.016940046773928033 0 0.025341246316133468 0.017253987145420306 0 0.025535739064652199 0.020320592049344974 0 0.026977068225261483 0.021341852932992209 0 0.028668984250629952 0.026797760356221764 0 0.02813266188068738 0.025893891416560424 0 0.029061686638766352 0.026459865961540544 0 0.028668984250629952 0.026797760356221764 0 0.029005852475485681 0.026812061907782916 0 0.029061686638766352 0.026459865961540544 0 0.024809294956161767 0.016140224390361387 0 0.025341246316133468 0.017253987145420306 0 0.025489000868382818 0.01653751897498109 0 0.024809294956161767 0.016140224390361387 0 0.025487386343109764 0.016089728568034537 0 0.025311282814824376 0.015754751564362932 0 0.024809294956161767 0.016140224390361387 0 0.025487386343109764 0.016089728568034537 0 0.025489000868382818 0.01653751897498109 0 0.025487386343109764 0.016089728568034537 0 0.025489000868382818 0.01653751897498109 0 0.025940282164512118 0.016020287041152784 0 0.025487386343109764 0.016089728568034537 0 0.025940282164512118 0.016020287041152784 0 0.025621704493345689 0.015812528339383819 0 0.02620385147799989 0.016830210670709486 0 0.025489000868382818 0.01653751897498109 0 0.025940282164512118 0.016020287041152784 0 0.019502313129879063 0.013692141781242954 0 0.019667566424506542 0.01319776851250351 0 0.019487512634148028 0.013009068166458608 0 0.019830171581870941 0.013324166126429941 0 0.019502313129879063 0.013692141781242954 0 0.019667566424506542 0.01319776851250351 0 0.021529970777790557 0.015386052549699703 0 0.022667371382485903 0.01383264331646687 0 0.02620385147799989 0.016830210670709486 0 0.025940282164512118 0.016020287041152784 0 0.026187162580540192 0.015769901948573518 0 0.017186466681595385 0.012145697156900075 0 0.021529970777790557 0.015386052549699703 0 0.018320902225484541 0.0081482841981235666 0 0.017895075510515449 0.0085866185400406553 0 0.018117168287174149 0.0087544380146081339 0 0.021988077430555818 0.011864565251430641 0 0.018910868297593975 0.011213961145727484 0 0.021666087817110342 0.011738061643241073 0 0.022194766966306949 0.012135810831595008 0 0.021672167701913676 0.012632528103365698 0 0.021988077430555818 0.011864565251430641 0 0.022667371382485903 0.01383264331646687 0 0.019667566424506542 0.01319776851250351 0 0.019619954066966511 0.012877199462015983 0 0.019487512634148028 0.013009068166458608 0 0.018910868297593975 0.011213961145727484 0 0.022667371382485903 0.01383264331646687 0 0.025940282164512118 0.016020287041152784 0 0.026183070458769008 0.015771756502167267 0 0.025852986354895763 0.015660956379012794 0 0.025940282164512118 0.016020287041152784 0 0.025852986354895763 0.015660956379012794 0 0.025621704493345689 0.015812528339383819 0 0.026176754528775138 0.015415802809804346 0 0.026183070458769008 0.015771756502167267 0 0.025852986354895763 0.015660956379012794 0 0.024444407522681254 0.01437786686940418 0 0.022667371382485903 0.01383264331646687 0 0.026176754528775138 0.015415802809804346 0 0.025852986354895763 0.015660956379012794 0 0.025762184153067247 0.015405085305215185 0 0.021988077430555818 0.011864565251430641 0 0.0259808266770678 0.013112409987791942 0 0.026176754528775138 0.015415802809804346 0 0.025762184153067247 0.015405085305215185 0 0.025749260322305702 0.015091956977116811 0 0.025637560677227472 0.01524442021519287 0 0.025516364103637671 0.015539544904643621 0 0.025290536000994939 0.015191624413649964 0 0.025637560677227472 0.01524442021519287 0 0.025762184153067247 0.015405085305215185 0 0.025749260322305702 0.015091956977116811 0 0.025637560677227472 0.01524442021519287 0 0.025516364103637671 0.015539544904643621 0 0.025762184153067247 0.015405085305215185 0 0.025852986354895763 0.015660956379012794 0 0.025516364103637671 0.015539544904643621 0 0.025762184153067247 0.015405085305215185 0 0.025852986354895763 0.015660956379012794 0 0.025516364103637671 0.015539544904643621 0 0.025621704493345689 0.015812528339383819 0 0.025487386343109764 0.016089728568034537 0 0.025621704493345689 0.015812528339383819 0 0.025311282814824376 0.015754751564362932 0 0.025516364103637671 0.015539544904643621 0 0.025621704493345689 0.015812528339383819 0 0.025311282814824376 0.015754751564362932 0 0.025516364103637671 0.015539544904643621 0 0.025311282814824376 0.015754751564362932 0 0.025290536000994939 0.015191624413649964 0 0.025311282814824376 0.015754751564362932 0 0.025290536000994939 0.015191624413649964 0 0.024777351236782118 0.015213324265640345 0 0.025290536000994939 0.015191624413649964 0 0.025753676365542079 0.015095346793288283 0 0.024748125402952348 0.014319442940733779 0 0.027707422200661434 0.011855072418287994 0 0.028223670406560607 0.012385334936087618 0 0.027967797005052215 0.012250715969765113 0 0.0259808266770678 0.013112409987791942 0 0.027095130139799334 0.013578578635241371 0 0.027707422200661434 0.011855072418287994 0 0.027767311748493409 0.01223476033466025 0 0.027967797005052215 0.012250715969765113 0 0.025637560677227472 0.01524442021519287 0 0.025290536000994939 0.015191624413649964 0 0.025753676365542079 0.015095346793288283 0 0.025564007760679873 0.013920916699223872 0 0.0259808266770678 0.013112409987791942 0 0.021988077430555818 0.011864565251430641 0 0.02174948023153999 0.0089308608824428676 0 0.018320902225484541 0.0081482841981235666 0 0.017895075510515449 0.0085866185400406553 0 0.017888436189656038 0.0076125611382083461 0 0.023190554656172969 0.011923588279525749 0 0.022496167964170012 0.011399701486937754 0 0.023180029163665787 0.010497366284415256 0 0.027707422200661434 0.011855072418287994 0 0.027462411935399059 0.01215493339861224 0 0.027767311748493409 0.01223476033466025 0 0.0259808266770678 0.013112409987791942 0 0.02174948023153999 0.0089308608824428676 0 0.037853702474213026 0.024586987586129462 0 0.038262251957731204 0.02476610277733771 0 0.038495439593480028 0.024180000060435709 0 0.024809294956161767 0.016140224390361387 0 0.025311282814824376 0.015754751564362932 0 0.024777351236782118 0.015213324265640345 0 0.02772769568546599 0.018154131313729151 0 0.029078919887611739 0.018097040185571157 0 0.030899745289792065 0.021108561923557534 0 0.030306207328576466 0.020623264462880049 0 0.03061178253245174 0.020479925784403743 0 0.028637655409321165 0.017819828306056017 0 0.028524156429964496 0.015649095313023789 0 0.027771810800222063 0.016076319940005804 0 0.02772769568546599 0.018154131313729151 0 0.026568037050294296 0.01527026634162284 0 0.028524156429964496 0.015649095313023789 0 0.027771810800222063 0.016076319940005804 0 0.027750003085197549 0.015057694857634512 0 0.025290536000994939 0.015191624413649964 0 0.024777351236782118 0.015213324265640345 0 0.024748125402952348 0.014319442940733779 0 0.028524156429964496 0.015649095313023789 0 0.027731425651544756 0.014164208899333263 0 0.028369713420965881 0.013538513600141307 0 0.026568037050294296 0.01527026634162284 0 0.027095130139799334 0.013578578635241371 0 0.028524156429964496 0.015649095313023789 0 0.027750003085197549 0.015057694857634512 0 0.027731425651544756 0.014164208899333263 0 0.03774564311736691 0.024033784893296675 0 0.03846714801808182 0.023134102457532082 0 0.038334092017538637 0.022882006842981667 0 0.03774564311736691 0.024033784893296675 0 0.038495439593480028 0.024180000060435709 0 0.03846714801808182 0.023134102457532082 0 0.027731425651544756 0.014164208899333263 0 0.026947641462519142 0.014361916070370937 0 0.026978628500983155 0.013465858680500662 0 0.027750003085197549 0.015057694857634512 0 0.027731425651544756 0.014164208899333263 0 0.026947641462519142 0.014361916070370937 0 0.034597830482508085 0.022748075951863872 0 0.032518717019376031 0.018857406052057678 0 0.027771810800222063 0.016076319940005804 0 0.027750003085197549 0.015057694857634512 0 0.026947641462519142 0.014361916070370937 0 0.030306207328576466 0.020623264462880049 0 0.03061178253245174 0.020479925784403743 0 0.030333895459380492 0.019840553154561989 0 0.029078919887611739 0.018097040185571157 0 0.032518717019376031 0.018857406052057678 0 0.032518717019376031 0.018857406052057678 0 0.035341671729795958 0.019818402986725631 0 0.034456186444219467 0.01657147284720235 0 0.034580821106098669 0.016362865931914116 0 0.034039272216960549 0.015727091009617788 0 0.033162631811380093 0.01924084777988163 0 0.032756177849028234 0.01843218077084758 0 0.033155118582315464 0.017791992538326248 0 0.027644473714845366 0.013044081427397124 0 0.026978628500983155 0.013465858680500662 0 0.028085547425321166 0.01197155551565933 0 0.035341671729795958 0.019818402986725631 0 0.033456374392944813 0.016480712459743252 0 0.035341671729795958 0.019818402986725631 0 0.036347668420221718 0.01838394772646653 0 0.032518717019376031 0.018857406052057678 0 0.033456374392944813 0.016480712459743252 0 0.027731425651544756 0.014164208899333263 0 0.027644473714845366 0.013044081427397124 0 0.026978628500983155 0.013465858680500662 0 0.027731425651544756 0.014164208899333263 0 0.027644473714845366 0.013044081427397124 0 0.028369713420965881 0.013538513600141307 0 0.027095130139799334 0.013578578635241371 0 0.02808209605277262 0.011895479289171843 0 0.027644473714845366 0.013044081427397124 0 0.028231783112929593 0.013484678063341946 0 0.028085547425321166 0.01197155551565933 0 0.028223670406560607 0.012385334936087618 0 0.028223967258254802 0.012360553669359037 0 0.028085547425321166 0.01197155551565933 0 0.027614050509358688 0.013521215709498323 0 0.027095130139799334 0.013578578635241371 0 0.028223670406560607 0.012385334936087618 0 0.028223967258254802 0.012360553669359037 0 0.027967797005052215 0.012250715969765113 0 0.028223967258254802 0.012360553669359037 0 0.028085547425321166 0.01197155551565933 0 0.028501892910109034 0.011992683717384666 0 0.026978628500983155 0.013465858680500662 0 0.028085547425321166 0.01197155551565933 0 0.028188779697088343 0.01134171732229821 0 0.028617503586843795 0.011712443397866373 0 0.028188779697088343 0.01134171732229821 0 0.029053293877831669 0.011066066095494776 0 0.028085547425321166 0.01197155551565933 0 0.028617503586843795 0.011712443397866373 0 0.028501892910109034 0.011992683717384666 0 0.028085547425321166 0.01197155551565933 0 0.028617503586843795 0.011712443397866373 0 0.028188779697088343 0.01134171732229821 0 0.033456374392944813 0.016480712459743252 0 0.034686713073839678 0.015103656844465666 0 0.034497519116285069 0.016051717682502378 0 0.035114894992218038 0.015049192972055037 0 0.034510615593964185 0.01512930417016942 0 0.034580821106098669 0.016362865931914116 0 0.034510615593964185 0.01512930417016942 0 0.034039272216960549 0.015727091009617788 0 0.033456374392944813 0.016480712459743252 0 0.031313029851752432 0.012893042398876621 0 0.019873842667328671 0.0060040327264088691 0 0.019659333695598 0.0064128978638194238 0 0.019639428399734201 0.0060779951020677259 0 0.027462411935399059 0.01215493339861224 0 0.027489525370738455 0.012496373810156258 0 0.027698587590406498 0.012405648284929092 0 0.02174948023153999 0.0089308608824428676 0 0.023582364204456328 0.0093536958203033465 0 0.027462411935399059 0.01215493339861224 0 0.027698587590406498 0.012405648284929092 0 0.027767311748493409 0.01223476033466025 0 0.027489525370738455 0.012496373810156258 0 0.027698587590406498 0.012405648284929092 0 0.027819352476762642 0.012599489698935167 0 0.027698587590406498 0.012405648284929092 0 0.027905062033754958 0.012377717688142446 0 0.027819352476762642 0.012599489698935167 0 0.027698587590406498 0.012405648284929092 0 0.027767311748493409 0.01223476033466025 0 0.027905062033754958 0.012377717688142446 0 0.027767311748493409 0.01223476033466025 0 0.027967797005052215 0.012250715969765113 0 0.027905062033754958 0.012377717688142446 0 0.028223967258254802 0.012360553669359037 0 0.027967797005052215 0.012250715969765113 0 0.027905062033754958 0.012377717688142446 0 0.028223967258254802 0.012360553669359037 0 0.028501892910109034 0.011992683717384666 0 0.029103954132127789 0.011915677152067792 0 0.028223967258254802 0.012360553669359037 0 0.027905062033754958 0.012377717688142446 0 0.027819352476762642 0.012599489698935167 0 0.028243066858435223 0.012357941898416124 0 0.028604077328218638 0.012306633803505131 0 0.029103954132127789 0.011915677152067792 0 0.030013141402976843 0.011179884931282498 0 0.029053293877831669 0.011066066095494776 0 0.028617503586843795 0.011712443397866373 0 0.028501892910109034 0.011992683717384666 0 0.029103954132127789 0.011915677152067792 0 0.028617503586843795 0.011712443397866373 0 0.029103954132127789 0.011915677152067792 0 0.029053293877831669 0.011066066095494776 0 0.019873842667328671 0.0060040327264088691 0 0.019639428399734201 0.0060779951020677259 0 0.01965218034902011 0.0057882283750480051 0 0.027489525370738455 0.012496373810156258 0 0.027819352476762642 0.012599489698935167 0 0.02749174429882149 0.012788889020728453 0 0.023582364204456328 0.0093536958203033465 0 0.026085736878392357 0.0091993758237329474 0 0.028604077328218638 0.012306633803505131 0 0.026085736878392357 0.0091993758237329474 0 0.026085736878392357 0.0091993758237329474 0 0.028121599060487001 0.0086967503737768355 0 0.030013141402976843 0.011179884931282498 0 0.029520875524074071 0.010545792842197343 0 0.03003241611982238 0.0099243060902751128 0 0.026383358599417796 0.0069848768052295125 0 0.026119113270940773 0.007235336930756453 0 0.026136520562312505 0.0068831709090827293 0 0.030013141402976843 0.011179884931282498 0 0.029520875524074071 0.010545792842197343 0 0.029053293877831669 0.011066066095494776 0 0.029520875524074071 0.010545792842197343 0 0.029053293877831669 0.011066066095494776 0 0.028991058909104306 0.010008431763725107 0 0.028188779697088343 0.01134171732229821 0 0.029053293877831669 0.011066066095494776 0 0.028991058909104306 0.010008431763725107 0 0.029520875524074071 0.010545792842197343 0 0.028991058909104306 0.010008431763725107 0 0.03003241611982238 0.0099243060902751128 0 0.035596392880831051 0.014038530331651046 0 0.035160222525076175 0.013906664411247703 0 0.035484099025352434 0.013551276816597353 0 0.028991058909104306 0.010008431763725107 0 0.03003241611982238 0.0099243060902751128 0 0.029876706692492559 0.0085414684019957127 0 0.034510615593964185 0.01512930417016942 0 0.034458862858710013 0.014402672095780224 0 0.033702239446342631 0.014969429748025488 0 0.034510615593964185 0.01512930417016942 0 0.034458862858710013 0.014402672095780224 0 0.035036374341973014 0.014460749228059788 0 0.035114894992218038 0.015049192972055037 0 0.034510615593964185 0.01512930417016942 0 0.035036374341973014 0.014460749228059788 0 0.031313029851752432 0.012893042398876621 0 0.032292071729966211 0.01247783063801533 0 0.035114894992218038 0.015049192972055037 0 0.035596392880831051 0.014038530331651046 0 0.035036374341973014 0.014460749228059788 0 0.034458862858710013 0.014402672095780224 0 0.035036374341973014 0.014460749228059788 0 0.035160222525076175 0.013906664411247703 0 0.035160222525076175 0.013906664411247703 0 0.034835921605851659 0.013843327607899508 0 0.035115492102472966 0.013553124058584037 0 0.035596392880831051 0.014038530331651046 0 0.035036374341973014 0.014460749228059788 0 0.035160222525076175 0.013906664411247703 0 0.034502432547012234 0.014168058793714159 0 0.035138815549554864 0.013950081366846537 0 0.034834176895954888 0.01419399028252325 0 0.035160222525076175 0.013906664411247703 0 0.034835921605851659 0.013843327607899508 0 0.034834176895954888 0.01419399028252325 0 0.034835921605851659 0.013843327607899508 0 0.034571130019212276 0.014135798200461513 0 0.034835921605851659 0.013843327607899508 0 0.034486803330833822 0.013848705436184791 0 0.034571130019212276 0.014135798200461513 0 0.034835921605851659 0.013843327607899508 0 0.034486803330833822 0.013848705436184791 0 0.034647671036494805 0.01360804387954292 0 0.034486803330833822 0.013848705436184791 0 0.034294954583005625 0.014177095303506469 0 0.034571130019212276 0.014135798200461513 0 0.034486803330833822 0.013848705436184791 0 0.034121646356863947 0.013838904823322036 0 0.034294954583005625 0.014177095303506469 0 0.037634107662204055 0.01751337335345168 0 0.038169353753528777 0.018562310760121443 0 0.036643120769501228 0.018896442600318135 0 0.035997061417747257 0.015724568908236449 0 0.036206148046215157 0.01633731688826455 0 0.038169353753528777 0.018562310760121443 0 0.037457547692582319 0.019563663082242541 0 0.036643120769501228 0.018896442600318135 0 0.038169353753528777 0.018562310760121443 0 0.037457547692582319 0.019563663082242541 0 0.038686995960472391 0.019592501587592667 0 0.034834176895954888 0.01419399028252325 0 0.034571130019212276 0.014135798200461513 0 0.034471540502605112 0.014521497525416246 0 0.034502432547012234 0.014168058793714159 0 0.036321709055709236 0.017367918733373622 0 0.034294954583005625 0.014177095303506469 0 0.034571130019212276 0.014135798200461513 0 0.034471540502605112 0.014521497525416246 0 0.036206148046215157 0.01633731688826455 0 0.036321709055709236 0.017367918733373622 0 0.034510615593964185 0.01512930417016942 0 0.033702239446342631 0.014969429748025488 0 0.034039272216960549 0.015727091009617788 0 0.036321709055709236 0.017367918733373622 0 0.036347668420221718 0.01838394772646653 0 0.038134000869648077 0.020012831494107444 0 0.038640908774984016 0.02099458019291911 0 0.037892396044745327 0.021209924454708914 0 0.036321709055709236 0.017367918733373622 0 0.037231922109889591 0.021284366905981802 0 0.038134000869648077 0.020012831494107444 0 0.037892396044745327 0.021209924454708914 0 0.03677195832331407 0.021131302042848854 0 0.037457547692582319 0.019563663082242541 0 0.038686995960472391 0.019592501587592667 0 0.037153581192892561 0.020819314023089529 0 0.037593624082798031 0.022054256261919834 0 0.037892396044745327 0.021209924454708914 0 0.03677195832331407 0.021131302042848854 0 0.037593624082798031 0.022054256261919834 0 0.036579057011498474 0.022252305599162244 0 0.03677195832331407 0.021131302042848854 0 0.037593624082798031 0.022054256261919834 0 0.038335945814261689 0.021848474412810018 0 0.037892396044745327 0.021209924454708914 0 0.03915072288871653 0.021975137368595726 0 0.038640908774984016 0.02099458019291911 0 0.038335945814261689 0.021848474412810018 0 0.038640908774984016 0.02099458019291911 0 0.038335945814261689 0.021848474412810018 0 0.037892396044745327 0.021209924454708914 0 0.035557574697945682 0.022068820229528455 0 0.035994171294710303 0.02084382868449039 0 0.034999903805311872 0.02113122817270122 0 0.035557574697945682 0.022068820229528455 0 0.035994171294710303 0.02084382868449039 0 0.037153581192892561 0.020819314023089529 0 0.036579057011498474 0.022252305599162244 0 0.035557574697945682 0.022068820229528455 0 0.03677195832331407 0.021131302042848854 0 0.035551307045102912 0.021941194805661167 0 0.037231922109889591 0.021284366905981802 0 0.037457547692582319 0.019563663082242541 0 0.037153581192892561 0.020819314023089529 0 0.036628018507312385 0.019938030893423858 0 0.035994171294710303 0.02084382868449039 0 0.037153581192892561 0.020819314023089529 0 0.036628018507312385 0.019938030893423858 0 0.036628018507312385 0.019938030893423858 0 0.035687702921839239 0.020282542919625449 0 0.036643120769501228 0.018896442600318135 0 0.035994171294710303 0.02084382868449039 0 0.036628018507312385 0.019938030893423858 0 0.035687702921839239 0.020282542919625449 0 0.034999903805311872 0.02113122817270122 0 0.035687702921839239 0.020282542919625449 0 0.03499998663914259 0.019156579428618915 0 0.035994171294710303 0.02084382868449039 0 0.034999903805311872 0.02113122817270122 0 0.035687702921839239 0.020282542919625449 0 0.035687702921839239 0.020282542919625449 0 0.03499998663914259 0.019156579428618915 0 0.036675374024593234 0.018980066185176739 0 0.03499998663914259 0.019156579428618915 0 0.036675374024593234 0.018980066185176739 0 0.036219661468736328 0.01811139588473595 0 0.035751171577451078 0.020124174069676943 0 0.036755979638079396 0.019170450878852361 0 0.037457547692582319 0.019563663082242541 0 0.036628018507312385 0.019938030893423858 0 0.036643120769501228 0.018896442600318135 0 0.037665899419122635 0.017651032440813209 0 0.036219661468736328 0.01811139588473595 0 0.036375751411560311 0.01713016876216264 0 0.035997061417747257 0.015724568908236449 0 0.036755979638079396 0.019170450878852361 0 0.037665899419122635 0.017651032440813209 0 0.036675374024593234 0.018980066185176739 0 0.036219661468736328 0.01811139588473595 0 0.03499998663914259 0.019156579428618915 0 0.036219661468736328 0.01811139588473595 0 0.035408997918900377 0.017620907901454801 0 0.03499998663914259 0.019156579428618915 0 0.035408997918900377 0.017620907901454801 0 0.034999977649505555 0.01718208361072536 0 0.036219661468736328 0.01811139588473595 0 0.035408997918900377 0.017620907901454801 0 0.036375751411560311 0.01713016876216264 0 0.035436307093160743 0.017455493759379999 0 0.035776663375159681 0.016250230531953434 0 0.035408997918900377 0.017620907901454801 0 0.036375751411560311 0.01713016876216264 0 0.035731214360078201 0.016076984619111542 0 0.035408997918900377 0.017620907901454801 0 0.034999977649505555 0.01718208361072536 0 0.035772195308383097 0.016156089275988685 0 0.036375751411560311 0.01713016876216264 0 0.036893862925980674 0.016104531221297309 0 0.035731214360078201 0.016076984619111542 0 0.037665899419122635 0.017651032440813209 0 0.036375751411560311 0.01713016876216264 0 0.036893862925980674 0.016104531221297309 0 0.036893862925980674 0.016104531221297309 0 0.035731214360078201 0.016076984619111542 0 0.036089981077224616 0.014521585829736269 0 0.0343009990852002 0.013220490640184686 0 0.034346725535788998 0.013010151993926208 0 0.034171388173904596 0.012930074067703442 0 0.035550422837268877 0.014587295678619125 0 0.035458641228316386 0.01394139906919426 0 0.034999977649505555 0.01718208361072536 0 0.035772195308383097 0.016156089275988685 0 0.034999998903006098 0.015207585162616298 0 0.035776663375159681 0.016250230531953434 0 0.035458641228316386 0.01394139906919426 0 0.035772195308383097 0.016156089275988685 0 0.034999998903006098 0.015207585162616298 0 0.036124763720134095 0.014678545852607441 0 0.034486803330833822 0.013848705436184791 0 0.034121646356863947 0.013838904823322036 0 0.034386980211188307 0.01345081326440736 0 0.034486803330833822 0.013848705436184791 0 0.034647671036494805 0.01360804387954292 0 0.034386980211188307 0.01345081326440736 0 0.034647671036494805 0.01360804387954292 0 0.034386980211188307 0.01345081326440736 0 0.034704707575439628 0.013382053707964378 0 0.034452417080564367 0.013532426094999031 0 0.034596113524585741 0.013294519807823809 0 0.034458554479651834 0.013212070781089404 0 0.034452417080564367 0.013532426094999031 0 0.0343009990852002 0.013220490640184686 0 0.034458554479651834 0.013212070781089404 0 0.035997061417747257 0.015724568908236449 0 0.035550422837268877 0.014587295678619125 0 0.035997061417747257 0.015724568908236449 0 0.034491588656428082 0.013221437304923117 0 0.034458554479651834 0.013212070781089404 0 0.034567885647158285 0.013104086906712118 0 0.034346725535788998 0.013010151993926208 0 0.0343009990852002 0.013220490640184686 0 0.034458554479651834 0.013212070781089404 0 0.034346725535788998 0.013010151993926208 0 0.034596113524585741 0.013294519807823809 0 0.034458554479651834 0.013212070781089404 0 0.034567885647158285 0.013104086906712118 0 0.034567885647158285 0.013104086906712118 0 0.034701789952806407 0.013073995970666885 0 0.034778286382458522 0.012994608081378539 0 0.034346622604098299 0.013400125835448968 0 0.034735004152772489 0.0099964627338753071 0 0.034596113524585741 0.013294519807823809 0 0.034567885647158285 0.013104086906712118 0 0.034701789952806407 0.013073995970666885 0 0.034491588656428082 0.013221437304923117 0 0.034659311114742006 0.013146686718487472 0 0.034386980211188307 0.01345081326440736 0 0.034701789952806407 0.013073995970666885 0 0.034704707575439628 0.013382053707964378 0 0.034567885647158285 0.013104086906712118 0 0.034503602268521706 0.012884442598611609 0 0.034816959826222009 0.012988920557357442 0 0.035168558475962335 0.008039194018299731 0 0.034630916725021894 0.0082208596543469209 0 0.034714580161508767 0.0079605227667937459 0 0.034874763093455198 0.010420390189936147 0 0.034735004152772489 0.0099964627338753071 0 0.034567885647158285 0.013104086906712118 0 0.034503602268521706 0.012884442598611609 0 0.034346725535788998 0.013010151993926208 0 0.035168558475962335 0.008039194018299731 0 0.036443955139267889 0.0083562693630478621 0 0.03551643093612989 0.0090160226750679237 0 0.035168558475962335 0.008039194018299731 0 0.03551643093612989 0.0090160226750679237 0 0.035015380436842117 0.008664564033019264 0 0.035168558475962335 0.008039194018299731 0 0.035015380436842117 0.008664564033019264 0 0.034630916725021894 0.0082208596543469209 0 0.034999998903006098 0.015207585162616298 0 0.036124763720134095 0.014678545852607441 0 0.035493228569518642 0.013438471575300355 0 0.034503602268521706 0.012884442598611609 0 0.034346725535788998 0.013010151993926208 0 0.03421383093929193 0.012760069857023175 0 0.034346725535788998 0.013010151993926208 0 0.034171388173904596 0.012930074067703442 0 0.03421383093929193 0.012760069857023175 0 0.035458641228316386 0.01394139906919426 0 0.03520980719052242 0.011427563150242393 0 0.034874763093455198 0.010420390189936147 0 0.03520980719052242 0.011427563150242393 0 0.034999998903006098 0.015207585162616298 0 0.035493228569518642 0.013438471575300355 0 0.034999993324651896 0.013233062388113741 0 0.035383848196751597 0.013195045009417717 0 0.035491240426969974 0.012747192326893742 0 0.035070568378027876 0.012572770787578715 0 0.035458641228316386 0.01394139906919426 0 0.035348779980932041 0.012980844007979131 0 0.035945554964063396 0.012954632829094516 0 0.035116656609149755 0.012458281007241849 0 0.03538782730745138 0.01171813198937509 0 0.03520980719052242 0.011427563150242393 0 0.035348779980932041 0.012980844007979131 0 0.035348779980932041 0.012980844007979131 0 0.035000428239961301 0.01323282814265434 0 0.035348779980932041 0.012980844007979131 0 0.035000086073008106 0.01246909125319272 0 0.035493609333498363 0.013437782554800532 0 0.034999996035629526 0.013233055511296849 0 0.035000001263635547 0.012469013187319208 0 0.035116656609149755 0.012458281007241849 0 0.03538782730745138 0.01171813198937509 0 0.034999481341119694 0.012465222860078378 0 0.03538782730745138 0.01171813198937509 0 0.034999481341119694 0.012465222860078378 0 0.035565254217866583 0.010844848238669099 0 0.034999481341119694 0.012465222860078378 0 0.035565254217866583 0.010844848238669099 0 0.034999915668695265 0.010768925569316027 0 0.035565254217866583 0.010844848238669099 0 0.035653632688801375 0.010107979789014985 0 0.035600347194286563 0.010139397365995149 0 0.035565254217866583 0.010844848238669099 0 0.035653632688801375 0.010107979789014985 0 0.035980155311449817 0.010319072196557734 0 0.035653632688801375 0.010107979789014985 0 0.035980155311449817 0.010319072196557734 0 0.035524932552284387 0.0095602228050059631 0 0.03520980719052242 0.011427563150242393 0 0.03628307347048422 0.01002605495164435 0 0.036443955139267889 0.0083562693630478621 0 0.035980155311449817 0.010319072196557734 0 0.03551643093612989 0.0090160226750679237 0 0.035945554964063396 0.012954632829094516 0 0.03538782730745138 0.01171813198937509 0 0.035980155311449817 0.010319072196557734 0 0.03538782730745138 0.01171813198937509 0 0.035565254217866583 0.010844848238669099 0 0.035980155311449817 0.010319072196557734 0 0.035980155311449817 0.010319072196557734 0 0.03551643093612989 0.0090160226750679237 0 0.035524932552284387 0.0095602228050059631 0 0.03551643093612989 0.0090160226750679237 0 0.035015380436842117 0.008664564033019264 0 0.035524932552284387 0.0095602228050059631 0 0.035015380436842117 0.008664564033019264 0 0.035337134794644107 0.0089835592577380517 0 0.035524932552284387 0.0095602228050059631 0 0.035015380436842117 0.008664564033019264 0 0.035337134794644107 0.0089835592577380517 0 0.034445001692477682 0.0080418335019607386 0 0.035337134794644107 0.0089835592577380517 0 0.035524932552284387 0.0095602228050059631 0 0.035615628805624772 0.0093756022926535162 0 0.035653632688801375 0.010107979789014985 0 0.035524932552284387 0.0095602228050059631 0 0.035615628805624772 0.0093756022926535162 0 0.035653632688801375 0.010107979789014985 0 0.035553956886579891 0.0089842177278212677 0 0.035615628805624772 0.0093756022926535162 0 0.035553956886579891 0.0089842177278212677 0 0.035615628805624772 0.0093756022926535162 0 0.035727157463129024 0.0091645749443128692 0 0.035337134794644107 0.0089835592577380517 0 0.035615628805624772 0.0093756022926535162 0 0.035727157463129024 0.0091645749443128692 0 0.035337134794644107 0.0089835592577380517 0 0.035727157463129024 0.0091645749443128692 0 0.034445001692477682 0.0080418335019607386 0 0.034794907485116079 0.0077206477185934258 0 0.034997640278218008 0.0065843637800473134 0 0.033830177726758975 0.0063690013698982171 0 0.034193861202238572 0.0055844423472238879 0 0.034256349702947039 0.0056728224893033445 0 0.035553956886579891 0.0089842177278212677 0 0.035727157463129024 0.0091645749443128692 0 0.035898290630569693 0.0075597753859246155 0 0.035553956886579891 0.0089842177278212677 0 0.035168143878383205 0.0080010730218954048 0 0.035898290630569693 0.0075597753859246155 0 0.034351090295690313 0.0083863625656499952 0 0.035168143878383205 0.0080010730218954048 0 0.034772117276580666 0.0070149372599448249 0 0.035553956886579891 0.0089842177278212677 0 0.034351090295690313 0.0083863625656499952 0 0.035168143878383205 0.0080010730218954048 0 0.035950669299417738 0.0094190703880308972 0 0.034999850746738823 0.0090696445500495146 0 0.035600347194286563 0.010139397365995149 0 0.034999850746738823 0.0090696445500495146 0 0.034999915668695265 0.010768925569316027 0 0.035600347194286563 0.010139397365995149 0 0.035565254217866583 0.010844848238669099 0 0.034999915668695265 0.010768925569316027 0 0.035600347194286563 0.010139397365995149 0 0.035653632688801375 0.010107979789014985 0 0.035553956886579891 0.0089842177278212677 0 0.034351090295690313 0.0083863625656499952 0 0.035653632688801375 0.010107979789014985 0 0.035950669299417738 0.0094190703880308972 0 0.035600347194286563 0.010139397365995149 0 0.035591251543568715 0.010001107227582528 0 0.035175454210202135 0.0088500714793586215 0 0.034853880668284251 0.0066892459270585227 0 0.033731737341234705 0.0052021845059640661 0 0.034446518522394894 0.006298260312874766 0 0.034853880668284251 0.0066892459270585227 0 0.034446518522394894 0.006298260312874766 0 0.034606086946801909 0.007321860302817236 0 0.033866436010535253 0.0050389052880151506 0 0.033774400150767395 0.0053034964982991749 0 0.032945128943071694 0.0032654923985832003 0 0.033731737341234705 0.0052021845059640661 0 0.031696112202850325 0.0043618775544022326 0 0.033731737341234705 0.0052021845059640661 0 0.034446518522394894 0.006298260312874766 0 0.034323157965776188 0.0056713281857208179 0 0.034340344736629613 0.0060835823931826164 0 0.034446518522394894 0.006298260312874766 0 0.034323157965776188 0.0056713281857208179 0 0.033830177726758975 0.0063690013698982171 0 0.034340344736629613 0.0060835823931826164 0 0.034256349702947039 0.0056728224893033445 0 0.033830177726758975 0.0063690013698982171 0 0.034340344736629613 0.0060835823931826164 0 0.034445001692477682 0.0080418335019607386 0 0.034794907485116079 0.0077206477185934258 0 0.034508207005191201 0.0080139426389089219 0 0.034446518522394894 0.006298260312874766 0 0.034445001692477682 0.0080418335019607386 0 0.034606086946801909 0.007321860302817236 0 0.034340344736629613 0.0060835823931826164 0 0.034446518522394894 0.006298260312874766 0 0.034445001692477682 0.0080418335019607386 0 0.034445001692477682 0.0080418335019607386 0 0.034564813911701478 0.0079126770754916233 0 0.034606086946801909 0.007321860302817236 0 0.035015380436842117 0.008664564033019264 0 0.034445001692477682 0.0080418335019607386 0 0.034630916725021894 0.0082208596543469209 0 0.034445001692477682 0.0080418335019607386 0 0.034564813911701478 0.0079126770754916233 0 0.034630916725021894 0.0082208596543469209 0 0.034564813911701478 0.0079126770754916233 0 0.034606086946801909 0.007321860302817236 0 0.034994537238558492 0.0076486108950921039 0 0.034564813911701478 0.0079126770754916233 0 0.034994537238558492 0.0076486108950921039 0 0.03475699863034442 0.0079367467925571724 0 0.034853880668284251 0.0066892459270585227 0 0.034606086946801909 0.007321860302817236 0 0.034994537238558492 0.0076486108950921039 0 0.033866436010535253 0.0050389052880151506 0 0.033890039358151644 0.0047946689174462077 0 0.034994537238558492 0.0076486108950921039 0 0.034926636653305268 0.0080586874131158143 0 0.03475699863034442 0.0079367467925571724 0 0.033890039358151644 0.0047946689174462077 0 0.033210137316937928 0.0040689292151991369 0 0.034926636653305268 0.0080586874131158143 0 0.03475699863034442 0.0079367467925571724 0 0.034585897784878299 0.0081134571284182441 0 0.034564813911701478 0.0079126770754916233 0 0.03475699863034442 0.0079367467925571724 0 0.034585897784878299 0.0081134571284182441 0 0.033210137316937928 0.0040689292151991369 0 0.034679156481204086 0.0075880772264469978 0 0.033903711959957207 0.0070073797623152155 0 0.033900449013978713 0.0067671735502469015 0 0.034311112619678071 0.0069251591250199312 0 0.033900449013978713 0.0067671735502469015 0 0.034311112619678071 0.0069251591250199312 0 0.034075009399972121 0.0066594966313286916 0 0.033210137316937928 0.0040689292151991369 0 0.032842808059503854 0.003211849182803741 0 0.031818656141474687 0.00065273708329716205 0 0.031813647528015999 -0.00010014627290804824 0 0.031388936371258648 -3.3973186293127071e-05 0 0.031813647528015999 -0.00010014627290804824 0 0.031578451631398857 -0.00048097544248832937 0 0.031388936371258648 -3.3973186293127071e-05 0 0.034564813911701478 0.0079126770754916233 0 0.034630916725021894 0.0082208596543469209 0 0.034585897784878299 0.0081134571284182441 0 0.034311112619678071 0.0069251591250199312 0 0.034732978741265519 0.0068373986390091917 0 0.034338284605878504 0.006636118127000888 0 0.034679156481204086 0.0075880772264469978 0 0.034735004152772489 0.0099964627338753071 0 0.034630916725021894 0.0082208596543469209 0 0.034585897784878299 0.0081134571284182441 0 0.034714580161508767 0.0079605227667937459 0 0.034778286382458522 0.012994608081378539 0 0.03489761788612035 0.013262589565764708 0 0.035314282770685899 0.013160326078858116 0 0.034701789952806407 0.013073995970666885 0 0.03489761788612035 0.013262589565764708 0 0.034704707575439628 0.013382053707964378 0 0.034701789952806407 0.013073995970666885 0 0.034778286382458522 0.012994608081378539 0 0.03489761788612035 0.013262589565764708 0 0.03489761788612035 0.013262589565764708 0 0.035314282770685899 0.013160326078858116 0 0.035115492102472966 0.013553124058584037 0 0.034735004152772489 0.0099964627338753071 0 0.035322619455956439 0.010112111019513155 0 0.035314282770685899 0.013160326078858116 0 0.035115492102472966 0.013553124058584037 0 0.035484099025352434 0.013551276816597353 0 0.035160222525076175 0.013906664411247703 0 0.035115492102472966 0.013553124058584037 0 0.035484099025352434 0.013551276816597353 0 0.03489761788612035 0.013262589565764708 0 0.035115492102472966 0.013553124058584037 0 0.034863427349364429 0.013527621552248063 0 0.034835921605851659 0.013843327607899508 0 0.035115492102472966 0.013553124058584037 0 0.034863427349364429 0.013527621552248063 0 0.034835921605851659 0.013843327607899508 0 0.034647671036494805 0.01360804387954292 0 0.034863427349364429 0.013527621552248063 0 0.03489761788612035 0.013262589565764708 0 0.034863427349364429 0.013527621552248063 0 0.034704707575439628 0.013382053707964378 0 0.034647671036494805 0.01360804387954292 0 0.034863427349364429 0.013527621552248063 0 0.034704707575439628 0.013382053707964378 0 0.031813647528015999 -0.00010014627290804824 0 0.031795818998450208 -0.00081829637738356931 0 0.031578451631398857 -0.00048097544248832937 0 0.033900449013978713 0.0067671735502469015 0 0.033889270653106339 0.0065166353330445275 0 0.034075009399972121 0.0066594966313286916 0 0.032842808059503854 0.003211849182803741 0 0.032067764340088491 0.0034076888558829542 0 0.033889270653106339 0.0065166353330445275 0 0.034075009399972121 0.0066594966313286916 0 0.033934176911949512 0.0064474894778892115 0 0.031833393211531023 -0.00088237493493191314 0 0.031578451631398857 -0.00048097544248832937 0 0.03121713806118822 -0.00096704162111724073 0 0.032067764340088491 0.0034076888558829542 0 0.032678028265796466 -0.00015859947187788994 0 0.035322619455956439 0.010112111019513155 0 0.032587474347109624 0.0087861978527226155 0 0.034338284605878504 0.006636118127000888 0 0.034075009399972121 0.0066594966313286916 0 0.033934176911949512 0.0064474894778892115 0 0.034311112619678071 0.0069251591250199312 0 0.034338284605878504 0.006636118127000888 0 0.034075009399972121 0.0066594966313286916 0 0.035314282770685899 0.013160326078858116 0 0.035484099025352434 0.013551276816597353 0 0.035898853888488923 0.013353909795006561 0 0.035596392880831051 0.014038530331651046 0 0.035484099025352434 0.013551276816597353 0 0.035898853888488923 0.013353909795006561 0 0.032292071729966211 0.01247783063801533 0 0.032587474347109624 0.0087861978527226155 0 0.03003241611982238 0.0099243060902751128 0 0.029876706692492559 0.0085414684019957127 0 0.03004742360138046 0.0086111912994531817 0 0.028121599060487001 0.0086967503737768355 0 0.029550992258696045 0.0060829919260034443 0 0.026136520562312505 0.0068831709090827293 0 0.026166148543516673 0.0065646612498189072 0 0.026394485065099123 0.0066625884259057279 0 0.031850951142757794 0.0051062818596235614 0 0.030305714354304899 0.0075973407142469647 0 0.031865040761128477 0.0082458782342412929 0 0.032067764340088491 0.0034076888558829542 0 0.032587474347109624 0.0087861978527226155 0 0.032587474347109624 0.0087861978527226155 0 0.029550992258696045 0.0060829919260034443 0 0.031833393211531023 -0.00088237493493191314 0 0.031830485494046504 -0.0011719786177707139 0 0.03121713806118822 -0.00096704162111724073 0 0.032067764340088491 0.0034076888558829542 0 0.029550992258696045 0.0060829919260034443 0 0.030891952040399264 -0.0015991600755721261 0 0.03121713806118822 -0.00096704162111724073 0 0.03022897020568106 -0.001183570371885009 0 0.029550992258696045 0.0060829919260034443 0 0.028881527604216733 0.0024096859799301621 0 0.031830485494046504 -0.0011719786177707139 0 0.030891952040399264 -0.0015991600755721261 0 0.03121713806118822 -0.00096704162111724073 0 0.031578451631398857 -0.00048097544248832937 0 0.03121713806118822 -0.00096704162111724073 0 0.030882774342221187 -0.00048131380833750786 0 0.03121713806118822 -0.00096704162111724073 0 0.030882774342221187 -0.00048131380833750786 0 0.03022897020568106 -0.001183570371885009 0 0.031578451631398857 -0.00048097544248832937 0 0.030882774342221187 -0.00048131380833750786 0 0.031388936371258648 -3.3973186293127071e-05 0 0.030882774342221187 -0.00048131380833750786 0 0.030031141103903043 -0.00040318007561294505 0 0.03022897020568106 -0.001183570371885009 0 0.024500505301896482 0.0042178243020179343 0 0.028881527604216733 0.0024096859799301621 0 0.029931472402622752 -0.0019965588960424324 0 0.030891952040399264 -0.0015991600755721261 0 0.03022897020568106 -0.001183570371885009 0 0.019827781141830602 0.0052828366369425872 0 0.01999962645353574 0.0053980391646841217 0 0.019973364364215328 0.0050460322348592612 0 0.029931472402622752 -0.0019965588960424324 0 0.03022897020568106 -0.001183570371885009 0 0.028790511410808663 -0.001210242104746174 0 0.024500505301896482 0.0042178243020179343 0 0.024572065952631283 0.0014697709975297468 0 0.01999962645353574 0.0053980391646841217 0 0.019973364364215328 0.0050460322348592612 0 0.020061841793652335 0.0052478063709879147 0 0.019973364364215328 0.0050460322348592612 0 0.020061841793652335 0.0052478063709879147 0 0.020195183811920165 0.0050972770583062391 0 0.028790511410808663 -0.001210242104746174 0 0.028942976300095971 2.4323547328981661e-05 0 0.027487031129271786 -0.00038815384613828072 0 0.024572065952631283 0.0014697709975297468 0 0.023778449600555727 0.0022105026271427128 0 0.030031141103903043 -0.00040318007561294505 0 0.03022897020568106 -0.001183570371885009 0 0.028790511410808663 -0.001210242104746174 0 0.030031141103903043 -0.00040318007561294505 0 0.028790511410808663 -0.001210242104746174 0 0.028942976300095971 2.4323547328981661e-05 0 0.030031141103903043 -0.00040318007561294505 0 0.028942976300095971 2.4323547328981661e-05 0 0.029836299276975745 0.00062785932822306486 0 0.028942976300095971 2.4323547328981661e-05 0 0.028582956643632956 0.001236077310986542 0 0.027487031129271786 -0.00038815384613828072 0 0.028942976300095971 2.4323547328981661e-05 0 0.028582956643632956 0.001236077310986542 0 0.029836299276975745 0.00062785932822306486 0 0.028582956643632956 0.001236077310986542 0 0.029836299276975745 0.00062785932822306486 0 0.02977288362098789 0.0018462455829832704 0 0.029836299276975745 0.00062785932822306486 0 0.030643996703805958 0.0010646291840316342 0 0.030824651629865682 0.00020818933709185753 0 0.029836299276975745 0.00062785932822306486 0 0.030643996703805958 0.0010646291840316342 0 0.02977288362098789 0.0018462455829832704 0 0.031818656141474687 0.00065273708329716205 0 0.030643996703805958 0.0010646291840316342 0 0.030824651629865682 0.00020818933709185753 0 0.03267565319805369 0.0019038481695206988 0 0.032623070832221351 0.00035914473250947153 0 0.030643996703805958 0.0010646291840316342 0 0.033210137316937928 0.0040689292151991369 0 0.030473775414458931 5.8617494336738622e-05 0 0.031818656141474687 0.00065273708329716205 0 0.030824651629865682 0.00020818933709185753 0 0.031388936371258648 -3.3973186293127071e-05 0 0.030882774342221187 -0.00048131380833750786 0 0.030824651629865682 0.00020818933709185753 0 0.031388936371258648 -3.3973186293127071e-05 0 0.030882774342221187 -0.00048131380833750786 0 0.030031141103903043 -0.00040318007561294505 0 0.030824651629865682 0.00020818933709185753 0 0.030031141103903043 -0.00040318007561294505 0 0.029836299276975745 0.00062785932822306486 0 0.030824651629865682 0.00020818933709185753 0 0.020901386685585895 0.0048221689354876699 0 0.021184280906549061 0.004348415137987189 0 0.021400870797578575 0.0046113980532673376 0 0.020897450439630025 0.0051923446911556412 0 0.020901386685585895 0.0048221689354876699 0 0.021400870797578575 0.0046113980532673376 0 0.020897450439630025 0.0051923446911556412 0 0.020522818583730312 0.0051938430597942 0 0.020901386685585895 0.0048221689354876699 0 0.020522818583730312 0.0051938430597942 0 0.020901386685585895 0.0048221689354876699 0 0.020534744769907007 0.0047524546199408848 0 0.020901386685585895 0.0048221689354876699 0 0.020534744769907007 0.0047524546199408848 0 0.021184280906549061 0.004348415137987189 0 0.020522818583730312 0.0051938430597942 0 0.020534744769907007 0.0047524546199408848 0 0.020195183811920165 0.0050972770583062391 0 0.02019944913202934 0.005414662470349791 0 0.020522818583730312 0.0051938430597942 0 0.020195183811920165 0.0050972770583062391 0 0.020133738003238439 0.0053342043187810367 0 0.020061841793652335 0.0052478063709879147 0 0.020195183811920165 0.0050972770583062391 0 0.020534744769907007 0.0047524546199408848 0 0.020195183811920165 0.0050972770583062391 0 0.020175343162958163 0.0046349971628947377 0 0.019973364364215328 0.0050460322348592612 0 0.020195183811920165 0.0050972770583062391 0 0.020175343162958163 0.0046349971628947377 0 0.027487031129271786 -0.00038815384613828072 0 0.026036447706389607 0.0006180483060009397 0 0.027087001771304194 0.0016289066010115607 0 0.028582956643632956 0.001236077310986542 0 0.027487031129271786 -0.00038815384613828072 0 0.027087001771304194 0.0016289066010115607 0 0.026036447706389607 0.0006180483060009397 0 0.025906569970800607 0.0021623012983225539 0 0.027087001771304194 0.0016289066010115607 0 0.020534744769907007 0.0047524546199408848 0 0.020175343162958163 0.0046349971628947377 0 0.020673199112120628 0.0041398493125071193 0 0.023778449600555727 0.0022105026271427128 0 0.023373167510947705 0.0023717179167046503 0 0.020534744769907007 0.0047524546199408848 0 0.020673199112120628 0.0041398493125071193 0 0.021184280906549061 0.004348415137987189 0 0.020673199112120628 0.0041398493125071193 0 0.021184280906549061 0.004348415137987189 0 0.021409703468018154 0.0037736025797119005 0 0.023373167510947705 0.0023717179167046503 0 0.022945308303455269 0.0028701485802797894 0 0.026036447706389607 0.0006180483060009397 0 0.024478992367277162 0.0018593270208145569 0 0.025906569970800607 0.0021623012983225539 0 0.021184280906549061 0.004348415137987189 0 0.021409703468018154 0.0037736025797119005 0 0.02174211001367133 0.004063833660673111 0 0.024478992367277162 0.0018593270208145569 0 0.023949771206074659 0.0042833338614478933 0 0.022635532080714397 0.0036627861497874449 0 0.024478992367277162 0.0018593270208145569 0 0.025403447009452684 0.0035097572951161985 0 0.023949771206074659 0.0042833338614478933 0 0.022945308303455269 0.0028701485802797894 0 0.022598210106566079 0.0035782010154764956 0 0.024478992367277162 0.0018593270208145569 0 0.025403447009452684 0.0035097572951161985 0 0.025906569970800607 0.0021623012983225539 0 0.025403447009452684 0.0035097572951161985 0 0.025906569970800607 0.0021623012983225539 0 0.027079065104009623 0.003023523714933606 0 0.025906569970800607 0.0021623012983225539 0 0.027087001771304194 0.0016289066010115607 0 0.027079065104009623 0.003023523714933606 0 0.027087001771304194 0.0016289066010115607 0 0.027079065104009623 0.003023523714933606 0 0.028722619774248167 0.002798702556484344 0 0.027079065104009623 0.003023523714933606 0 0.027435242390685153 0.0046259624218260758 0 0.028722619774248167 0.002798702556484344 0 0.027435242390685153 0.0046259624218260758 0 0.026082126085429595 0.0043324629992798729 0 0.025878888337738302 0.0053502688863846836 0 0.027079065104009623 0.003023523714933606 0 0.027435242390685153 0.0046259624218260758 0 0.026082126085429595 0.0043324629992798729 0 0.025403447009452684 0.0035097572951161985 0 0.027079065104009623 0.003023523714933606 0 0.026082126085429595 0.0043324629992798729 0 0.025403447009452684 0.0035097572951161985 0 0.026082126085429595 0.0043324629992798729 0 0.02467538661743961 0.0049754112037470391 0 0.026082126085429595 0.0043324629992798729 0 0.02467538661743961 0.0049754112037470391 0 0.025878888337738302 0.0053502688863846836 0 0.02467538661743961 0.0049754112037470391 0 0.023788941920542331 0.0055327169621998875 0 0.023560913482362528 0.0051357129530515341 0 0.02467538661743961 0.0049754112037470391 0 0.023949771206074659 0.0042833338614478933 0 0.023560913482362528 0.0051357129530515341 0 0.025403447009452684 0.0035097572951161985 0 0.02467538661743961 0.0049754112037470391 0 0.023949771206074659 0.0042833338614478933 0 0.032945128943071694 0.0032654923985832003 0 0.03267565319805369 0.0019038481695206988 0 0.030823993380084853 0.0027889808798149947 0 0.03267565319805369 0.0019038481695206988 0 0.030643996703805958 0.0010646291840316342 0 0.030823993380084853 0.0027889808798149947 0 0.030643996703805958 0.0010646291840316342 0 0.030823993380084853 0.0027889808798149947 0 0.02977288362098789 0.0018462455829832704 0 0.028582956643632956 0.001236077310986542 0 0.02977288362098789 0.0018462455829832704 0 0.028722619774248167 0.002798702556484344 0 0.028582956643632956 0.001236077310986542 0 0.027087001771304194 0.0016289066010115607 0 0.028722619774248167 0.002798702556484344 0 0.030823993380084853 0.0027889808798149947 0 0.02977288362098789 0.0018462455829832704 0 0.028722619774248167 0.002798702556484344 0 0.027435242390685153 0.0046259624218260758 0 0.028722619774248167 0.002798702556484344 0 0.0296439394718595 0.0042183286848684592 0 0.027435242390685153 0.0046259624218260758 0 0.0296439394718595 0.0042183286848684592 0 0.029000329079636036 0.0056299880538502271 0 0.030823993380084853 0.0027889808798149947 0 0.028722619774248167 0.002798702556484344 0 0.0296439394718595 0.0042183286848684592 0 0.0296439394718595 0.0042183286848684592 0 0.031696112202850325 0.0043618775544022326 0 0.030748472673835698 0.0052229124047860212 0 0.030823993380084853 0.0027889808798149947 0 0.0296439394718595 0.0042183286848684592 0 0.031696112202850325 0.0043618775544022326 0 0.032945128943071694 0.0032654923985832003 0 0.030823993380084853 0.0027889808798149947 0 0.031696112202850325 0.0043618775544022326 0 0.033731737341234705 0.0052021845059640661 0 0.031696112202850325 0.0043618775544022326 0 0.032545034735395932 0.0054462041653452944 0 0.031696112202850325 0.0043618775544022326 0 0.032545034735395932 0.0054462041653452944 0 0.030748472673835698 0.0052229124047860212 0 0.032545034735395932 0.0054462041653452944 0 0.031569032676668406 0.0059445682976376653 0 0.030748472673835698 0.0052229124047860212 0 0.032545034735395932 0.0054462041653452944 0 0.031569032676668406 0.0059445682976376653 0 0.033252756083823005 0.0058516493605787418 0 0.031569032676668406 0.0059445682976376653 0 0.031695528829526247 0.0064408851895774505 0 0.033252756083823005 0.0058516493605787418 0 0.031569032676668406 0.0059445682976376653 0 0.031695528829526247 0.0064408851895774505 0 0.030722494286310801 0.0064428400337343391 0 0.031569032676668406 0.0059445682976376653 0 0.030325298964380531 0.0059495610285097535 0 0.030748472673835698 0.0052229124047860212 0 0.030325298964380531 0.0059495610285097535 0 0.029582020936016466 0.0063471201602414134 0 0.030722494286310801 0.0064428400337343391 0 0.031569032676668406 0.0059445682976376653 0 0.030325298964380531 0.0059495610285097535 0 0.030722494286310801 0.0064428400337343391 0 0.030325298964380531 0.0059495610285097535 0 0.030748472673835698 0.0052229124047860212 0 0.029000329079636036 0.0056299880538502271 0 0.0296439394718595 0.0042183286848684592 0 0.030748472673835698 0.0052229124047860212 0 0.029000329079636036 0.0056299880538502271 0 0.029000329079636036 0.0056299880538502271 0 0.028489826329371019 0.0065664348329530211 0 0.026966287581079697 0.0059721445030424146 0 0.029000329079636036 0.0056299880538502271 0 0.029582020936016466 0.0063471201602414134 0 0.028489826329371019 0.0065664348329530211 0 0.030325298964380531 0.0059495610285097535 0 0.029000329079636036 0.0056299880538502271 0 0.029582020936016466 0.0063471201602414134 0 0.029582020936016466 0.0063471201602414134 0 0.028489826329371019 0.0065664348329530211 0 0.029230665237635806 0.0067174484939241065 0 0.028489826329371019 0.0065664348329530211 0 0.028733787764630127 0.0068431674880953851 0 0.027894093036434451 0.0067834399917492119 0 0.028733787764630127 0.0068431674880953851 0 0.029230665237635806 0.0067174484939241065 0 0.029191001183670101 0.0069777952426347562 0 0.028489826329371019 0.0065664348329530211 0 0.028733787764630127 0.0068431674880953851 0 0.029230665237635806 0.0067174484939241065 0 0.029230665237635806 0.0067174484939241065 0 0.029944617628608526 0.0068599658643127819 0 0.029191001183670101 0.0069777952426347562 0 0.029944617628608526 0.0068599658643127819 0 0.030914185580872139 0.0068060046368517979 0 0.030596446243501784 0.0071169430228606801 0 0.029944617628608526 0.0068599658643127819 0 0.030914185580872139 0.0068060046368517979 0 0.030722494286310801 0.0064428400337343391 0 0.030914185580872139 0.0068060046368517979 0 0.031695528829526247 0.0064408851895774505 0 0.030722494286310801 0.0064428400337343391 0 0.029582020936016466 0.0063471201602414134 0 0.029944617628608526 0.0068599658643127819 0 0.030722494286310801 0.0064428400337343391 0 0.029582020936016466 0.0063471201602414134 0 0.029230665237635806 0.0067174484939241065 0 0.029944617628608526 0.0068599658643127819 0 0.02466583981271225 0.0057329753300145994 0 0.024529523502341891 0.0060873175267088893 0 0.023737728836278702 0.0058017326920758268 0 0.02466583981271225 0.0057329753300145994 0 0.024529523502341891 0.0060873175267088893 0 0.025564937705112881 0.0062564868127260118 0 0.02467538661743961 0.0049754112037470391 0 0.02466583981271225 0.0057329753300145994 0 0.023788941920542331 0.0055327169621998875 0 0.02467538661743961 0.0049754112037470391 0 0.02466583981271225 0.0057329753300145994 0 0.025878888337738302 0.0053502688863846836 0 0.02466583981271225 0.0057329753300145994 0 0.025878888337738302 0.0053502688863846836 0 0.025564937705112881 0.0062564868127260118 0 0.027435242390685153 0.0046259624218260758 0 0.029000329079636036 0.0056299880538502271 0 0.026966287581079697 0.0059721445030424146 0 0.025878888337738302 0.0053502688863846836 0 0.026966287581079697 0.0059721445030424146 0 0.025564937705112881 0.0062564868127260118 0 0.027435242390685153 0.0046259624218260758 0 0.025878888337738302 0.0053502688863846836 0 0.026966287581079697 0.0059721445030424146 0 0.028489826329371019 0.0065664348329530211 0 0.026966287581079697 0.0059721445030424146 0 0.027894093036434451 0.0067834399917492119 0 0.026982017311564035 0.005937974368543251 0 0.027075835824645161 0.0066112195770973575 0 0.026262301031517946 0.0066017782974357826 0 0.025516867742183435 0.0065553750523741619 0 0.025890540583727965 0.0066412313077026204 0 0.026966287581079697 0.0059721445030424146 0 0.026262301031517946 0.0066017782974357826 0 0.025564937705112881 0.0062564868127260118 0 0.025564937705112881 0.0062564868127260118 0 0.025516867742183435 0.0065553750523741619 0 0.024979286458472007 0.0063821177162695763 0 0.026262301031517946 0.0066017782974357826 0 0.025564937705112881 0.0062564868127260118 0 0.025516867742183435 0.0065553750523741619 0 0.025516867742183435 0.0065553750523741619 0 0.024891415923556853 0.0065885560132724844 0 0.024979286458472007 0.0063821177162695763 0 0.024529523502341891 0.0060873175267088893 0 0.025564937705112881 0.0062564868127260118 0 0.024979286458472007 0.0063821177162695763 0 0.024529523502341891 0.0060873175267088893 0 0.024979286458472007 0.0063821177162695763 0 0.024185939117240932 0.0063204421616458919 0 0.025504117298900439 0.006791447482362916 0 0.025416158330937869 0.0069440840756124405 0 0.025140220076959856 0.0069013031419836411 0 0.025504117298900439 0.006791447482362916 0 0.025798650767661729 0.0066533143061053715 0 0.025751603367653485 0.0066673715173897301 0 0.025504117298900439 0.006791447482362916 0 0.025364030766395314 0.0067294557636851321 0 0.025798650767661729 0.0066533143061053715 0 0.025504117298900439 0.006791447482362916 0 0.025364030766395314 0.0067294557636851321 0 0.025140220076959856 0.0069013031419836411 0 0.025364030766395314 0.0067294557636851321 0 0.024786141162415089 0.0068077268339905659 0 0.025140220076959856 0.0069013031419836411 0 0.025516867742183435 0.0065553750523741619 0 0.024891415923556853 0.0065885560132724844 0 0.025364030766395314 0.0067294557636851321 0 0.024891415923556853 0.0065885560132724844 0 0.025364030766395314 0.0067294557636851321 0 0.024786141162415089 0.0068077268339905659 0 0.025516867742183435 0.0065553750523741619 0 0.025364030766395314 0.0067294557636851321 0 0.025890540583727965 0.0066412313077026204 0 0.025890540583727965 0.0066412313077026204 0 0.025798650767661729 0.0066533143061053715 0 0.02619124524697981 0.0064393195619678184 0 0.025364030766395314 0.0067294557636851321 0 0.025890540583727965 0.0066412313077026204 0 0.025798650767661729 0.0066533143061053715 0 0.025890540583727965 0.0066412313077026204 0 0.026145390831398 0.006535525770167902 0 0.02619124524697981 0.0064393195619678184 0 0.026262301031517946 0.0066017782974357826 0 0.025890540583727965 0.0066412313077026204 0 0.026145390831398 0.006535525770167902 0 0.027075835824645161 0.0066112195770973575 0 0.027170467171167039 0.0066120026899894003 0 0.027894093036434451 0.0067834399917492119 0 0.028209149346506621 0.0066122546749530853 0 0.028328728104665444 0.0067659806385799038 0 0.028209149346506621 0.0066122546749530853 0 0.028328728104665444 0.0067659806385799038 0 0.02816178281733268 0.0064254941839928872 0 0.027178099365025934 0.0063033032582312009 0 0.02816178281733268 0.0064254941839928872 0 0.027938165347398351 0.00626317829927436 0 0.028209149346506621 0.0066122546749530853 0 0.027178099365025934 0.0063033032582312009 0 0.02816178281733268 0.0064254941839928872 0 0.027170467171167039 0.0066120026899894003 0 0.027180697888774231 0.0064240275928628392 0 0.027178099365025934 0.0063033032582312009 0 0.027938165347398351 0.00626317829927436 0 0.027299953793060109 0.0064889063392317651 0 0.027178099365025934 0.0063033032582312009 0 0.027299953793060109 0.0064889063392317651 0 0.026667623183281391 0.0064559383153570222 0 0.027178099365025934 0.0063033032582312009 0 0.026361939092794457 0.0063302523751712029 0 0.026667623183281391 0.0064559383153570222 0 0.026361939092794457 0.0063302523751712029 0 0.026114161591217062 0.0062500323683730482 0 0.026667623183281391 0.0064559383153570222 0 0.027178099365025934 0.0063033032582312009 0 0.026361939092794457 0.0063302523751712029 0 0.02619124524697981 0.0064393195619678184 0 0.026145390831398 0.006535525770167902 0 0.027178099365025934 0.0063033032582312009 0 0.02619124524697981 0.0064393195619678184 0 0.026361939092794457 0.0063302523751712029 0 0.02619124524697981 0.0064393195619678184 0 0.026007122999593988 0.0064695274195867613 0 0.025798650767661729 0.0066533143061053715 0 0.02619124524697981 0.0064393195619678184 0 0.026007122999593988 0.0064695274195867613 0 0.025798650767661729 0.0066533143061053715 0 0.026007122999593988 0.0064695274195867613 0 0.025751603367653485 0.0066673715173897301 0 0.026007122999593988 0.0064695274195867613 0 0.025971878276994254 0.0063428651277247184 0 0.025751603367653485 0.0066673715173897301 0 0.026007122999593988 0.0064695274195867613 0 0.026075043627618883 0.006282824524635894 0 0.025971878276994254 0.0063428651277247184 0 0.026361939092794457 0.0063302523751712029 0 0.026007122999593988 0.0064695274195867613 0 0.026075043627618883 0.006282824524635894 0 0.026361939092794457 0.0063302523751712029 0 0.026075043627618883 0.006282824524635894 0 0.026114161591217062 0.0062500323683730482 0 0.026114161591217062 0.0062500323683730482 0 0.025612294310778074 0.0060284231499168174 0 0.025685896418298708 0.006295804925503393 0 0.026114161591217062 0.0062500323683730482 0 0.025973192098530964 0.0061266430505871675 0 0.025612294310778074 0.0060284231499168174 0 0.026075043627618883 0.006282824524635894 0 0.026114161591217062 0.0062500323683730482 0 0.025973192098530964 0.0061266430505871675 0 0.026075043627618883 0.006282824524635894 0 0.025973192098530964 0.0061266430505871675 0 0.025971878276994254 0.0063428651277247184 0 0.025973192098530964 0.0061266430505871675 0 0.025971878276994254 0.0063428651277247184 0 0.025817501946788422 0.0063658892390222235 0 0.026102786327625277 0.0061245956365317353 0 0.024387434305872573 0.0059518453349884266 0 0.025973192098530964 0.0061266430505871675 0 0.025160908886906579 0.0057365238783782307 0 0.02506776944719593 0.0052316411318976694 0 0.025973192098530964 0.0061266430505871675 0 0.025612294310778074 0.0060284231499168174 0 0.025160908886906579 0.0057365238783782307 0 0.025612294310778074 0.0060284231499168174 0 0.025160908886906579 0.0057365238783782307 0 0.025685896418298708 0.006295804925503393 0 0.025160908886906579 0.0057365238783782307 0 0.02506776944719593 0.0052316411318976694 0 0.024434471299912257 0.0049481184471659462 0 0.025862491806661995 0.0063828010422725037 0 0.025501596217322484 0.0064377005464881362 0 0.025971878276994254 0.0063428651277247184 0 0.025751603367653485 0.0066673715173897301 0 0.025416158330937869 0.0069440840756124405 0 0.025971878276994254 0.0063428651277247184 0 0.025817501946788422 0.0063658892390222235 0 0.025720779507273618 0.0060487218875809072 0 0.025504117298900439 0.006791447482362916 0 0.025751603367653485 0.0066673715173897301 0 0.025416158330937869 0.0069440840756124405 0 0.028933001967481848 0.0070686928023722638 0 0.029731475321476658 0.0075206241692465509 0 0.02964632575315658 0.0070716135992439991 0 0.028933001967481848 0.0070686928023722638 0 0.028252148307472871 0.0067470525707036032 0 0.028694935107366221 0.0064845624843089629 0 0.028879636681100492 0.0068437265127138987 0 0.030406750820519551 0.0048461904509374846 0 0.030406750820519551 0.0048461904509374846 0 0.031607279589516958 0.0063578996250580576 0 0.032947654407638499 0.0043996964402174543 0 0.032685144665883452 0.0050830068572662902 0 0.032376730966669216 0.0049639773582540996 0 0.029944617628608526 0.0068599658643127819 0 0.030596446243501784 0.0071169430228606801 0 0.02964632575315658 0.0070716135992439991 0 0.029731475321476658 0.0075206241692465509 0 0.030596446243501784 0.0071169430228606801 0 0.02964632575315658 0.0070716135992439991 0 0.028933001967481848 0.0070686928023722638 0 0.029191001183670101 0.0069777952426347562 0 0.02964632575315658 0.0070716135992439991 0 0.029944617628608526 0.0068599658643127819 0 0.029191001183670101 0.0069777952426347562 0 0.02964632575315658 0.0070716135992439991 0 0.028733787764630127 0.0068431674880953851 0 0.029191001183670101 0.0069777952426347562 0 0.028646870339586725 0.0067931163526088563 0 0.028733787764630127 0.0068431674880953851 0 0.027894093036434451 0.0067834399917492119 0 0.028328728104665444 0.0067659806385799038 0 0.028733787764630127 0.0068431674880953851 0 0.028328728104665444 0.0067659806385799038 0 0.028646870339586725 0.0067931163526088563 0 0.028646870339586725 0.0067931163526088563 0 0.02816178281733268 0.0064254941839928872 0 0.028441718426120866 0.0063302016397601708 0 0.028328728104665444 0.0067659806385799038 0 0.028646870339586725 0.0067931163526088563 0 0.02816178281733268 0.0064254941839928872 0 0.028933001967481848 0.0070686928023722638 0 0.028646870339586725 0.0067931163526088563 0 0.028694935107366221 0.0064845624843089629 0 0.028933001967481848 0.0070686928023722638 0 0.029191001183670101 0.0069777952426347562 0 0.028646870339586725 0.0067931163526088563 0 0.028646870339586725 0.0067931163526088563 0 0.028694935107366221 0.0064845624843089629 0 0.028441718426120866 0.0063302016397601708 0 0.028694935107366221 0.0064845624843089629 0 0.028441718426120866 0.0063302016397601708 0 0.028586350271281868 0.0058906365117852031 0 0.02816178281733268 0.0064254941839928872 0 0.028441718426120866 0.0063302016397601708 0 0.027938165347398351 0.00626317829927436 0 0.028441718426120866 0.0063302016397601708 0 0.027938165347398351 0.00626317829927436 0 0.028586350271281868 0.0058906365117852031 0 0.027938165347398351 0.00626317829927436 0 0.028586350271281868 0.0058906365117852031 0 0.028144734778315299 0.0062971740201026869 0 0.028644568555245744 0.0052554716141355829 0 0.029310722634835425 0.0022441165230415159 0 0.030871989201996852 0.004005831362126515 0 0.02862021022257558 0.0051110019336877595 0 0.028935262291511398 0.004068441491520431 0 0.028586350271281868 0.0058906365117852031 0 0.028644568555245744 0.0052554716141355829 0 0.028353890802525785 0.006133581366346179 0 0.028694935107366221 0.0064845624843089629 0 0.028586350271281868 0.0058906365117852031 0 0.028353890802525785 0.006133581366346179 0 0.028252148307472871 0.0067470525707036032 0 0.028694935107366221 0.0064845624843089629 0 0.028353890802525785 0.006133581366346179 0 0.030406750820519551 0.0048461904509374846 0 0.028935262291511398 0.004068441491520431 0 0.030207238183504941 7.8113258993979545e-05 0 0.031348229503777122 0.0019241295893999988 0 0.033037616106684729 0.0010004380483487098 0 0.030406750820519551 0.0048461904509374846 0 0.033614651681603755 0.0024664243723338864 0 0.030207238183504941 7.8113258993979545e-05 0 0.029310722634835425 0.0022441165230415159 0 0.031348229503777122 0.0019241295893999988 0 0.029310722634835425 0.0022441165230415159 0 0.031348229503777122 0.0019241295893999988 0 0.030871989201996852 0.004005831362126515 0 0.030871989201996852 0.004005831362126515 0 0.032504272675530251 0.0039065056650862988 0 0.03314430660324514 0.0021746778715613711 0 0.031348229503777122 0.0019241295893999988 0 0.030871989201996852 0.004005831362126515 0 0.03314430660324514 0.0021746778715613711 0 0.032504272675530251 0.0039065056650862988 0 0.034357886755921323 0.0021554287250589803 0 0.033289164651524442 0.005668175066617708 0 0.032504272675530251 0.0039065056650862988 0 0.03314430660324514 0.0021746778715613711 0 0.034357886755921323 0.0021554287250589803 0 0.034357886755921323 0.0021554287250589803 0 0.035919684714253199 0.0015626942134605915 0 0.033289164651524442 0.005668175066617708 0 0.034357886755921323 0.0021554287250589803 0 0.035736892717951774 0.00127183116030863 0 0.035919684714253199 0.0015626942134605915 0 0.035601036091483948 0.0023527520887173877 0 0.035669805006767037 0.0027957606590072533 0 0.036161679899284781 0.0027251811410616182 0 0.035691904012543914 0.0017678113425218286 0 0.033614651681603755 0.0024664243723338864 0 0.034357886755921323 0.0021554287250589803 0 0.035736892717951774 0.00127183116030863 0 0.033183771375705245 0.00038875217532903674 0 0.035601036091483948 0.0023527520887173877 0 0.035669805006767037 0.0027957606590072533 0 0.035376177098837149 0.0028662529133461987 0 0.031348229503777122 0.0019241295893999988 0 0.03314430660324514 0.0021746778715613711 0 0.033037616106684729 0.0010004380483487098 0 0.03314430660324514 0.0021746778715613711 0 0.034357886755921323 0.0021554287250589803 0 0.033183771375705245 0.00038875217532903674 0 0.03322491831512684 0.0015218192447397601 0 0.033614651681603755 0.0024664243723338864 0 0.033614651681603755 0.0024664243723338864 0 0.034277044498217703 0.0046133481339724258 0 0.032947654407638499 0.0043996964402174543 0 0.032338938529436811 0.0041583451109486816 0 0.032376730966669216 0.0049639773582540996 0 0.036161679899284781 0.0027251811410616182 0 0.035496553817053529 0.003344729145535606 0 0.035901400941662748 0.0040312321503336215 0 0.035669805006767037 0.0027957606590072533 0 0.036161679899284781 0.0027251811410616182 0 0.035496553817053529 0.003344729145535606 0 0.035669805006767037 0.0027957606590072533 0 0.035496553817053529 0.003344729145535606 0 0.035376177098837149 0.0028662529133461987 0 0.035901400941662748 0.0040312321503336215 0 0.035088819995510778 0.0042621380884089403 0 0.035111789802486311 0.0048475360003816526 0 0.035496553817053529 0.003344729145535606 0 0.035901400941662748 0.0040312321503336215 0 0.035088819995510778 0.0042621380884089403 0 0.034904655151392704 0.0034215293195490569 0 0.034550968621412541 0.0037089844052647673 0 0.03466695037727531 0.0046830621253381877 0 0.035496553817053529 0.003344729145535606 0 0.035088819995510778 0.0042621380884089403 0 0.034904655151392704 0.0034215293195490569 0 0.035088819995510778 0.0042621380884089403 0 0.034904655151392704 0.0034215293195490569 0 0.03466695037727531 0.0046830621253381877 0 0.035496553817053529 0.003344729145535606 0 0.034904655151392704 0.0034215293195490569 0 0.035376177098837149 0.0028662529133461987 0 0.034904655151392704 0.0034215293195490569 0 0.035376177098837149 0.0028662529133461987 0 0.035155266001036689 0.0024907138893545976 0 0.034904655151392704 0.0034215293195490569 0 0.034641560433753958 0.0024135623309215399 0 0.034550814218496873 0.0030614795081737654 0 0.034904655151392704 0.0034215293195490569 0 0.034550814218496873 0.0030614795081737654 0 0.034550968621412541 0.0037089844052647673 0 0.034904655151392704 0.0034215293195490569 0 0.034641560433753958 0.0024135623309215399 0 0.035155266001036689 0.0024907138893545976 0 0.034641560433753958 0.0024135623309215399 0 0.035051731570204019 0.0014976061967988616 0 0.034125562226119066 0.0013591453003916863 0 0.034641560433753958 0.0024135623309215399 0 0.035155266001036689 0.0024907138893545976 0 0.035051731570204019 0.0014976061967988616 0 0.035601036091483948 0.0023527520887173877 0 0.035155266001036689 0.0024907138893545976 0 0.035051731570204019 0.0014976061967988616 0 0.035601036091483948 0.0023527520887173877 0 0.035376177098837149 0.0028662529133461987 0 0.035155266001036689 0.0024907138893545976 0 0.035919684714253199 0.0015626942134605915 0 0.035051731570204019 0.0014976061967988616 0 0.035209597610027128 -0.00038524365846158854 0 0.035691904012543914 0.0017678113425218286 0 0.035010421375493185 0.0015116110870763044 0 0.035736892717951774 0.00127183116030863 0 0.035919684714253199 0.0015626942134605915 0 0.035051731570204019 0.0014976061967988616 0 0.035919684714253199 0.0015626942134605915 0 0.036087841091342519 -0.00072748863510962167 0 0.035209597610027128 -0.00038524365846158854 0 0.035051731570204019 0.0014976061967988616 0 0.034125562226119066 0.0013591453003916863 0 0.034565643596909827 4.0686817796334073e-05 0 0.035051731570204019 0.0014976061967988616 0 0.035209597610027128 -0.00038524365846158854 0 0.034565643596909827 4.0686817796334073e-05 0 0.034125562226119066 0.0013591453003916863 0 0.033349308951075608 0.00095396256545786243 0 0.03406031611527803 0.002546616427154944 0 0.034125562226119066 0.0013591453003916863 0 0.033349308951075608 0.00095396256545786243 0 0.033724657283789011 -0.00050457930884664542 0 0.034125562226119066 0.0013591453003916863 0 0.034565643596909827 4.0686817796334073e-05 0 0.033724657283789011 -0.00050457930884664542 0 0.033349308951075608 0.00095396256545786243 0 0.03296498388513984 0.0015454367697810896 0 0.031813260267303127 -0.00098003184596460601 0 0.033349308951075608 0.00095396256545786243 0 0.03406031611527803 0.002546616427154944 0 0.03296498388513984 0.0015454367697810896 0 0.03406031611527803 0.002546616427154944 0 0.03296498388513984 0.0015454367697810896 0 0.034837510234982938 0.0027054792353277202 0 0.034641560433753958 0.0024135623309215399 0 0.03406031611527803 0.002546616427154944 0 0.034550814218496873 0.0030614795081737654 0 0.034641560433753958 0.0024135623309215399 0 0.034125562226119066 0.0013591453003916863 0 0.03406031611527803 0.002546616427154944 0 0.036305333028435173 0.00089252708644447371 0 0.034998819909629005 0.0015077676579797149 0 0.034999956280193603 -0.00057428549741449827 0 0.034656996725624868 0.001089831741896425 0 0.034791832564766298 0.0024347826141653045 0 0.036305333028435173 0.00089252708644447371 0 0.034998819909629005 0.0015077676579797149 0 0.034837510234982938 0.0027054792353277202 0 0.034998819909629005 0.0015077676579797149 0 0.034837510234982938 0.0027054792353277202 0 0.034999293744854013 0.0035890520606824275 0 0.034859927959906042 0.0040627718230580737 0 0.034605775208740912 0.0034033137692565281 0 0.034672477193904039 0.0042940979585560316 0 0.034837510234982938 0.0027054792353277202 0 0.034859927959906042 0.0040627718230580737 0 0.034605775208740912 0.0034033137692565281 0 0.034837510234982938 0.0027054792353277202 0 0.034859927959906042 0.0040627718230580737 0 0.034999293744854013 0.0035890520606824275 0 0.03406031611527803 0.002546616427154944 0 0.034550814218496873 0.0030614795081737654 0 0.034550968621412541 0.0037089844052647673 0 0.03406031611527803 0.002546616427154944 0 0.034837510234982938 0.0027054792353277202 0 0.034605775208740912 0.0034033137692565281 0 0.03406031611527803 0.002546616427154944 0 0.034605775208740912 0.0034033137692565281 0 0.034550968621412541 0.0037089844052647673 0 0.034605775208740912 0.0034033137692565281 0 0.034550968621412541 0.0037089844052647673 0 0.034672477193904039 0.0042940979585560316 0 0.034550968621412541 0.0037089844052647673 0 0.034599506972670148 0.0044089185431906101 0 0.034672477193904039 0.0042940979585560316 0 0.034550968621412541 0.0037089844052647673 0 0.034599506972670148 0.0044089185431906101 0 0.03466695037727531 0.0046830621253381877 0 0.034599506972670148 0.0044089185431906101 0 0.034579893100774292 0.004992544595144679 0 0.03466695037727531 0.0046830621253381877 0 0.034599506972670148 0.0044089185431906101 0 0.034672477193904039 0.0042940979585560316 0 0.034579893100774292 0.004992544595144679 0 0.034672477193904039 0.0042940979585560316 0 0.034579893100774292 0.004992544595144679 0 0.034729935429124045 0.0050129801242591466 0 0.034579893100774292 0.004992544595144679 0 0.034460942371838089 0.0053619646323927513 0 0.03466695037727531 0.0046830621253381877 0 0.034859927959906042 0.0040627718230580737 0 0.034729935429124045 0.0050129801242591466 0 0.034997726800869371 0.0056665870993195594 0 0.034859927959906042 0.0040627718230580737 0 0.034999293744854013 0.0035890520606824275 0 0.034997726800869371 0.0056665870993195594 0 0.034859927959906042 0.0040627718230580737 0 0.034672477193904039 0.0042940979585560316 0 0.034729935429124045 0.0050129801242591466 0 0.034579893100774292 0.004992544595144679 0 0.034729935429124045 0.0050129801242591466 0 0.034748093108924342 0.0055133019540436765 0 0.034729935429124045 0.0050129801242591466 0 0.034580029294325215 0.005514816929539844 0 0.034748093108924342 0.0055133019540436765 0 0.034997726800869371 0.0056665870993195594 0 0.034580029294325215 0.005514816929539844 0 0.034042951916223016 0.0060500798873127119 0 0.034729935429124045 0.0050129801242591466 0 0.034997726800869371 0.0056665870993195594 0 0.034580029294325215 0.005514816929539844 0 0.034999909121912837 0.0056701049026273379 0 0.034849310186035071 0.0068441067879089473 0 0.035000007808648571 0.0056697548858093217 0 0.0349999827177392 0.0073695897845212441 0 0.035592498075173389 0.0075034363934429731 0 0.034580029294325215 0.005514816929539844 0 0.034042951916223016 0.0060500798873127119 0 0.034748093108924342 0.0055133019540436765 0 0.034042951916223016 0.0060500798873127119 0 0.034748093108924342 0.0055133019540436765 0 0.034772117276580666 0.0070149372599448249 0 0.034748093108924342 0.0055133019540436765 0 0.034772117276580666 0.0070149372599448249 0 0.035898290630569693 0.0075597753859246155 0 0.034351090295690313 0.0083863625656499952 0 0.034042951916223016 0.0060500798873127119 0 0.034772117276580666 0.0070149372599448249 0 0.035950669299417738 0.0094190703880308972 0 0.034999850746738823 0.0090696445500495146 0 0.035592498075173389 0.0075034363934429731 0 0.034999850746738823 0.0090696445500495146 0 0.0349999827177392 0.0073695897845212441 0 0.035592498075173389 0.0075034363934429731 0 0.035175454210202135 0.0088500714793586215 0 0.034849310186035071 0.0068441067879089473 0 0.034460942371838089 0.0053619646323927513 0 0.034392939081385444 0.0054415877942289312 0 0.034256349702947039 0.0056728224893033445 0 0.034579893100774292 0.004992544595144679 0 0.034460942371838089 0.0053619646323927513 0 0.034392939081385444 0.0054415877942289312 0 0.034579893100774292 0.004992544595144679 0 0.034748093108924342 0.0055133019540436765 0 0.034392939081385444 0.0054415877942289312 0 0.034749279292238935 0.0056089638671735853 0 0.034997640278218008 0.0065843637800473134 0 0.034748093108924342 0.0055133019540436765 0 0.034392939081385444 0.0054415877942289312 0 0.034193861202238572 0.0055844423472238879 0 0.035168143878383205 0.0080010730218954048 0 0.034772117276580666 0.0070149372599448249 0 0.035898290630569693 0.0075597753859246155 0 0.034392939081385444 0.0054415877942289312 0 0.034193861202238572 0.0055844423472238879 0 0.034256349702947039 0.0056728224893033445 0 0.034340344736629613 0.0060835823931826164 0 0.034256349702947039 0.0056728224893033445 0 0.034445307355350431 0.0056854808206097734 0 0.034460942371838089 0.0053619646323927513 0 0.034256349702947039 0.0056728224893033445 0 0.034445307355350431 0.0056854808206097734 0 0.034460942371838089 0.0053619646323927513 0 0.034570566853550151 0.0054562583851355982 0 0.034445307355350431 0.0056854808206097734 0 0.034570566853550151 0.0054562583851355982 0 0.034445307355350431 0.0056854808206097734 0 0.034418502521515563 0.0056559546824191528 0 0.034570566853550151 0.0054562583851355982 0 0.034418502521515563 0.0056559546824191528 0 0.034567857426871879 0.0055901577606614749 0 0.034445307355350431 0.0056854808206097734 0 0.034323157965776188 0.0056713281857208179 0 0.034418502521515563 0.0056559546824191528 0 0.034340344736629613 0.0060835823931826164 0 0.034445307355350431 0.0056854808206097734 0 0.034323157965776188 0.0056713281857208179 0 0.033731737341234705 0.0052021845059640661 0 0.034323157965776188 0.0056713281857208179 0 0.033883855961912103 0.0055591965138272114 0 0.034323157965776188 0.0056713281857208179 0 0.033883855961912103 0.0055591965138272114 0 0.034418502521515563 0.0056559546824191528 0 0.033731737341234705 0.0052021845059640661 0 0.032545034735395932 0.0054462041653452944 0 0.033883855961912103 0.0055591965138272114 0 0.032545034735395932 0.0054462041653452944 0 0.033883855961912103 0.0055591965138272114 0 0.033252756083823005 0.0058516493605787418 0 0.033252756083823005 0.0058516493605787418 0 0.034273021454272433 0.0059430895796520429 0 0.034518541584143199 0.0062419298876879407 0 0.033883855961912103 0.0055591965138272114 0 0.033252756083823005 0.0058516493605787418 0 0.034187595156907939 0.0057660528785495341 0 0.033252756083823005 0.0058516493605787418 0 0.034273021454272433 0.0059430895796520429 0 0.034187595156907939 0.0057660528785495341 0 0.033883855961912103 0.0055591965138272114 0 0.034418502521515563 0.0056559546824191528 0 0.034187595156907939 0.0057660528785495341 0 0.034273021454272433 0.0059430895796520429 0 0.034187595156907939 0.0057660528785495341 0 0.034567857426871879 0.0055901577606614749 0 0.034418502521515563 0.0056559546824191528 0 0.034187595156907939 0.0057660528785495341 0 0.034567857426871879 0.0055901577606614749 0 0.034567857426871879 0.0055901577606614749 0 0.034743323433232956 0.0054087258656387461 0 0.034777770639406007 0.0050839596126389516 0 0.034273021454272433 0.0059430895796520429 0 0.034567857426871879 0.0055901577606614749 0 0.034743323433232956 0.0054087258656387461 0 0.034743323433232956 0.0054087258656387461 0 0.035196962112159891 0.0053626023184687368 0 0.035111789802486311 0.0048475360003816526 0 0.034743323433232956 0.0054087258656387461 0 0.035111789802486311 0.0048475360003816526 0 0.034777770639406007 0.0050839596126389516 0 0.033236256764058662 0.0059100024814590273 0 0.033335861361074026 0.0058747951009942984 0 0.031695528829526247 0.0064408851895774505 0 0.033252756083823005 0.0058516493605787418 0 0.031971830110769851 0.0067412942643926251 0 0.034202870681066533 0.0056756649957211231 0 0.033335861361074026 0.0058747951009942984 0 0.034273021454272433 0.0059430895796520429 0 0.034743323433232956 0.0054087258656387461 0 0.035196962112159891 0.0053626023184687368 0 0.030914185580872139 0.0068060046368517979 0 0.031695528829526247 0.0064408851895774505 0 0.031971830110769851 0.0067412942643926251 0 0.030914185580872139 0.0068060046368517979 0 0.030596446243501784 0.0071169430228606801 0 0.031971830110769851 0.0067412942643926251 0 0.032685144665883452 0.0050830068572662902 0 0.032376730966669216 0.0049639773582540996 0 0.032429682431034085 0.0057654801652785017 0 0.034277044498217703 0.0046133481339724258 0 0.033335861361074026 0.0058747951009942984 0 0.035901400941662748 0.0040312321503336215 0 0.035196962112159891 0.0053626023184687368 0 0.035111789802486311 0.0048475360003816526 0 0.031607279589516958 0.0063578996250580576 0 0.033335861361074026 0.0058747951009942984 0 0.035088819995510778 0.0042621380884089403 0 0.035111789802486311 0.0048475360003816526 0 0.034777770639406007 0.0050839596126389516 0 0.035088819995510778 0.0042621380884089403 0 0.03466695037727531 0.0046830621253381877 0 0.034777770639406007 0.0050839596126389516 0 0.034460942371838089 0.0053619646323927513 0 0.034570566853550151 0.0054562583851355982 0 0.03466695037727531 0.0046830621253381877 0 0.034570566853550151 0.0054562583851355982 0 0.03466695037727531 0.0046830621253381877 0 0.034777770639406007 0.0050839596126389516 0 0.034570566853550151 0.0054562583851355982 0 0.034567857426871879 0.0055901577606614749 0 0.034777770639406007 0.0050839596126389516 0 0.011948391726242085 -0.0009188502194774897 0 0.011244674935880489 -0.00068557216788130344 0 0.012167757557611363 0.00094179918957053711 0 0.011948391726242085 -0.0009188502194774897 0 0.012870558665242773 -0.00048821526573343484 0 0.012167757557611363 0.00094179918957053711 0 0.009575540514616317 -0.00040913188313270517 0 0.012642155686503344 0.0010722287454054827 0 0.013634440817651144 0.00047221296006746608 0 0.012870558665242773 -0.00048821526573343484 0 0.014279480146026239 -0.0012480714791477546 0 0.013634440817651144 0.00047221296006746608 0 0.012870558665242773 -0.00048821526573343484 0 0.012167757557611363 0.00094179918957053711 0 0.012732470834083342 -0.0018803459220152756 0 0.013557534855463411 -0.0024720459674648617 0 0.013328279126297414 -0.002810651290617589 0 0.012870558665242773 -0.00048821526573343484 0 0.012732470834083342 -0.0018803459220152756 0 0.014279480146026239 -0.0012480714791477546 0 0.012711496204611336 -0.0019407602021912216 0 0.013994509478195338 -0.0018264876368558087 0 0.011948391726242085 -0.0009188502194774897 0 0.012870558665242773 -0.00048821526573343484 0 0.012732470834083342 -0.0018803459220152756 0 0.011948391726242085 -0.0009188502194774897 0 0.012732470834083342 -0.0018803459220152756 0 0.011897028475278855 -0.001984475389313145 0 0.012732470834083342 -0.0018803459220152756 0 0.011897028475278855 -0.001984475389313145 0 0.012535778763226965 -0.0027238785249353108 0 0.011897028475278855 -0.001984475389313145 0 0.011120498624846317 -0.0016587540008162062 0 0.011310318493819079 -0.0024062319623270323 0 0.011897028475278855 -0.001984475389313145 0 0.011542346282064698 -0.0012929916279355632 0 0.011120498624846317 -0.0016587540008162062 0 0.011542346282064698 -0.0012929916279355632 0 0.011120498624846317 -0.0016587540008162062 0 0.011244674935880489 -0.00068557216788130344 0 0.011948391726242085 -0.0009188502194774897 0 0.011897028475278855 -0.001984475389313145 0 0.011542346282064698 -0.0012929916279355632 0 0.011120498624846317 -0.0016587540008162062 0 0.010608310201890115 -0.0015022946910806855 0 0.011244674935880489 -0.00068557216788130344 0 0.01074436162918011 -0.0019507005120836625 0 0.011120498624846317 -0.0016587540008162062 0 0.010608310201890115 -0.0015022946910806855 0 0.01074436162918011 -0.0019507005120836625 0 0.011120498624846317 -0.0016587540008162062 0 0.011310318493819079 -0.0024062319623270323 0 0.0094420848051963522 0.00093498051201337123 0 0.009890844395791118 0.00059445172579223303 0 0.0088187473466875173 0.00027559813938966344 0 0.009575540514616317 -0.00040913188313270517 0 0.013868152504990185 0.0011968149488841909 0 0.010608310201890115 -0.0015022946910806855 0 0.011244674935880489 -0.00068557216788130344 0 0.010204893206781262 -0.001308928247616245 0 0.0094420848051963522 0.00093498051201337123 0 0.0088187473466875173 0.00027559813938966344 0 0.0090329675508501062 0.0010642366058468849 0 0.011948391726242085 -0.0009188502194774897 0 0.011542346282064698 -0.0012929916279355632 0 0.011244674935880489 -0.00068557216788130344 0 0.009890844395791118 0.00059445172579223303 0 0.0098152226814510919 0.0012946183916432766 0 0.010853265001925365 0.0013485842176869721 0 0.0098152226814510919 0.0012946183916432766 0 0.0094384351708041471 0.0020877885198573721 0 0.010853265001925365 0.0013485842176869721 0 0.0079088685590287672 0.0030070353858174495 0 0.0096830881553848277 0.0026433113952817507 0 0.010853265001925365 0.0013485842176869721 0 0.010040806118906736 0.0039034636611306175 0 0.010321911994008259 0.0010842082894560951 0 0.009409560320336097 0.0015189305881262776 0 0.0092953417716557397 0.0021719706142058716 0 0.0090329675508501062 0.0010642366058468849 0 0.013461448381171007 0.0047447989691883005 0 0.015144341866904295 0.0033235310158956683 0 0.0094420848051963522 0.00093498051201337123 0 0.009409560320336097 0.0015189305881262776 0 0.0090329675508501062 0.0010642366058468849 0 0.0094420848051963522 0.00093498051201337123 0 0.009890844395791118 0.00059445172579223303 0 0.0098152226814510919 0.0012946183916432766 0 0.0094420848051963522 0.00093498051201337123 0 0.0098152226814510919 0.0012946183916432766 0 0.009409560320336097 0.0015189305881262776 0 0.0098152226814510919 0.0012946183916432766 0 0.009409560320336097 0.0015189305881262776 0 0.0094384351708041471 0.0020877885198573721 0 0.009409560320336097 0.0015189305881262776 0 0.0092953417716557397 0.0021719706142058716 0 0.0094384351708041471 0.0020877885198573721 0 0.013461448381171007 0.0047447989691883005 0 0.010040806118906736 0.0039034636611306175 0 0.0079309643747666157 0.0031710616596652788 0 0.0081994537021635484 0.0030072724175984884 0 0.00826041253148674 0.0041242383702137578 0 0.0081994537021635484 0.0030072724175984884 0 0.0093525743745887825 0.0037032456840657203 0 0.00826041253148674 0.0041242383702137578 0 0.013461448381171007 0.0047447989691883005 0 0.010706062207025155 0.0068793502039117766 0 0.011895756391397972 0.0091095722870191426 0 0.011806553727704016 0.0088853003826296576 0 0.011849804362222431 0.0089042245822317217 0 0.0081994537021635484 0.0030072724175984884 0 0.0096830881553848277 0.0026433113952817507 0 0.0093525743745887825 0.0037032456840657203 0 0.010040806118906736 0.0039034636611306175 0 0.0089907238681768489 0.0029224895246645457 0 0.0096830881553848277 0.0026433113952817507 0 0.0093525743745887825 0.0037032456840657203 0 0.010573517767686688 0.0035915676097511666 0 0.0096830881553848277 0.0026433113952817507 0 0.010573517767686688 0.0035915676097511666 0 0.011306712255030672 0.0023400748475643058 0 0.010573517767686688 0.0035915676097511666 0 0.011584309290803566 0.003286838971748373 0 0.011593083500936551 0.0043325228572290101 0 0.011584309290803566 0.003286838971748373 0 0.011306712255030672 0.0023400748475643058 0 0.012243410646820569 0.002617289370190829 0 0.010573517767686688 0.0035915676097511666 0 0.011584309290803566 0.003286838971748373 0 0.011306712255030672 0.0023400748475643058 0 0.009890844395791118 0.00059445172579223303 0 0.010853265001925365 0.0013485842176869721 0 0.012167757557611363 0.00094179918957053711 0 0.0096830881553848277 0.0026433113952817507 0 0.011306712255030672 0.0023400748475643058 0 0.010853265001925365 0.0013485842176869721 0 0.011306712255030672 0.0023400748475643058 0 0.012167757557611363 0.00094179918957053711 0 0.012243410646820569 0.002617289370190829 0 0.011306712255030672 0.0023400748475643058 0 0.010853265001925365 0.0013485842176869721 0 0.012167757557611363 0.00094179918957053711 0 0.013634440817651144 0.00047221296006746608 0 0.012167757557611363 0.00094179918957053711 0 0.013239650373638636 0.0021441283135411686 0 0.012167757557611363 0.00094179918957053711 0 0.013239650373638636 0.0021441283135411686 0 0.012243410646820569 0.002617289370190829 0 0.013239650373638636 0.0021441283135411686 0 0.012243410646820569 0.002617289370190829 0 0.01255021152487455 0.003913240347018945 0 0.011584309290803566 0.003286838971748373 0 0.012243410646820569 0.002617289370190829 0 0.01255021152487455 0.003913240347018945 0 0.011584309290803566 0.003286838971748373 0 0.01255021152487455 0.003913240347018945 0 0.011593083500936551 0.0043325228572290101 0 0.013239650373638636 0.0021441283135411686 0 0.01255021152487455 0.003913240347018945 0 0.013581109739792015 0.0037024178304780391 0 0.013581109739792015 0.0037024178304780391 0 0.015108386549385077 0.0034848543709242448 0 0.014343357461855616 0.0017975354906892332 0 0.013239650373638636 0.0021441283135411686 0 0.013581109739792015 0.0037024178304780391 0 0.014343357461855616 0.0017975354906892332 0 0.013581109739792015 0.0037024178304780391 0 0.015108386549385077 0.0034848543709242448 0 0.014222670552924314 0.0049417621248623615 0 0.015108386549385077 0.0034848543709242448 0 0.015483631686778335 0.0019911767148303606 0 0.016942298437882065 0.0033814611015030812 0 0.015108386549385077 0.0034848543709242448 0 0.016942298437882065 0.0033814611015030812 0 0.016778046891415536 0.0051401983473770485 0 0.015108386549385077 0.0034848543709242448 0 0.015483631686778335 0.0019911767148303606 0 0.014343357461855616 0.0017975354906892332 0 0.015483631686778335 0.0019911767148303606 0 0.017085418534273859 0.00064446833099596201 0 0.015954842943942799 0.00051779869293330642 0 0.015483631686778335 0.0019911767148303606 0 0.014981581445827744 0.00028990021776913682 0 0.015954842943942799 0.00051779869293330642 0 0.013634440817651144 0.00047221296006746608 0 0.014343357461855616 0.0017975354906892332 0 0.014981581445827744 0.00028990021776913682 0 0.015483631686778335 0.0019911767148303606 0 0.014343357461855616 0.0017975354906892332 0 0.014981581445827744 0.00028990021776913682 0 0.013634440817651144 0.00047221296006746608 0 0.013239650373638636 0.0021441283135411686 0 0.014343357461855616 0.0017975354906892332 0 0.0096502844779369386 0.00090658883050285437 0 0.01185468316155237 0.0046419663482899004 0 0.0072511306762970103 0.0043168097958126957 0 0.0087107445942227746 0.0079639021353749978 0 0.014685774381375614 0.0011356274523163059 0 0.015483631686778335 0.0019911767148303606 0 0.016942298437882065 0.0033814611015030812 0 0.018227376050219929 0.0023202292049894859 0 0.019139955929432899 0.003970733730596269 0 0.016942298437882065 0.0033814611015030812 0 0.018227376050219929 0.0023202292049894859 0 0.015483631686778335 0.0019911767148303606 0 0.017533826781767223 0.0017148633832154746 0 0.01787801578316198 0.0020645208491162879 0 0.017026830608922551 0.0022828707406015621 0 0.014685774381375614 0.0011356274523163059 0 0.015483631686778335 0.0019911767148303606 0 0.017085418534273859 0.00064446833099596201 0 0.017533826781767223 0.0017148633832154746 0 0.014695880024388441 -0.001963232903710197 0 0.014685774381375614 0.0011356274523163059 0 0.01262210675894089 -0.004056965624510577 0 0.011665315692029004 -0.0056719033799099428 0 0.011520470410837091 -0.0042772448794270324 0 0.017085418534273859 0.00064446833099596201 0 0.017533826781767223 0.0017148633832154746 0 0.01786952328837212 0.0020869134624498529 0 0.016113016291380951 0.0020557155444700459 0 0.014685774381375614 0.0011356274523163059 0 0.014685774381375614 0.0011356274523163059 0 0.0086610602524458524 -0.00083796377365625532 0 0.011665315692029004 -0.0056719033799099428 0 0.010462292149290878 -0.0044603180901135768 0 0.0096455151369253811 -0.0058355053508555603 0 0.011665315692029004 -0.0056719033799099428 0 0.011520470410837091 -0.0042772448794270324 0 0.010462292149290878 -0.0044603180901135768 0 0.010462292149290878 -0.0044603180901135768 0 0.011329704478463227 -0.0029070294724264454 0 0.0091203541870902953 -0.0034765974955262764 0 0.011230958723718369 -0.0032045371782974991 0 0.0094302283709030172 -0.0034462712530199621 0 0.011539281786851142 -0.0033591519506901619 0 0.01069461017198187 -0.0013026667213300756 0 0.0091203541870902953 -0.0034765974955262764 0 0.011520470410837091 -0.0042772448794270324 0 0.010462292149290878 -0.0044603180901135768 0 0.011329704478463227 -0.0029070294724264454 0 0.011539281786851142 -0.0033591519506901619 0 0.012733164227581193 -0.00274557653603663 0 0.013559963054276845 -0.0032203795636398863 0 0.01262210675894089 -0.004056965624510577 0 0.011329704478463227 -0.0029070294724264454 0 0.013593032303454027 -0.0024046102152874278 0 0.011230958723718369 -0.0032045371782974991 0 0.014394295917339837 -0.0020663398367096932 0 0.01262210675894089 -0.004056965624510577 0 0.011520470410837091 -0.0042772448794270324 0 0.011329704478463227 -0.0029070294724264454 0 0.014695880024388441 -0.001963232903710197 0 0.014394295917339837 -0.0020663398367096932 0 0.012733164227581193 -0.00274557653603663 0 0.01069461017198187 -0.0013026667213300756 0 0.013795419794354528 -0.0027552867364399863 0 0.013611718531836996 -0.0041568135093430041 0 0.013795419794354528 -0.0027552867364399863 0 0.013821902120581951 -0.0033521545012789298 0 0.012153814077405803 -0.0027343537853175628 0 0.013574438941203781 -0.0027522232911066135 0 0.011539281786851142 -0.0033591519506901619 0 0.012733164227581193 -0.00274557653603663 0 0.01069461017198187 -0.0013026667213300756 0 0.013634440817651144 0.00047221296006746608 0 0.014981581445827744 0.00028990021776913682 0 0.014279480146026239 -0.0012480714791477546 0 0.014981581445827744 0.00028990021776913682 0 0.01625733867296162 -0.00078430571478935944 0 0.014279480146026239 -0.0012480714791477546 0 0.014981581445827744 0.00028990021776913682 0 0.015954842943942799 0.00051779869293330642 0 0.01625733867296162 -0.00078430571478935944 0 0.017085418534273859 0.00064446833099596201 0 0.015954842943942799 0.00051779869293330642 0 0.01625733867296162 -0.00078430571478935944 0 0.014394295917339837 -0.0020663398367096932 0 0.013994509478195338 -0.0018264876368558087 0 0.013689002162954093 -0.0027215653052196343 0 0.013786929013208988 -0.0028481483181892219 0 0.013795419794354528 -0.0027552867364399863 0 0.013822199126287711 -0.0028494194626713983 0 0.013689002162954093 -0.0027215653052196343 0 0.013557534855463411 -0.0024720459674648617 0 0.013822199126287711 -0.0028494194626713983 0 0.013689002162954093 -0.0027215653052196343 0 0.013786929013208988 -0.0028481483181892219 0 0.012733164227581193 -0.00274557653603663 0 0.013786929013208988 -0.0028481483181892219 0 0.013795419794354528 -0.0027552867364399863 0 0.012733164227581193 -0.00274557653603663 0 0.013559963054276845 -0.0032203795636398863 0 0.013786929013208988 -0.0028481483181892219 0 0.014394295917339837 -0.0020663398367096932 0 0.01405279521358329 -0.002598455963942964 0 0.013795419794354528 -0.0027552867364399863 0 0.013750451203148408 -0.0029775123795796102 0 0.013821902120581951 -0.0033521545012789298 0 0.013689002162954093 -0.0027215653052196343 0 0.013795419794354528 -0.0027552867364399863 0 0.013750451203148408 -0.0029775123795796102 0 0.013689002162954093 -0.0027215653052196343 0 0.013750451203148408 -0.0029775123795796102 0 0.013656510039030423 -0.0029526289208933634 0 0.013689002162954093 -0.0027215653052196343 0 0.013557534855463411 -0.0024720459674648617 0 0.013656510039030423 -0.0029526289208933634 0 0.013557534855463411 -0.0024720459674648617 0 0.013656510039030423 -0.0029526289208933634 0 0.013328279126297414 -0.002810651290617589 0 0.013656510039030423 -0.0029526289208933634 0 0.013614370529811629 -0.0033429419605796617 0 0.013328279126297414 -0.002810651290617589 0 0.013656510039030423 -0.0029526289208933634 0 0.013771612891671132 -0.0033214452625000231 0 0.013614370529811629 -0.0033429419605796617 0 0.013656510039030423 -0.0029526289208933634 0 0.013785428624427491 -0.0032024621537593704 0 0.013771612891671132 -0.0033214452625000231 0 0.013750451203148408 -0.0029775123795796102 0 0.013656510039030423 -0.0029526289208933634 0 0.013785428624427491 -0.0032024621537593704 0 0.013750451203148408 -0.0029775123795796102 0 0.013785428624427491 -0.0032024621537593704 0 0.013821902120581951 -0.0033521545012789298 0 0.013785428624427491 -0.0032024621537593704 0 0.013855864211954807 -0.0034894966315270246 0 0.013771612891671132 -0.0033214452625000231 0 0.013785428624427491 -0.0032024621537593704 0 0.013855864211954807 -0.0034894966315270246 0 0.013846074208860189 -0.0034819007393464907 0 0.013771612891671132 -0.0033214452625000231 0 0.013881261127247147 -0.0036024004823448945 0 0.013614370529811629 -0.0033429419605796617 0 0.013855864211954807 -0.0034894966315270246 0 0.013881261127247147 -0.0036024004823448945 0 0.013885231765616398 -0.0036664711695290533 0 0.013855864211954807 -0.0034894966315270246 0 0.013771612891671132 -0.0033214452625000231 0 0.013881261127247147 -0.0036024004823448945 0 0.013881261127247147 -0.0036024004823448945 0 0.013936921215985325 -0.0037065128773649415 0 0.013961040352599829 -0.0038427718716222861 0 0.013881261127247147 -0.0036024004823448945 0 0.013614370529811629 -0.0033429419605796617 0 0.013708111386130503 -0.0037939155372683723 0 0.013614370529811629 -0.0033429419605796617 0 0.013708111386130503 -0.0037939155372683723 0 0.013340730326780579 -0.0038310099852971041 0 0.013611718531836996 -0.0041568135093430041 0 0.013752431407716795 -0.0037963039588482751 0 0.013821902120581951 -0.0033521545012789298 0 0.013611718531836996 -0.0041568135093430041 0 0.013752431407716795 -0.0037963039588482751 0 0.013261707472601636 -0.0038747446511704334 0 0.013752431407716795 -0.0037963039588482751 0 0.013846074208860189 -0.0034819007393464907 0 0.013885231765616398 -0.0036664711695290533 0 0.013752431407716795 -0.0037963039588482751 0 0.013821902120581951 -0.0033521545012789298 0 0.013846074208860189 -0.0034819007393464907 0 0.013785428624427491 -0.0032024621537593704 0 0.013821902120581951 -0.0033521545012789298 0 0.013846074208860189 -0.0034819007393464907 0 0.013855864211954807 -0.0034894966315270246 0 0.013846074208860189 -0.0034819007393464907 0 0.013885231765616398 -0.0036664711695290533 0 0.013885231765616398 -0.0036664711695290533 0 0.013936921215985325 -0.0037065128773649415 0 0.01395734107697643 -0.0037275523181273412 0 0.013885231765616398 -0.0036664711695290533 0 0.013724297238061985 -0.0037494467537599872 0 0.01395734107697643 -0.0037275523181273412 0 0.013752431407716795 -0.0037963039588482751 0 0.013885231765616398 -0.0036664711695290533 0 0.013724297238061985 -0.0037494467537599872 0 0.013881261127247147 -0.0036024004823448945 0 0.013885231765616398 -0.0036664711695290533 0 0.013936921215985325 -0.0037065128773649415 0 0.013752431407716795 -0.0037963039588482751 0 0.013724297238061985 -0.0037494467537599872 0 0.013261707472601636 -0.0038747446511704334 0 0.013724297238061985 -0.0037494467537599872 0 0.013593061536627305 -0.0035601629202017307 0 0.013261707472601636 -0.0038747446511704334 0 0.013724297238061985 -0.0037494467537599872 0 0.013593061536627305 -0.0035601629202017307 0 0.01395734107697643 -0.0037275523181273412 0 0.013593061536627305 -0.0035601629202017307 0 0.01395734107697643 -0.0037275523181273412 0 0.01386956665471439 -0.0036206466135198772 0 0.01395734107697643 -0.0037275523181273412 0 0.014163329788694052 -0.0038067815581602849 0 0.01386956665471439 -0.0036206466135198772 0 0.013936921215985325 -0.0037065128773649415 0 0.01395734107697643 -0.0037275523181273412 0 0.013961040352599829 -0.0038427718716222861 0 0.01395734107697643 -0.0037275523181273412 0 0.014163329788694052 -0.0038067815581602849 0 0.013961040352599829 -0.0038427718716222861 0 0.014163329788694052 -0.0038067815581602849 0 0.013961040352599829 -0.0038427718716222861 0 0.013988432321699055 -0.0043693837980352023 0 0.014163329788694052 -0.0038067815581602849 0 0.013988432321699055 -0.0043693837980352023 0 0.014323290891387869 -0.0044638798440432238 0 0.014163329788694052 -0.0038067815581602849 0 0.014855727879183442 -0.0044247253915177687 0 0.014323290891387869 -0.0044638798440432238 0 0.013704323776405609 -0.003200446262265122 0 0.012994495449336023 -0.0033593901272127706 0 0.013670260796232958 -0.0031140689417318975 0 0.013593061536627305 -0.0035601629202017307 0 0.013704323776405609 -0.003200446262265122 0 0.012994495449336023 -0.0033593901272127706 0 0.013593061536627305 -0.0035601629202017307 0 0.01386956665471439 -0.0036206466135198772 0 0.013704323776405609 -0.003200446262265122 0 0.014163329788694052 -0.0038067815581602849 0 0.01386956665471439 -0.0036206466135198772 0 0.013704323776405609 -0.003200446262265122 0 0.014163329788694052 -0.0038067815581602849 0 0.013704323776405609 -0.003200446262265122 0 0.013722125978920675 -0.0030899514781325085 0 0.014160423112291265 -0.0038021388180407788 0 0.013100567504383384 -0.0049304932329477568 0 0.013146877349121362 -0.0046446696732502114 0 0.013100567504383384 -0.0049304932329477568 0 0.013708111386130503 -0.0037939155372683723 0 0.01356412545479649 -0.0042884809538114108 0 0.013340730326780579 -0.0038310099852971041 0 0.013708111386130503 -0.0037939155372683723 0 0.013809194651114753 -0.0041945377008683633 0 0.01356412545479649 -0.0042884809538114108 0 0.013708111386130503 -0.0037939155372683723 0 0.013961040352599829 -0.0038427718716222861 0 0.013809194651114753 -0.0041945377008683633 0 0.013881261127247147 -0.0036024004823448945 0 0.013708111386130503 -0.0037939155372683723 0 0.013961040352599829 -0.0038427718716222861 0 0.013988432321699055 -0.0043693837980352023 0 0.013766005903761964 -0.0046831106472135613 0 0.013809194651114753 -0.0041945377008683633 0 0.013961040352599829 -0.0038427718716222861 0 0.013988432321699055 -0.0043693837980352023 0 0.013809194651114753 -0.0041945377008683633 0 0.013766005903761964 -0.0046831106472135613 0 0.013809194651114753 -0.0041945377008683633 0 0.01356412545479649 -0.0042884809538114108 0 0.013766005903761964 -0.0046831106472135613 0 0.01356412545479649 -0.0042884809538114108 0 0.013575054304342976 -0.0049919827311284319 0 0.01356412545479649 -0.0042884809538114108 0 0.01307507947905133 -0.0042029687613015084 0 0.013575054304342976 -0.0049919827311284319 0 0.013138480859005276 -0.0048511404514013966 0 0.01307507947905133 -0.0042029687613015084 0 0.013575054304342976 -0.0049919827311284319 0 0.01307507947905133 -0.0042029687613015084 0 0.012722432345003124 -0.0034927534906514907 0 0.012316830289047407 -0.0038816978670267064 0 0.01307507947905133 -0.0042029687613015084 0 0.013340730326780579 -0.0038310099852971041 0 0.012722432345003124 -0.0034927534906514907 0 0.013138480859005276 -0.0048511404514013966 0 0.01307507947905133 -0.0042029687613015084 0 0.012316830289047407 -0.0038816978670267064 0 0.01356412545479649 -0.0042884809538114108 0 0.01307507947905133 -0.0042029687613015084 0 0.013340730326780579 -0.0038310099852971041 0 0.013614370529811629 -0.0033429419605796617 0 0.013340730326780579 -0.0038310099852971041 0 0.013110165157303028 -0.0032730293372201843 0 0.013340730326780579 -0.0038310099852971041 0 0.013110165157303028 -0.0032730293372201843 0 0.012722432345003124 -0.0034927534906514907 0 0.013110165157303028 -0.0032730293372201843 0 0.012722432345003124 -0.0034927534906514907 0 0.012535778763226965 -0.0027238785249353108 0 0.012722432345003124 -0.0034927534906514907 0 0.012535778763226965 -0.0027238785249353108 0 0.012007349480945284 -0.0029606135712306881 0 0.011897028475278855 -0.001984475389313145 0 0.012535778763226965 -0.0027238785249353108 0 0.012007349480945284 -0.0029606135712306881 0 0.012732470834083342 -0.0018803459220152756 0 0.012535778763226965 -0.0027238785249353108 0 0.013328279126297414 -0.002810651290617589 0 0.013110165157303028 -0.0032730293372201843 0 0.012535778763226965 -0.0027238785249353108 0 0.013328279126297414 -0.002810651290617589 0 0.013614370529811629 -0.0033429419605796617 0 0.013110165157303028 -0.0032730293372201843 0 0.013328279126297414 -0.002810651290617589 0 0.011310318493819079 -0.0024062319623270323 0 0.011526709143406432 -0.0031618441764935169 0 0.010598635942462249 -0.0026270392930372003 0 0.01074436162918011 -0.0019507005120836625 0 0.011310318493819079 -0.0024062319623270323 0 0.010598635942462249 -0.0026270392930372003 0 0.011897028475278855 -0.001984475389313145 0 0.011310318493819079 -0.0024062319623270323 0 0.012007349480945284 -0.0029606135712306881 0 0.011310318493819079 -0.0024062319623270323 0 0.012007349480945284 -0.0029606135712306881 0 0.011526709143406432 -0.0031618441764935169 0 0.012007349480945284 -0.0029606135712306881 0 0.011526709143406432 -0.0031618441764935169 0 0.012316830289047407 -0.0038816978670267064 0 0.012722432345003124 -0.0034927534906514907 0 0.012007349480945284 -0.0029606135712306881 0 0.012316830289047407 -0.0038816978670267064 0 0.013115136403289072 -0.0040328100737297241 0 0.012385580682681316 -0.0034569233843447737 0 0.011526709143406432 -0.0031618441764935169 0 0.011400640317696933 -0.0038750855664521642 0 0.010598635942462249 -0.0026270392930372003 0 0.011526709143406432 -0.0031618441764935169 0 0.011400640317696933 -0.0038750855664521642 0 0.012316830289047407 -0.0038816978670267064 0 0.0148179345325449 -0.0045703210303629357 0 0.014889815636284694 -0.0030143852104892116 0 0.014257197758424649 -0.0041038159957518016 0 0.011400640317696933 -0.0038750855664521642 0 0.012316830289047407 -0.0038816978670267064 0 0.012418228657869122 -0.0048564420630245499 0 0.013115136403289072 -0.0040328100737297241 0 0.013479787372085635 -0.0051402907110745461 0 0.013138480859005276 -0.0048511404514013966 0 0.012316830289047407 -0.0038816978670267064 0 0.012418228657869122 -0.0048564420630245499 0 0.0148179345325449 -0.0045703210303629357 0 0.014522369036453413 -0.0055594381672816207 0 0.014267256441314512 -0.005375146447493857 0 0.01525948229259958 -0.0039180530116952579 0 0.014921746408632922 -0.003464413814783416 0 0.014849535972536942 -0.0038452543071842071 0 0.01525948229259958 -0.0039180530116952579 0 0.014921746408632922 -0.003464413814783416 0 0.015039080608176141 -0.0031534325736183979 0 0.014762485023517107 -0.0046398133372084699 0 0.014672081157025845 -0.0036403626932239985 0 0.0148179345325449 -0.0045703210303629357 0 0.014267256441314512 -0.005375146447493857 0 0.014257197758424649 -0.0041038159957518016 0 0.014921746408632922 -0.003464413814783416 0 0.014605853488286896 -0.0034952530661129227 0 0.014659530674922382 -0.0028280806630321437 0 0.014921746408632922 -0.003464413814783416 0 0.014605853488286896 -0.0034952530661129227 0 0.014849535972536942 -0.0038452543071842071 0 0.014605853488286896 -0.0034952530661129227 0 0.014376859972461411 -0.0043591525747587925 0 0.014690171969604799 -0.0042409142649383639 0 0.01525948229259958 -0.0039180530116952579 0 0.014849535972536942 -0.0038452543071842071 0 0.014690171969604799 -0.0042409142649383639 0 0.014605853488286896 -0.0034952530661129227 0 0.014849535972536942 -0.0038452543071842071 0 0.014690171969604799 -0.0042409142649383639 0 0.020892992989574439 0.0051379134372939329 0 0.020943348285632633 0.0053842720605400875 0 0.02056496713269567 0.005527734157359813 0 0.020942112597329584 0.0052196950409509456 0 0.018685140557128894 0.0010866033420547031 0 0.021683455768411006 0.0046924645337080182 0 0.021246861130557012 0.0043476726545936635 0 0.021403729361716015 0.0037255655399369573 0 0.017948046339267148 0.00026734560083381065 0 0.018685140557128894 0.0010866033420547031 0 0.020892992989574439 0.0051379134372939329 0 0.021304419659324541 0.0051030535103480041 0 0.020943348285632633 0.0053842720605400875 0 0.021304419659324541 0.0051030535103480041 0 0.020943348285632633 0.0053842720605400875 0 0.021361969493330545 0.0055734433683308562 0 0.021304419659324541 0.0051030535103480041 0 0.021232533467250854 0.0049179634590421741 0 0.021719871050254028 0.0045902137627796798 0 0.020892992989574439 0.0051379134372939329 0 0.021304419659324541 0.0051030535103480041 0 0.021232533467250854 0.0049179634590421741 0 0.021232533467250854 0.0049179634590421741 0 0.02130941629914165 0.0050443629122010935 0 0.021719871050254028 0.0045902137627796798 0 0.020942112597329584 0.0052196950409509456 0 0.021217125402223411 0.004736692169518714 0 0.021246861130557012 0.0043476726545936635 0 0.021409512506982923 0.0047096921777374833 0 0.021232533467250854 0.0049179634590421741 0 0.021683455768411006 0.0046924645337080182 0 0.021246861130557012 0.0043476726545936635 0 0.021409512506982923 0.0047096921777374833 0 0.021409512506982923 0.0047096921777374833 0 0.021232533467250854 0.0049179634590421741 0 0.021407547787610112 0.0049783672185858482 0 0.021683455768411006 0.0046924645337080182 0 0.021409512506982923 0.0047096921777374833 0 0.021407547787610112 0.0049783672185858482 0 0.021683455768411006 0.0046924645337080182 0 0.021407547787610112 0.0049783672185858482 0 0.021527706754765653 0.0051501182594494328 0 0.021407547787610112 0.0049783672185858482 0 0.021423242745310326 0.0052225134037485769 0 0.021527706754765653 0.0051501182594494328 0 0.021407547787610112 0.0049783672185858482 0 0.021423242745310326 0.0052225134037485769 0 0.02130941629914165 0.0050443629122010935 0 0.021232533467250854 0.0049179634590421741 0 0.021407547787610112 0.0049783672185858482 0 0.02130941629914165 0.0050443629122010935 0 0.021423242745310326 0.0052225134037485769 0 0.021527706754765653 0.0051501182594494328 0 0.021495956753925866 0.0052910966619652304 0 0.02130941629914165 0.0050443629122010935 0 0.021416766539942574 0.0052657979379350734 0 0.021440089051281957 0.0053201468942731065 0 0.021370615301294159 0.0050338771179627819 0 0.021616611604425132 0.0049982847412029319 0 0.02130941629914165 0.0050443629122010935 0 0.021439559043784358 0.0053754282604788961 0 0.021440089051281957 0.0053201468942731065 0 0.021423242745310326 0.0052225134037485769 0 0.02130941629914165 0.0050443629122010935 0 0.021416766539942574 0.0052657979379350734 0 0.021423242745310326 0.0052225134037485769 0 0.021416766539942574 0.0052657979379350734 0 0.021466059555858792 0.0053455302788451608 0 0.021511619200328951 0.0054090212103228832 0 0.021478468262794363 0.0053726596270427017 0 0.021440089051281957 0.0053201468942731065 0 0.021416766539942574 0.0052657979379350734 0 0.021478468262794363 0.0053726596270427017 0 0.021440089051281957 0.0053201468942731065 0 0.021511619200328951 0.0054090212103228832 0 0.021478468262794363 0.0053726596270427017 0 0.021542459074217372 0.0054611288520080604 0 0.021466059555858792 0.0053455302788451608 0 0.021521480460062335 0.005446360580896161 0 0.021494743801588757 0.0053966729316077214 0 0.021478468262794363 0.0053726596270427017 0 0.021466059555858792 0.0053455302788451608 0 0.021521480460062335 0.005446360580896161 0 0.021416766539942574 0.0052657979379350734 0 0.021478468262794363 0.0053726596270427017 0 0.021466059555858792 0.0053455302788451608 0 0.021543306886969409 0.0055085898845482267 0 0.021521480460062335 0.005446360580896161 0 0.021616229803195185 0.0055743901809180438 0 0.021543306886969409 0.0055085898845482267 0 0.021521480460062335 0.005446360580896161 0 0.021494743801588757 0.0053966729316077214 0 0.021521480460062335 0.005446360580896161 0 0.021542459074217372 0.0054611288520080604 0 0.021616229803195185 0.0055743901809180438 0 0.021478468262794363 0.0053726596270427017 0 0.021521480460062335 0.005446360580896161 0 0.021542459074217372 0.0054611288520080604 0 0.021542459074217372 0.0054611288520080604 0 0.021584298973885727 0.0055048101142240857 0 0.021616229803195185 0.0055743901809180438 0 0.021511619200328951 0.0054090212103228832 0 0.021542459074217372 0.0054611288520080604 0 0.021584298973885727 0.0055048101142240857 0 0.021495956753925866 0.0052910966619652304 0 0.021494743801588757 0.0053966729316077214 0 0.021529292782372887 0.0053830495015954024 0 0.021527706754765653 0.0051501182594494328 0 0.021495956753925866 0.0052910966619652304 0 0.021529292782372887 0.0053830495015954024 0 0.021423242745310326 0.0052225134037485769 0 0.021495956753925866 0.0052910966619652304 0 0.021494743801588757 0.0053966729316077214 0 0.021423242745310326 0.0052225134037485769 0 0.021466059555858792 0.0053455302788451608 0 0.021494743801588757 0.0053966729316077214 0 0.021543306886969409 0.0055085898845482267 0 0.021494743801588757 0.0053966729316077214 0 0.021515821488097369 0.005517310913451757 0 0.021494743801588757 0.0053966729316077214 0 0.021529292782372887 0.0053830495015954024 0 0.021515821488097369 0.005517310913451757 0 0.021529292782372887 0.0053830495015954024 0 0.021545009952815043 0.0054388693705493037 0 0.02144140534802828 0.0055494831454627634 0 0.021527706754765653 0.0051501182594494328 0 0.021529292782372887 0.0053830495015954024 0 0.021652182138318418 0.0052685247143331206 0 0.021529292782372887 0.0053830495015954024 0 0.021652182138318418 0.0052685247143331206 0 0.021545009952815043 0.0054388693705493037 0 0.021652182138318418 0.0052685247143331206 0 0.021545009952815043 0.0054388693705493037 0 0.021587837071596401 0.0055690706633217029 0 0.018397128379639034 0.0012585952840653263 0 0.016607674469902477 0.0021373038800529651 0 0.014659530674922382 -0.0028280806630321437 0 0.014746819334705693 -0.0025368693093173345 0 0.015039080608176141 -0.0031534325736183979 0 0.014746819334705693 -0.0025368693093173345 0 0.014889815636284694 -0.0030143852104892116 0 0.014257197758424649 -0.0041038159957518016 0 0.014746819334705693 -0.0025368693093173345 0 0.014889815636284694 -0.0030143852104892116 0 0.014686973451545043 -0.0020201455721637778 0 0.014659530674922382 -0.0028280806630321437 0 0.014746819334705693 -0.0025368693093173345 0 0.014686973451545043 -0.0020201455721637778 0 0.01472046259581857 -0.0026484282309912621 0 0.014672081157025845 -0.0036403626932239985 0 0.014921746408632922 -0.003464413814783416 0 0.014659530674922382 -0.0028280806630321437 0 0.015039080608176141 -0.0031534325736183979 0 0.017948046339267148 0.00026734560083381065 0 0.018397128379639034 0.0012585952840653263 0 0.021683455768411006 0.0046924645337080182 0 0.021527706754765653 0.0051501182594494328 0 0.021652182138318418 0.0052685247143331206 0 0.022001394380807917 0.0056737067165825847 0 0.021856431664285039 0.0056436412877297537 0 0.021717216694210187 0.0054113386251657411 0 0.024387434305872573 0.0059518453349884266 0 0.023372956979643384 0.0055155250879028389 0 0.025817501946788422 0.0063658892390222235 0 0.025720779507273618 0.0060487218875809072 0 0.025292906161417401 0.0059178655805067083 0 0.024387434305872573 0.0059518453349884266 0 0.023114508625347693 0.0053554083893943127 0 0.025160908886906579 0.0057365238783782307 0 0.024434471299912257 0.0049481184471659462 0 0.024278452666826638 0.0057283646734911297 0 0.024434471299912257 0.0049481184471659462 0 0.024278452666826638 0.0057283646734911297 0 0.023738931994856272 0.0052005312298349163 0 0.024434471299912257 0.0049481184471659462 0 0.023738931994856272 0.0052005312298349163 0 0.022925493938859474 0.0045948109467435164 0 0.023738931994856272 0.0052005312298349163 0 0.023364845121395628 0.0055734245959559491 0 0.022925493938859474 0.0045948109467435164 0 0.024278452666826638 0.0057283646734911297 0 0.023738931994856272 0.0052005312298349163 0 0.023364845121395628 0.0055734245959559491 0 0.021540533804507257 0.0055125414065839472 0 0.021555691181080371 0.0053991155666996337 0 0.021717216694210187 0.0054113386251657411 0 0.023114508625347693 0.0053554083893943127 0 0.022253520389863415 0.0050612745543497806 0 0.021856431664285039 0.0056436412877297537 0 0.021540533804507257 0.0055125414065839472 0 0.021717216694210187 0.0054113386251657411 0 0.022925493938859474 0.0045948109467435164 0 0.022215129725467617 0.005340074168887962 0 0.021719871050254028 0.0045902137627796798 0 0.021540533804507257 0.0055125414065839472 0 0.021439559043784358 0.0053754282604788961 0 0.021480533313131572 0.0053787607663189647 0 0.022253520389863415 0.0050612745543497806 0 0.021616611604425132 0.0049982847412029319 0 0.023364845121395628 0.0055734245959559491 0 0.022925493938859474 0.0045948109467435164 0 0.022215129725467617 0.005340074168887962 0 0.021304419659324541 0.0051030535103480041 0 0.022215129725467617 0.005340074168887962 0 0.021719871050254028 0.0045902137627796798 0 0.021304419659324541 0.0051030535103480041 0 0.022215129725467617 0.005340074168887962 0 0.021361969493330545 0.0055734433683308562 0 0.021439559043784358 0.0053754282604788961 0 0.021440089051281957 0.0053201468942731065 0 0.021463785907801253 0.00536233612592746 0 0.021440089051281957 0.0053201468942731065 0 0.021506181192406795 0.0054119546741586907 0 0.021463785907801253 0.00536233612592746 0 0.021511619200328951 0.0054090212103228832 0 0.021440089051281957 0.0053201468942731065 0 0.021506181192406795 0.0054119546741586907 0 0.021511619200328951 0.0054090212103228832 0 0.021506181192406795 0.0054119546741586907 0 0.021584298973885727 0.0055048101142240857 0 0.021506181192406795 0.0054119546741586907 0 0.021584951743318582 0.0055308410106687184 0 0.021584298973885727 0.0055048101142240857 0 0.021482145138477366 0.0054285212545180459 0 0.021386949263416138 0.0054984827067143371 0 0.021537506555715687 0.0055275326561294424 0 0.021584951743318582 0.0055308410106687184 0 0.021482145138477366 0.0054285212545180459 0 0.021537506555715687 0.0055275326561294424 0 0.021506181192406795 0.0054119546741586907 0 0.021584951743318582 0.0055308410106687184 0 0.021482145138477366 0.0054285212545180459 0 0.021506181192406795 0.0054119546741586907 0 0.021482145138477366 0.0054285212545180459 0 0.021463785907801253 0.00536233612592746 0 0.021482145138477366 0.0054285212545180459 0 0.021463785907801253 0.00536233612592746 0 0.021447280136546312 0.0053858653364042232 0 0.023603425304417891 0.0070260845235101226 0 0.023258596769054122 0.0064589535643364672 0 0.022924792037491766 0.0066936707364361149 0 0.021463785907801253 0.00536233612592746 0 0.021447280136546312 0.0053858653364042232 0 0.021480533313131572 0.0053787607663189647 0 0.021482145138477366 0.0054285212545180459 0 0.021447280136546312 0.0053858653364042232 0 0.021386949263416138 0.0054984827067143371 0 0.021447280136546312 0.0053858653364042232 0 0.021488892935639541 0.0053489476944782038 0 0.021386949263416138 0.0054984827067143371 0 0.023235201713615657 0.0060958649295713568 0 0.022913102755865639 0.006672698545255035 0 0.023188277713778595 0.0070802561347961231 0 0.022564349227071786 0.0066329181136899366 0 0.022727858378082846 0.0065951331153703977 0 0.023235201713615657 0.0060958649295713568 0 0.02191689908736803 0.0059887920134229855 0 0.021447280136546312 0.0053858653364042232 0 0.021480533313131572 0.0053787607663189647 0 0.021488892935639541 0.0053489476944782038 0 0.021439559043784358 0.0053754282604788961 0 0.021463785907801253 0.00536233612592746 0 0.021480533313131572 0.0053787607663189647 0 0.021540533804507257 0.0055125414065839472 0 0.021480533313131572 0.0053787607663189647 0 0.021555691181080371 0.0053991155666996337 0 0.021480533313131572 0.0053787607663189647 0 0.021555691181080371 0.0053991155666996337 0 0.021488892935639541 0.0053489476944782038 0 0.021555691181080371 0.0053991155666996337 0 0.021488892935639541 0.0053489476944782038 0 0.021717216694210187 0.0054113386251657411 0 0.023235201713615657 0.0060958649295713568 0 0.023372956979643384 0.0055155250879028389 0 0.024673724920243834 0.0053477840231975753 0 0.025292906161417401 0.0059178655805067083 0 0.025237429083765424 0.0057096157021353528 0 0.023235201713615657 0.0060958649295713568 0 0.024996137178228031 0.006464410120951369 0 0.023603425304417891 0.0070260845235101226 0 0.024210280298442841 0.006862872755071984 0 0.023795364677624525 0.0064841312610048546 0 0.023603425304417891 0.0070260845235101226 0 0.024210280298442841 0.006862872755071984 0 0.024545188968687459 0.007141168032807634 0 0.024210280298442841 0.006862872755071984 0 0.024351788595956159 0.0066494844921931289 0 0.023795364677624525 0.0064841312610048546 0 0.024210280298442841 0.006862872755071984 0 0.024786141162415089 0.0068077268339905659 0 0.024545188968687459 0.007141168032807634 0 0.024210280298442841 0.006862872755071984 0 0.024351788595956159 0.0066494844921931289 0 0.024786141162415089 0.0068077268339905659 0 0.024891415923556853 0.0065885560132724844 0 0.024351788595956159 0.0066494844921931289 0 0.024786141162415089 0.0068077268339905659 0 0.025416158330937869 0.0069440840756124405 0 0.025140220076959856 0.0069013031419836411 0 0.024545188968687459 0.007141168032807634 0 0.025720779507273618 0.0060487218875809072 0 0.025292906161417401 0.0059178655805067083 0 0.025237429083765424 0.0057096157021353528 0 0.025501596217322484 0.0064377005464881362 0 0.024996137178228031 0.006464410120951369 0 0.024786141162415089 0.0068077268339905659 0 0.025140220076959856 0.0069013031419836411 0 0.024545188968687459 0.007141168032807634 0 0.024185939117240932 0.0063204421616458919 0 0.023623737606411201 0.0060894204390850512 0 0.023847810726898788 0.0059980695298471227 0 0.024529523502341891 0.0060873175267088893 0 0.024185939117240932 0.0063204421616458919 0 0.023847810726898788 0.0059980695298471227 0 0.024351788595956159 0.0066494844921931289 0 0.024185939117240932 0.0063204421616458919 0 0.023795364677624525 0.0064841312610048546 0 0.024891415923556853 0.0065885560132724844 0 0.024351788595956159 0.0066494844921931289 0 0.024185939117240932 0.0063204421616458919 0 0.024891415923556853 0.0065885560132724844 0 0.024979286458472007 0.0063821177162695763 0 0.024185939117240932 0.0063204421616458919 0 0.023603425304417891 0.0070260845235101226 0 0.023795364677624525 0.0064841312610048546 0 0.023258596769054122 0.0064589535643364672 0 0.024185939117240932 0.0063204421616458919 0 0.023795364677624525 0.0064841312610048546 0 0.023623737606411201 0.0060894204390850512 0 0.023795364677624525 0.0064841312610048546 0 0.023197414335999155 0.0060559727772452002 0 0.023258596769054122 0.0064589535643364672 0 0.023197414335999155 0.0060559727772452002 0 0.023623737606411201 0.0060894204390850512 0 0.023159905894478312 0.0058401376759016242 0 0.023197414335999155 0.0060559727772452002 0 0.022839891232234944 0.0058086930891071064 0 0.023159905894478312 0.0058401376759016242 0 0.023795364677624525 0.0064841312610048546 0 0.023197414335999155 0.0060559727772452002 0 0.023623737606411201 0.0060894204390850512 0 0.023623737606411201 0.0060894204390850512 0 0.023159905894478312 0.0058401376759016242 0 0.023847810726898788 0.0059980695298471227 0 0.023197414335999155 0.0060559727772452002 0 0.022839891232234944 0.0058086930891071064 0 0.02260259223526177 0.0058568104411126998 0 0.022839891232234944 0.0058086930891071064 0 0.02260259223526177 0.0058568104411126998 0 0.022455519059937569 0.0056265066598105706 0 0.02260259223526177 0.0058568104411126998 0 0.022856117248982302 0.0061477630497507275 0 0.022229989047626061 0.00598392056372604 0 0.023197414335999155 0.0060559727772452002 0 0.02260259223526177 0.0058568104411126998 0 0.022856117248982302 0.0061477630497507275 0 0.023197414335999155 0.0060559727772452002 0 0.023258596769054122 0.0064589535643364672 0 0.022856117248982302 0.0061477630497507275 0 0.023258596769054122 0.0064589535643364672 0 0.022828057911696169 0.0063259113405857038 0 0.022856117248982302 0.0061477630497507275 0 0.023258596769054122 0.0064589535643364672 0 0.022924792037491766 0.0066936707364361149 0 0.022828057911696169 0.0063259113405857038 0 0.022564349227071786 0.0066329181136899366 0 0.022727858378082846 0.0065951331153703977 0 0.022229989047626061 0.00598392056372604 0 0.022924792037491766 0.0066936707364361149 0 0.022828057911696169 0.0063259113405857038 0 0.022229989047626061 0.00598392056372604 0 0.022828057911696169 0.0063259113405857038 0 0.022856117248982302 0.0061477630497507275 0 0.022229989047626061 0.00598392056372604 0 0.022913102755865639 0.006672698545255035 0 0.022296570479987073 0.0060428605415586388 0 0.022564349227071786 0.0066329181136899366 0 0.022229989047626061 0.00598392056372604 0 0.021829940375697403 0.0059014236893725897 0 0.02191689908736803 0.0059887920134229855 0 0.021875737121153659 0.0059539256277458914 0 0.021386949263416138 0.0054984827067143371 0 0.021644603942142421 0.005643468194786963 0 0.021829940375697403 0.0059014236893725897 0 0.021386949263416138 0.0054984827067143371 0 0.021644603942142421 0.005643468194786963 0 0.021537506555715687 0.0055275326561294424 0 0.021584951743318582 0.0055308410106687184 0 0.021644603942142421 0.005643468194786963 0 0.021537506555715687 0.0055275326561294424 0 0.021584951743318582 0.0055308410106687184 0 0.021584298973885727 0.0055048101142240857 0 0.021702948796687153 0.0056672085469914729 0 0.021584951743318582 0.0055308410106687184 0 0.021644603942142421 0.005643468194786963 0 0.021702948796687153 0.0056672085469914729 0 0.021644603942142421 0.005643468194786963 0 0.021702948796687153 0.0056672085469914729 0 0.021829940375697403 0.0059014236893725897 0 0.021702948796687153 0.0056672085469914729 0 0.021829940375697403 0.0059014236893725897 0 0.021702236821196902 0.0056903452560651754 0 0.022229989047626061 0.00598392056372604 0 0.021829940375697403 0.0059014236893725897 0 0.02206254317061351 0.0056871607555529259 0 0.021829940375697403 0.0059014236893725897 0 0.02206254317061351 0.0056871607555529259 0 0.021820594534279734 0.005718834685851981 0 0.02260259223526177 0.0058568104411126998 0 0.022229989047626061 0.00598392056372604 0 0.02206254317061351 0.0056871607555529259 0 0.02260259223526177 0.0058568104411126998 0 0.02206254317061351 0.0056871607555529259 0 0.022455519059937569 0.0056265066598105706 0 0.02206254317061351 0.0056871607555529259 0 0.021931354574427849 0.0054615987684253813 0 0.022455519059937569 0.0056265066598105706 0 0.022385325090121238 0.0055798824047864652 0 0.022378493456685983 0.0054185685326284955 0 0.022455519059937569 0.0056265066598105706 0 0.022466174492552362 0.0057476680949892483 0 0.022407670355227834 0.0057527493158219065 0 0.021931354574427849 0.0054615987684253813 0 0.022455519059937569 0.0056265066598105706 0 0.021952920356616765 0.0050383185679758954 0 0.022466174492552362 0.0057476680949892483 0 0.022397346100559115 0.0059045597982771815 0 0.022289969454445779 0.0058627082670742467 0 0.022397346100559115 0.0059045597982771815 0 0.022289969454445779 0.0058627082670742467 0 0.022205084714181884 0.0060596757821628914 0 0.022466174492552362 0.0057476680949892483 0 0.022289969454445779 0.0058627082670742467 0 0.022407670355227834 0.0057527493158219065 0 0.022289969454445779 0.0058627082670742467 0 0.022407670355227834 0.0057527493158219065 0 0.022379243345880814 0.0057986412674499062 0 0.022407670355227834 0.0057527493158219065 0 0.022379243345880814 0.0057986412674499062 0 0.02265625457702761 0.0057485164835236495 0 0.022289969454445779 0.0058627082670742467 0 0.022379243345880814 0.0057986412674499062 0 0.022176160148712584 0.0059363602574480263 0 0.022379243345880814 0.0057986412674499062 0 0.022505775110829438 0.0057730713774347096 0 0.022176160148712584 0.0059363602574480263 0 0.022379243345880814 0.0057986412674499062 0 0.022505775110829438 0.0057730713774347096 0 0.02265625457702761 0.0057485164835236495 0 0.022839891232234944 0.0058086930891071064 0 0.022455519059937569 0.0056265066598105706 0 0.02265625457702761 0.0057485164835236495 0 0.022839891232234944 0.0058086930891071064 0 0.02265625457702761 0.0057485164835236495 0 0.023159905894478312 0.0058401376759016242 0 0.022455519059937569 0.0056265066598105706 0 0.022407670355227834 0.0057527493158219065 0 0.02265625457702761 0.0057485164835236495 0 0.023159905894478312 0.0058401376759016242 0 0.023050003026319456 0.0057190985246951811 0 0.023737728836278702 0.0058017326920758268 0 0.023159905894478312 0.0058401376759016242 0 0.023737728836278702 0.0058017326920758268 0 0.023847810726898788 0.0059980695298471227 0 0.02265625457702761 0.0057485164835236495 0 0.023159905894478312 0.0058401376759016242 0 0.023050003026319456 0.0057190985246951811 0 0.023050003026319456 0.0057190985246951811 0 0.023788941920542331 0.0055327169621998875 0 0.022802800538965672 0.0054876648745759184 0 0.022505775110829438 0.0057730713774347096 0 0.02265625457702761 0.0057485164835236495 0 0.023050003026319456 0.0057190985246951811 0 0.022505775110829438 0.0057730713774347096 0 0.023050003026319456 0.0057190985246951811 0 0.022802800538965672 0.0054876648745759184 0 0.02466583981271225 0.0057329753300145994 0 0.023788941920542331 0.0055327169621998875 0 0.023737728836278702 0.0058017326920758268 0 0.023050003026319456 0.0057190985246951811 0 0.023788941920542331 0.0055327169621998875 0 0.023737728836278702 0.0058017326920758268 0 0.024529523502341891 0.0060873175267088893 0 0.023737728836278702 0.0058017326920758268 0 0.023847810726898788 0.0059980695298471227 0 0.021304086762333595 0.0053959605361012424 0 0.021474342048528671 0.0053618274470779281 0 0.021158137758888085 0.0052001840083308075 0 0.021304086762333595 0.0053959605361012424 0 0.021058626843395468 0.0054021508208906199 0 0.021158137758888085 0.0052001840083308075 0 0.021278506110743389 0.0054763539722683646 0 0.021304086762333595 0.0053959605361012424 0 0.021058626843395468 0.0054021508208906199 0 0.021278506110743389 0.0054763539722683646 0 0.021304086762333595 0.0053959605361012424 0 0.021475619402261521 0.0055273638387673312 0 0.021058626843395468 0.0054021508208906199 0 0.021158137758888085 0.0052001840083308075 0 0.020831430234581297 0.005236595409476563 0 0.013868152504990185 0.0011968149488841909 0 0.015144341866904295 0.0033235310158956683 0 0.021058626843395468 0.0054021508208906199 0 0.020994871716044611 0.0054808749662072134 0 0.020831430234581297 0.005236595409476563 0 0.021278506110743389 0.0054763539722683646 0 0.021058626843395468 0.0054021508208906199 0 0.021023174385373131 0.0055564420063924759 0 0.021058626843395468 0.0054021508208906199 0 0.020995723410927012 0.0054970375210066161 0 0.020994871716044611 0.0054808749662072134 0 0.018705207041232127 0.0047413217753779907 0 0.016607674469902477 0.0021373038800529651 0 0.01074436162918011 -0.0019507005120836625 0 0.010598635942462249 -0.0026270392930372003 0 0.010169130173050312 -0.001375743659664055 0 0.012385580682681316 -0.0034569233843447737 0 0.016607674469902477 0.0021373038800529651 0 0.016607674469902477 0.0021373038800529651 0 0.013868152504990185 0.0011968149488841909 0 0.010608310201890115 -0.0015022946910806855 0 0.010169130173050312 -0.001375743659664055 0 0.010204893206781262 -0.001308928247616245 0 0.01074436162918011 -0.0019507005120836625 0 0.010608310201890115 -0.0015022946910806855 0 0.010169130173050312 -0.001375743659664055 0 0.021529292782372887 0.0053830495015954024 0 0.02144140534802828 0.0055494831454627634 0 0.021515821488097369 0.005517310913451757 0 0.021545009952815043 0.0054388693705493037 0 0.021587837071596401 0.0055690706633217029 0 0.02144140534802828 0.0055494831454627634 0 0.021278506110743389 0.0054763539722683646 0 0.021023174385373131 0.0055564420063924759 0 0.02144140534802828 0.0055494831454627634 0 0.016607674469902477 0.0021373038800529651 0 0.023078303532219076 0.0059917885740727655 0 0.021278506110743389 0.0054763539722683646 0 0.02144140534802828 0.0055494831454627634 0 0.021475619402261521 0.0055273638387673312 0 0.021543306886969409 0.0055085898845482267 0 0.021515821488097369 0.005517310913451757 0 0.021580709601124445 0.005577779453785613 0 0.021515821488097369 0.005517310913451757 0 0.021580709601124445 0.005577779453785613 0 0.021475619402261521 0.0055273638387673312 0 0.021580709601124445 0.005577779453785613 0 0.021599080686360031 0.0055821158874059876 0 0.021475619402261521 0.0055273638387673312 0 0.02144140534802828 0.0055494831454627634 0 0.021515821488097369 0.005517310913451757 0 0.021475619402261521 0.0055273638387673312 0 0.021584298973885727 0.0055048101142240857 0 0.021702948796687153 0.0056672085469914729 0 0.021616229803195185 0.0055743901809180438 0 0.021702948796687153 0.0056672085469914729 0 0.021616229803195185 0.0055743901809180438 0 0.021702236821196902 0.0056903452560651754 0 0.021543306886969409 0.0055085898845482267 0 0.021580709601124445 0.005577779453785613 0 0.021616229803195185 0.0055743901809180438 0 0.021580709601124445 0.005577779453785613 0 0.021616229803195185 0.0055743901809180438 0 0.021702236821196902 0.0056903452560651754 0 0.021580709601124445 0.005577779453785613 0 0.021702236821196902 0.0056903452560651754 0 0.021599080686360031 0.0055821158874059876 0 0.021829940375697403 0.0059014236893725897 0 0.021702236821196902 0.0056903452560651754 0 0.021820594534279734 0.005718834685851981 0 0.021713563073727071 0.0055527677358486599 0 0.021474342048528671 0.0053618274470779281 0 0.021712877847258855 0.0053222662326631535 0 0.021702236821196902 0.0056903452560651754 0 0.021820594534279734 0.005718834685851981 0 0.021713563073727071 0.0055527677358486599 0 0.02206254317061351 0.0056871607555529259 0 0.021820594534279734 0.005718834685851981 0 0.021713563073727071 0.0055527677358486599 0 0.021702236821196902 0.0056903452560651754 0 0.021599080686360031 0.0055821158874059876 0 0.021713563073727071 0.0055527677358486599 0 0.02206254317061351 0.0056871607555529259 0 0.021931354574427849 0.0054615987684253813 0 0.021713563073727071 0.0055527677358486599 0 0.021599080686360031 0.0055821158874059876 0 0.021713563073727071 0.0055527677358486599 0 0.021474342048528671 0.0053618274470779281 0 0.021599080686360031 0.0055821158874059876 0 0.021475619402261521 0.0055273638387673312 0 0.021474342048528671 0.0053618274470779281 0 0.021304086762333595 0.0053959605361012424 0 0.021475619402261521 0.0055273638387673312 0 0.021474342048528671 0.0053618274470779281 0 0.021474342048528671 0.0053618274470779281 0 0.021596677187848148 0.005113057530956356 0 0.021712877847258855 0.0053222662326631535 0 0.021474342048528671 0.0053618274470779281 0 0.021596677187848148 0.005113057530956356 0 0.021344088767442367 0.005095644528509519 0 0.021952920356616765 0.0050383185679758954 0 0.021596677187848148 0.005113057530956356 0 0.021712877847258855 0.0053222662326631535 0 0.021931354574427849 0.0054615987684253813 0 0.021713563073727071 0.0055527677358486599 0 0.021712877847258855 0.0053222662326631535 0 0.021931354574427849 0.0054615987684253813 0 0.021952920356616765 0.0050383185679758954 0 0.021712877847258855 0.0053222662326631535 0 0.022378493456685983 0.0054185685326284955 0 0.020518063490556942 0.0060774408849606663 0 0.022466174492552362 0.0057476680949892483 0 0.022397346100559115 0.0059045597982771815 0 0.022670432514012826 0.0059957085976628001 0 0.021952920356616765 0.0050383185679758954 0 0.021596677187848148 0.005113057530956356 0 0.021664230075350229 0.0047609788617109794 0 0.019899546872210228 0.0059222394834978955 0 0.020518063490556942 0.0060774408849606663 0 0.021179821946182825 0.0048490111218865359 0 0.021344088767442367 0.005095644528509519 0 0.021664230075350229 0.0047609788617109794 0 0.021596677187848148 0.005113057530956356 0 0.021344088767442367 0.005095644528509519 0 0.021664230075350229 0.0047609788617109794 0 0.021179821946182825 0.0048490111218865359 0 0.021158137758888085 0.0052001840083308075 0 0.020953032615888708 0.0050516785711963927 0 0.021179821946182825 0.0048490111218865359 0 0.021158137758888085 0.0052001840083308075 0 0.021344088767442367 0.005095644528509519 0 0.021474342048528671 0.0053618274470779281 0 0.021158137758888085 0.0052001840083308075 0 0.021344088767442367 0.005095644528509519 0 0.021158137758888085 0.0052001840083308075 0 0.020953032615888708 0.0050516785711963927 0 0.020831430234581297 0.005236595409476563 0 0.020636721418726477 0.0048964898324185486 0 0.020953032615888708 0.0050516785711963927 0 0.020831430234581297 0.005236595409476563 0 0.011895756391397972 0.0091095722870191426 0 0.012464549441945683 0.0088369654231768395 0 0.011849804362222431 0.0089042245822317217 0 0.013461448381171007 0.0047447989691883005 0 0.014086480332313871 0.0080158978613237165 0 0.013461448381171007 0.0047447989691883005 0 0.019899546872210228 0.0059222394834978955 0 0.020636721418726477 0.0048964898324185486 0 0.021179821946182825 0.0048490111218865359 0 0.020953032615888708 0.0050516785711963927 0 0.014615184861137959 0.0072224267758979619 0 0.0169097921819591 0.0068793889257596471 0 0.016388532931927151 0.0062552090404749084 0 0.012464549441945683 0.0088369654231768395 0 0.012087525877825725 0.0086702472242249778 0 0.011849804362222431 0.0089042245822317217 0 0.012464549441945683 0.0088369654231768395 0 0.012087525877825725 0.0086702472242249778 0 0.012320977761430377 0.0084229122159875484 0 0.012087525877825725 0.0086702472242249778 0 0.012320977761430377 0.0084229122159875484 0 0.01185587611257621 0.0084640437218290333 0 0.012320977761430377 0.0084229122159875484 0 0.01287571002168148 0.0082749905583588725 0 0.012176870540354998 0.0080091244271443991 0 0.012320977761430377 0.0084229122159875484 0 0.012176870540354998 0.0080091244271443991 0 0.01185587611257621 0.0084640437218290333 0 0.012464549441945683 0.0088369654231768395 0 0.012320977761430377 0.0084229122159875484 0 0.01287571002168148 0.0082749905583588725 0 0.012464549441945683 0.0088369654231768395 0 0.01287571002168148 0.0082749905583588725 0 0.013091874768248154 0.0085032660104718983 0 0.0169097921819591 0.0068793889257596471 0 0.016388532931927151 0.0062552090404749084 0 0.018144023950402554 0.0052529493287777366 0 0.014086480332313871 0.0080158978613237165 0 0.016498179754691828 0.0070981584055293447 0 0.0169097921819591 0.0068793889257596471 0 0.019155395465717942 0.0064179340751908658 0 0.018144023950402554 0.0052529493287777366 0 0.0192189141813685 0.0075336976086051157 0 0.017995769050410598 0.0061179785577286545 0 0.018446329556253326 0.0058548036437670445 0 0.020518063490556942 0.0060774408849606663 0 0.016498179754691828 0.0070981584055293447 0 0.01727814269445771 0.0071521631086313205 0 0.021464232196225563 0.0067068126643622106 0 0.0192189141813685 0.0075336976086051157 0 0.018446329556253326 0.0058548036437670445 0 0.021068643966803802 0.007137954750491832 0 0.020518063490556942 0.0060774408849606663 0 0.021464232196225563 0.0067068126643622106 0 0.022397346100559115 0.0059045597982771815 0 0.022670432514012826 0.0059957085976628001 0 0.022354424667276076 0.0061005141313737084 0 0.019035428909628452 0.0064230775053289021 0 0.017539439898942941 0.0071202195343662827 0 0.020721270899310737 0.0072997845810053048 0 0.017539439898942941 0.0071202195343662827 0 0.017066420383147728 0.007455308844837109 0 0.020721270899310737 0.0072997845810053048 0 0.019035428909628452 0.0064230775053289021 0 0.017539439898942941 0.0071202195343662827 0 0.017191386480939212 0.0064392071276386173 0 0.019035428909628452 0.0064230775053289021 0 0.019961553245008656 0.0050663483947266975 0 0.020300980516196467 0.0059296775980167294 0 0.014989815464178068 0.0079916350722096918 0 0.016498179754691828 0.0070981584055293447 0 0.01571046495474223 0.0072406050060066516 0 0.016204803802687299 0.0078105569142232897 0 0.016513544493175551 0.0076301380823571461 0 0.014989815464178068 0.0079916350722096918 0 0.01727814269445771 0.0071521631086313205 0 0.016498179754691828 0.0070981584055293447 0 0.01727814269445771 0.0071521631086313205 0 0.017317644998577578 0.0071543857929960491 0 0.01727814269445771 0.0071521631086313205 0 0.017539439898942941 0.0071202195343662827 0 0.017011053721072821 0.0074229798879514699 0 0.016723750728009783 0.0069972588968880622 0 0.017539439898942941 0.0071202195343662827 0 0.016723750728009783 0.0069972588968880622 0 0.017191386480939212 0.0064392071276386173 0 0.016267113867197387 0.0072383770844930782 0 0.017011053721072821 0.0074229798879514699 0 0.016723750728009783 0.0069972588968880622 0 0.016267113867197387 0.0072383770844930782 0 0.016723750728009783 0.0069972588968880622 0 0.016142857355158607 0.0074211299251842359 0 0.016142857355158607 0.0074211299251842359 0 0.017191386480939212 0.0064392071276386173 0 0.015551130832312184 0.0082621452097135107 0 0.016723750728009783 0.0069972588968880622 0 0.016142857355158607 0.0074211299251842359 0 0.017191386480939212 0.0064392071276386173 0 0.017157529659655182 0.0066594297651244036 0 0.017293036663381261 0.0064180769231554505 0 0.017191386480939212 0.0064392071276386173 0 0.019961553245008656 0.0050663483947266975 0 0.020055640787528334 0.0037936877346591369 0 0.019035428909628452 0.0064230775053289021 0 0.017191386480939212 0.0064392071276386173 0 0.019961553245008656 0.0050663483947266975 0 0.019961553245008656 0.0050663483947266975 0 0.020055640787528334 0.0037936877346591369 0 0.020952982074778442 0.0041836138364137127 0 0.017191386480939212 0.0064392071276386173 0 0.014504421211907082 0.0087049189960943622 0 0.015551130832312184 0.0082621452097135107 0 0.014504421211907082 0.0087049189960943622 0 0.015551130832312184 0.0082621452097135107 0 0.014749357306312508 0.0095002820227873021 0 0.015670344899123587 0.008424573639413676 0 0.015370562917697115 0.0092448308878538762 0 0.015312453557962107 0.0091207186612574011 0 0.015551130832312184 0.0082621452097135107 0 0.015670344899123587 0.008424573639413676 0 0.015312453557962107 0.0091207186612574011 0 0.015370562917697115 0.0092448308878538762 0 0.01529188219778632 0.0094197015813169502 0 0.015174884744241182 0.0094358633106087688 0 0.015670344899123587 0.008424573639413676 0 0.015370562917697115 0.0092448308878538762 0 0.015919348266785687 0.0079998355561355459 0 0.015383197687439044 0.0090082205219854106 0 0.015690429922883758 0.0087733959094582533 0 0.015370562917697115 0.0092448308878538762 0 0.01529188219778632 0.0094197015813169502 0 0.01536577477593524 0.0093869165307019966 0 0.014989815464178068 0.0079916350722096918 0 0.014316854751374411 0.0084423711452043491 0 0.015422258393804841 0.0094162367446229255 0 0.01529188219778632 0.0094197015813169502 0 0.01536577477593524 0.0093869165307019966 0 0.016267113867197387 0.0072383770844930782 0 0.016142857355158607 0.0074211299251842359 0 0.015919348266785687 0.0079998355561355459 0 0.014989815464178068 0.0079916350722096918 0 0.015690429922883758 0.0087733959094582533 0 0.016142857355158607 0.0074211299251842359 0 0.015670344899123587 0.008424573639413676 0 0.015919348266785687 0.0079998355561355459 0 0.016142857355158607 0.0074211299251842359 0 0.015551130832312184 0.0082621452097135107 0 0.015670344899123587 0.008424573639413676 0 0.023949771206074659 0.0042833338614478933 0 0.023042120379541862 0.0046483639606513354 0 0.023560913482362528 0.0051357129530515341 0 0.023788941920542331 0.0055327169621998875 0 0.023560913482362528 0.0051357129530515341 0 0.022802800538965672 0.0054876648745759184 0 0.023042120379541862 0.0046483639606513354 0 0.023560913482362528 0.0051357129530515341 0 0.022802800538965672 0.0054876648745759184 0 0.022505775110829438 0.0057730713774347096 0 0.022802800538965672 0.0054876648745759184 0 0.022268455768300242 0.0058573019712724319 0 0.022802800538965672 0.0054876648745759184 0 0.02240820471625871 0.0051582849842056128 0 0.022158400086146564 0.0057335748366710302 0 0.023042120379541862 0.0046483639606513354 0 0.022802800538965672 0.0054876648745759184 0 0.02240820471625871 0.0051582849842056128 0 0.023042120379541862 0.0046483639606513354 0 0.02240820471625871 0.0051582849842056128 0 0.022143133990327902 0.0042306391817609227 0 0.02240820471625871 0.0051582849842056128 0 0.021675758659583599 0.0055107916398867765 0 0.022143133990327902 0.0042306391817609227 0 0.021675758659583599 0.0055107916398867765 0 0.022158400086146564 0.0057335748366710302 0 0.021747185381897526 0.0060689541565255222 0 0.021675758659583599 0.0055107916398867765 0 0.021747185381897526 0.0060689541565255222 0 0.021157301708855047 0.006219563670093472 0 0.02240820471625871 0.0051582849842056128 0 0.021675758659583599 0.0055107916398867765 0 0.022158400086146564 0.0057335748366710302 0 0.022802800538965672 0.0054876648745759184 0 0.022158400086146564 0.0057335748366710302 0 0.022268455768300242 0.0058573019712724319 0 0.022158400086146564 0.0057335748366710302 0 0.022268455768300242 0.0058573019712724319 0 0.021988285039657964 0.0061091838912231454 0 0.022505775110829438 0.0057730713774347096 0 0.022268455768300242 0.0058573019712724319 0 0.022176160148712584 0.0059363602574480263 0 0.022289969454445779 0.0058627082670742467 0 0.022049639989593823 0.0060641815880042166 0 0.022176160148712584 0.0059363602574480263 0 0.022268455768300242 0.0058573019712724319 0 0.022176160148712584 0.0059363602574480263 0 0.021988285039657964 0.0061091838912231454 0 0.022049639989593823 0.0060641815880042166 0 0.022176160148712584 0.0059363602574480263 0 0.021988285039657964 0.0061091838912231454 0 0.022049639989593823 0.0060641815880042166 0 0.021988285039657964 0.0061091838912231454 0 0.021779203534661468 0.0065365683374836213 0 0.022158400086146564 0.0057335748366710302 0 0.021988285039657964 0.0061091838912231454 0 0.021747185381897526 0.0060689541565255222 0 0.021988285039657964 0.0061091838912231454 0 0.021747185381897526 0.0060689541565255222 0 0.021779203534661468 0.0065365683374836213 0 0.021747185381897526 0.0060689541565255222 0 0.021779203534661468 0.0065365683374836213 0 0.021157301708855047 0.006219563670093472 0 0.021779203534661468 0.0065365683374836213 0 0.020721270899310737 0.0072997845810053048 0 0.021157301708855047 0.006219563670093472 0 0.022049639989593823 0.0060641815880042166 0 0.021779203534661468 0.0065365683374836213 0 0.022205084714181884 0.0060596757821628914 0 0.021779203534661468 0.0065365683374836213 0 0.022205084714181884 0.0060596757821628914 0 0.02287911808828447 0.0063983439609135231 0 0.021705706723969254 0.0066564658984060929 0 0.021464232196225563 0.0067068126643622106 0 0.021926936023630612 0.00663809921137709 0 0.021464232196225563 0.0067068126643622106 0 0.022289969454445779 0.0058627082670742467 0 0.022049639989593823 0.0060641815880042166 0 0.022205084714181884 0.0060596757821628914 0 0.022397346100559115 0.0059045597982771815 0 0.022205084714181884 0.0060596757821628914 0 0.022354424667276076 0.0061005141313737084 0 0.020721270899310737 0.0072997845810053048 0 0.021157301708855047 0.006219563670093472 0 0.020300980516196467 0.0059296775980167294 0 0.021675758659583599 0.0055107916398867765 0 0.020300980516196467 0.0059296775980167294 0 0.021252854960845387 0.0047000462405014749 0 0.021675758659583599 0.0055107916398867765 0 0.021157301708855047 0.006219563670093472 0 0.020300980516196467 0.0059296775980167294 0 0.019035428909628452 0.0064230775053289021 0 0.020721270899310737 0.0072997845810053048 0 0.020300980516196467 0.0059296775980167294 0 0.019961553245008656 0.0050663483947266975 0 0.020300980516196467 0.0059296775980167294 0 0.021252854960845387 0.0047000462405014749 0 0.019961553245008656 0.0050663483947266975 0 0.021252854960845387 0.0047000462405014749 0 0.020952982074778442 0.0041836138364137127 0 0.020952982074778442 0.0041836138364137127 0 0.021662002470397908 0.0041137474219181229 0 0.021488321328631266 0.003888996831795027 0 0.020055640787528334 0.0037936877346591369 0 0.020952982074778442 0.0041836138364137127 0 0.021488321328631266 0.003888996831795027 0 0.021252854960845387 0.0047000462405014749 0 0.020952982074778442 0.0041836138364137127 0 0.021662002470397908 0.0041137474219181229 0 0.021662002470397908 0.0041137474219181229 0 0.022143133990327902 0.0042306391817609227 0 0.021916830363685899 0.0039382142262143066 0 0.021252854960845387 0.0047000462405014749 0 0.021662002470397908 0.0041137474219181229 0 0.022143133990327902 0.0042306391817609227 0 0.021675758659583599 0.0055107916398867765 0 0.021252854960845387 0.0047000462405014749 0 0.022143133990327902 0.0042306391817609227 0 0.022635532080714397 0.0036627861497874449 0 0.02174211001367133 0.004063833660673111 0 0.021916830363685899 0.0039382142262143066 0 0.021409703468018154 0.0037736025797119005 0 0.022635532080714397 0.0036627861497874449 0 0.02174211001367133 0.004063833660673111 0 0.023042120379541862 0.0046483639606513354 0 0.022143133990327902 0.0042306391817609227 0 0.022635532080714397 0.0036627861497874449 0 0.022143133990327902 0.0042306391817609227 0 0.022635532080714397 0.0036627861497874449 0 0.021916830363685899 0.0039382142262143066 0 0.023949771206074659 0.0042833338614478933 0 0.023042120379541862 0.0046483639606513354 0 0.022635532080714397 0.0036627861497874449 0 0.02174211001367133 0.004063833660673111 0 0.021718949977695207 0.0041897878612228356 0 0.021400870797578575 0.0046113980532673376 0 0.021184280906549061 0.004348415137987189 0 0.02174211001367133 0.004063833660673111 0 0.021400870797578575 0.0046113980532673376 0 0.02174211001367133 0.004063833660673111 0 0.021916830363685899 0.0039382142262143066 0 0.021718949977695207 0.0041897878612228356 0 0.021916830363685899 0.0039382142262143066 0 0.021718949977695207 0.0041897878612228356 0 0.021703883943338619 0.0040753484592781055 0 0.021718949977695207 0.0041897878612228356 0 0.021703883943338619 0.0040753484592781055 0 0.021724022983025809 0.0044289077887498859 0 0.021703883943338619 0.0040753484592781055 0 0.021488321328631266 0.003888996831795027 0 0.021637649247841863 0.0040700416253415935 0 0.021703883943338619 0.0040753484592781055 0 0.021637649247841863 0.0040700416253415935 0 0.021793016135098629 0.0043091144248403228 0 0.021916830363685899 0.0039382142262143066 0 0.021703883943338619 0.0040753484592781055 0 0.021488321328631266 0.003888996831795027 0 0.021662002470397908 0.0041137474219181229 0 0.021916830363685899 0.0039382142262143066 0 0.021488321328631266 0.003888996831795027 0 0.021637649247841863 0.0040700416253415935 0 0.021776362406267673 0.0042619524958090946 0 0.021385225211696723 0.003937935981705421 0 0.021488321328631266 0.003888996831795027 0 0.021637649247841863 0.0040700416253415935 0 0.021385225211696723 0.003937935981705421 0 0.021637649247841863 0.0040700416253415935 0 0.021776362406267673 0.0042619524958090946 0 0.021793016135098629 0.0043091144248403228 0 0.021776362406267673 0.0042619524958090946 0 0.021962685353226229 0.0045354768634924556 0 0.021793016135098629 0.0043091144248403228 0 0.021776362406267673 0.0042619524958090946 0 0.021962685353226229 0.0045354768634924556 0 0.022137441237943121 0.0046319973297299973 0 0.021962685353226229 0.0045354768634924556 0 0.022137441237943121 0.0046319973297299973 0 0.022212850009930025 0.004858438519253095 0 0.021962685353226229 0.0045354768634924556 0 0.021892724096677023 0.0046518788215098167 0 0.022212850009930025 0.004858438519253095 0 0.021892724096677023 0.0046518788215098167 0 0.02194874581304472 0.0050610822038451792 0 0.022212850009930025 0.004858438519253095 0 0.021892724096677023 0.0046518788215098167 0 0.021651846891395956 0.0049088570666685058 0 0.02194874581304472 0.0050610822038451792 0 0.021892724096677023 0.0046518788215098167 0 0.021793016135098629 0.0043091144248403228 0 0.021724022983025809 0.0044289077887498859 0 0.021703883943338619 0.0040753484592781055 0 0.021793016135098629 0.0043091144248403228 0 0.021724022983025809 0.0044289077887498859 0 0.021962685353226229 0.0045354768634924556 0 0.021892724096677023 0.0046518788215098167 0 0.021793016135098629 0.0043091144248403228 0 0.021718949977695207 0.0041897878612228356 0 0.021724022983025809 0.0044289077887498859 0 0.021400870797578575 0.0046113980532673376 0 0.021724022983025809 0.0044289077887498859 0 0.021651846891395956 0.0049088570666685058 0 0.021400870797578575 0.0046113980532673376 0 0.021892724096677023 0.0046518788215098167 0 0.021724022983025809 0.0044289077887498859 0 0.021651846891395956 0.0049088570666685058 0 0.021651846891395956 0.0049088570666685058 0 0.021400870797578575 0.0046113980532673376 0 0.021209528588515852 0.0054149863984885582 0 0.020897450439630025 0.0051923446911556412 0 0.021400870797578575 0.0046113980532673376 0 0.021209528588515852 0.0054149863984885582 0 0.014775248331616437 0.0099396366798312711 0 0.014665141780193151 0.010336165837237119 0 0.014986017731101243 0.009835764643854706 0 0.014775248331616437 0.0099396366798312711 0 0.014665141780193151 0.010336165837237119 0 0.014500511220012946 0.010492174664715493 0 0.014665141780193151 0.010336165837237119 0 0.014612537006119317 0.010549430037576406 0 0.014986017731101243 0.009835764643854706 0 0.014612537006119317 0.010549430037576406 0 0.014986017731101243 0.009835764643854706 0 0.014746815339012802 0.010328217144483278 0 0.015370562917697115 0.0092448308878538762 0 0.014986017731101243 0.009835764643854706 0 0.01500646215923151 0.0098114876135911196 0 0.015370562917697115 0.0092448308878538762 0 0.014986017731101243 0.009835764643854706 0 0.015312453557962107 0.0091207186612574011 0 0.014986017731101243 0.009835764643854706 0 0.014746815339012802 0.010328217144483278 0 0.01500646215923151 0.0098114876135911196 0 0.014775248331616437 0.0099396366798312711 0 0.015312453557962107 0.0091207186612574011 0 0.014749357306312508 0.0095002820227873021 0 0.014775248331616437 0.0099396366798312711 0 0.014986017731101243 0.009835764643854706 0 0.015312453557962107 0.0091207186612574011 0 0.015551130832312184 0.0082621452097135107 0 0.015312453557962107 0.0091207186612574011 0 0.014749357306312508 0.0095002820227873021 0 0.020055640787528334 0.0037936877346591369 0 0.021488321328631266 0.003888996831795027 0 0.021385225211696723 0.003937935981705421 0 0.017293036663381261 0.0064180769231554505 0 0.017664155814140801 0.0070755754868329652 0 0.014504421211907082 0.0087049189960943622 0 0.014749357306312508 0.0095002820227873021 0 0.013982920021809449 0.010111205917488049 0 0.014749357306312508 0.0095002820227873021 0 0.013982920021809449 0.010111205917488049 0 0.014407204488256817 0.010280860831089346 0 0.014775248331616437 0.0099396366798312711 0 0.014749357306312508 0.0095002820227873021 0 0.014407204488256817 0.010280860831089346 0 0.014775248331616437 0.0099396366798312711 0 0.014407204488256817 0.010280860831089346 0 0.014500511220012946 0.010492174664715493 0 0.014407204488256817 0.010280860831089346 0 0.014329569983269926 0.010667477010890204 0 0.014034936257877608 0.010697953219188533 0 0.014407204488256817 0.010280860831089346 0 0.014329569983269926 0.010667477010890204 0 0.014500511220012946 0.010492174664715493 0 0.013982920021809449 0.010111205917488049 0 0.014034936257877608 0.010697953219188533 0 0.01387998490132031 0.010831210349696106 0 0.021776362406267673 0.0042619524958090946 0 0.021385225211696723 0.003937935981705421 0 0.022137441237943121 0.0046319973297299973 0 0.013982920021809449 0.010111205917488049 0 0.014407204488256817 0.010280860831089346 0 0.014034936257877608 0.010697953219188533 0 0.017664155814140801 0.0070755754868329652 0 0.018016268603134416 0.0076807779769861783 0 0.014038849571855992 0.010743725956625988 0 0.014216452318935856 0.011552577004204883 0 0.014034936257877608 0.010697953219188533 0 0.01387998490132031 0.010831210349696106 0 0.014281308385296473 0.011347893405879517 0 0.014329569983269926 0.010667477010890204 0 0.014379204318451867 0.011137909793011947 0 0.014970766635720618 0.011406691022004057 0 0.014034936257877608 0.010697953219188533 0 0.014379204318451867 0.011137909793011947 0 0.014132501154705681 0.011704056879678773 0 0.014340795309819746 0.010742674538622205 0 0.014557257527577099 0.011339955534827646 0 0.014329569983269926 0.010667477010890204 0 0.014034936257877608 0.010697953219188533 0 0.014379204318451867 0.011137909793011947 0 0.014329569983269926 0.010667477010890204 0 0.014382404834362985 0.010855286924896521 0 0.014101258571987553 0.011224137665386276 0 0.014382404834362985 0.010855286924896521 0 0.014172881715265782 0.011287798112734818 0 0.014101258571987553 0.011224137665386276 0 0.014665141780193151 0.010336165837237119 0 0.014382404834362985 0.010855286924896521 0 0.014500511220012946 0.010492174664715493 0 0.014329569983269926 0.010667477010890204 0 0.014382404834362985 0.010855286924896521 0 0.014500511220012946 0.010492174664715493 0 0.014665141780193151 0.010336165837237119 0 0.014612537006119317 0.010549430037576406 0 0.014382404834362985 0.010855286924896521 0 0.014612537006119317 0.010549430037576406 0 0.014382404834362985 0.010855286924896521 0 0.014355291053034937 0.011034963535425619 0 0.014382404834362985 0.010855286924896521 0 0.014355291053034937 0.011034963535425619 0 0.014172881715265782 0.011287798112734818 0 0.014172881715265782 0.011287798112734818 0 0.014156543918483316 0.011393037058557683 0 0.013922486671349965 0.011581667419804317 0 0.014355291053034937 0.011034963535425619 0 0.014172881715265782 0.011287798112734818 0 0.014156543918483316 0.011393037058557683 0 0.014156543918483316 0.011393037058557683 0 0.013829626369192107 0.011756783874999687 0 0.013922486671349965 0.011581667419804317 0 0.013829626369192107 0.011756783874999687 0 0.013510622366971353 0.012003899969397493 0 0.013486102995948901 0.011910066384617194 0 0.013510622366971353 0.012003899969397493 0 0.012823081716231172 0.012131588372174909 0 0.013486102995948901 0.011910066384617194 0 0.013829626369192107 0.011756783874999687 0 0.013510622366971353 0.012003899969397493 0 0.013860879033275252 0.011756383475877347 0 0.013860879033275252 0.011756383475877347 0 0.01411843554095187 0.011439682998413343 0 0.014181420642570062 0.011459798688661302 0 0.013510622366971353 0.012003899969397493 0 0.013860879033275252 0.011756383475877347 0 0.013774231025675989 0.012032862221930226 0 0.013860879033275252 0.011756383475877347 0 0.014181420642570062 0.011459798688661302 0 0.013774231025675989 0.012032862221930226 0 0.013829626369192107 0.011756783874999687 0 0.013860879033275252 0.011756383475877347 0 0.01411843554095187 0.011439682998413343 0 0.014156543918483316 0.011393037058557683 0 0.013829626369192107 0.011756783874999687 0 0.01411843554095187 0.011439682998413343 0 0.01411843554095187 0.011439682998413343 0 0.014181420642570062 0.011459798688661302 0 0.014418413900073736 0.010977453215807108 0 0.014181420642570062 0.011459798688661302 0 0.014418413900073736 0.010977453215807108 0 0.014711433513468115 0.010919682900246331 0 0.014156543918483316 0.011393037058557683 0 0.01411843554095187 0.011439682998413343 0 0.014418413900073736 0.010977453215807108 0 0.014612537006119317 0.010549430037576406 0 0.014355291053034937 0.011034963535425619 0 0.014418413900073736 0.010977453215807108 0 0.014355291053034937 0.011034963535425619 0 0.014156543918483316 0.011393037058557683 0 0.014418413900073736 0.010977453215807108 0 -0.0019493504816328118 0.021415296780059642 0 -0.0034183522724121279 0.02271985632083149 0 -0.0037873533048812147 0.021366809194865586 0 -0.0019493504816328118 0.021415296780059642 0 -0.0037873533048812147 0.021366809194865586 0 -0.0024299411650955706 0.020734363527772488 0 -0.0019493504816328118 0.021415296780059642 0 -0.0011514204535503687 0.021021267624019218 0 -0.0024299411650955706 0.020734363527772488 0 -0.0019493504816328118 0.021415296780059642 0 -0.0011514204535503687 0.021021267624019218 0 -0.00063094730567031054 0.021981933764548645 0 -0.0019493504816328118 0.021415296780059642 0 -0.00063094730567031054 0.021981933764548645 0 -0.0034183522724121279 0.02271985632083149 0 0.0034549576549129644 0.019919927333479043 0 0.0015695196533972531 0.021608296957250941 0 0.0089034074680796691 0.013394085893732895 0 0.0023649358671992836 0.021870159084962645 0 0.0034090125535794721 0.017270450481319109 0 -0.0011514204535503687 0.021021267624019218 0 0.0015695196533972531 0.021608296957250941 0 -0.0017230564540642792 0.020273672998991764 0 -0.0011514204535503687 0.021021267624019218 0 -0.00063094730567031054 0.021981933764548645 0 0.0015695196533972531 0.021608296957250941 0 0.013774231025675989 0.012032862221930226 0 0.012228756900139736 0.012194645654979836 0 0.012823081716231172 0.012131588372174909 0 0.013510622366971353 0.012003899969397493 0 0.013774231025675989 0.012032862221930226 0 0.012823081716231172 0.012131588372174909 0 0.014181420642570062 0.011459798688661302 0 0.013774231025675989 0.012032862221930226 0 0.014711433513468115 0.010919682900246331 0 0.0015695196533972531 0.021608296957250941 0 0.00074129067044560011 0.023553882304624477 0 0.00098462817095393415 0.023883147827848457 0 0.0015695196533972531 0.021608296957250941 0 -5.6327998696063366e-05 0.023192292826619509 0 0.00074129067044560011 0.023553882304624477 0 0.0086686043971970928 0.01538944024965092 0 0.0079006111385474722 0.017102431162441305 0 0.0034549576549129644 0.019919927333479043 0 0.0015695196533972531 0.021608296957250941 0 0.00098462817095393415 0.023883147827848457 0 -0.00063094730567031054 0.021981933764548645 0 0.0015695196533972531 0.021608296957250941 0 -5.6327998696063366e-05 0.023192292826619509 0 -0.0020245366169714452 0.023810824697482816 0 -0.0040467770054086558 0.025561600826846491 0 -0.0034183522724121279 0.02271985632083149 0 -0.00063094730567031054 0.021981933764548645 0 -5.6327998696063366e-05 0.023192292826619509 0 -0.0020245366169714452 0.023810824697482816 0 -5.6327998696063366e-05 0.023192292826619509 0 -0.0020245366169714452 0.023810824697482816 0 -0.0015825778826740106 0.025506042046214827 0 -0.00063094730567031054 0.021981933764548645 0 -0.0020245366169714452 0.023810824697482816 0 -0.0034183522724121279 0.02271985632083149 0 0.011179539754719348 0.011896480085374013 0 0.010477831944328981 0.01143487311951364 0 0.010501711992616796 0.011124404677901562 0 -0.00036007455972240411 0.024719676488773237 0 0.0024027966364219239 0.021870879089038758 0 -0.0015825778826740106 0.025506042046214827 0 -0.00047688554393510738 0.027849842787327973 0 -0.0040467770054086558 0.025561600826846491 0 -5.6327998696063366e-05 0.023192292826619509 0 -0.0015825778826740106 0.025506042046214827 0 -0.00047688554393510738 0.027849842787327973 0 0.0024027966364219239 0.021870879089038758 0 0.0041795914373106008 0.018124734755403656 0 -0.0020245366169714452 0.023810824697482816 0 -0.0015825778826740106 0.025506042046214827 0 -0.0040467770054086558 0.025561600826846491 0 -5.6327998696063366e-05 0.023192292826619509 0 0.00074129067044560011 0.023553882304624477 0 0.0014896557499289136 0.023131707445953373 0 0.00074129067044560011 0.023553882304624477 0 0.00096623716524552223 0.023162234753936053 0 0.0014896557499289136 0.023131707445953373 0 0.00074129067044560011 0.023553882304624477 0 0.00096623716524552223 0.023162234753936053 0 0.00098462817095393415 0.023883147827848457 0 0.0012721183236014152 0.022336762403803674 0 -9.0561238098445666e-05 0.022173201130130403 0 0.0007435440534351896 0.020585710158316426 0 0.0012721183236014152 0.022336762403803674 0 0.002156941702356432 0.021188121285720063 0 0.0007435440534351896 0.020585710158316426 0 0.00096623716524552223 0.023162234753936053 0 0.0012721183236014152 0.022336762403803674 0 -9.0561238098445666e-05 0.022173201130130403 0 0.00096623716524552223 0.023162234753936053 0 0.0012721183236014152 0.022336762403803674 0 0.0014896557499289136 0.023131707445953373 0 0.0012721183236014152 0.022336762403803674 0 0.00203379383391274 0.022535149107051997 0 0.002156941702356432 0.021188121285720063 0 0.0016227078639512349 0.021980386388189752 0 0.0024027966364219239 0.021870879089038758 0 0.011179539754719348 0.011896480085374013 0 0.011160133072766084 0.012576539054522573 0 0.010477831944328981 0.01143487311951364 0 0.0086518129325867284 0.0091688747279168401 0 0.0095734097243781319 0.0090089488664765235 0 0.009999861355211281 0.0097791648593063326 0 0.0091262261497191584 0.011596261735572938 0 0.010435108148268436 0.0105753961095762 0 0.0024027966364219239 0.021870879089038758 0 0.0091262261497191584 0.011596261735572938 0 0.014418413900073736 0.010977453215807108 0 0.014746815339012802 0.010328217144483278 0 0.014815537310341931 0.010349024383246017 0 0.014612537006119317 0.010549430037576406 0 0.014418413900073736 0.010977453215807108 0 0.014746815339012802 0.010328217144483278 0 0.014746815339012802 0.010328217144483278 0 0.014815537310341931 0.010349024383246017 0 0.01500646215923151 0.0098114876135911196 0 0.0079006111385474722 0.017102431162441305 0 0.0074381138052453093 0.016488755700069569 0 0.00096623716524552223 0.023162234753936053 0 0.00098462817095393415 0.023883147827848457 0 -9.0561238098445666e-05 0.022173201130130403 0 0.014711433513468115 0.010919682900246331 0 0.014815537310341931 0.010349024383246017 0 0.015145699805698512 0.01001271359143133 0 0.014418413900073736 0.010977453215807108 0 0.014711433513468115 0.010919682900246331 0 0.014815537310341931 0.010349024383246017 0 0.014815537310341931 0.010349024383246017 0 0.015145699805698512 0.01001271359143133 0 0.015093175354648372 0.0096993542713484544 0 0.014815537310341931 0.010349024383246017 0 0.015093175354648372 0.0096993542713484544 0 0.01500646215923151 0.0098114876135911196 0 0.015093175354648372 0.0096993542713484544 0 0.01500646215923151 0.0098114876135911196 0 0.015174884744241182 0.0094358633106087688 0 0.015370562917697115 0.0092448308878538762 0 0.01500646215923151 0.0098114876135911196 0 0.015174884744241182 0.0094358633106087688 0 0.01529188219778632 0.0094197015813169502 0 0.015174884744241182 0.0094358633106087688 0 0.015149195387417425 0.0094786811521787983 0 0.015093175354648372 0.0096993542713484544 0 0.015174884744241182 0.0094358633106087688 0 0.015149195387417425 0.0094786811521787983 0 0.012176870540354998 0.0080091244271443991 0 0.011581813693127227 0.0080039655518791952 0 0.011506857277769433 0.0077939492018650547 0 0.012176870540354998 0.0080091244271443991 0 0.011581813693127227 0.0080039655518791952 0 0.011776750947469661 0.008198915062145571 0 0.014316854751374411 0.0084423711452043491 0 0.0090323849224066988 0.012258037242402589 0 0.011452520805736064 0.0081756654633761833 0 0.011335966728313669 0.0079907280210424151 0 0.011179502474309384 0.0082087284686031461 0 0.011452520805736064 0.0081756654633761833 0 0.011581813693127227 0.0080039655518791952 0 0.011335966728313669 0.0079907280210424151 0 0.011452520805736064 0.0081756654633761833 0 0.011581813693127227 0.0080039655518791952 0 0.011776750947469661 0.008198915062145571 0 0.011581813693127227 0.0080039655518791952 0 0.011335966728313669 0.0079907280210424151 0 0.011495171911957303 0.0078618569438495909 0 0.010040485313837597 0.0080952074014547775 0 0.0090323849224066988 0.012258037242402589 0 0.015145699805698512 0.01001271359143133 0 0.015093175354648372 0.0096993542713484544 0 0.015149195387417425 0.0094786811521787983 0 0.0074381138052453093 0.016488755700069569 0 0.0090323849224066988 0.012258037242402589 0 0.011335966728313669 0.0079907280210424151 0 0.011495171911957303 0.0078618569438495909 0 0.011197040722556752 0.007758389446927587 0 -9.0561238098445666e-05 0.022173201130130403 0 -0.00068255142387542542 0.019776014742247296 0 0.0007435440534351896 0.020585710158316426 0 0.0090323849224066988 0.012258037242402589 0 0.0055486000152231143 0.013763012224015499 0 0.011335966728313669 0.0079907280210424151 0 0.011197040722556752 0.007758389446927587 0 0.010928125750312125 0.00802302453294549 0 0.010937672898555928 0.0076619890326873651 0 0.011197040722556752 0.007758389446927587 0 0.010928125750312125 0.00802302453294549 0 0.0091262261497191584 0.011596261735572938 0 0.0055486000152231143 0.013763012224015499 0 0.0091262261497191584 0.011596261735572938 0 0.0097758794750197522 0.0072668738644510109 0 0.0086518129325867284 0.0091688747279168401 0 0.0093774674512105693 0.0083527626009093185 0 0.008670381526166988 0.0076570447062570155 0 0.0086518129325867284 0.0091688747279168401 0 0.0093774674512105693 0.0083527626009093185 0 0.0095734097243781319 0.0090089488664765235 0 0.0093774674512105693 0.0083527626009093185 0 0.008670381526166988 0.0076570447062570155 0 0.0097348878555129671 0.0075520487907882782 0 0.008670381526166988 0.0076570447062570155 0 0.0093162403538535263 0.0069956436379633108 0 0.0097348878555129671 0.0075520487907882782 0 0.011335966728313669 0.0079907280210424151 0 0.010928125750312125 0.00802302453294549 0 0.011179502474309384 0.0082087284686031461 0 0.011179502474309384 0.0082087284686031461 0 0.011282322667164682 0.008403096788643644 0 0.010896143649649727 0.008465722628894853 0 0.010928125750312125 0.00802302453294549 0 0.011179502474309384 0.0082087284686031461 0 0.010896143649649727 0.008465722628894853 0 0.011282322667164682 0.008403096788643644 0 0.010896143649649727 0.008465722628894853 0 0.011312462701403672 0.0086661657331134241 0 0.012151094681405787 0.0060152311563713371 0 0.013118711049746084 0.0060398808300058454 0 0.013456504168107768 0.0067219631483383998 0 0.008670381526166988 0.0076570447062570155 0 0.0093162403538535263 0.0069956436379633108 0 0.008741296234437099 0.0061194884640651311 0 0.0097758794750197522 0.0072668738644510109 0 0.010936287623658971 0.0069733464081789985 0 0.010936287623658971 0.0069733464081789985 0 0.011636888822492236 0.0066242073484297469 0 0.0093162403538535263 0.0069956436379633108 0 0.008741296234437099 0.0061194884640651311 0 0.010139227178259566 0.0066567337115749749 0 0.01265465253451308 0.0055043003618713005 0 0.01263005416860025 0.0047967046445470483 0 0.013258243952983237 0.0052162952012467356 0 0.012151094681405787 0.0060152311563713371 0 0.01265465253451308 0.0055043003618713005 0 0.013118711049746084 0.0060398808300058454 0 0.01265465253451308 0.0055043003618713005 0 0.013258243952983237 0.0052162952012467356 0 0.013118711049746084 0.0060398808300058454 0 0.01265465253451308 0.0055043003618713005 0 0.012111464216239811 0.0052481859774498258 0 0.01263005416860025 0.0047967046445470483 0 0.012151094681405787 0.0060152311563713371 0 0.01265465253451308 0.0055043003618713005 0 0.012111464216239811 0.0052481859774498258 0 0.010936287623658971 0.0069733464081789985 0 0.011436805447299235 0.0056227640160625191 0 0.01255021152487455 0.003913240347018945 0 0.01263005416860025 0.0047967046445470483 0 0.011593083500936551 0.0043325228572290101 0 0.012111464216239811 0.0052481859774498258 0 0.01263005416860025 0.0047967046445470483 0 0.011593083500936551 0.0043325228572290101 0 0.013581109739792015 0.0037024178304780391 0 0.01263005416860025 0.0047967046445470483 0 0.013258243952983237 0.0052162952012467356 0 0.01255021152487455 0.003913240347018945 0 0.013581109739792015 0.0037024178304780391 0 0.01263005416860025 0.0047967046445470483 0 0.012111464216239811 0.0052481859774498258 0 0.011593083500936551 0.0043325228572290101 0 0.010248155916782613 0.0049997162978340772 0 0.0120810592449376 0.0059216463887037584 0 0.012111464216239811 0.0052481859774498258 0 0.010248155916782613 0.0049997162978340772 0 0.010936287623658971 0.0069733464081789985 0 0.010754782631096776 0.0068200932903572141 0 0.010573517767686688 0.0035915676097511666 0 0.011593083500936551 0.0043325228572290101 0 0.010248155916782613 0.0049997162978340772 0 0.010754782631096776 0.0068200932903572141 0 0.010706062207025155 0.0068793502039117766 0 0.011312462701403672 0.0086661657331134241 0 0.011612477168012008 0.0085597779667294684 0 0.011737808518807817 0.0087308463136670251 0 0.011312462701403672 0.0086661657331134241 0 0.011786868754387014 0.0088737080870589791 0 0.011737808518807817 0.0087308463136670251 0 0.0093525743745887825 0.0037032456840657203 0 0.010248155916782613 0.0049997162978340772 0 0.00826041253148674 0.0041242383702137578 0 0.0093525743745887825 0.0037032456840657203 0 0.010573517767686688 0.0035915676097511666 0 0.010248155916782613 0.0049997162978340772 0 0.011803774562122067 0.0088874356061497354 0 0.011849804362222431 0.0089042245822317217 0 0.011874458604186013 0.0087658160174704479 0 0.010706062207025155 0.0068793502039117766 0 0.01090520302081918 0.007016587480507209 0 0.010706062207025155 0.0068793502039117766 0 0.011406207790037108 0.0085012314852635981 0 0.011803774562122067 0.0088874356061497354 0 0.011737808518807817 0.0087308463136670251 0 0.011874458604186013 0.0087658160174704479 0 0.012087525877825725 0.0086702472242249778 0 0.011849804362222431 0.0089042245822317217 0 0.011874458604186013 0.0087658160174704479 0 0.012087525877825725 0.0086702472242249778 0 0.011874458604186013 0.0087658160174704479 0 0.01185587611257621 0.0084640437218290333 0 0.011612477168012008 0.0085597779667294684 0 0.011737808518807817 0.0087308463136670251 0 0.01185587611257621 0.0084640437218290333 0 0.011737808518807817 0.0087308463136670251 0 0.011874458604186013 0.0087658160174704479 0 0.01185587611257621 0.0084640437218290333 0 0.011612477168012008 0.0085597779667294684 0 0.01185587611257621 0.0084640437218290333 0 0.01155558398052698 0.0083728274053586609 0 0.012176870540354998 0.0080091244271443991 0 0.01185587611257621 0.0084640437218290333 0 0.011776750947469661 0.008198915062145571 0 0.01185587611257621 0.0084640437218290333 0 0.011776750947469661 0.008198915062145571 0 0.01155558398052698 0.0083728274053586609 0 0.011452520805736064 0.0081756654633761833 0 0.011776750947469661 0.008198915062145571 0 0.01155558398052698 0.0083728274053586609 0 0.011452520805736064 0.0081756654633761833 0 0.011179502474309384 0.0082087284686031461 0 0.011282322667164682 0.008403096788643644 0 0.011452520805736064 0.0081756654633761833 0 0.011282322667164682 0.008403096788643644 0 0.01155558398052698 0.0083728274053586609 0 0.011282322667164682 0.008403096788643644 0 0.011312462701403672 0.0086661657331134241 0 0.01155558398052698 0.0083728274053586609 0 0.011312462701403672 0.0086661657331134241 0 0.011612477168012008 0.0085597779667294684 0 0.01155558398052698 0.0083728274053586609 0 0.01213438873497138 0.0073858891879565441 0 0.01231297109457003 0.0075083426109526638 0 0.012546005655862317 0.0070655482552364401 0 0.01213438873497138 0.0073858891879565441 0 0.012546005655862317 0.0070655482552364401 0 0.011916086602107547 0.0072805943845504302 0 0.01213438873497138 0.0073858891879565441 0 0.012181572412064951 0.0079041001349300782 0 0.01239195052454292 0.0077115763558897972 0 0.01213438873497138 0.0073858891879565441 0 0.01239195052454292 0.0077115763558897972 0 0.012416564539066192 0.0074230531669665254 0 0.01213438873497138 0.0073858891879565441 0 0.012211345256839772 0.0073730671774015879 0 0.012416564539066192 0.0074230531669665254 0 0.012181094099221036 0.0074072767811563054 0 0.01213438873497138 0.0073858891879565441 0 0.012211345256839772 0.0073730671774015879 0 0.0087107445942227746 0.0079639021353749978 0 0.0057157266027205861 0.0098164434363939915 0 0.0087107445942227746 0.0079639021353749978 0 0.016058922790383644 0.0057037496538593392 0 0.019139955929432899 0.003970733730596269 0 0.016942298437882065 0.0033814611015030812 0 0.016778046891415536 0.0051401983473770485 0 0.012181094099221036 0.0074072767811563054 0 0.01213438873497138 0.0073858891879565441 0 0.01231297109457003 0.0075083426109526638 0 0.016058922790383644 0.0057037496538593392 0 0.012992234759545048 0.0068939856409520744 0 0.015108386549385077 0.0034848543709242448 0 0.016778046891415536 0.0051401983473770485 0 0.014222670552924314 0.0049417621248623615 0 0.016778046891415536 0.0051401983473770485 0 0.014222670552924314 0.0049417621248623615 0 0.013565118937111259 0.0066208373261177596 0 0.013581109739792015 0.0037024178304780391 0 0.014222670552924314 0.0049417621248623615 0 0.013258243952983237 0.0052162952012467356 0 0.014222670552924314 0.0049417621248623615 0 0.013510292481865098 0.0057269115543574257 0 0.013565118937111259 0.0066208373261177596 0 0.014222670552924314 0.0049417621248623615 0 0.013510292481865098 0.0057269115543574257 0 0.013258243952983237 0.0052162952012467356 0 0.013510292481865098 0.0057269115543574257 0 0.013258243952983237 0.0052162952012467356 0 0.013118711049746084 0.0060398808300058454 0 0.013118711049746084 0.0060398808300058454 0 0.013565118937111259 0.0066208373261177596 0 0.013456504168107768 0.0067219631483383998 0 0.013510292481865098 0.0057269115543574257 0 0.013118711049746084 0.0060398808300058454 0 0.013565118937111259 0.0066208373261177596 0 0.013565118937111259 0.0066208373261177596 0 0.013456504168107768 0.0067219631483383998 0 0.012546005655862317 0.0070655482552364401 0 0.013456504168107768 0.0067219631483383998 0 0.012546005655862317 0.0070655482552364401 0 0.011916086602107547 0.0072805943845504302 0 0.01231297109457003 0.0075083426109526638 0 0.013565118937111259 0.0066208373261177596 0 0.012546005655862317 0.0070655482552364401 0 0.011636888822492236 0.0066242073484297469 0 0.012087544627116855 0.0072342004701102022 0 0.010139227178259566 0.0066567337115749749 0 0.011916086602107547 0.0072805943845504302 0 0.010628337464309903 0.0076828159516805009 0 0.011916086602107547 0.0072805943845504302 0 0.011077100289086962 0.0084042831925030727 0 0.011785098524964994 0.0083764868077347652 0 0.011916086602107547 0.0072805943845504302 0 0.010628337464309903 0.0076828159516805009 0 0.011077100289086962 0.0084042831925030727 0 0.0093162403538535263 0.0069956436379633108 0 0.010139227178259566 0.0066567337115749749 0 0.0097348878555129671 0.0075520487907882782 0 0.010139227178259566 0.0066567337115749749 0 0.010628337464309903 0.0076828159516805009 0 0.0097348878555129671 0.0075520487907882782 0 0.010628337464309903 0.0076828159516805009 0 0.0097348878555129671 0.0075520487907882782 0 0.010270977206752799 0.0083467207786444009 0 0.0093774674512105693 0.0083527626009093185 0 0.0097348878555129671 0.0075520487907882782 0 0.010270977206752799 0.0083467207786444009 0 0.010270977206752799 0.0083467207786444009 0 0.0095734097243781319 0.0090089488664765235 0 0.010399196178695778 0.0091126110095280394 0 0.0093774674512105693 0.0083527626009093185 0 0.010270977206752799 0.0083467207786444009 0 0.0095734097243781319 0.0090089488664765235 0 0.010628337464309903 0.0076828159516805009 0 0.010270977206752799 0.0083467207786444009 0 0.011077100289086962 0.0084042831925030727 0 0.010270977206752799 0.0083467207786444009 0 0.011077100289086962 0.0084042831925030727 0 0.010399196178695778 0.0091126110095280394 0 0.011077100289086962 0.0084042831925030727 0 0.010399196178695778 0.0091126110095280394 0 0.011086513991995131 0.0092688410188975588 0 0.011077100289086962 0.0084042831925030727 0 0.011785098524964994 0.0083764868077347652 0 0.011086513991995131 0.0092688410188975588 0 0.011785098524964994 0.0083764868077347652 0 0.012248138756472396 0.0088040723424853105 0 0.011766983267806085 0.0095491193693350053 0 0.011916086602107547 0.0072805943845504302 0 0.011785098524964994 0.0083764868077347652 0 0.012181572412064951 0.0079041001349300782 0 0.01213438873497138 0.0073858891879565441 0 0.011916086602107547 0.0072805943845504302 0 0.012181572412064951 0.0079041001349300782 0 0.012181572412064951 0.0079041001349300782 0 0.01239195052454292 0.0077115763558897972 0 0.012617764534043613 0.0083210289818103321 0 0.012181572412064951 0.0079041001349300782 0 0.012248138756472396 0.0088040723424853105 0 0.012617764534043613 0.0083210289818103321 0 0.011785098524964994 0.0083764868077347652 0 0.012181572412064951 0.0079041001349300782 0 0.012248138756472396 0.0088040723424853105 0 0.012248138756472396 0.0088040723424853105 0 0.01236386290636776 0.009627999594296487 0 0.011766983267806085 0.0095491193693350053 0 0.011766983267806085 0.0095491193693350053 0 0.011086513991995131 0.0092688410188975588 0 0.010969947370073172 0.010520259415401769 0 0.011785098524964994 0.0083764868077347652 0 0.011766983267806085 0.0095491193693350053 0 0.011086513991995131 0.0092688410188975588 0 0.011766983267806085 0.0095491193693350053 0 0.010969947370073172 0.010520259415401769 0 0.011935786157546624 0.010599386524627032 0 0.01236386290636776 0.009627999594296487 0 0.011766983267806085 0.0095491193693350053 0 0.011935786157546624 0.010599386524627032 0 0.0095734097243781319 0.0090089488664765235 0 0.010399196178695778 0.0091126110095280394 0 0.009999861355211281 0.0097791648593063326 0 0.010399196178695778 0.0091126110095280394 0 0.009999861355211281 0.0097791648593063326 0 0.010607696898101145 0.0096676424003910525 0 0.010607696898101145 0.0096676424003910525 0 0.011086513991995131 0.0092688410188975588 0 0.010969947370073172 0.010520259415401769 0 0.010399196178695778 0.0091126110095280394 0 0.010607696898101145 0.0096676424003910525 0 0.011086513991995131 0.0092688410188975588 0 0.010435108148268436 0.0105753961095762 0 0.010913643496356084 0.010606758808355899 0 0.009999861355211281 0.0097791648593063326 0 0.010607696898101145 0.0096676424003910525 0 0.010969947370073172 0.010520259415401769 0 0.010969947370073172 0.010520259415401769 0 0.010501711992616796 0.011124404677901562 0 0.01078524963946628 0.011092959355361436 0 0.010477831944328981 0.01143487311951364 0 0.010969947370073172 0.010520259415401769 0 0.010501711992616796 0.011124404677901562 0 -0.0040467770054086558 0.025561600826846491 0 -0.0034183522724121279 0.02271985632083149 0 -0.0069104046722327358 0.023799231996366622 0 -0.0057671752070290235 0.023787479645020166 0 -0.0018603498456059818 0.020280182192016813 0 0.0041795914373106008 0.018124734755403656 0 -0.0018603498456059818 0.020280182192016813 0 -0.0067729109978767041 0.023205192809718223 0 -0.007074486027768721 0.021930212914456289 0 -0.0057115097909043308 0.021876034599226359 0 -0.007074486027768721 0.021930212914456289 0 -0.0075971668537269032 0.021480374572235013 0 -0.0068192459843336977 0.021455928147932825 0 -0.007074486027768721 0.021930212914456289 0 -0.0057115097909043308 0.021876034599226359 0 -0.0068192459843336977 0.021455928147932825 0 -0.0034183522724121279 0.02271985632083149 0 -0.0067729109978767041 0.023205192809718223 0 -0.0057115097909043308 0.021876034599226359 0 -0.0057115097909043308 0.021876034599226359 0 -0.0037873533048812147 0.021366809194865586 0 -0.0057433110926162784 0.021082968471162384 0 -0.0034183522724121279 0.02271985632083149 0 -0.0057115097909043308 0.021876034599226359 0 -0.0037873533048812147 0.021366809194865586 0 -0.0072783877278179004 0.020802876075610002 0 -0.0075840465095035085 0.02147000808445235 0 -0.0071252197027286456 0.02078149269921209 0 -0.0018603498456059818 0.020280182192016813 0 -0.0091588851295607183 0.02142592578889024 0 0.010969947370073172 0.010520259415401769 0 0.01078524963946628 0.011092959355361436 0 0.011935786157546624 0.010599386524627032 0 -0.0018603498456059818 0.020280182192016813 0 0.0028943756456188854 0.015073839939559365 0 -0.008056084983597632 0.021096856888922402 0 -0.0072783877278179004 0.020802876075610002 0 -0.0075840465095035085 0.02147000808445235 0 -0.0075840465095035085 0.02147000808445235 0 -0.007458201887661422 0.021454792667299497 0 -0.0075971668537269032 0.021480374572235013 0 -0.007074486027768721 0.021930212914456289 0 -0.0075840465095035085 0.02147000808445235 0 -0.0075971668537269032 0.021480374572235013 0 -0.0067729109978767041 0.023205192809718223 0 -0.007074486027768721 0.021930212914456289 0 -0.0075840465095035085 0.02147000808445235 0 -0.0075840465095035085 0.02147000808445235 0 -0.007458201887661422 0.021454792667299497 0 -0.0071252197027286456 0.02078149269921209 0 -0.007458201887661422 0.021454792667299497 0 -0.0079550308443876172 0.022437106064642685 0 -0.0069288885065960631 0.021743865311360574 0 -0.007458201887661422 0.021454792667299497 0 -0.0075971668537269032 0.021480374572235013 0 -0.0079550308443876172 0.022437106064642685 0 -0.0075971668537269032 0.021480374572235013 0 -0.0079550308443876172 0.022437106064642685 0 -0.0075259487327262453 0.021295709582339634 0 -0.0079550308443876172 0.022437106064642685 0 -0.0082827908654520051 0.021746202854619871 0 -0.0075259487327262453 0.021295709582339634 0 -0.0079550308443876172 0.022437106064642685 0 -0.0069288885065960631 0.021743865311360574 0 -0.0069477041223152802 0.025165872149734966 0 -0.0079550308443876172 0.022437106064642685 0 -0.008051069352035525 0.02500902279021686 0 -0.0069477041223152802 0.025165872149734966 0 -0.0079550308443876172 0.022437106064642685 0 -0.0087338871156749931 0.023869664831362623 0 -0.0082827908654520051 0.021746202854619871 0 -0.0079550308443876172 0.022437106064642685 0 -0.0087338871156749931 0.023869664831362623 0 -0.008051069352035525 0.02500902279021686 0 -0.008051069352035525 0.02500902279021686 0 -0.0082235875020254135 0.027438981335425862 0 -0.010015198305055883 0.026736529241679224 0 -0.0087338871156749931 0.023869664831362623 0 -0.008051069352035525 0.02500902279021686 0 -0.010015198305055883 0.026736529241679224 0 -0.008051069352035525 0.02500902279021686 0 -0.0074054202430469509 0.02628562028456401 0 -0.0069477041223152802 0.025165872149734966 0 -0.008051069352035525 0.02500902279021686 0 -0.0074054202430469509 0.02628562028456401 0 -0.0082235875020254135 0.027438981335425862 0 -0.0059321266385067633 0.01368738916328939 0 -0.0073995339317333734 0.016555111202372137 0 -0.0047744097494022237 0.016461473639656346 0 -0.0059321266385067633 0.01368738916328939 0 -0.0047744097494022237 0.016461473639656346 0 -0.0036095073612095207 0.014334509912702338 0 -0.0027797484842890796 0.021813448499948526 0 -0.0019376648339210259 0.019790442489407943 0 -0.0011193579411023905 0.021924403359610826 0 -0.006200854139614272 0.02020811647560964 0 -0.0054721445540859533 0.024680547560387189 0 -0.0050140803531854338 0.01825549480904284 0 -0.006200854139614272 0.02020811647560964 0 -0.0087338871156749931 0.023869664831362623 0 -0.010184807893426986 0.023874012560159686 0 -0.010015198305055883 0.026736529241679224 0 -0.006200854139614272 0.02020811647560964 0 -0.0087045142662231303 0.022854108027535441 0 -0.0087338871156749931 0.023869664831362623 0 -0.010184807893426986 0.023874012560159686 0 -0.0082827908654520051 0.021746202854619871 0 -0.0073995339317333734 0.016555111202372137 0 -0.0047744097494022237 0.016461473639656346 0 -0.0046842378656478936 0.01834529665648783 0 -0.0046842378656478936 0.01834529665648783 0 -0.0063411932491568871 0.020522903001041599 0 -0.0029494562504791938 0.019446928615996451 0 -0.0073995339317333734 0.016555111202372137 0 -0.0046842378656478936 0.01834529665648783 0 -0.0063411932491568871 0.020522903001041599 0 -0.0082734816281680688 0.02149726870389403 0 -0.0063411932491568871 0.020522903001041599 0 -0.0082827908654520051 0.021746202854619871 0 -0.006200854139614272 0.02020811647560964 0 -0.0069411731923654206 0.020075177326087865 0 -0.0063411932491568871 0.020522903001041599 0 -0.0082827908654520051 0.021746202854619871 0 -0.0075259487327262453 0.021295709582339634 0 -0.0063411932491568871 0.020522903001041599 0 -0.0075259487327262453 0.021295709582339634 0 -0.0057433110926162784 0.021082968471162384 0 -0.0057115097909043308 0.021876034599226359 0 -0.0068192459843336977 0.021455928147932825 0 -0.0057433110926162784 0.021082968471162384 0 -0.0075259487327262453 0.021295709582339634 0 -0.0068192459843336977 0.021455928147932825 0 -0.0057433110926162784 0.021082968471162384 0 -0.0075971668537269032 0.021480374572235013 0 -0.0075259487327262453 0.021295709582339634 0 -0.0068192459843336977 0.021455928147932825 0 -0.0063411932491568871 0.020522903001041599 0 -0.0039378277685484164 0.020627118609779862 0 -0.0029494562504791938 0.019446928615996451 0 -0.0063411932491568871 0.020522903001041599 0 -0.0039378277685484164 0.020627118609779862 0 -0.0057433110926162784 0.021082968471162384 0 -0.0037873533048812147 0.021366809194865586 0 -0.0039378277685484164 0.020627118609779862 0 -0.0057433110926162784 0.021082968471162384 0 -0.0037873533048812147 0.021366809194865586 0 -0.0039378277685484164 0.020627118609779862 0 -0.0024299411650955706 0.020734363527772488 0 -0.0039378277685484164 0.020627118609779862 0 -0.0025131385134555544 0.020324746507803228 0 -0.0024299411650955706 0.020734363527772488 0 -0.0039378277685484164 0.020627118609779862 0 -0.0025131385134555544 0.020324746507803228 0 -0.0029494562504791938 0.019446928615996451 0 -0.0025131385134555544 0.020324746507803228 0 -0.0017230564540642792 0.020273672998991764 0 -0.0029494562504791938 0.019446928615996451 0 -0.0011514204535503687 0.021021267624019218 0 -0.0019567475713355839 0.020575566219145178 0 -0.0017230564540642792 0.020273672998991764 0 -0.0025131385134555544 0.020324746507803228 0 -0.0019567475713355839 0.020575566219145178 0 -0.0017230564540642792 0.020273672998991764 0 -0.0025131385134555544 0.020324746507803228 0 -0.0019567475713355839 0.020575566219145178 0 -0.0024299411650955706 0.020734363527772488 0 -0.0011514204535503687 0.021021267624019218 0 -0.0019567475713355839 0.020575566219145178 0 -0.0024299411650955706 0.020734363527772488 0 0.013774231025675989 0.012032862221930226 0 0.012228756900139736 0.012194645654979836 0 0.010315816360729858 0.01238723456912387 0 0.0086686043971970928 0.01538944024965092 0 0.0095853402157057357 0.012063306531832782 0 0.0034549576549129644 0.019919927333479043 0 0.010315816360729858 0.01238723456912387 0 0.0089034074680796691 0.013394085893732895 0 0.012228756900139736 0.012194645654979836 0 0.012823081716231172 0.012131588372174909 0 0.012279443066390623 0.011930492994557547 0 0.012823081716231172 0.012131588372174909 0 0.012279443066390623 0.011930492994557547 0 0.013486102995948901 0.011910066384617194 0 0.012279443066390623 0.011930492994557547 0 0.010315816360729858 0.01238723456912387 0 0.011771757012016477 0.010964003740863856 0 0.012279443066390623 0.011930492994557547 0 0.011771757012016477 0.010964003740863856 0 0.013493741839864206 0.011569860300103811 0 0.012228756900139736 0.012194645654979836 0 0.012279443066390623 0.011930492994557547 0 0.010315816360729858 0.01238723456912387 0 0.010315816360729858 0.01238723456912387 0 0.0089034074680796691 0.013394085893732895 0 0.010646955083323468 0.010576933890886139 0 0.010646955083323468 0.010576933890886139 0 0.011771757012016477 0.010964003740863856 0 0.011520573076858226 0.0088691309130622276 0 0.010315816360729858 0.01238723456912387 0 0.010646955083323468 0.010576933890886139 0 0.011771757012016477 0.010964003740863856 0 0.010646955083323468 0.010576933890886139 0 0.0096993471307490527 0.0087731312286072581 0 0.011520573076858226 0.0088691309130622276 0 0.011771757012016477 0.010964003740863856 0 0.013493741839864206 0.011569860300103811 0 0.011520573076858226 0.0088691309130622276 0 0.0034090125535794721 0.017270450481319109 0 0.0035785165366652035 0.013614392481953251 0 -0.0017230564540642792 0.020273672998991764 0 -0.0029494562504791938 0.019446928615996451 0 -0.0026512314092881134 0.017914150799983125 0 0.0089034074680796691 0.013394085893732895 0 0.010646955083323468 0.010576933890886139 0 0.0096993471307490527 0.0087731312286072581 0 -0.0046842378656478936 0.01834529665648783 0 -0.0029494562504791938 0.019446928615996451 0 -0.0026512314092881134 0.017914150799983125 0 0.014172881715265782 0.011287798112734818 0 0.013934238716935545 0.011460938135812112 0 0.013922486671349965 0.011581667419804317 0 0.013934238716935545 0.011460938135812112 0 0.013922486671349965 0.011581667419804317 0 0.013758708562870594 0.011496262797840688 0 0.013922486671349965 0.011581667419804317 0 0.013493741839864206 0.011569860300103811 0 0.013758708562870594 0.011496262797840688 0 0.013922486671349965 0.011581667419804317 0 0.013486102995948901 0.011910066384617194 0 0.013493741839864206 0.011569860300103811 0 0.013829626369192107 0.011756783874999687 0 0.013922486671349965 0.011581667419804317 0 0.013486102995948901 0.011910066384617194 0 0.012279443066390623 0.011930492994557547 0 0.013486102995948901 0.011910066384617194 0 0.013493741839864206 0.011569860300103811 0 0.013493741839864206 0.011569860300103811 0 0.013758708562870594 0.011496262797840688 0 0.01395999294527682 0.011596633019219356 0 0.01343097572645717 0.011551210624449396 0 0.012784629997585695 0.010324724620862466 0 0.013758708562870594 0.011496262797840688 0 0.013704884619411278 0.011638645390391103 0 0.01395999294527682 0.011596633019219356 0 0.013934238716935545 0.011460938135812112 0 0.013758708562870594 0.011496262797840688 0 0.013704884619411278 0.011638645390391103 0 0.013704884619411278 0.011638645390391103 0 0.013848197798528984 0.012000684397431011 0 0.013622424623503647 0.011939301632902683 0 0.013704884619411278 0.011638645390391103 0 0.013622424623503647 0.011939301632902683 0 0.013500092386340801 0.011886105351137863 0 0.013704884619411278 0.011638645390391103 0 0.013848197798528984 0.012000684397431011 0 0.01395999294527682 0.011596633019219356 0 0.013848197798528984 0.012000684397431011 0 0.013656766033136663 0.012263475473875206 0 0.01391508014150288 0.012642837550824857 0 0.013848197798528984 0.012000684397431011 0 0.013656766033136663 0.012263475473875206 0 0.013622424623503647 0.011939301632902683 0 0.017526778413641177 0.015455803293345222 0 0.016520748679564691 0.014893598395512929 0 0.016675461689017911 0.013935493646445269 0 0.01343614822536642 0.012315831780913835 0 0.013351994539613367 0.012512507750140522 0 0.013500092386340801 0.011886105351137863 0 0.01423905668275029 0.013720596824010159 0 0.015275011306363651 0.01304920392478073 0 0.013656766033136663 0.012263475473875206 0 0.013622424623503647 0.011939301632902683 0 0.01343614822536642 0.012315831780913835 0 0.013656766033136663 0.012263475473875206 0 0.01343614822536642 0.012315831780913835 0 0.013562177009538214 0.012612148151978376 0 0.013622424623503647 0.011939301632902683 0 0.01343614822536642 0.012315831780913835 0 0.013500092386340801 0.011886105351137863 0 -0.0047744097494022237 0.016461473639656346 0 -0.0026512314092881134 0.017914150799983125 0 -0.0036095073612095207 0.014334509912702338 0 0.0035785165366652035 0.013614392481953251 0 0.0027651911165386977 0.010001862443773322 0 -0.0047744097494022237 0.016461473639656346 0 -0.0046842378656478936 0.01834529665648783 0 -0.0026512314092881134 0.017914150799983125 0 0.0096993471307490527 0.0087731312286072581 0 0.011520573076858226 0.0088691309130622276 0 0.010403809506167904 0.0076919104153606805 0 0.013848197798528984 0.012000684397431011 0 0.01395999294527682 0.011596633019219356 0 0.014469365339290446 0.012210922777276589 0 0.012784629997585695 0.010324724620862466 0 0.012490985334310622 0.010072357226215734 0 0.013848197798528984 0.012000684397431011 0 0.014469365339290446 0.012210922777276589 0 0.01391508014150288 0.012642837550824857 0 0.0096993471307490527 0.0087731312286072581 0 0.010403809506167904 0.0076919104153606805 0 0.0098712545555794413 0.0077501601580953422 0 0.0098712545555794413 0.0077501601580953422 0 0.010019806050589244 0.0076942608899876388 0 0.010047040823188138 0.007767339279206067 0 0.010403809506167904 0.0076919104153606805 0 0.0098712545555794413 0.0077501601580953422 0 0.010019806050589244 0.0076942608899876388 0 0.012490985334310622 0.010072357226215734 0 0.012323471298076635 0.010171457763931347 0 0.014469365339290446 0.012210922777276589 0 0.014969256192151111 0.01329904988635003 0 0.014327589069134297 0.013082343821491881 0 0.014469365339290446 0.012210922777276589 0 0.014327589069134297 0.013082343821491881 0 0.01391508014150288 0.012642837550824857 0 0.014327589069134297 0.013082343821491881 0 0.01391508014150288 0.012642837550824857 0 0.013917808502306834 0.01350346104419113 0 0.014969256192151111 0.01329904988635003 0 0.014327589069134297 0.013082343821491881 0 0.014351173039253854 0.013928133142907964 0 0.014969256192151111 0.01329904988635003 0 0.014351173039253854 0.013928133142907964 0 0.014906366572664488 0.014163457569891716 0 0.014327589069134297 0.013082343821491881 0 0.014351173039253854 0.013928133142907964 0 0.013917808502306834 0.01350346104419113 0 0.014351173039253854 0.013928133142907964 0 0.01374273814423657 0.014375341392113029 0 0.014395207365369856 0.014583781609365177 0 0.014351173039253854 0.013928133142907964 0 0.013917808502306834 0.01350346104419113 0 0.01374273814423657 0.014375341392113029 0 0.014351173039253854 0.013928133142907964 0 0.014906366572664488 0.014163457569891716 0 0.014395207365369856 0.014583781609365177 0 0.012323471298076635 0.010171457763931347 0 0.014055840633924635 0.012835548669304347 0 0.010019806050589244 0.0076942608899876388 0 0.010045416782795557 0.0079743900019592275 0 0.010047040823188138 0.007767339279206067 0 0.014969256192151111 0.01329904988635003 0 0.014906366572664488 0.014163457569891716 0 0.015540647678665333 0.014716327502474053 0 0.017526778413641177 0.015455803293345222 0 0.017331933635106586 0.016613794606678389 0 0.016575590427891671 0.015820701053973735 0 0.01343614822536642 0.012315831780913835 0 0.013149104545597853 0.012807856043689175 0 0.013562177009538214 0.012612148151978376 0 0.013870473087177563 0.012503977080247138 0 0.01423905668275029 0.013720596824010159 0 0.013149104545597853 0.012807856043689175 0 0.013598950858891522 0.013088840883044248 0 0.013396106579859832 0.013893862088549864 0 0.013149104545597853 0.012807856043689175 0 0.013598950858891522 0.013088840883044248 0 0.013562177009538214 0.012612148151978376 0 0.013598950858891522 0.013088840883044248 0 0.013562177009538214 0.012612148151978376 0 0.01391508014150288 0.012642837550824857 0 0.013656766033136663 0.012263475473875206 0 0.013562177009538214 0.012612148151978376 0 0.01391508014150288 0.012642837550824857 0 0.013598950858891522 0.013088840883044248 0 0.01391508014150288 0.012642837550824857 0 0.013917808502306834 0.01350346104419113 0 0.013396106579859832 0.013893862088549864 0 0.012804406863859476 0.013936156002731131 0 0.01374273814423657 0.014375341392113029 0 0.013917808502306834 0.01350346104419113 0 0.013396106579859832 0.013893862088549864 0 0.01374273814423657 0.014375341392113029 0 0.013598950858891522 0.013088840883044248 0 0.013917808502306834 0.01350346104419113 0 0.013396106579859832 0.013893862088549864 0 0.01423905668275029 0.013720596824010159 0 0.013123326343633267 0.013446270832974859 0 0.012954761885879247 0.013090453567110121 0 0.013396106579859832 0.013893862088549864 0 0.012804406863859476 0.013936156002731131 0 0.01423905668275029 0.013720596824010159 0 0.015338166339094772 0.015635884155011177 0 0.015338166339094772 0.015635884155011177 0 0.0172226004116754 0.016476490108432624 0 0.014301865637364899 0.01735738067077432 0 0.015482888367883625 0.018641265204780787 0 0.014052494479733823 0.019007499687601129 0 0.015338166339094772 0.015635884155011177 0 0.015082312024193559 0.021106630272653474 0 0.015338166339094772 0.015635884155011177 0 0.013722160953154884 0.018557917495539984 0 0.012804406863859476 0.013936156002731131 0 0.01374273814423657 0.014375341392113029 0 0.01372433094607021 0.015071870299036477 0 0.014054750193616647 0.026104144752631675 0 0.014073676960100721 0.025974987760321235 0 0.013911040639023896 0.026054801194650583 0 0.014054750193616647 0.026104144752631675 0 0.014073676960100721 0.025974987760321235 0 0.014132692337601673 0.026087005512077582 0 0.013722160953154884 0.018557917495539984 0 0.015082312024193559 0.021106630272653474 0 0.014054750193616647 0.026104144752631675 0 0.013911040639023896 0.026054801194650583 0 0.013980774885896099 0.026218025636413192 0 0.014855156317557868 0.01510547630372691 0 0.015540647678665333 0.014716327502474053 0 0.014977352271944093 0.016076226390787048 0 0.015298820883700059 0.01573072074191198 0 0.015538591142976165 0.016243094457700214 0 0.015587467428413916 0.0159275279046651 0 0.014055840633924635 0.012835548669304347 0 0.01566186443058494 0.016701350605418951 0 0.015273159649413273 0.015450262341750516 0 0.014977352271944093 0.016076226390787048 0 0.015538591142976165 0.016243094457700214 0 0.014055840633924635 0.012835548669304347 0 0.014478362668955736 0.015990850333577028 0 0.014906366572664488 0.014163457569891716 0 0.015540647678665333 0.014716327502474053 0 0.014930255783160394 0.014624165405983087 0 0.014906366572664488 0.014163457569891716 0 0.014930255783160394 0.014624165405983087 0 0.014395207365369856 0.014583781609365177 0 0.014855156317557868 0.01510547630372691 0 0.014930255783160394 0.014624165405983087 0 0.014395207365369856 0.014583781609365177 0 0.014855156317557868 0.01510547630372691 0 0.015540647678665333 0.014716327502474053 0 0.014930255783160394 0.014624165405983087 0 0.01372433094607021 0.015071870299036477 0 0.014855156317557868 0.01510547630372691 0 0.014395207365369856 0.014583781609365177 0 0.013722160953154884 0.018557917495539984 0 0.014598111955214365 0.014419236972358316 0 0.01374273814423657 0.014375341392113029 0 0.01372433094607021 0.015071870299036477 0 0.014395207365369856 0.014583781609365177 0 0.012151088071904924 0.0158967986408412 0 0.014389830307329252 0.016523290974818878 0 0.013712837596926724 0.017435579441820621 0 0.012151088071904924 0.0158967986408412 0 0.014855156317557868 0.01510547630372691 0 0.014389830307329252 0.016523290974818878 0 0.013722160953154884 0.018557917495539984 0 0.013915821834270443 0.021748988268548552 0 0.014389830307329252 0.016523290974818878 0 0.015027239277115054 0.017532093071197536 0 0.013712837596926724 0.017435579441820621 0 0.014389830307329252 0.016523290974818878 0 0.015238540836302508 0.016738717494261573 0 0.015027239277115054 0.017532093071197536 0 0.014389830307329252 0.016523290974818878 0 0.014977352271944093 0.016076226390787048 0 0.015238540836302508 0.016738717494261573 0 0.014855156317557868 0.01510547630372691 0 0.014389830307329252 0.016523290974818878 0 0.014977352271944093 0.016076226390787048 0 0.014977352271944093 0.016076226390787048 0 0.015238540836302508 0.016738717494261573 0 0.015538591142976165 0.016243094457700214 0 0.015238540836302508 0.016738717494261573 0 0.016113939072903025 0.017309367618805908 0 0.015027239277115054 0.017532093071197536 0 0.0038703835243775755 0.026676986157037855 0 0.0033009409663346772 0.034939128013017025 0 0.011300382348778518 0.02131648227927711 0 0.0038703835243775755 0.026676986157037855 0 0.015238540836302508 0.016738717494261573 0 0.016113939072903025 0.017309367618805908 0 0.015538591142976165 0.016243094457700214 0 0.0053693734232341242 0.028924546640438049 0 0.0057794527694518044 0.026853696033357886 0 0.0064848179731273334 0.029216193208407491 0 0.016113939072903025 0.017309367618805908 0 0.015808670123062227 0.016218330245614736 0 0.016100470436101386 0.016040621161580653 0 0.016113939072903025 0.017309367618805908 0 0.015808670123062227 0.016218330245614736 0 0.015538591142976165 0.016243094457700214 0 0.015587467428413916 0.0159275279046651 0 0.015937634843289413 0.015994243926093436 0 0.01553015097388423 0.014928470880774453 0 0.015937634843289413 0.015994243926093436 0 0.016014775055926741 0.015990907270081775 0 0.01553015097388423 0.014928470880774453 0 0.015298820883700059 0.01573072074191198 0 0.015587467428413916 0.0159275279046651 0 0.01553015097388423 0.014928470880774453 0 0.015808670123062227 0.016218330245614736 0 0.015538591142976165 0.016243094457700214 0 0.015587467428413916 0.0159275279046651 0 0.015808670123062227 0.016218330245614736 0 0.015587467428413916 0.0159275279046651 0 0.015937634843289413 0.015994243926093436 0 -0.0031550880910602625 0.0270822194840343 0 -0.0032080988407811443 0.026902944457639147 0 -0.0023524696287466986 0.026069231331734034 0 0.015808670123062227 0.016218330245614736 0 0.016100470436101386 0.016040621161580653 0 0.015937634843289413 0.015994243926093436 0 0.0038703835243775755 0.026676986157037855 0 0.0055831482297895637 0.026416215573552195 0 0.016021417706467315 0.016062443358730697 0 0.015937634843289413 0.015994243926093436 0 0.016014775055926741 0.015990907270081775 0 0.0038703835243775755 0.026676986157037855 0 0.0032638205612261361 0.025068410869677205 0 0.0032638205612261361 0.025068410869677205 0 -0.0025524758348237564 0.024862510169543106 0 -0.0032080988407811443 0.026902944457639147 0 -0.0023524696287466986 0.026069231331734034 0 -0.0028671911608978344 0.024971429154604156 0 -0.0031550880910602625 0.0270822194840343 0 -0.0011976186583195888 0.026289678837112623 0 -0.0023524696287466986 0.026069231331734034 0 -0.0031550880910602625 0.0270822194840343 0 -0.0011976186583195888 0.026289678837112623 0 -0.00072838848813299275 0.028428718074928225 0 -0.0011976186583195888 0.026289678837112623 0 -0.0023524696287466986 0.026069231331734034 0 -0.0016548006791369265 0.024374084070746139 0 -0.00020665442538112018 0.03883796605468888 0 -0.00047004808208837005 0.038913015993919706 0 -0.00026409434641214423 0.038740309518908202 0 0.0038703835243775755 0.026676986157037855 0 -0.00088891020338427646 0.034137138774827609 0 -0.00088891020338427646 0.034137138774827609 0 -0.001907702008095477 0.03458869906936219 0 -0.00072838848813299275 0.028428718074928225 0 0.00082155055654130403 0.027039561245032082 0 0.0017317476419677136 0.029800065407235898 0 -0.0096488581978429779 0.031837857570322155 0 -0.0088486500676867828 0.035448626906943233 0 -0.0069684436246367672 0.034579286999364411 0 -0.0046191450186395047 0.029051522109629274 0 -0.001907702008095477 0.03458869906936219 0 -0.0096488581978429779 0.031837857570322155 0 -0.0067199629454044191 0.031253536892122791 0 -0.0069684436246367672 0.034579286999364411 0 -0.0096488581978429779 0.031837857570322155 0 -0.0078029390819415586 0.029278374172173813 0 -0.0067199629454044191 0.031253536892122791 0 -0.0011976186583195888 0.026289678837112623 0 0.00082155055654130403 0.027039561245032082 0 -0.00014701284186692868 0.024333156076470012 0 -0.0011976186583195888 0.026289678837112623 0 -0.00072838848813299275 0.028428718074928225 0 0.00082155055654130403 0.027039561245032082 0 -0.0046191450186395047 0.029051522109629274 0 -0.0049931035108684201 0.026842893404086455 0 -0.0096488581978429779 0.031837857570322155 0 -0.0099033313131370246 0.02920637350835794 0 -0.0078029390819415586 0.029278374172173813 0 -0.0099033313131370246 0.02920637350835794 0 -0.0078029390819415586 0.029278374172173813 0 -0.0082235875020254135 0.027438981335425862 0 -0.0078029390819415586 0.029278374172173813 0 -0.0082235875020254135 0.027438981335425862 0 -0.0070519841954418501 0.027994135171360783 0 -0.0074054202430469509 0.02628562028456401 0 -0.0082235875020254135 0.027438981335425862 0 -0.0070519841954418501 0.027994135171360783 0 -0.0099033313131370246 0.02920637350835794 0 -0.0082235875020254135 0.027438981335425862 0 -0.010015198305055883 0.026736529241679224 0 -0.0049931035108684201 0.026842893404086455 0 -0.0054721445540859533 0.024680547560387189 0 -0.0027797484842890796 0.021813448499948526 0 -0.0011193579411023905 0.021924403359610826 0 -0.0024265521081971923 0.023073715775708263 0 -0.00014701284186692868 0.024333156076470012 0 -0.0011193579411023905 0.021924403359610826 0 -0.0016548006791369265 0.024374084070746139 0 -0.0011193579411023905 0.021924403359610826 0 -0.0024265521081971923 0.023073715775708263 0 -0.0016548006791369265 0.024374084070746139 0 -0.0027797484842890796 0.021813448499948526 0 -0.0024265521081971923 0.023073715775708263 0 -0.0033173248449812278 0.023538272868771009 0 0.0027651911165386977 0.010001862443773322 0 0.0046187291001051874 0.014153504357309872 0 -0.0050140803531854338 0.01825549480904284 0 0.0046187291001051874 0.014153504357309872 0 -0.0059321266385067633 0.01368738916328939 0 -0.0036095073612095207 0.014334509912702338 0 -0.0045474905425358352 0.01087158661307 0 -0.0024265521081971923 0.023073715775708263 0 -0.0033173248449812278 0.023538272868771009 0 -0.0026135420256945207 0.024103260864226435 0 0.014055840633924635 0.012835548669304347 0 0.0046187291001051874 0.014153504357309872 0 -0.0026924077576687762 0.025076989967392709 0 -0.0033173248449812278 0.023538272868771009 0 -0.0026135420256945207 0.024103260864226435 0 0.0032638205612261361 0.025068410869677205 0 0.0046187291001051874 0.014153504357309872 0 -0.0024503857787115612 0.023197095129590457 0 -0.0025524758348237564 0.024862510169543106 0 -0.0011976186583195888 0.026289678837112623 0 -0.00014701284186692868 0.024333156076470012 0 -0.0016548006791369265 0.024374084070746139 0 -0.0023524696287466986 0.026069231331734034 0 -0.0028671911608978344 0.024971429154604156 0 -0.0016548006791369265 0.024374084070746139 0 -0.0024265521081971923 0.023073715775708263 0 -0.0028671911608978344 0.024971429154604156 0 -0.0016548006791369265 0.024374084070746139 0 0.020645613426630346 0.0070770420940341906 0 0.021475085769921493 0.0075726010468223186 0 0.02066187268821339 0.008052332003862123 0 0.020645613426630346 0.0070770420940341906 0 0.021475085769921493 0.0075726010468223186 0 0.021269392024435445 0.0067465768491182859 0 0.021475085769921493 0.0075726010468223186 0 0.021852398840688358 0.0068366168800377738 0 0.0224689620672846 0.0074736561656628796 0 0.021475085769921493 0.0075726010468223186 0 0.0224689620672846 0.0074736561656628796 0 0.021832169471153452 0.0083205697428668218 0 0.021475085769921493 0.0075726010468223186 0 0.021852398840688358 0.0068366168800377738 0 0.021269392024435445 0.0067465768491182859 0 0.021852398840688358 0.0068366168800377738 0 0.021521236220159633 0.006154696601716002 0 0.022275851704971147 0.0064049906813959121 0 0.021852398840688358 0.0068366168800377738 0 0.021269392024435445 0.0067465768491182859 0 0.021521236220159633 0.006154696601716002 0 0.020877075999847422 0.0062433597584730044 0 0.021269392024435445 0.0067465768491182859 0 0.021521236220159633 0.006154696601716002 0 0.020877075999847422 0.0062433597584730044 0 0.020645613426630346 0.0070770420940341906 0 0.021269392024435445 0.0067465768491182859 0 0.020877075999847422 0.0062433597584730044 0 0.021209528588515852 0.0054149863984885582 0 0.021521236220159633 0.006154696601716002 0 0.021651846891395956 0.0049088570666685058 0 0.021209528588515852 0.0054149863984885582 0 0.021768703900777762 0.0055342770432882963 0 0.021651846891395956 0.0049088570666685058 0 0.021768703900777762 0.0055342770432882963 0 0.02194874581304472 0.0050610822038451792 0 0.021768703900777762 0.0055342770432882963 0 0.021521236220159633 0.006154696601716002 0 0.022275851704971147 0.0064049906813959121 0 0.021209528588515852 0.0054149863984885582 0 0.021768703900777762 0.0055342770432882963 0 0.021521236220159633 0.006154696601716002 0 0.021768703900777762 0.0055342770432882963 0 0.022275851704971147 0.0064049906813959121 0 0.022272146531195237 0.0055348117068295755 0 0.021768703900777762 0.0055342770432882963 0 0.022272146531195237 0.0055348117068295755 0 0.02194874581304472 0.0050610822038451792 0 0.022272146531195237 0.0055348117068295755 0 0.02194874581304472 0.0050610822038451792 0 0.022212850009930025 0.004858438519253095 0 0.022272146531195237 0.0055348117068295755 0 0.022212850009930025 0.004858438519253095 0 0.023297854106842559 0.0056987580359095054 0 0.022912241259417668 0.0046093664085312732 0 0.017749902853777876 0.0085467952849421925 0 0.022137441237943121 0.0046319973297299973 0 0.022212850009930025 0.004858438519253095 0 0.022218146744335119 0.0049806151477320253 0 0.022275851704971147 0.0064049906813959121 0 0.023297854106842559 0.0056987580359095054 0 0.023455917182397062 0.0072948430893935027 0 0.017749902853777876 0.0085467952849421925 0 0.01787000715582554 0.010312798967532162 0 0.022275851704971147 0.0064049906813959121 0 0.022272146531195237 0.0055348117068295755 0 0.023297854106842559 0.0056987580359095054 0 0.02228588853648002 0.0065238458531793799 0 0.02217956025400716 0.0080166786515365723 0 0.022275851704971147 0.0064049906813959121 0 0.023455917182397062 0.0072948430893935027 0 0.021886452472012419 0.0085570137767212121 0 0.021852398840688358 0.0068366168800377738 0 0.022275851704971147 0.0064049906813959121 0 0.0224689620672846 0.0074736561656628796 0 0.023455917182397062 0.0072948430893935027 0 0.021886452472012419 0.0085570137767212121 0 0.023379104324293885 0.0095488564023217346 0 0.01787000715582554 0.010312798967532162 0 0.01766274600869442 0.012417715515222702 0 0.012257182348574168 0.013298146732901184 0 0.013069840681123272 0.0139082137751047 0 0.011956943461350544 0.015271995532417414 0 0.013069840681123272 0.0139082137751047 0 0.013371416021164232 0.014792979735916601 0 0.011956943461350544 0.015271995532417414 0 0.013069840681123272 0.0139082137751047 0 0.013882727758971187 0.014151695870822182 0 0.013792713157008304 0.013125946942972172 0 0.013069840681123272 0.0139082137751047 0 0.013371416021164232 0.014792979735916601 0 0.013882727758971187 0.014151695870822182 0 0.013371416021164232 0.014792979735916601 0 0.014067236894055589 0.014852718371099588 0 0.013882727758971187 0.014151695870822182 0 0.014067236894055589 0.014852718371099588 0 0.014922883143921097 0.014933867931727905 0 0.013882727758971187 0.014151695870822182 0 0.014911848611022344 0.014441843214680689 0 0.013411841804599263 0.012991239549267324 0 0.014911848611022344 0.014441843214680689 0 0.014451788505286374 0.012596101864574936 0 0.014743776440341314 0.014878844604913451 0 0.014380832674241372 0.013152473515807145 0 0.01527861467280683 0.014255830475619496 0 0.014922883143921097 0.014933867931727905 0 0.013882727758971187 0.014151695870822182 0 0.013792713157008304 0.013125946942972172 0 0.014846091162867343 0.013258518955102347 0 0.01456701722386641 0.012180136601266765 0 0.014224377824827336 0.012323774974532509 0 0.01456701722386641 0.012180136601266765 0 0.014224377824827336 0.012323774974532509 0 0.014210526122846113 0.011808037190911761 0 0.012257182348574168 0.013298146732901184 0 0.013069840681123272 0.0139082137751047 0 0.013792713157008304 0.013125946942972172 0 0.012606734183480536 0.0112781759962795 0 0.012257182348574168 0.013298146732901184 0 0.013792713157008304 0.013125946942972172 0 0.017749902853777876 0.0085467952849421925 0 0.013411841804599263 0.012991239549267324 0 0.013782304120747822 0.011553486863766275 0 0.014224377824827336 0.012323774974532509 0 0.014210526122846113 0.011808037190911761 0 0.013782304120747822 0.011553486863766275 0 0.014210526122846113 0.011808037190911761 0 0.014281308385296473 0.011347893405879517 0 0.018016268603134416 0.0076807779769861783 0 0.017749902853777876 0.0085467952849421925 0 0.01387998490132031 0.010831210349696106 0 0.013782304120747822 0.011553486863766275 0 0.014281308385296473 0.011347893405879517 0 0.014132501154705681 0.011704056879678773 0 0.014813713286533499 0.012261926829403321 0 0.014970766635720618 0.011406691022004057 0 0.014379204318451867 0.011137909793011947 0 0.014132501154705681 0.011704056879678773 0 0.014970766635720618 0.011406691022004057 0 0.014380832674241372 0.013152473515807145 0 0.014132501154705681 0.011704056879678773 0 0.014813713286533499 0.012261926829403321 0 0.01456701722386641 0.012180136601266765 0 0.014210526122846113 0.011808037190911761 0 0.014281308385296473 0.011347893405879517 0 0.014380832674241372 0.013152473515807145 0 0.014813713286533499 0.012261926829403321 0 0.015113698432538269 0.012884203586328745 0 0.014451788505286374 0.012596101864574936 0 0.014216452318935856 0.011552577004204883 0 0.014813713286533499 0.012261926829403321 0 0.015113698432538269 0.012884203586328745 0 0.015778120822258587 0.012539515327843221 0 0.014813713286533499 0.012261926829403321 0 0.014970766635720618 0.011406691022004057 0 0.015778120822258587 0.012539515327843221 0 0.014101258571987553 0.011224137665386276 0 0.014014348178273387 0.011372231988618038 0 0.013829923131155305 0.011517308689297496 0 0.014557257527577099 0.011339955534827646 0 0.014785347112531393 0.012031006816220272 0 0.014172881715265782 0.011287798112734818 0 0.013934238716935545 0.011460938135812112 0 0.014014348178273387 0.011372231988618038 0 0.014172881715265782 0.011287798112734818 0 0.014101258571987553 0.011224137665386276 0 0.014014348178273387 0.011372231988618038 0 0.013934238716935545 0.011460938135812112 0 0.013704884619411278 0.011638645390391103 0 0.013829923131155305 0.011517308689297496 0 0.013934238716935545 0.011460938135812112 0 0.014014348178273387 0.011372231988618038 0 0.013829923131155305 0.011517308689297496 0 0.015778120822258587 0.012539515327843221 0 0.015495578497498521 0.013614688958805771 0 0.016675461689017911 0.013935493646445269 0 0.013704884619411278 0.011638645390391103 0 0.013829923131155305 0.011517308689297496 0 0.013500092386340801 0.011886105351137863 0 0.014785347112531393 0.012031006816220272 0 0.015275011306363651 0.01304920392478073 0 0.014380832674241372 0.013152473515807145 0 0.015495578497498521 0.013614688958805771 0 0.01527861467280683 0.014255830475619496 0 0.014380832674241372 0.013152473515807145 0 0.015113698432538269 0.012884203586328745 0 0.015495578497498521 0.013614688958805771 0 0.015113698432538269 0.012884203586328745 0 0.015778120822258587 0.012539515327843221 0 0.015495578497498521 0.013614688958805771 0 0.015495578497498521 0.013614688958805771 0 0.01527861467280683 0.014255830475619496 0 0.015952457230286102 0.014342797505171046 0 0.014743776440341314 0.014878844604913451 0 0.01527861467280683 0.014255830475619496 0 0.015807023855028603 0.015042387679822264 0 0.01527861467280683 0.014255830475619496 0 0.015952457230286102 0.014342797505171046 0 0.015807023855028603 0.015042387679822264 0 0.015495578497498521 0.013614688958805771 0 0.016675461689017911 0.013935493646445269 0 0.015952457230286102 0.014342797505171046 0 0.016520748679564691 0.014893598395512929 0 0.015952457230286102 0.014342797505171046 0 0.015807023855028603 0.015042387679822264 0 0.016520748679564691 0.014893598395512929 0 0.016675461689017911 0.013935493646445269 0 0.015952457230286102 0.014342797505171046 0 0.016575590427891671 0.015820701053973735 0 0.015807023855028603 0.015042387679822264 0 0.015487304663184601 0.016031059621224208 0 0.017526778413641177 0.015455803293345222 0 0.016520748679564691 0.014893598395512929 0 0.016575590427891671 0.015820701053973735 0 0.016520748679564691 0.014893598395512929 0 0.016575590427891671 0.015820701053973735 0 0.015807023855028603 0.015042387679822264 0 0.014896769023210299 0.014991921835310026 0 0.015090515579645754 0.015824716516538034 0 0.015674462681308458 0.016192712513221744 0 0.014911848611022344 0.014441843214680689 0 0.015628692255318693 0.016197496807650261 0 0.014743776440341314 0.014878844604913451 0 0.015807023855028603 0.015042387679822264 0 0.015487304663184601 0.016031059621224208 0 0.014911848611022344 0.014441843214680689 0 0.01512116593030202 0.015701211679882695 0 0.015090515579645754 0.015824716516538034 0 0.015142547144117717 0.016432576550513799 0 0.014490436286958362 0.016283037040991211 0 0.015090515579645754 0.015824716516538034 0 0.015674462681308458 0.016192712513221744 0 0.015142547144117717 0.016432576550513799 0 0.015674462681308458 0.016192712513221744 0 0.015517310937488336 0.016937664914617564 0 0.016416016107517035 0.01735193607957989 0 0.015674462681308458 0.016192712513221744 0 0.015142547144117717 0.016432576550513799 0 0.015517310937488336 0.016937664914617564 0 0.015517310937488336 0.016937664914617564 0 0.015430657250075641 0.017734696885511918 0 0.014867666471012023 0.017034880190149454 0 0.015142547144117717 0.016432576550513799 0 0.015517310937488336 0.016937664914617564 0 0.014867666471012023 0.017034880190149454 0 0.015517310937488336 0.016937664914617564 0 0.016416016107517035 0.01735193607957989 0 0.015430657250075641 0.017734696885511918 0 0.016575590427891671 0.015820701053973735 0 0.015487304663184601 0.016031059621224208 0 0.016416016107517035 0.01735193607957989 0 0.017613792544547174 0.016910823508986247 0 0.016575590427891671 0.015820701053973735 0 0.016416016107517035 0.01735193607957989 0 0.015628692255318693 0.016197496807650261 0 0.016323542938446962 0.01720267600857129 0 0.017613792544547174 0.016910823508986247 0 0.017294546914415867 0.019050457448190311 0 0.016416016107517035 0.01735193607957989 0 0.017294546914415867 0.019050457448190311 0 0.016416016107517035 0.01735193607957989 0 0.016029991258412757 0.018456889058856486 0 0.015945488802128368 0.019643540670230639 0 0.014523550732743872 0.019989718921103624 0 0.014963476297331848 0.020670265760636498 0 0.015082312024193559 0.021106630272653474 0 0.015363714397472198 0.019508925945953132 0 0.017294546914415867 0.019050457448190311 0 0.016029991258412757 0.018456889058856486 0 0.015466705689901989 0.01953172619839769 0 0.016029991258412757 0.018456889058856486 0 0.015466705689901989 0.01953172619839769 0 0.014990337390515522 0.018542937841561611 0 0.014990337390515522 0.018542937841561611 0 0.015430657250075641 0.017734696885511918 0 0.014357830661333537 0.017789388437627958 0 0.016029991258412757 0.018456889058856486 0 0.014990337390515522 0.018542937841561611 0 0.015430657250075641 0.017734696885511918 0 0.016416016107517035 0.01735193607957989 0 0.016029991258412757 0.018456889058856486 0 0.015430657250075641 0.017734696885511918 0 0.015430657250075641 0.017734696885511918 0 0.014357830661333537 0.017789388437627958 0 0.014867666471012023 0.017034880190149454 0 0.014357830661333537 0.017789388437627958 0 0.013321938359066872 0.017473124140958793 0 0.014083714712448176 0.016990129246171347 0 0.014357830661333537 0.017789388437627958 0 0.013625301412962875 0.018186886676302163 0 0.013321938359066872 0.017473124140958793 0 0.014357830661333537 0.017789388437627958 0 0.013919362984397185 0.018922563042556649 0 0.013625301412962875 0.018186886676302163 0 0.014990337390515522 0.018542937841561611 0 0.014357830661333537 0.017789388437627958 0 0.013919362984397185 0.018922563042556649 0 0.015363714397472198 0.019508925945953132 0 0.013374173833853571 0.020183304485909166 0 0.015466705689901989 0.01953172619839769 0 0.014990337390515522 0.018542937841561611 0 0.013919362984397185 0.018922563042556649 0 0.015466705689901989 0.01953172619839769 0 0.013919362984397185 0.018922563042556649 0 0.013468237374383404 0.020120953324922346 0 0.013919362984397185 0.018922563042556649 0 0.012734146664997578 0.019592364860517332 0 0.012917536844948089 0.018550424932491018 0 0.013919362984397185 0.018922563042556649 0 0.012734146664997578 0.019592364860517332 0 0.013468237374383404 0.020120953324922346 0 0.013919362984397185 0.018922563042556649 0 0.012917536844948089 0.018550424932491018 0 0.013625301412962875 0.018186886676302163 0 0.012917536844948089 0.018550424932491018 0 0.013625301412962875 0.018186886676302163 0 0.013321938359066872 0.017473124140958793 0 0.012917536844948089 0.018550424932491018 0 0.013321938359066872 0.017473124140958793 0 0.01247564528612179 0.017768936180332696 0 0.013321938359066872 0.017473124140958793 0 0.012649830573136133 0.016614136724228373 0 0.01247564528612179 0.017768936180332696 0 0.012649830573136133 0.016614136724228373 0 0.013532617116370611 0.016411702870509182 0 0.01312281711020627 0.015726949402635183 0 0.013321938359066872 0.017473124140958793 0 0.013532617116370611 0.016411702870509182 0 0.014083714712448176 0.016990129246171347 0 0.013321938359066872 0.017473124140958793 0 0.012649830573136133 0.016614136724228373 0 0.013532617116370611 0.016411702870509182 0 0.014357830661333537 0.017789388437627958 0 0.014083714712448176 0.016990129246171347 0 0.014867666471012023 0.017034880190149454 0 0.015142547144117717 0.016432576550513799 0 0.014867666471012023 0.017034880190149454 0 0.014490436286958362 0.016283037040991211 0 0.014083714712448176 0.016990129246171347 0 0.014867666471012023 0.017034880190149454 0 0.014490436286958362 0.016283037040991211 0 0.013532617116370611 0.016411702870509182 0 0.014083714712448176 0.016990129246171347 0 0.014490436286958362 0.016283037040991211 0 0.013532617116370611 0.016411702870509182 0 0.014490436286958362 0.016283037040991211 0 0.014090039791523585 0.015530867207214824 0 0.015090515579645754 0.015824716516538034 0 0.014490436286958362 0.016283037040991211 0 0.014090039791523585 0.015530867207214824 0 0.014922883143921097 0.014933867931727905 0 0.015090515579645754 0.015824716516538034 0 0.014090039791523585 0.015530867207214824 0 0.014067236894055589 0.014852718371099588 0 0.014922883143921097 0.014933867931727905 0 0.014090039791523585 0.015530867207214824 0 0.013371416021164232 0.014792979735916601 0 0.014067236894055589 0.014852718371099588 0 0.014090039791523585 0.015530867207214824 0 0.013371416021164232 0.014792979735916601 0 0.014090039791523585 0.015530867207214824 0 0.01312281711020627 0.015726949402635183 0 0.013371416021164232 0.014792979735916601 0 0.01312281711020627 0.015726949402635183 0 0.011956943461350544 0.015271995532417414 0 0.013532617116370611 0.016411702870509182 0 0.014090039791523585 0.015530867207214824 0 0.01312281711020627 0.015726949402635183 0 0.012649830573136133 0.016614136724228373 0 0.01312281711020627 0.015726949402635183 0 0.011956943461350544 0.015271995532417414 0 0.0224689620672846 0.0074736561656628796 0 0.022519812895474219 0.0089430612616670999 0 0.021832169471153452 0.0083205697428668218 0 0.02217956025400716 0.0080166786515365723 0 0.022107051214877559 0.0099406602244931832 0 0.021886452472012419 0.0085570137767212121 0 0.023379104324293885 0.0095488564023217346 0 0.021676484001653267 0.010922984147644357 0 0.021676484001653267 0.010922984147644357 0 0.023200001112533994 0.011844078902001471 0 0.021598065667085702 0.013172190392897956 0 0.023379104324293885 0.0095488564023217346 0 0.021676484001653267 0.010922984147644357 0 0.023200001112533994 0.011844078902001471 0 0.01766274600869442 0.012417715515222702 0 0.017434201837962165 0.014540379785595343 0 0.012649830573136133 0.016614136724228373 0 0.011956943461350544 0.015271995532417414 0 0.01168979361505869 0.017204682891750936 0 0.012649830573136133 0.016614136724228373 0 0.01168979361505869 0.017204682891750936 0 0.01247564528612179 0.017768936180332696 0 0.017434201837962165 0.014540379785595343 0 0.017381922516303102 0.016459575745284068 0 0.01168979361505869 0.017204682891750936 0 0.01247564528612179 0.017768936180332696 0 0.011491623915363286 0.019087081460961428 0 0.012917536844948089 0.018550424932491018 0 0.01247564528612179 0.017768936180332696 0 0.011491623915363286 0.019087081460961428 0 0.012734146664997578 0.019592364860517332 0 0.012917536844948089 0.018550424932491018 0 0.011491623915363286 0.019087081460961428 0 0.012734146664997578 0.019592364860517332 0 0.011491623915363286 0.019087081460961428 0 0.012055467650672261 0.019991605446023991 0 0.023039349722201112 0.013945292346653711 0 0.021598065667085702 0.013172190392897956 0 0.022433845893597853 0.014815817552082543 0 0.022107051214877559 0.0099406602244931832 0 0.022006975251963344 0.012256971751153733 0 0.023200001112533994 0.011844078902001471 0 0.023039349722201112 0.013945292346653711 0 0.021598065667085702 0.013172190392897956 0 0.02138371805792736 0.010360998250817748 0 0.022481786905514736 0.011261778410236758 0 0.02000398988945808 0.01260311869799729 0 0.022519812895474219 0.0089430612616670999 0 0.02138371805792736 0.010360998250817748 0 0.022481786905514736 0.011261778410236758 0 0.022006975251963344 0.012256971751153733 0 0.021646990244202906 0.014904603483135305 0 0.022481786905514736 0.011261778410236758 0 0.020672168710694178 0.013941108241128146 0 0.02000398988945808 0.01260311869799729 0 0.022481786905514736 0.011261778410236758 0 0.020672168710694178 0.013941108241128146 0 0.021612636508382958 0.015121395754455492 0 0.021598065667085702 0.013172190392897956 0 0.021612636508382958 0.015121395754455492 0 0.022433845893597853 0.014815817552082543 0 0.018032648865965444 0.013402926039615534 0 0.02000398988945808 0.01260311869799729 0 0.019169148685326962 0.014656956293932514 0 0.020672168710694178 0.013941108241128146 0 0.02000398988945808 0.01260311869799729 0 0.019169148685326962 0.014656956293932514 0 0.018032648865965444 0.013402926039615534 0 0.02000398988945808 0.01260311869799729 0 0.018342573421232768 0.011535666009093847 0 0.02138371805792736 0.010360998250817748 0 0.02000398988945808 0.01260311869799729 0 0.018342573421232768 0.011535666009093847 0 0.021227729787347636 0.01038434283044809 0 0.019443518572384473 0.010986279113015019 0 0.02138371805792736 0.010360998250817748 0 0.020516016965828152 0.010457644399233672 0 0.020759259468886099 0.0097212837562523496 0 0.020117435355132593 0.0087709563063654416 0 0.020759259468886099 0.0097212837562523496 0 0.021098645393678638 0.0086580262733520798 0 0.02138371805792736 0.010360998250817748 0 0.020759259468886099 0.0097212837562523496 0 0.021532842406185613 0.0091403645533370461 0 0.020759259468886099 0.0097212837562523496 0 0.021532842406185613 0.0091403645533370461 0 0.021098645393678638 0.0086580262733520798 0 0.022519812895474219 0.0089430612616670999 0 0.02138371805792736 0.010360998250817748 0 0.021532842406185613 0.0091403645533370461 0 0.022519812895474219 0.0089430612616670999 0 0.021532842406185613 0.0091403645533370461 0 0.021832169471153452 0.0083205697428668218 0 0.021475085769921493 0.0075726010468223186 0 0.021832169471153452 0.0083205697428668218 0 0.021098645393678638 0.0086580262733520798 0 0.021532842406185613 0.0091403645533370461 0 0.021832169471153452 0.0083205697428668218 0 0.021098645393678638 0.0086580262733520798 0 0.021475085769921493 0.0075726010468223186 0 0.02066187268821339 0.008052332003862123 0 0.021098645393678638 0.0086580262733520798 0 0.020117435355132593 0.0087709563063654416 0 0.02066187268821339 0.008052332003862123 0 0.021098645393678638 0.0086580262733520798 0 0.017539188035864715 0.021443293337024775 0 0.018708095518190717 0.021133667665769049 0 0.017631986201614134 0.022706964423808065 0 0.017539188035864715 0.021443293337024775 0 0.018708095518190717 0.021133667665769049 0 0.017472654327881493 0.020164357171006571 0 0.016350413044565006 0.021299990824551307 0 0.017539188035864715 0.021443293337024775 0 0.017472654327881493 0.020164357171006571 0 0.016455602630754153 0.022561388091851875 0 0.016350413044565006 0.021299990824551307 0 0.017539188035864715 0.021443293337024775 0 0.018708095518190717 0.021133667665769049 0 0.019808195064082695 0.02222657396620999 0 0.018764527802182754 0.022992867414049701 0 0.018708095518190717 0.021133667665769049 0 0.018858030028634683 0.019853450115820844 0 0.017472654327881493 0.020164357171006571 0 0.018708095518190717 0.021133667665769049 0 0.018858030028634683 0.019853450115820844 0 0.019965056260100811 0.020413520835795371 0 0.020209426638951804 0.020377851010836924 0 0.015502133760929807 0.021441828173875958 0 0.018858030028634683 0.019853450115820844 0 0.017472654327881493 0.020164357171006571 0 0.017912391785684711 0.018800108680386982 0 0.016488159625804515 0.018998767400189562 0 0.019353259316174733 0.018073920746868817 0 0.018065093720980935 0.01692242421580252 0 0.020047570097763912 0.017166203722717502 0 0.020272731475687207 0.015775839503741517 0 0.016552928014460982 0.019074688434710003 0 0.017472654327881493 0.020164357171006571 0 0.017912391785684711 0.018800108680386982 0 0.018065093720980935 0.01692242421580252 0 0.020272731475687207 0.015775839503741517 0 0.019169148685326962 0.014656956293932514 0 0.020672168710694178 0.013941108241128146 0 0.020272731475687207 0.015775839503741517 0 0.019169148685326962 0.014656956293932514 0 0.020672168710694178 0.013941108241128146 0 0.020272731475687207 0.015775839503741517 0 0.021612636508382958 0.015121395754455492 0 0.020272731475687207 0.015775839503741517 0 0.021612636508382958 0.015121395754455492 0 0.021779757797389384 0.016456372187127616 0 0.021612636508382958 0.015121395754455492 0 0.021779757797389384 0.016456372187127616 0 0.022204517182516009 0.015557907750104544 0 0.018858030028634683 0.019853450115820844 0 0.017912391785684711 0.018800108680386982 0 0.020188353131432642 0.018796743576038898 0 0.020006913479932612 0.018169794004315249 0 0.01835282577393834 0.018593117313488582 0 0.016812539855470553 0.018251102716486962 0 0.019353259316174733 0.018073920746868817 0 0.016076337667394518 0.019848890341843277 0 0.020047570097763912 0.017166203722717502 0 0.020272731475687207 0.015775839503741517 0 0.021779757797389384 0.016456372187127616 0 0.019353259316174733 0.018073920746868817 0 0.020688520840981345 0.017382785345696795 0 0.01218570532980081 0.021006744247579014 0 0.012347972996600669 0.021140222625560832 0 0.012130555502269064 0.021481384571007442 0 0.016076337667394518 0.019848890341843277 0 0.016064399924498537 0.018573451766171936 0 0.01835282577393834 0.018593117313488582 0 0.016812539855470553 0.018251102716486962 0 0.016695808332771078 0.019016276265047 0 0.020688520840981345 0.017382785345696795 0 0.016064399924498537 0.018573451766171936 0 0.017381922516303102 0.016459575745284068 0 0.016064399924498537 0.018573451766171936 0 0.021779757797389384 0.016456372187127616 0 0.022204517182516009 0.015557907750104544 0 0.022928858571471349 0.015934018652678943 0 0.022204517182516009 0.015557907750104544 0 0.022928858571471349 0.015934018652678943 0 0.022433845893597853 0.014815817552082543 0 0.023039349722201112 0.013945292346653711 0 0.022928858571471349 0.015934018652678943 0 0.022433845893597853 0.014815817552082543 0 0.021612636508382958 0.015121395754455492 0 0.022204517182516009 0.015557907750104544 0 0.022433845893597853 0.014815817552082543 0 0.016064399924498537 0.018573451766171936 0 0.010899460317996913 0.021042798823833746 0 0.011305259203017601 0.020823661988277023 0 0.012055467650672261 0.019991605446023991 0 0.012655317167704572 0.02049210966305905 0 0.011491623915363286 0.019087081460961428 0 0.011305259203017601 0.020823661988277023 0 0.012055467650672261 0.019991605446023991 0 0.012734146664997578 0.019592364860517332 0 0.012055467650672261 0.019991605446023991 0 0.012655317167704572 0.02049210966305905 0 0.012096017050571103 0.020713628170004234 0 0.012655317167704572 0.02049210966305905 0 0.012506480285009926 0.02094423007861752 0 0.016076337667394518 0.019848890341843277 0 0.011377934411084745 0.020849578783617262 0 0.012072666063171136 0.020929893737152951 0 0.012096017050571103 0.020713628170004234 0 0.012506480285009926 0.02094423007861752 0 0.01218570532980081 0.021006744247579014 0 0.012506480285009926 0.02094423007861752 0 0.012347972996600669 0.021140222625560832 0 0.012506480285009926 0.02094423007861752 0 0.012347972996600669 0.021140222625560832 0 0.012541042946702111 0.021303718612542162 0 0.011762647408602542 0.02233062941427302 0 0.011519452883189412 0.023086218117578026 0 0.010814981605934 0.02289734127979013 0 0.012347972996600669 0.021140222625560832 0 0.012541042946702111 0.021303718612542162 0 0.012130555502269064 0.021481384571007442 0 0.01145928454793279 0.022111375067294298 0 0.015502133760929807 0.021441828173875958 0 0.011762647408602542 0.02233062941427302 0 0.011519452883189412 0.023086218117578026 0 0.012221689416229298 0.022912984050293114 0 0.016076337667394518 0.019848890341843277 0 0.015502133760929807 0.021441828173875958 0 0.018858030028634683 0.019853450115820844 0 0.020188353131432642 0.018796743576038898 0 0.019965056260100811 0.020413520835795371 0 0.010814981605934 0.02289734127979013 0 0.011248495957895531 0.023648222972338519 0 0.010663525629680938 0.024076146390383916 0 0.015502133760929807 0.021441828173875958 0 0.01521073575240332 0.023326419341793695 0 0.011519452883189412 0.023086218117578026 0 0.010814981605934 0.02289734127979013 0 0.011248495957895531 0.023648222972338519 0 0.018708095518190717 0.021133667665769049 0 0.020028959707356339 0.020453657318294498 0 0.019808195064082695 0.02222657396620999 0 0.011248495957895531 0.023648222972338519 0 0.011809784186404168 0.02369530270714815 0 0.011443528596392347 0.024490275106145643 0 0.011519452883189412 0.023086218117578026 0 0.011809784186404168 0.02369530270714815 0 0.012221689416229298 0.022912984050293114 0 0.011519452883189412 0.023086218117578026 0 0.011248495957895531 0.023648222972338519 0 0.011809784186404168 0.02369530270714815 0 0.012520112882510908 0.023752556714225766 0 0.013222141795361197 0.023655325434634361 0 0.013028862842395404 0.022852178211086698 0 0.012520112882510908 0.023752556714225766 0 0.013028862842395404 0.022852178211086698 0 0.012221689416229298 0.022912984050293114 0 0.011809784186404168 0.02369530270714815 0 0.012520112882510908 0.023752556714225766 0 0.012221689416229298 0.022912984050293114 0 0.011809784186404168 0.02369530270714815 0 0.012520112882510908 0.023752556714225766 0 0.012247209969191635 0.024535733730782019 0 0.012520112882510908 0.023752556714225766 0 0.013222141795361197 0.023655325434634361 0 0.01304509749735595 0.024425135558161063 0 0.013222141795361197 0.023655325434634361 0 0.013810690547794937 0.024197202230516357 0 0.01304509749735595 0.024425135558161063 0 0.013222141795361197 0.023655325434634361 0 0.013028862842395404 0.022852178211086698 0 0.013984011050746434 0.0230227436954678 0 0.013222141795361197 0.023655325434634361 0 0.013984011050746434 0.0230227436954678 0 0.013810690547794937 0.024197202230516357 0 0.013028862842395404 0.022852178211086698 0 0.012759466467648382 0.021656317338706658 0 0.01371498915949875 0.022010693542969324 0 0.013028862842395404 0.022852178211086698 0 0.01371498915949875 0.022010693542969324 0 0.013984011050746434 0.0230227436954678 0 0.013028862842395404 0.022852178211086698 0 0.012221689416229298 0.022912984050293114 0 0.012759466467648382 0.021656317338706658 0 0.011762647408602542 0.02233062941427302 0 0.012221689416229298 0.022912984050293114 0 0.012759466467648382 0.021656317338706658 0 0.01145928454793279 0.022111375067294298 0 0.013196541124554498 0.021282649816778566 0 0.012506480285009926 0.02094423007861752 0 0.012541042946702111 0.021303718612542162 0 0.013276314523180456 0.0210886672548301 0 0.012655317167704572 0.02049210966305905 0 0.012506480285009926 0.02094423007861752 0 0.013276314523180456 0.0210886672548301 0 0.012655317167704572 0.02049210966305905 0 0.013276314523180456 0.0210886672548301 0 0.013468237374383404 0.020120953324922346 0 0.012734146664997578 0.019592364860517332 0 0.012655317167704572 0.02049210966305905 0 0.013468237374383404 0.020120953324922346 0 0.014523550732743872 0.019989718921103624 0 0.013468237374383404 0.020120953324922346 0 0.014047976607059991 0.020839860350792157 0 0.013276314523180456 0.0210886672548301 0 0.013468237374383404 0.020120953324922346 0 0.014047976607059991 0.020839860350792157 0 0.013196541124554498 0.021282649816778566 0 0.013915594591734427 0.020907532303089171 0 0.012759466467648382 0.021656317338706658 0 0.014047976607059991 0.020839860350792157 0 0.01371498915949875 0.022010693542969324 0 0.014047976607059991 0.020839860350792157 0 0.01371498915949875 0.022010693542969324 0 0.014747598370900304 0.021628696159825208 0 0.014047976607059991 0.020839860350792157 0 0.014747598370900304 0.021628696159825208 0 0.014963476297331848 0.020670265760636498 0 0.014523550732743872 0.019989718921103624 0 0.014047976607059991 0.020839860350792157 0 0.014963476297331848 0.020670265760636498 0 0.015945488802128368 0.019643540670230639 0 0.014963476297331848 0.020670265760636498 0 0.015779001273249327 0.020984774985552603 0 0.014834335979399678 0.02397765948147591 0 0.014857599911486183 0.024247904369306315 0 0.014747598370900304 0.021628696159825208 0 0.015779001273249327 0.020984774985552603 0 0.015559899077259453 0.022491018004522162 0 0.014747598370900304 0.021628696159825208 0 0.014963476297331848 0.020670265760636498 0 0.015779001273249327 0.020984774985552603 0 0.01371498915949875 0.022010693542969324 0 0.014747598370900304 0.021628696159825208 0 0.013984011050746434 0.0230227436954678 0 0.014747598370900304 0.021628696159825208 0 0.015559899077259453 0.022491018004522162 0 0.013984011050746434 0.0230227436954678 0 0.013984011050746434 0.0230227436954678 0 0.015163162383358245 0.024041211168154386 0 0.013810690547794937 0.024197202230516357 0 0.015559899077259453 0.022491018004522162 0 0.013984011050746434 0.0230227436954678 0 0.015163162383358245 0.024041211168154386 0 0.014145295698373408 0.026189675279440001 0 0.014334014011216974 0.025937475440905321 0 0.014075650405369735 0.025990211729747185 0 0.014857599911486183 0.024247904369306315 0 0.014727280989485097 0.024983723427155918 0 0.014334014011216974 0.025937475440905321 0 0.014489336824321184 0.025482565835982331 0 0.014169839527291202 0.025725005324704266 0 0.015163162383358245 0.024041211168154386 0 0.01425172286034098 0.024805145069371513 0 0.014489336824321184 0.025482565835982331 0 0.014727280989485097 0.024983723427155918 0 0.01454255568261395 0.025417350667464002 0 0.01425172286034098 0.024805145069371513 0 0.013810690547794937 0.024197202230516357 0 0.01371602482840642 0.025206021361620798 0 0.015163162383358245 0.024041211168154386 0 0.01425172286034098 0.024805145069371513 0 0.013810690547794937 0.024197202230516357 0 0.01425172286034098 0.024805145069371513 0 0.014489336824321184 0.025482565835982331 0 0.01371602482840642 0.025206021361620798 0 0.014489336824321184 0.025482565835982331 0 0.014093572119822102 0.026019297379652827 0 0.01371602482840642 0.025206021361620798 0 0.014489336824321184 0.025482565835982331 0 0.014093572119822102 0.026019297379652827 0 0.014379754804818319 0.025516166693516747 0 0.014489336824321184 0.025482565835982331 0 0.014169839527291202 0.025725005324704266 0 0.014379754804818319 0.025516166693516747 0 0.0123052353837644 0.031309998041582431 0 0.011400744305977458 0.031273231191756061 0 0.0093616613563412519 0.036034329505467103 0 0.010509260584319339 0.036580373262061268 0 0.0085941452202870812 0.036943749525549338 0 0.0093616613563412519 0.036034329505467103 0 0.0088715090013668629 0.035000084368442042 0 0.010927693812005066 0.034999869591758374 0 0.0093616613563412519 0.036034329505467103 0 0.010927693812005066 0.034999869591758374 0 0.010509260584319339 0.036580373262061268 0 0.0123052353837644 0.031309998041582431 0 0.01247150315452175 0.031169565702299822 0 0.014093572119822102 0.026019297379652827 0 0.013328867450287054 0.025788844794750326 0 0.012718861735861706 0.026548342734348956 0 0.010927693812005066 0.034999869591758374 0 0.010509260584319339 0.036580373262061268 0 0.012396230812941332 0.036159447024442543 0 0.010927693812005066 0.034999869591758374 0 0.012983616790988866 0.034999954824007432 0 0.012396230812941332 0.036159447024442543 0 0.012718861735861706 0.026548342734348956 0 0.012724861874469645 0.025419014778657861 0 0.011974570411196475 0.026070628259224529 0 0.013328867450287054 0.025788844794750326 0 0.012718861735861706 0.026548342734348956 0 0.012724861874469645 0.025419014778657861 0 0.012724861874469645 0.025419014778657861 0 0.012247209969191635 0.024535733730782019 0 0.011923047868633734 0.025388882983779195 0 0.012724861874469645 0.025419014778657861 0 0.011923047868633734 0.025388882983779195 0 0.011974570411196475 0.026070628259224529 0 0.013328867450287054 0.025788844794750326 0 0.012724861874469645 0.025419014778657861 0 0.01371602482840642 0.025206021361620798 0 0.014093572119822102 0.026019297379652827 0 0.013328867450287054 0.025788844794750326 0 0.01371602482840642 0.025206021361620798 0 0.012724861874469645 0.025419014778657861 0 0.01371602482840642 0.025206021361620798 0 0.01304509749735595 0.024425135558161063 0 0.013810690547794937 0.024197202230516357 0 0.01371602482840642 0.025206021361620798 0 0.01304509749735595 0.024425135558161063 0 0.012724861874469645 0.025419014778657861 0 0.01304509749735595 0.024425135558161063 0 0.012247209969191635 0.024535733730782019 0 0.012520112882510908 0.023752556714225766 0 0.01304509749735595 0.024425135558161063 0 0.012247209969191635 0.024535733730782019 0 0.012247209969191635 0.024535733730782019 0 0.011443528596392347 0.024490275106145643 0 0.011923047868633734 0.025388882983779195 0 0.011809784186404168 0.02369530270714815 0 0.012247209969191635 0.024535733730782019 0 0.011443528596392347 0.024490275106145643 0 0.011443528596392347 0.024490275106145643 0 0.010663525629680938 0.024076146390383916 0 0.010529037964201807 0.025251823356915813 0 0.011248495957895531 0.023648222972338519 0 0.011443528596392347 0.024490275106145643 0 0.010663525629680938 0.024076146390383916 0 0.01521073575240332 0.023326419341793695 0 0.01506506812154775 0.023978666368231621 0 0.010529037964201807 0.025251823356915813 0 0.011923047868633734 0.025388882983779195 0 0.011222737385280662 0.026049840547276239 0 0.011443528596392347 0.024490275106145643 0 0.010529037964201807 0.025251823356915813 0 0.011923047868633734 0.025388882983779195 0 0.011974570411196475 0.026070628259224529 0 0.011272520462535671 0.026961157610191352 0 0.011222737385280662 0.026049840547276239 0 0.012718861735861706 0.026548342734348956 0 0.011974570411196475 0.026070628259224529 0 0.011272520462535671 0.026961157610191352 0 0.011923047868633734 0.025388882983779195 0 0.011974570411196475 0.026070628259224529 0 0.011222737385280662 0.026049840547276239 0 0.01247150315452175 0.031169565702299822 0 0.013215675094241481 0.03272824852296282 0 0.012986290565851433 0.035002104622392137 0 0.013215675094241481 0.03272824852296282 0 0.012983778243053207 0.034999998432046674 0 0.0143139858471702 0.034999986376781408 0 0.014283252774741385 0.035760700650680675 0 0.012983616790988866 0.034999954824007432 0 0.012396230812941332 0.036159447024442543 0 0.014182964056071215 0.035684758189247427 0 0.0143139858471702 0.034999986376781408 0 0.015644198950486226 0.034999994003309644 0 0.015571641362771784 0.03545287393107583 0 0.0143139858471702 0.034999986376781408 0 0.014283252774741385 0.035760700650680675 0 0.015571641362771784 0.03545287393107583 0 0.014642416906813666 0.032440034590433146 0 0.01473095617007642 0.032477429430644772 0 0.014740638169155712 0.032423509770779797 0 0.013215675094241481 0.03272824852296282 0 0.015376385461511611 0.034871578030130079 0 0.011272520462535671 0.026961157610191352 0 0.011222737385280662 0.026049840547276239 0 0.010389368979291177 0.026429954721789883 0 0.013215675094241481 0.03272824852296282 0 0.015602229183974565 0.029687761163182166 0 0.010529037964201807 0.025251823356915813 0 0.011222737385280662 0.026049840547276239 0 0.010389368979291177 0.026429954721789883 0 0.01506506812154775 0.023978666368231621 0 0.015602229183974565 0.029687761163182166 0 0.015763166211880713 0.036124669143739033 0 0.016608536937448095 0.035868389478705964 0 0.017310553908174084 0.036988158401709735 0 0.015602229183974565 0.029687761163182166 0 0.01770607633323501 0.030796643940251077 0 0.015602229183974565 0.029687761163182166 0 0.015376385461511611 0.034871578030130079 0 0.015763166211880713 0.036124669143739033 0 0.015904635802590272 0.03534130369035824 0 0.016608536937448095 0.035868389478705964 0 0.015904635802590272 0.03534130369035824 0 0.016711575013739755 0.035168319709611325 0 0.016608536937448095 0.035868389478705964 0 0.015644330943730033 0.035000000202453814 0 0.015572764535034167 0.035467390840642647 0 0.016711575013739755 0.035168319709611325 0 0.015376385461511611 0.034871578030130079 0 0.016648832296184128 0.035156268101316418 0 0.015643824143180812 0.03500012070355972 0 0.015376385461511611 0.034871578030130079 0 0.017605456627965019 0.034999805723682095 0 0.015644330943730033 0.035000000202453814 0 0.016711575013739755 0.035168319709611325 0 0.017605456627965019 0.034999805723682095 0 0.016711575013739755 0.035168319709611325 0 0.017505715504421631 0.035807139863225854 0 0.016711575013739755 0.035168319709611325 0 0.017505715504421631 0.035807139863225854 0 0.016608536937448095 0.035868389478705964 0 0.017505715504421631 0.035807139863225854 0 0.016608536937448095 0.035868389478705964 0 0.017310553908174084 0.036988158401709735 0 0.019551871035022938 0.02406787395844031 0 0.019264690029432506 0.025913032000035648 0 0.017180990092763276 0.024601861349635868 0 0.019551871035022938 0.02406787395844031 0 0.017180990092763276 0.024601861349635868 0 0.018764527802182754 0.022992867414049701 0 0.019808195064082695 0.02222657396620999 0 0.019551871035022938 0.02406787395844031 0 0.018764527802182754 0.022992867414049701 0 0.018708095518190717 0.021133667665769049 0 0.018764527802182754 0.022992867414049701 0 0.017631986201614134 0.022706964423808065 0 0.017180990092763276 0.024601861349635868 0 0.018764527802182754 0.022992867414049701 0 0.017631986201614134 0.022706964423808065 0 0.016455602630754153 0.022561388091851875 0 0.017180990092763276 0.024601861349635868 0 0.017631986201614134 0.022706964423808065 0 0.016455602630754153 0.022561388091851875 0 0.017539188035864715 0.021443293337024775 0 0.017631986201614134 0.022706964423808065 0 0.0013748034800382825 0.037730796115739901 0 0.0009123627522188869 0.037562663717303567 0 0.0012697721858958328 0.037319672424072685 0 0.0013748034800382825 0.037730796115739901 0 0.0009123627522188869 0.037562663717303567 0 0.001043390376298025 0.037930432950153324 0 0.0009123627522188869 0.037562663717303567 0 0.001043390376298025 0.037930432950153324 0 0.00031531909016076074 0.037779753626419464 0 0.001043390376298025 0.037930432950153324 0 0.0014298564878356078 0.038159318057582083 0 0.0011414926016044161 0.038494166208942707 0 0.001043390376298025 0.037930432950153324 0 0.00031531909016076074 0.037779753626419464 0 0.0011414926016044161 0.038494166208942707 0 0.0013748034800382825 0.037730796115739901 0 0.0014298564878356078 0.038159318057582083 0 0.0017542842696345322 0.037882336026763899 0 0.0013748034800382825 0.037730796115739901 0 0.001043390376298025 0.037930432950153324 0 0.0014298564878356078 0.038159318057582083 0 0.0014298564878356078 0.038159318057582083 0 0.0017542842696345322 0.037882336026763899 0 0.0017956613742289458 0.038270708402814421 0 0.0017542842696345322 0.037882336026763899 0 0.0022574301862956065 0.037803230677987971 0 0.0017956613742289458 0.038270708402814421 0 0.0017542842696345322 0.037882336026763899 0 0.0022574301862956065 0.037803230677987971 0 0.0018482426764872748 0.037489781713150212 0 0.0013748034800382825 0.037730796115739901 0 0.0017542842696345322 0.037882336026763899 0 0.0018482426764872748 0.037489781713150212 0 0.0022574301862956065 0.037803230677987971 0 0.0018482426764872748 0.037489781713150212 0 0.0023498550957821562 0.037129209478732023 0 0.0018482426764872748 0.037489781713150212 0 0.001870387543954848 0.037153231811764852 0 0.0023498550957821562 0.037129209478732023 0 0.001870387543954848 0.037153231811764852 0 0.0012697721858958328 0.037319672424072685 0 0.0013824950540940668 0.037005166231391343 0 0.0018482426764872748 0.037489781713150212 0 0.001870387543954848 0.037153231811764852 0 0.0012697721858958328 0.037319672424072685 0 0.0013748034800382825 0.037730796115739901 0 0.0018482426764872748 0.037489781713150212 0 0.0012697721858958328 0.037319672424072685 0 0.0009123627522188869 0.037562663717303567 0 0.0012697721858958328 0.037319672424072685 0 0.00053756708135740624 0.03712186106801444 0 0.0012697721858958328 0.037319672424072685 0 0.00053756708135740624 0.03712186106801444 0 0.0013824950540940668 0.037005166231391343 0 0.00053756708135740624 0.03712186106801444 0 -0.00087181529526734742 0.037210451134309909 0 -0.00041630392183308076 0.036703759022069446 0 -0.00087181529526734742 0.037210451134309909 0 0.00031531909016076074 0.037779753626419464 0 -0.00081808779571817712 0.038115647381294304 0 -0.00087181529526734742 0.037210451134309909 0 -0.00081808779571817712 0.038115647381294304 0 -0.0023275993458795846 0.037353265697707069 0 0.00053756708135740624 0.03712186106801444 0 -0.00087181529526734742 0.037210451134309909 0 0.00031531909016076074 0.037779753626419464 0 0.0009123627522188869 0.037562663717303567 0 0.00053756708135740624 0.03712186106801444 0 0.00031531909016076074 0.037779753626419464 0 0.00031531909016076074 0.037779753626419464 0 -0.00081808779571817712 0.038115647381294304 0 0.0011414926016044161 0.038494166208942707 0 -0.00081808779571817712 0.038115647381294304 0 0.001225046478908851 0.038785880054535121 0 0.0011414926016044161 0.038494166208942707 0 -0.00081808779571817712 0.038115647381294304 0 -0.00094035452987526315 0.038589784702721536 0 -0.00058223189452330352 0.038630729236152933 0 -0.00081808779571817712 0.038115647381294304 0 -0.00058223189452330352 0.038630729236152933 0 -0.0003133516012287202 0.038372353196295277 0 -0.0013793641457176757 0.038761374511748874 0 0.0022204317611087053 0.035871191527420944 0 -0.00081808779571817712 0.038115647381294304 0 -0.0023275993458795846 0.037353265697707069 0 -0.0022745973222930336 0.037951710605480242 0 -0.00081808779571817712 0.038115647381294304 0 -0.0014124684584944057 0.038520533940105135 0 -0.0022745973222930336 0.037951710605480242 0 -0.00081808779571817712 0.038115647381294304 0 -0.0014124684584944057 0.038520533940105135 0 -0.00094035452987526315 0.038589784702721536 0 -0.0014124684584944057 0.038520533940105135 0 -0.001119903368410572 0.038971662594031987 0 -0.0022097026307632281 0.038996000268140728 0 -0.0014124684584944057 0.038520533940105135 0 -0.00094035452987526315 0.038589784702721536 0 -0.001119903368410572 0.038971662594031987 0 -0.00094035452987526315 0.038589784702721536 0 -0.001119903368410572 0.038971662594031987 0 -0.00080984792275439594 0.038793770848165619 0 -0.0010409484277312717 0.038972515117885707 0 -0.001119903368410572 0.038971662594031987 0 -0.00080984792275439594 0.038793770848165619 0 -0.001907702008095477 0.03458869906936219 0 -0.0013675894932528062 0.036423424697790308 0 -0.0088486500676867828 0.035448626906943233 0 -0.0064795183182280326 0.036970671534193374 0 -0.0069684436246367672 0.034579286999364411 0 -0.001907702008095477 0.03458869906936219 0 -0.0045615533738461627 0.037753555661146194 0 -0.0010148818726854617 0.039172818652123173 0 -0.001119903368410572 0.038971662594031987 0 -0.0022097026307632281 0.038996000268140728 0 -0.00047004808208837005 0.038913015993919706 0 -0.00058223189452330352 0.038630729236152933 0 -0.00080984792275439594 0.038793770848165619 0 -0.00047004808208837005 0.038913015993919706 0 -0.0010409484277312717 0.038972515117885707 0 -0.00080984792275439594 0.038793770848165619 0 -0.00094035452987526315 0.038589784702721536 0 -0.00058223189452330352 0.038630729236152933 0 -0.00080984792275439594 0.038793770848165619 0 -0.00047004808208837005 0.038913015993919706 0 -0.00058223189452330352 0.038630729236152933 0 -0.00026409434641214423 0.038740309518908202 0 -0.00058223189452330352 0.038630729236152933 0 -0.00026409434641214423 0.038740309518908202 0 -0.0003133516012287202 0.038372353196295277 0 0.0033009409663346772 0.034939128013017025 0 0.0022204317611087053 0.035871191527420944 0 0.0012094917712035041 0.038629530005988122 0 0.0015502523410160073 0.038456091788425351 0 0.0011414926016044161 0.038494166208942707 0 0.0014298564878356078 0.038159318057582083 0 0.0015502523410160073 0.038456091788425351 0 0.0011414926016044161 0.038494166208942707 0 0.0014298564878356078 0.038159318057582083 0 0.0015502523410160073 0.038456091788425351 0 0.0017956613742289458 0.038270708402814421 0 0.0022204317611087053 0.035871191527420944 0 0.0022644501479827874 0.036831893260695518 0 0.0012094917712035041 0.038629530005988122 0 0.0015502523410160073 0.038456091788425351 0 0.002162388064435701 0.038720344367280293 0 0.01337693853802524 0.02624122688986924 0 0.013332329373842055 0.026441602989310677 0 0.01344645677109076 0.026317760759292333 0 0.0022574301862956065 0.037803230677987971 0 0.0017956613742289458 0.038270708402814421 0 0.002162388064435701 0.038720344367280293 0 0.0022204317611087053 0.035871191527420944 0 0.0087686530997273648 0.029150987590381119 0 0.0076558977176549112 0.03277296884631524 0 0.0087686530997273648 0.029150987590381119 0 0.0015502523410160073 0.038456091788425351 0 0.0017956613742289458 0.038270708402814421 0 0.002162388064435701 0.038720344367280293 0 0.011300382348778518 0.02131648227927711 0 0.0087686530997273648 0.029150987590381119 0 0.0053693734232341242 0.028924546640438049 0 0.0064848179731273334 0.029216193208407491 0 0.0050098442542742686 0.031026656509034595 0 0.0064848179731273334 0.029216193208407491 0 0.0071410680413895493 0.031561028568157845 0 0.0050098442542742686 0.031026656509034595 0 0.016113939072903025 0.017309367618805908 0 0.015889903400605605 0.019000601132539777 0 0.015488625309476121 0.018140428676087821 0 0.016113939072903025 0.017309367618805908 0 0.015027239277115054 0.017532093071197536 0 0.015488625309476121 0.018140428676087821 0 0.015889903400605605 0.019000601132539777 0 0.015488625309476121 0.018140428676087821 0 0.014929364906364226 0.018744017831082399 0 0.015027239277115054 0.017532093071197536 0 0.015488625309476121 0.018140428676087821 0 0.014929364906364226 0.018744017831082399 0 0.013848301303158608 0.024881283786932041 0 0.013915821834270443 0.021748988268548552 0 0.015027239277115054 0.017532093071197536 0 0.014929364906364226 0.018744017831082399 0 0.013712837596926724 0.017435579441820621 0 0.014152253748587232 0.02610931514864305 0 0.014111829525316932 0.026135295892868188 0 0.014132692337601673 0.026087005512077582 0 0.013848301303158608 0.024881283786932041 0 0.013967000145567685 0.026369860392545869 0 0.014054750193616647 0.026104144752631675 0 0.014111829525316932 0.026135295892868188 0 0.014132692337601673 0.026087005512077582 0 0.013493816330649271 0.026449676334213107 0 0.013781296877806914 0.026405564831153715 0 0.013704692601173464 0.026330902030256349 0 0.013781296877806914 0.026405564831153715 0 0.013704692601173464 0.026330902030256349 0 0.013903599766396711 0.026296453017084949 0 0.013704692601173464 0.026330902030256349 0 0.013878563716937338 0.026251539563144015 0 0.013694819126251352 0.026236023346052476 0 0.013704692601173464 0.026330902030256349 0 0.013578239058589563 0.02629496822078347 0 0.013694819126251352 0.026236023346052476 0 0.013704692601173464 0.026330902030256349 0 0.013578239058589563 0.02629496822078347 0 0.013530813849402377 0.026360143965575743 0 0.013578239058589563 0.02629496822078347 0 0.01344645677109076 0.026317760759292333 0 0.013530813849402377 0.026360143965575743 0 0.013493816330649271 0.026449676334213107 0 0.013704692601173464 0.026330902030256349 0 0.013530813849402377 0.026360143965575743 0 0.01344645677109076 0.026317760759292333 0 0.01342452549985252 0.026409925556709922 0 0.013530813849402377 0.026360143965575743 0 0.013493816330649271 0.026449676334213107 0 0.01342452549985252 0.026409925556709922 0 0.013530813849402377 0.026360143965575743 0 0.013332329373842055 0.026441602989310677 0 0.013476178502282138 0.026456889462711873 0 0.01342452549985252 0.026409925556709922 0 0.013332329373842055 0.026441602989310677 0 0.01344645677109076 0.026317760759292333 0 0.01342452549985252 0.026409925556709922 0 0.0087686530997273648 0.029150987590381119 0 0.013848301303158608 0.024881283786932041 0 0.013848301303158608 0.024881283786932041 0 0.013984541736682619 0.025659270432359282 0 0.015082312024193559 0.021106630272653474 0 0.014834335979399678 0.02397765948147591 0 0.013972689090722743 0.026249218267983564 0 0.013980774885896099 0.026218025636413192 0 0.013975429350321734 0.026261338130026984 0 0.013980774885896099 0.026218025636413192 0 0.013903599766396711 0.026296453017084949 0 0.013975429350321734 0.026261338130026984 0 0.013911040639023896 0.026054801194650583 0 0.013972689090722743 0.026249218267983564 0 0.013980774885896099 0.026218025636413192 0 0.013967000145567685 0.026369860392545869 0 0.013936686721564782 0.026209256921829478 0 0.013781296877806914 0.026405564831153715 0 0.013980774885896099 0.026218025636413192 0 0.013903599766396711 0.026296453017084949 0 0.014054750193616647 0.026104144752631675 0 0.014111829525316932 0.026135295892868188 0 0.013980774885896099 0.026218025636413192 0 0.013878563716937338 0.026251539563144015 0 0.013975429350321734 0.026261338130026984 0 0.013987677986489033 0.026159253713807278 0 0.013704692601173464 0.026330902030256349 0 0.013903599766396711 0.026296453017084949 0 0.013878563716937338 0.026251539563144015 0 0.013903599766396711 0.026296453017084949 0 0.013878563716937338 0.026251539563144015 0 0.013975429350321734 0.026261338130026984 0 0.013972689090722743 0.026249218267983564 0 0.014145295698373408 0.026189675279440001 0 0.013975429350321734 0.026261338130026984 0 0.014145295698373408 0.026189675279440001 0 0.013975429350321734 0.026261338130026984 0 0.013987677986489033 0.026159253713807278 0 0.014145295698373408 0.026189675279440001 0 0.013987677986489033 0.026159253713807278 0 0.014075650405369735 0.025990211729747185 0 0.013987677986489033 0.026159253713807278 0 0.013821737923864586 0.026159822326116522 0 0.013841283351700744 0.026021593799379589 0 0.013878563716937338 0.026251539563144015 0 0.013987677986489033 0.026159253713807278 0 0.013821737923864586 0.026159822326116522 0 0.013878563716937338 0.026251539563144015 0 0.013821737923864586 0.026159822326116522 0 0.013694819126251352 0.026236023346052476 0 0.013987677986489033 0.026159253713807278 0 0.013841283351700744 0.026021593799379589 0 0.014075650405369735 0.025990211729747185 0 0.013841283351700744 0.026021593799379589 0 0.014075650405369735 0.025990211729747185 0 0.013830299184553075 0.025832778531938268 0 0.01337693853802524 0.02624122688986924 0 0.013522157921387577 0.026212087140469822 0 0.013382618657580525 0.026038409273911021 0 0.01337693853802524 0.02624122688986924 0 0.01344645677109076 0.026317760759292333 0 0.013522157921387577 0.026212087140469822 0 0.013578239058589563 0.02629496822078347 0 0.01344645677109076 0.026317760759292333 0 0.013522157921387577 0.026212087140469822 0 0.013578239058589563 0.02629496822078347 0 0.013522157921387577 0.026212087140469822 0 0.013694819126251352 0.026236023346052476 0 0.013522157921387577 0.026212087140469822 0 0.013694819126251352 0.026236023346052476 0 0.013587476083159206 0.026103162639920525 0 0.013821737923864586 0.026159822326116522 0 0.013694819126251352 0.026236023346052476 0 0.013587476083159206 0.026103162639920525 0 0.013841283351700744 0.026021593799379589 0 0.013587476083159206 0.026103162639920525 0 0.013627069641564335 0.02594925401006842 0 0.013821737923864586 0.026159822326116522 0 0.013841283351700744 0.026021593799379589 0 0.013587476083159206 0.026103162639920525 0 0.013587476083159206 0.026103162639920525 0 0.013520602398193282 0.026003449563077579 0 0.013627069641564335 0.02594925401006842 0 0.0076558977176549112 0.03277296884631524 0 0.0079616675596762311 0.03120312518166769 0 0.013587476083159206 0.026103162639920525 0 0.013520602398193282 0.026003449563077579 0 0.013382618657580525 0.026038409273911021 0 0.013522157921387577 0.026212087140469822 0 0.013587476083159206 0.026103162639920525 0 0.013382618657580525 0.026038409273911021 0 0.0023498550957821562 0.037129209478732023 0 0.0024847950794390536 0.036909418113009962 0 0.0023298984541941401 0.036981809214460135 0 0.013382618657580525 0.026038409273911021 0 0.013488146162191263 0.025917747516549058 0 0.01336978861469266 0.025784775187611797 0 0.0079616675596762311 0.03120312518166769 0 0.0073980157832368746 0.032546342156810563 0 0.013488146162191263 0.025917747516549058 0 0.013616146873953199 0.025820624127910346 0 0.01336978861469266 0.025784775187611797 0 0.013520602398193282 0.026003449563077579 0 0.013382618657580525 0.026038409273911021 0 0.013488146162191263 0.025917747516549058 0 0.013520602398193282 0.026003449563077579 0 0.013488146162191263 0.025917747516549058 0 0.013627069641564335 0.02594925401006842 0 0.013616146873953199 0.025820624127910346 0 0.013830299184553075 0.025832778531938268 0 0.013779728936256171 0.025613461151685977 0 0.013488146162191263 0.025917747516549058 0 0.013627069641564335 0.02594925401006842 0 0.013616146873953199 0.025820624127910346 0 0.013627069641564335 0.02594925401006842 0 0.013616146873953199 0.025820624127910346 0 0.013830299184553075 0.025832778531938268 0 0.0045897514067463011 0.036735379702189222 0 0.0039319976068457442 0.037412553452805003 0 0.0065405201791406218 0.037250212020648189 0 0.0073980157832368746 0.032546342156810563 0 0.010477481860296498 0.031262797535152938 0 0.013616146873953199 0.025820624127910346 0 0.01336978861469266 0.025784775187611797 0 0.013779728936256171 0.025613461151685977 0 0.0045897514067463011 0.036735379702189222 0 0.003579799020864317 0.036657079293991299 0 0.0039491141591577669 0.037273543067040331 0 0.0045897514067463011 0.036735379702189222 0 0.003579799020864317 0.036657079293991299 0 0.0038409374397854017 0.036286769724781627 0 0.0039491141591577669 0.037273543067040331 0 0.0031918777240542333 0.03688938596917813 0 0.0038933013586053586 0.037406949426839524 0 0.003579799020864317 0.036657079293991299 0 0.0039491141591577669 0.037273543067040331 0 0.0031918777240542333 0.03688938596917813 0 0.0072344474447802523 0.033067530591368959 0 0.0073980157832368746 0.032546342156810563 0 0.0045897514067463011 0.036735379702189222 0 0.0039491141591577669 0.037273543067040331 0 0.0039319976068457442 0.037412553452805003 0 0.014334014011216974 0.025937475440905321 0 0.014075650405369735 0.025990211729747185 0 0.014169839527291202 0.025725005324704266 0 0.014075650405369735 0.025990211729747185 0 0.014169839527291202 0.025725005324704266 0 0.013830299184553075 0.025832778531938268 0 0.013841283351700744 0.026021593799379589 0 0.013627069641564335 0.02594925401006842 0 0.013830299184553075 0.025832778531938268 0 0.014169839527291202 0.025725005324704266 0 0.013830299184553075 0.025832778531938268 0 0.013779728936256171 0.025613461151685977 0 0.010477481860296498 0.031262797535152938 0 0.011400744305977458 0.031273231191756061 0 0.014169839527291202 0.025725005324704266 0 0.013779728936256171 0.025613461151685977 0 0.014379754804818319 0.025516166693516747 0 0.0093616613563412519 0.036034329505467103 0 0.0085941452202870812 0.036943749525549338 0 0.0075013870109717738 0.036042272008896439 0 0.0065405201791406218 0.037250212020648189 0 0.0085941452202870812 0.036943749525549338 0 0.0075013870109717738 0.036042272008896439 0 0.0065405201791406218 0.037250212020648189 0 0.0075013870109717738 0.036042272008896439 0 0.0060852229878400037 0.036014493005214164 0 0.0075013870109717738 0.036042272008896439 0 0.0068150611688941199 0.034998881599694824 0 0.0060852229878400037 0.036014493005214164 0 0.0093616613563412519 0.036034329505467103 0 0.0088715090013668629 0.035000084368442042 0 0.0075013870109717738 0.036042272008896439 0 0.0088715090013668629 0.035000084368442042 0 0.0075013870109717738 0.036042272008896439 0 0.0068150611688941199 0.034998881599694824 0 0.0047854449071924538 0.035408273684368927 0 0.0038409374397854017 0.036286769724781627 0 0.002463674934801745 0.036260685814275821 0 0.0045897514067463011 0.036735379702189222 0 0.0047854449071924538 0.035408273684368927 0 0.0038409374397854017 0.036286769724781627 0 0.0049481587769035322 0.035701219372458071 0 0.0028656849003124616 0.03640607142388344 0 0.0045897514067463011 0.036735379702189222 0 0.0047854449071924538 0.035408273684368927 0 0.0060852229878400037 0.036014493005214164 0 0.0045897514067463011 0.036735379702189222 0 0.0065405201791406218 0.037250212020648189 0 0.0060852229878400037 0.036014493005214164 0 0.0068154508356938507 0.035000079776183628 0 0.005177709302099303 0.035963301595843079 0 0.004743889931368925 0.034999735966044367 0 0.0068150611688941199 0.034998881599694824 0 0.0047854449071924538 0.035408273684368927 0 0.0060852229878400037 0.036014493005214164 0 0.0068149513185249222 0.035000116823986335 0 0.0049481587769035322 0.035701219372458071 0 0.005177709302099303 0.035963301595843079 0 0.004743889931368925 0.034999735966044367 0 0.0038305428717271537 0.035744464802277442 0 0.004743889931368925 0.034999735966044367 0 0.0038305428717271537 0.035744464802277442 0 0.0026724697806464874 0.034999566230130702 0 0.0038305428717271537 0.035744464802277442 0 0.0026724697806464874 0.034999566230130702 0 0.0028276663071965941 0.0359434848762245 0 0.0026724697806464874 0.034999566230130702 0 0.0017483200108650559 0.035986520271577477 0 0.0028276663071965941 0.0359434848762245 0 0.0017483200108650559 0.035986520271577477 0 0.0028276663071965941 0.0359434848762245 0 0.0032585991878532096 0.036615682028493059 0 0.005177709302099303 0.035963301595843079 0 0.0038305428717271537 0.035744464802277442 0 0.0032585991878532096 0.036615682028493059 0 0.0038305428717271537 0.035744464802277442 0 0.0028276663071965941 0.0359434848762245 0 0.0032585991878532096 0.036615682028493059 0 0.003579799020864317 0.036657079293991299 0 0.0038409374397854017 0.036286769724781627 0 0.002463674934801745 0.036260685814275821 0 0.0031918777240542333 0.03688938596917813 0 0.002463674934801745 0.036260685814275821 0 0.0023298984541941401 0.036981809214460135 0 0.003579799020864317 0.036657079293991299 0 0.0031918777240542333 0.03688938596917813 0 0.002463674934801745 0.036260685814275821 0 0.0073980157832368746 0.032546342156810563 0 0.0011047424233304175 0.036978825300952756 0 0.0031918777240542333 0.03688938596917813 0 0.0038933013586053586 0.037406949426839524 0 0.0023298984541941401 0.036981809214460135 0 0.002463674934801745 0.036260685814275821 0 0.0012250965849351569 0.036720923774705601 0 0.0023298984541941401 0.036981809214460135 0 0.0028656849003124616 0.03640607142388344 0 0.0013929910292786148 0.036760056857549447 0 0.0017483200108650559 0.035986520271577477 0 0.0032585991878532096 0.036615682028493059 0 0.0012250965849351569 0.036720923774705601 0 0.00053756708135740624 0.03712186106801444 0 0.0012250965849351569 0.036720923774705601 0 0.0013824950540940668 0.037005166231391343 0 0.0012250965849351569 0.036720923774705601 0 0.0013824950540940668 0.037005166231391343 0 0.0023298984541941401 0.036981809214460135 0 0.001870387543954848 0.037153231811764852 0 0.0013824950540940668 0.037005166231391343 0 0.0023298984541941401 0.036981809214460135 0 0.001870387543954848 0.037153231811764852 0 0.0023498550957821562 0.037129209478732023 0 0.0023298984541941401 0.036981809214460135 0 -0.00041630392183308076 0.036703759022069446 0 0.00010597042132942158 0.036094530592770652 0 -0.0011597534242680366 0.036565986129012566 0 0.00053756708135740624 0.03712186106801444 0 0.0012250965849351569 0.036720923774705601 0 -0.00041630392183308076 0.036703759022069446 0 0.0012250965849351569 0.036720923774705601 0 -0.00041630392183308076 0.036703759022069446 0 0.00010597042132942158 0.036094530592770652 0 0.0017483200108650559 0.035986520271577477 0 0.0012250965849351569 0.036720923774705601 0 0.00010597042132942158 0.036094530592770652 0 0.0017483200108650559 0.035986520271577477 0 0.00010597042132942158 0.036094530592770652 0 0.00060134405160061849 0.034999771500110445 0 0.00010597042132942158 0.036094530592770652 0 0.00060134405160061849 0.034999771500110445 0 -0.00076435734146421423 0.035461219465047038 0 0.0026724697806464874 0.034999566230130702 0 0.0017483200108650559 0.035986520271577477 0 0.00060134405160061849 0.034999771500110445 0 0.00060134405160061849 0.034999771500110445 0 -0.0014692833038182189 0.034998200110463944 0 -0.00076435734146421423 0.035461219465047038 0 -0.0014692833038182189 0.034998200110463944 0 -0.0019024982513698759 0.035273215103219166 0 -0.00076435734146421423 0.035461219465047038 0 -0.0014692833038182189 0.034998200110463944 0 -0.0019024982513698759 0.035273215103219166 0 -0.0031072572660345871 0.034751958972109115 0 -0.0019024982513698759 0.035273215103219166 0 -0.0032324822564664358 0.035715211879239331 0 -0.0014037230772229975 0.035930795481596653 0 -0.0019024982513698759 0.035273215103219166 0 -0.00076435734146421423 0.035461219465047038 0 -0.0014037230772229975 0.035930795481596653 0 0.00010597042132942158 0.036094530592770652 0 -0.00076435734146421423 0.035461219465047038 0 -0.0014037230772229975 0.035930795481596653 0 -0.0033266806856117157 0.034999759376617 0 -0.0044039349884773624 0.035564943807628008 0 -0.0030922120262945451 0.035847836662205569 0 -0.0033266806856117157 0.034999759376617 0 -0.0044039349884773624 0.035564943807628008 0 -0.0051839993190760979 0.034999629574351508 0 -0.0014696967575201752 0.035000045843770797 0 -0.0031363227484132701 0.035321626703466898 0 -0.0014691402029396784 0.035000087868584134 0 -0.0033266806856117157 0.034999759376617 0 -0.0030922120262945451 0.035847836662205569 0 -0.0019024982513698759 0.035273215103219166 0 -0.0031072572660345871 0.034751958972109115 0 -0.0032324822564664358 0.035715211879239331 0 -0.0031072572660345871 0.034751958972109115 0 -0.0032324822564664358 0.035715211879239331 0 -0.0049465550587332397 0.035158815096810091 0 -0.0044039349884773624 0.035564943807628008 0 -0.0030922120262945451 0.035847836662205569 0 -0.0049512500287845779 0.036259798907563145 0 -0.0031363227484132701 0.035321626703466898 0 -0.0049370766628478394 0.035688824712513723 0 -0.0032324822564664358 0.035715211879239331 0 -0.0050303388183176399 0.036451195093207878 0 -0.0049465550587332397 0.035158815096810091 0 -0.0032324822564664358 0.035715211879239331 0 -0.0028006972783198702 0.0366374928470274 0 -0.0050303388183176399 0.036451195093207878 0 0.00010597042132942158 0.036094530592770652 0 -0.0014037230772229975 0.035930795481596653 0 -0.0011597534242680366 0.036565986129012566 0 -0.0032324822564664358 0.035715211879239331 0 -0.0028006972783198702 0.0366374928470274 0 -0.0014037230772229975 0.035930795481596653 0 -0.0028006972783198702 0.0366374928470274 0 -0.0014037230772229975 0.035930795481596653 0 -0.0011597534242680366 0.036565986129012566 0 -0.0028006972783198702 0.0366374928470274 0 -0.0011597534242680366 0.036565986129012566 0 -0.0017736833829636396 0.037437405268267485 0 -0.00041630392183308076 0.036703759022069446 0 -0.0011597534242680366 0.036565986129012566 0 -0.0017736833829636396 0.037437405268267485 0 -0.00087181529526734742 0.037210451134309909 0 -0.00041630392183308076 0.036703759022069446 0 -0.002957395176200508 0.036162298077698163 0 -0.00063283608492420364 0.036673292680226108 0 -0.0023685160346335575 0.036825350743400355 0 -0.00087181529526734742 0.037210451134309909 0 -0.0023275993458795846 0.037353265697707069 0 -0.002957395176200508 0.036162298077698163 0 -0.0023275993458795846 0.037353265697707069 0 -0.0037730250745579689 0.037223343090041897 0 -0.0022745973222930336 0.037951710605480242 0 -0.0037730250745579689 0.037223343090041897 0 -0.002957395176200508 0.036162298077698163 0 -0.0047242832248311313 0.036436530037591834 0 -0.0023275993458795846 0.037353265697707069 0 -0.0037730250745579689 0.037223343090041897 0 -0.002957395176200508 0.036162298077698163 0 -0.0028006972783198702 0.0366374928470274 0 -0.0017736833829636396 0.037437405268267485 0 -0.003846045029557754 0.037536002206873635 0 -0.0023685160346335575 0.036825350743400355 0 -0.0042570346478059545 0.03694752369832937 0 -0.0028006972783198702 0.0366374928470274 0 -0.0050303388183176399 0.036451195093207878 0 -0.003846045029557754 0.037536002206873635 0 -0.0050303388183176399 0.036451195093207878 0 -0.003846045029557754 0.037536002206873635 0 -0.0057470475511884958 0.036870517452092549 0 -0.0042570346478059545 0.03694752369832937 0 -0.005580820836771385 0.036927470500907562 0 -0.0047242832248311313 0.036436530037591834 0 -0.0047031475586795379 0.037129802812080975 0 -0.0057470475511884958 0.036870517452092549 0 -0.0037730250745579689 0.037223343090041897 0 -0.0047242832248311313 0.036436530037591834 0 -0.0047031475586795379 0.037129802812080975 0 -0.0047031475586795379 0.037129802812080975 0 -0.005035783223463668 0.03709035614898052 0 -0.0044487584685788586 0.037246547364655082 0 -0.0047031475586795379 0.037129802812080975 0 -0.0057394142768818265 0.036918883198056432 0 -0.0057470475511884958 0.036870517452092549 0 -0.0047031475586795379 0.037129802812080975 0 -0.005035783223463668 0.03709035614898052 0 -0.0057394142768818265 0.036918883198056432 0 -0.005035783223463668 0.03709035614898052 0 -0.0050932776779761945 0.037154057396095487 0 -0.0057717884552508326 0.037166535137112586 0 -0.005035783223463668 0.03709035614898052 0 -0.0057394142768818265 0.036918883198056432 0 -0.0057717884552508326 0.037166535137112586 0 -0.005035783223463668 0.03709035614898052 0 -0.0044487584685788586 0.037246547364655082 0 -0.0045859240237184108 0.036880231911605568 0 -0.005035783223463668 0.03709035614898052 0 -0.0045859240237184108 0.036880231911605568 0 -0.0050932776779761945 0.037154057396095487 0 -0.0044487584685788586 0.037246547364655082 0 -0.0046475551765155932 0.036661189016190872 0 -0.0045859240237184108 0.036880231911605568 0 -0.0044487584685788586 0.037246547364655082 0 -0.0046475551765155932 0.036661189016190872 0 -0.004091803482301779 0.03787188409360772 0 -0.0046475551765155932 0.036661189016190872 0 -0.0064795183182280326 0.036970671534193374 0 -0.0069684436246367672 0.034579286999364411 0 -0.0045615533738461627 0.037753555661146194 0 -0.0040695421487779984 0.037964651376272918 0 -0.0046475551765155932 0.036661189016190872 0 -0.0064795183182280326 0.036970671534193374 0 -0.004091803482301779 0.03787188409360772 0 -0.0022097026307632281 0.038996000268140728 0 -0.0022745973222930336 0.037951710605480242 0 -0.004091803482301779 0.03787188409360772 0 -0.0014124684584944057 0.038520533940105135 0 -0.0022097026307632281 0.038996000268140728 0 -0.0022745973222930336 0.037951710605480242 0 -0.0037730250745579689 0.037223343090041897 0 -0.0047031475586795379 0.037129802812080975 0 -0.004091803482301779 0.03787188409360772 0 -0.0047031475586795379 0.037129802812080975 0 -0.0044487584685788586 0.037246547364655082 0 -0.004091803482301779 0.03787188409360772 0 -0.0037730250745579689 0.037223343090041897 0 -0.0022745973222930336 0.037951710605480242 0 -0.004091803482301779 0.03787188409360772 0 -0.0079850909611238179 0.03632666356383038 0 -0.0068871334122916905 0.036608206113794367 0 -0.0081082351378173132 0.036328952677749375 0 -0.0079850909611238179 0.03632666356383038 0 -0.0081082351378173132 0.036328952677749375 0 -0.0088254829329094866 0.036054655006643524 0 -0.0079850909611238179 0.03632666356383038 0 -0.0088254829329094866 0.036054655006643524 0 -0.0087241336625197303 0.035381043956481534 0 -0.0079850909611238179 0.03632666356383038 0 -0.0072939413580813961 0.036787090521941117 0 -0.0077087380587505415 0.036983817452933852 0 -0.0079850909611238179 0.03632666356383038 0 -0.0072939413580813961 0.036787090521941117 0 -0.0066068976619538351 0.036808838678206147 0 -0.0072939413580813961 0.036787090521941117 0 -0.0066068976619538351 0.036808838678206147 0 -0.0065864295660667043 0.037100848392615467 0 -0.0066068976619538351 0.036808838678206147 0 -0.0057717884552508326 0.037166535137112586 0 -0.0065864295660667043 0.037100848392615467 0 -0.0066068976619538351 0.036808838678206147 0 -0.0057394142768818265 0.036918883198056432 0 -0.0057717884552508326 0.037166535137112586 0 -0.0057394142768818265 0.036918883198056432 0 -0.0068871334122916905 0.036608206113794367 0 -0.0057470475511884958 0.036870517452092549 0 -0.0066068976619538351 0.036808838678206147 0 -0.0057394142768818265 0.036918883198056432 0 -0.0068871334122916905 0.036608206113794367 0 -0.0079850909611238179 0.03632666356383038 0 -0.0066068976619538351 0.036808838678206147 0 -0.0068871334122916905 0.036608206113794367 0 -0.0068871334122916905 0.036608206113794367 0 -0.0057470475511884958 0.036870517452092549 0 -0.0069070186646521163 0.036418570464541743 0 -0.0050303388183176399 0.036451195093207878 0 -0.0057470475511884958 0.036870517452092549 0 -0.0069070186646521163 0.036418570464541743 0 -0.0069070186646521163 0.036418570464541743 0 -0.0081082351378173132 0.036328952677749375 0 -0.0086329089047869362 0.036136125757437507 0 -0.0068871334122916905 0.036608206113794367 0 -0.0069070186646521163 0.036418570464541743 0 -0.0081082351378173132 0.036328952677749375 0 -0.0069070186646521163 0.036418570464541743 0 -0.0086329089047869362 0.036136125757437507 0 -0.0076238708223823042 0.036052923803624709 0 -0.0086329089047869362 0.036136125757437507 0 -0.0076238708223823042 0.036052923803624709 0 -0.0086110518120342053 0.035824569837104518 0 -0.0069070186646521163 0.036418570464541743 0 -0.0076238708223823042 0.036052923803624709 0 -0.0065339660138268689 0.03597617712225501 0 -0.0076238708223823042 0.036052923803624709 0 -0.0065339660138268689 0.03597617712225501 0 -0.007404894920813249 0.035741670695412189 0 -0.0076238708223823042 0.036052923803624709 0 -0.0086110518120342053 0.035824569837104518 0 -0.007404894920813249 0.035741670695412189 0 -0.0050303388183176399 0.036451195093207878 0 -0.0069070186646521163 0.036418570464541743 0 -0.0065339660138268689 0.03597617712225501 0 -0.0050303388183176399 0.036451195093207878 0 -0.0065339660138268689 0.03597617712225501 0 -0.0049465550587332397 0.035158815096810091 0 -0.0063593045320439944 0.036002699636774452 0 -0.0049370766628478394 0.035688824712513723 0 -0.0065339660138268689 0.03597617712225501 0 -0.0049512500287845779 0.036259798907563145 0 -0.0060121143190574973 0.035666819293533686 0 -0.0044039349884773624 0.035564943807628008 0 -0.0049512500287845779 0.036259798907563145 0 -0.0060121143190574973 0.035666819293533686 0 -0.0065339660138268689 0.03597617712225501 0 -0.0060121143190574973 0.035666819293533686 0 -0.007404894920813249 0.035741670695412189 0 -0.0060121143190574973 0.035666819293533686 0 -0.0051839993190760979 0.034999629574351508 0 -0.007040960931184983 0.034999570038328542 0 -0.0044039349884773624 0.035564943807628008 0 -0.0060121143190574973 0.035666819293533686 0 -0.0051839993190760979 0.034999629574351508 0 -0.0086110518120342053 0.035824569837104518 0 -0.0084418396530014997 0.035456014332294943 0 -0.007404894920813249 0.035741670695412189 0 -0.0060121143190574973 0.035666819293533686 0 -0.007404894920813249 0.035741670695412189 0 -0.007040960931184983 0.034999570038328542 0 -0.0084418396530014997 0.035456014332294943 0 -0.007404894920813249 0.035741670695412189 0 -0.007040960931184983 0.034999570038328542 0 -0.0084418396530014997 0.035456014332294943 0 -0.007040960931184983 0.034999570038328542 0 -0.0088976246563753393 0.034999395040561897 0 -0.0084418396530014997 0.035456014332294943 0 -0.0088976246563753393 0.034999395040561897 0 -0.0096502773790382943 0.035487745593528047 0 -0.0088976246563753393 0.034999395040561897 0 -0.0096502773790382943 0.035487745593528047 0 -0.01075530224010153 0.034999504844159604 0 -0.0086110518120342053 0.035824569837104518 0 -0.0084418396530014997 0.035456014332294943 0 -0.0096502773790382943 0.035487745593528047 0 -0.0096502773790382943 0.035487745593528047 0 -0.01075530224010153 0.034999504844159604 0 -0.010751392245149734 0.035550418877534892 0 -0.01075530224010153 0.034999504844159604 0 -0.012609001571185026 0.034999318765061231 0 -0.01167810537990454 0.035281876538121752 0 -0.012612115522037313 0.034999967757654807 0 -0.01293412351450627 0.035414439173937377 0 -0.012609001571185026 0.034999318765061231 0 -0.01167810537990454 0.035281876538121752 0 -0.011992810338472814 0.035115608050340918 0 -0.01167810537990454 0.035281876538121752 0 -0.01155121410710804 0.035498012664595006 0 -0.011992810338472814 0.035115608050340918 0 -0.01167810537990454 0.035281876538121752 0 -0.010751392245149734 0.035550418877534892 0 -0.01155121410710804 0.035498012664595006 0 -0.01075530224010153 0.034999504844159604 0 -0.01167810537990454 0.035281876538121752 0 -0.010751392245149734 0.035550418877534892 0 -0.010751392245149734 0.035550418877534892 0 -0.01155121410710804 0.035498012664595006 0 -0.010679562960859371 0.035886149057181814 0 -0.010751392245149734 0.035550418877534892 0 -0.010679562960859371 0.035886149057181814 0 -0.0097177636465615256 0.035831567074520246 0 -0.01155121410710804 0.035498012664595006 0 -0.010679562960859371 0.035886149057181814 0 -0.011533672442748869 0.036130721421018593 0 -0.010679562960859371 0.035886149057181814 0 -0.0097177636465615256 0.035831567074520246 0 -0.0098427056611514862 0.036012685968240594 0 -0.0086329089047869362 0.036136125757437507 0 -0.0097177636465615256 0.035831567074520246 0 -0.0098427056611514862 0.036012685968240594 0 -0.0086329089047869362 0.036136125757437507 0 -0.0086110518120342053 0.035824569837104518 0 -0.0097177636465615256 0.035831567074520246 0 -0.0086110518120342053 0.035824569837104518 0 -0.0096502773790382943 0.035487745593528047 0 -0.0097177636465615256 0.035831567074520246 0 -0.0096502773790382943 0.035487745593528047 0 -0.010751392245149734 0.035550418877534892 0 -0.0097177636465615256 0.035831567074520246 0 -0.015255099963675604 0.035696828906767127 0 -0.014831967811862301 0.034999515858135224 0 -0.017851577745027006 0.034999136860616273 0 -0.015255099963675604 0.035696828906767127 0 -0.015907076732263728 0.036040519424022373 0 -0.017851577745027006 0.034999136860616273 0 -0.015907076732263728 0.036040519424022373 0 -0.017851577745027006 0.034999136860616273 0 -0.017550448436487023 0.036080902860515844 0 -0.012612815781558364 0.034999924895395544 0 -0.014831967811862301 0.034999515858135224 0 -0.013850935330608447 0.035874136934841934 0 -0.015255099963675604 0.035696828906767127 0 -0.014824501467363301 0.036318137505950428 0 -0.015907076732263728 0.036040519424022373 0 -0.015255099963675604 0.035696828906767127 0 -0.013850935330608447 0.035874136934841934 0 -0.014824501467363301 0.036318137505950428 0 -0.015255099963675604 0.035696828906767127 0 -0.014831967811862301 0.034999515858135224 0 -0.013850935330608447 0.035874136934841934 0 -0.01293412351450627 0.035414439173937377 0 -0.013675574263318616 0.035780601612228916 0 -0.01155121410710804 0.035498012664595006 0 -0.012244582690291378 0.035891342045726977 0 -0.012479277434550077 0.03511794815191268 0 -0.01155121410710804 0.035498012664595006 0 -0.011992810338472814 0.035115608050340918 0 -0.012479277434550077 0.03511794815191268 0 -0.01155121410710804 0.035498012664595006 0 -0.012244582690291378 0.035891342045726977 0 -0.011533672442748869 0.036130721421018593 0 -0.012244582690291378 0.035891342045726977 0 -0.012600984766730446 0.036431377848333113 0 -0.011533672442748869 0.036130721421018593 0 -0.012244582690291378 0.035891342045726977 0 -0.014468161831245607 0.036336387787826566 0 -0.012600984766730446 0.036431377848333113 0 -0.012244582690291378 0.035891342045726977 0 -0.012479277434550077 0.03511794815191268 0 -0.014468161831245607 0.036336387787826566 0 -0.014824501467363301 0.036318137505950428 0 -0.015907076732263728 0.036040519424022373 0 -0.015146446998830051 0.036233789010793938 0 -0.013675574263318616 0.035780601612228916 0 -0.014416513561780277 0.03637416358921957 0 -0.014824501467363301 0.036318137505950428 0 -0.015146446998830051 0.036233789010793938 0 -0.014468161831245607 0.036336387787826566 0 -0.015907076732263728 0.036040519424022373 0 -0.015792267189278474 0.036288235382458324 0 -0.016676297061275699 0.036404572561832445 0 -0.015907076732263728 0.036040519424022373 0 -0.015792267189278474 0.036288235382458324 0 -0.015146446998830051 0.036233789010793938 0 -0.015792267189278474 0.036288235382458324 0 -0.015146446998830051 0.036233789010793938 0 -0.014987859080331314 0.036361031190835939 0 -0.014987859080331314 0.036361031190835939 0 -0.014468161831245607 0.036336387787826566 0 -0.012596795811165946 0.03651600653656966 0 -0.015146446998830051 0.036233789010793938 0 -0.014987859080331314 0.036361031190835939 0 -0.014468161831245607 0.036336387787826566 0 -0.014987859080331314 0.036361031190835939 0 -0.016060586540647407 0.036884425419664815 0 -0.016238290063167907 0.036630719102946553 0 -0.016060586540647407 0.036884425419664815 0 -0.016238290063167907 0.036630719102946553 0 -0.016618025502089916 0.037074498669380528 0 -0.015792267189278474 0.036288235382458324 0 -0.014987859080331314 0.036361031190835939 0 -0.016238290063167907 0.036630719102946553 0 -0.015792267189278474 0.036288235382458324 0 -0.016238290063167907 0.036630719102946553 0 -0.016676297061275699 0.036404572561832445 0 -0.016238290063167907 0.036630719102946553 0 -0.016930176551192173 0.03679393324172732 0 -0.016676297061275699 0.036404572561832445 0 -0.016238290063167907 0.036630719102946553 0 -0.016930176551192173 0.03679393324172732 0 -0.016618025502089916 0.037074498669380528 0 -0.016930176551192173 0.03679393324172732 0 -0.017388738236302919 0.037025067041315807 0 -0.017681426148194089 0.036708690114412683 0 -0.016930176551192173 0.03679393324172732 0 -0.016676297061275699 0.036404572561832445 0 -0.017681426148194089 0.036708690114412683 0 -0.015907076732263728 0.036040519424022373 0 -0.016676297061275699 0.036404572561832445 0 -0.017550448436487023 0.036080902860515844 0 -0.016676297061275699 0.036404572561832445 0 -0.017550448436487023 0.036080902860515844 0 -0.017681426148194089 0.036708690114412683 0 -0.017213996929269542 0.037242777296637039 0 -0.017560521555732442 0.037233487938175283 0 -0.017706794311715231 0.037223057085252594 0 -0.017213996929269542 0.037242777296637039 0 -0.017129623141657994 0.037195667510013249 0 -0.016827231724660295 0.037255506462088785 0 -0.017213996929269542 0.037242777296637039 0 -0.017129623141657994 0.037195667510013249 0 -0.017706794311715231 0.037223057085252594 0 -0.017129623141657994 0.037195667510013249 0 -0.017388738236302919 0.037025067041315807 0 -0.017706794311715231 0.037223057085252594 0 -0.016930176551192173 0.03679393324172732 0 -0.017388738236302919 0.037025067041315807 0 -0.016618025502089916 0.037074498669380528 0 -0.017129623141657994 0.037195667510013249 0 -0.017388738236302919 0.037025067041315807 0 -0.016618025502089916 0.037074498669380528 0 -0.017129623141657994 0.037195667510013249 0 -0.016618025502089916 0.037074498669380528 0 -0.016827231724660295 0.037255506462088785 0 -0.016618025502089916 0.037074498669380528 0 -0.016441383810448414 0.037268167347101783 0 -0.016827231724660295 0.037255506462088785 0 -0.014906875138549656 0.036165151149946707 0 -0.014573316945247234 0.036670129002594837 0 -0.014987859080331314 0.036361031190835939 0 -0.016060586540647407 0.036884425419664815 0 -0.016441383810448414 0.037268167347101783 0 -0.016060586540647407 0.036884425419664815 0 -0.016618025502089916 0.037074498669380528 0 -0.016441383810448414 0.037268167347101783 0 -0.016441383810448414 0.037268167347101783 0 -0.016827231724660295 0.037255506462088785 0 -0.016978450874832938 0.037237428756474934 0 -0.017213996929269542 0.037242777296637039 0 -0.016827231724660295 0.037255506462088785 0 -0.016992821938924638 0.037226083669999466 0 -0.016827231724660295 0.037255506462088785 0 -0.016978450874832938 0.037237428756474934 0 -0.016992821938924638 0.037226083669999466 0 -0.014573316945247234 0.036670129002594837 0 -0.014450788607238254 0.036803068988187117 0 -0.011940811333172345 0.036324298569573879 0 -0.011401784320911428 0.036039702348315161 0 -0.01174407595664039 0.036160886455256148 0 -0.012596795811165946 0.03651600653656966 0 -0.011940811333172345 0.036324298569573879 0 -0.01174407595664039 0.036160886455256148 0 -0.012596795811165946 0.03651600653656966 0 -0.011940811333172345 0.036324298569573879 0 -0.012600984766730446 0.036431377848333113 0 -0.014468161831245607 0.036336387787826566 0 -0.012596795811165946 0.03651600653656966 0 -0.012600984766730446 0.036431377848333113 0 -0.011940811333172345 0.036324298569573879 0 -0.012600984766730446 0.036431377848333113 0 -0.011533672442748869 0.036130721421018593 0 -0.011940811333172345 0.036324298569573879 0 -0.011130562089559808 0.036112759067079843 0 -0.011401784320911428 0.036039702348315161 0 -0.011940811333172345 0.036324298569573879 0 -0.011533672442748869 0.036130721421018593 0 -0.011130562089559808 0.036112759067079843 0 -0.011130562089559808 0.036112759067079843 0 -0.011401784320911428 0.036039702348315161 0 -0.010892653415135681 0.035554074067486729 0 -0.011680862919692642 0.034649864576331166 0 -0.010892653415135681 0.035554074067486729 0 -0.011281118607947671 0.035030251849879866 0 -0.011401784320911428 0.036039702348315161 0 -0.011565868251720242 0.036231752360078265 0 -0.010892653415135681 0.035554074067486729 0 -0.01310130604747128 0.035800783910248365 0 -0.01038961072186366 0.035416583221365532 0 -0.011680862919692642 0.034649864576331166 0 -0.011839464490044142 0.034733499917904892 0 -0.011281118607947671 0.035030251849879866 0 -0.011974503324237549 0.03357718159394809 0 -0.012722620461180676 0.034224941236269915 0 -0.011839464490044142 0.034733499917904892 0 -0.01310130604747128 0.035800783910248365 0 -0.012231327319374118 0.034382083581247294 0 -0.017118989452147848 0.03687356023023719 0 -0.016978450874832938 0.037237428756474934 0 -0.016978919146848872 0.036994079135683762 0 -0.01310130604747128 0.035800783910248365 0 -0.014450788607238254 0.036803068988187117 0 -0.011401784320911428 0.036039702348315161 0 -0.011565868251720242 0.036231752360078265 0 -0.01174407595664039 0.036160886455256148 0 -0.016978450874832938 0.037237428756474934 0 -0.017014978370584168 0.037156353519146139 0 -0.016992821938924638 0.037226083669999466 0 -0.017014978370584168 0.037156353519146139 0 -0.016992821938924638 0.037226083669999466 0 -0.017206552480192074 0.037229563304295783 0 -0.017014978370584168 0.037156353519146139 0 -0.016978919146848872 0.036994079135683762 0 -0.017206552480192074 0.037229563304295783 0 -0.016978450874832938 0.037237428756474934 0 -0.017014978370584168 0.037156353519146139 0 -0.016978919146848872 0.036994079135683762 0 -0.011974503324237549 0.03357718159394809 0 -0.012722620461180676 0.034224941236269915 0 -0.013714945540409825 0.033726096541962187 0 -0.017118989452147848 0.03687356023023719 0 -0.016978919146848872 0.036994079135683762 0 -0.016829126695607672 0.036318850813000909 0 -0.01310130604747128 0.035800783910248365 0 -0.015508125551133753 0.03500860885700037 0 -0.013714945540409825 0.033726096541962187 0 -0.014502502175618149 0.034486696520212613 0 -0.015532608476506555 0.034029249474022139 0 -0.015508125551133753 0.03500860885700037 0 -0.016096514638172202 0.034873578755761428 0 -0.016978919146848872 0.036994079135683762 0 -0.016829126695607672 0.036318850813000909 0 -0.016788391416744378 0.035887445663805292 0 -0.017065256541873821 0.036955506476668121 0 -0.017247635699441349 0.036645065941401447 0 -0.016829126695607672 0.036318850813000909 0 -0.016788391416744378 0.035887445663805292 0 -0.016869940547957703 0.03565415373228327 0 -0.016978919146848872 0.036994079135683762 0 -0.017573687969277781 0.037476379439758754 0 -0.017206552480192074 0.037229563304295783 0 -0.017573687969277781 0.037476379439758754 0 -0.017206552480192074 0.037229563304295783 0 -0.017560521555732442 0.037233487938175283 0 -0.017213996929269542 0.037242777296637039 0 -0.017206552480192074 0.037229563304295783 0 -0.017560521555732442 0.037233487938175283 0 -0.017213996929269542 0.037242777296637039 0 -0.016992821938924638 0.037226083669999466 0 -0.017206552480192074 0.037229563304295783 0 -0.0092556502452384223 0.036131032083657019 0 -0.010356081162254831 0.036070899063824276 0 -0.0096445794210824956 0.035888304296893374 0 -0.0081082351378173132 0.036328952677749375 0 -0.0092556502452384223 0.036131032083657019 0 -0.0088254829329094866 0.036054655006643524 0 -0.0081082351378173132 0.036328952677749375 0 -0.0086329089047869362 0.036136125757437507 0 -0.0092556502452384223 0.036131032083657019 0 -0.0086329089047869362 0.036136125757437507 0 -0.0092556502452384223 0.036131032083657019 0 -0.0098427056611514862 0.036012685968240594 0 -0.0092556502452384223 0.036131032083657019 0 -0.0098427056611514862 0.036012685968240594 0 -0.010356081162254831 0.036070899063824276 0 -0.010679562960859371 0.035886149057181814 0 -0.0098427056611514862 0.036012685968240594 0 -0.010356081162254831 0.036070899063824276 0 -0.010679562960859371 0.035886149057181814 0 -0.011533672442748869 0.036130721421018593 0 -0.010356081162254831 0.036070899063824276 0 -0.011130562089559808 0.036112759067079843 0 -0.010356081162254831 0.036070899063824276 0 -0.010450354755090669 0.035887800425255835 0 -0.011533672442748869 0.036130721421018593 0 -0.011130562089559808 0.036112759067079843 0 -0.010356081162254831 0.036070899063824276 0 -0.010356081162254831 0.036070899063824276 0 -0.010450354755090669 0.035887800425255835 0 -0.0096445794210824956 0.035888304296893374 0 -0.011130562089559808 0.036112759067079843 0 -0.010450354755090669 0.035887800425255835 0 -0.010892653415135681 0.035554074067486729 0 -0.010450354755090669 0.035887800425255835 0 -0.010892653415135681 0.035554074067486729 0 -0.009917807629027834 0.035348223628663959 0 -0.010450354755090669 0.035887800425255835 0 -0.0096445794210824956 0.035888304296893374 0 -0.009917807629027834 0.035348223628663959 0 -0.0092434090642132209 0.035552568443197929 0 -0.0096445794210824956 0.035888304296893374 0 -0.0088254829329094866 0.036054655006643524 0 -0.0092434090642132209 0.035552568443197929 0 -0.0096445794210824956 0.035888304296893374 0 -0.009917807629027834 0.035348223628663959 0 -0.0092556502452384223 0.036131032083657019 0 -0.0096445794210824956 0.035888304296893374 0 -0.0088254829329094866 0.036054655006643524 0 -0.0092434090642132209 0.035552568443197929 0 -0.0088254829329094866 0.036054655006643524 0 -0.0087241336625197303 0.035381043956481534 0 -0.0087241336625197303 0.035381043956481534 0 -0.0086291950786034476 0.033990498937484577 0 -0.0090780153285459804 0.034938413707830553 0 -0.0092434090642132209 0.035552568443197929 0 -0.0087241336625197303 0.035381043956481534 0 -0.0090780153285459804 0.034938413707830553 0 -0.0086291950786034476 0.033990498937484577 0 -0.0090780153285459804 0.034938413707830553 0 -0.009094127372632578 0.034382123806138372 0 -0.0095023454415891929 0.034899514944984382 0 -0.0090780153285459804 0.034938413707830553 0 -0.009094127372632578 0.034382123806138372 0 -0.0095023454415891929 0.034899514944984382 0 -0.0090780153285459804 0.034938413707830553 0 -0.009917807629027834 0.035348223628663959 0 -0.0092434090642132209 0.035552568443197929 0 -0.0090780153285459804 0.034938413707830553 0 -0.009917807629027834 0.035348223628663959 0 -0.010892653415135681 0.035554074067486729 0 -0.009917807629027834 0.035348223628663959 0 -0.010866221662677089 0.035081090410030859 0 -0.009917807629027834 0.035348223628663959 0 -0.010077263937321 0.035082843891695789 0 -0.010866221662677089 0.035081090410030859 0 -0.010077263937321 0.035082843891695789 0 -0.010866221662677089 0.035081090410030859 0 -0.011005241947624774 0.035387431192697744 0 -0.0095023454415891929 0.034899514944984382 0 -0.009917807629027834 0.035348223628663959 0 -0.010077263937321 0.035082843891695789 0 -0.0095023454415891929 0.034899514944984382 0 -0.010077263937321 0.035082843891695789 0 -0.009792761557658328 0.035195255658093269 0 -0.009792761557658328 0.035195255658093269 0 -0.0096441906980314889 0.034707623506862108 0 -0.0094274214510251149 0.034636608513264694 0 -0.010077263937321 0.035082843891695789 0 -0.009792761557658328 0.035195255658093269 0 -0.011005241947624774 0.035387431192697744 0 -0.009792761557658328 0.035195255658093269 0 -0.010744299189258072 0.036389107033427001 0 -0.011005241947624774 0.035387431192697744 0 -0.0098047252525239569 0.035229130140345614 0 -0.0099618200256450812 0.035344827516868953 0 -0.009792761557658328 0.035195255658093269 0 -0.0092047441474460302 0.034543549521350699 0 -0.0096441906980314889 0.034707623506862108 0 -0.0096441906980314889 0.034707623506862108 0 -0.0095262790001622993 0.034615468254334161 0 -0.0093255001201797867 0.034516297905639946 0 -0.0096441906980314889 0.034707623506862108 0 -0.0093255001201797867 0.034516297905639946 0 -0.0094274214510251149 0.034636608513264694 0 -0.0095262790001622993 0.034615468254334161 0 -0.0093255001201797867 0.034516297905639946 0 -0.0085411668211338096 0.034595406573853522 0 -0.0093255001201797867 0.034516297905639946 0 -0.0088395600312362078 0.034010521027636548 0 -0.0085411668211338096 0.034595406573853522 0 -0.0093255001201797867 0.034516297905639946 0 -0.0088395600312362078 0.034010521027636548 0 -0.0094274214510251149 0.034636608513264694 0 -0.0086291950786034476 0.033990498937484577 0 -0.009094127372632578 0.034382123806138372 0 -0.0088395600312362078 0.034010521027636548 0 -0.009094127372632578 0.034382123806138372 0 -0.0088395600312362078 0.034010521027636548 0 -0.0094274214510251149 0.034636608513264694 0 -0.0095023454415891929 0.034899514944984382 0 -0.009094127372632578 0.034382123806138372 0 -0.0094274214510251149 0.034636608513264694 0 -0.0095023454415891929 0.034899514944984382 0 -0.009792761557658328 0.035195255658093269 0 -0.0094274214510251149 0.034636608513264694 0 -0.014529671558883839 0.035230282823667955 0 -0.0140847368696519 0.036571694706732868 0 -0.015749316240605785 0.035613566145936068 0 -0.014529671558883839 0.035230282823667955 0 -0.013280398337716211 0.034824778255387434 0 -0.0140847368696519 0.036571694706732868 0 -0.014529671558883839 0.035230282823667955 0 -0.014502502175618149 0.034486696520212613 0 -0.015379447506242578 0.034930858474330133 0 -0.013714945540409825 0.033726096541962187 0 -0.014502502175618149 0.034486696520212613 0 -0.013280398337716211 0.034824778255387434 0 -0.014529671558883839 0.035230282823667955 0 -0.014502502175618149 0.034486696520212613 0 -0.013280398337716211 0.034824778255387434 0 -0.013280398337716211 0.034824778255387434 0 -0.012391968988136779 0.035220730379199955 0 -0.011839464490044142 0.034733499917904892 0 -0.012722620461180676 0.034224941236269915 0 -0.013280398337716211 0.034824778255387434 0 -0.011839464490044142 0.034733499917904892 0 -0.012722620461180676 0.034224941236269915 0 -0.013714945540409825 0.033726096541962187 0 -0.013280398337716211 0.034824778255387434 0 -0.012391968988136779 0.035220730379199955 0 -0.012189455215124202 0.035278539397045491 0 -0.0140847368696519 0.036571694706732868 0 -0.013280398337716211 0.034824778255387434 0 -0.012391968988136779 0.035220730379199955 0 -0.0140847368696519 0.036571694706732868 0 -0.012391968988136779 0.035220730379199955 0 -0.011677925335978001 0.035081456886480816 0 -0.012189455215124202 0.035278539397045491 0 -0.012391968988136779 0.035220730379199955 0 -0.011839464490044142 0.034733499917904892 0 -0.011677925335978001 0.035081456886480816 0 -0.011839464490044142 0.034733499917904892 0 -0.011677925335978001 0.035081456886480816 0 -0.011281118607947671 0.035030251849879866 0 -0.010892653415135681 0.035554074067486729 0 -0.011281118607947671 0.035030251849879866 0 -0.010866221662677089 0.035081090410030859 0 -0.011677925335978001 0.035081456886480816 0 -0.011281118607947671 0.035030251849879866 0 -0.010866221662677089 0.035081090410030859 0 -0.011677925335978001 0.035081456886480816 0 -0.010866221662677089 0.035081090410030859 0 -0.012189455215124202 0.035278539397045491 0 -0.010866221662677089 0.035081090410030859 0 -0.011005241947624774 0.035387431192697744 0 -0.012189455215124202 0.035278539397045491 0 -0.011005241947624774 0.035387431192697744 0 -0.012048130192948404 0.035962397910953542 0 -0.012189455215124202 0.035278539397045491 0 -0.010744299189258072 0.036389107033427001 0 -0.011005241947624774 0.035387431192697744 0 -0.012048130192948404 0.035962397910953542 0 -0.012048130192948404 0.035962397910953542 0 -0.013585584320529327 0.035700628125991486 0 -0.012802548468780371 0.036448471627553831 0 -0.012048130192948404 0.035962397910953542 0 -0.012189455215124202 0.035278539397045491 0 -0.013585584320529327 0.035700628125991486 0 -0.012416592912970958 0.035291687708223642 0 -0.014385582667237745 0.035385246842755305 0 -0.012189455215124202 0.035278539397045491 0 -0.013585584320529327 0.035700628125991486 0 -0.014591992979294279 0.034206385027706954 0 -0.013585584320529327 0.035700628125991486 0 -0.014807738327985936 0.036157337131060834 0 -0.015639808068951946 0.035283745431290689 0 -0.013585584320529327 0.035700628125991486 0 -0.014591992979294279 0.034206385027706954 0 -0.015639808068951946 0.035283745431290689 0 -0.014886780602850926 0.037961409430160395 0 -0.014449113696187087 0.037284500952371451 0 -0.016188329377589655 0.036333486891362517 0 -0.014671465236340598 0.037720598684638652 0 -0.014449113696187087 0.037284500952371451 0 -0.014090739359123822 0.037662330422110979 0 -0.014671465236340598 0.037720598684638652 0 -0.014090739359123822 0.037662330422110979 0 -0.013923034060800739 0.038339836813745892 0 -0.015834762388185385 0.035999917987198982 0 -0.01543063910338548 0.036862081991989634 0 -0.015834762388185385 0.035999917987198982 0 -0.015914349582379611 0.036702589257904324 0 -0.014449113696187087 0.037284500952371451 0 -0.014807738327985936 0.036157337131060834 0 -0.016188329377589655 0.036333486891362517 0 -0.014807738327985936 0.036157337131060834 0 -0.015639808068951946 0.035283745431290689 0 -0.016188329377589655 0.036333486891362517 0 -0.014449113696187087 0.037284500952371451 0 -0.014807738327985936 0.036157337131060834 0 -0.013674746287915249 0.036635488642602659 0 -0.013585584320529327 0.035700628125991486 0 -0.013674746287915249 0.036635488642602659 0 -0.012802548468780371 0.036448471627553831 0 -0.013585584320529327 0.035700628125991486 0 -0.014807738327985936 0.036157337131060834 0 -0.013674746287915249 0.036635488642602659 0 -0.013674746287915249 0.036635488642602659 0 -0.013785160118831108 0.037214550487573286 0 -0.012797293173390524 0.03716142025868055 0 -0.013674746287915249 0.036635488642602659 0 -0.012797293173390524 0.03716142025868055 0 -0.012802548468780371 0.036448471627553831 0 -0.013587073244029682 0.037713641067620055 0 -0.012797293173390524 0.03716142025868055 0 -0.013140495348046049 0.038081600131353865 0 -0.013785160118831108 0.037214550487573286 0 -0.013587073244029682 0.037713641067620055 0 -0.012797293173390524 0.03716142025868055 0 -0.014449113696187087 0.037284500952371451 0 -0.013785160118831108 0.037214550487573286 0 -0.014090739359123822 0.037662330422110979 0 -0.014449113696187087 0.037284500952371451 0 -0.013674746287915249 0.036635488642602659 0 -0.013785160118831108 0.037214550487573286 0 -0.013785160118831108 0.037214550487573286 0 -0.014090739359123822 0.037662330422110979 0 -0.013587073244029682 0.037713641067620055 0 -0.014090739359123822 0.037662330422110979 0 -0.013587073244029682 0.037713641067620055 0 -0.013923034060800739 0.038339836813745892 0 -0.012784720279049264 0.036927536825544435 0 -0.013241234843751396 0.038943917502233624 0 -0.012305716028897566 0.03752018754006755 0 -0.012797293173390524 0.03716142025868055 0 -0.012793073413973562 0.037847387353371682 0 -0.012305716028897566 0.03752018754006755 0 -0.012797293173390524 0.03716142025868055 0 -0.01201786416717327 0.036801421591693625 0 -0.012048130192948404 0.035962397910953542 0 -0.012802548468780371 0.036448471627553831 0 -0.01201786416717327 0.036801421591693625 0 -0.012797293173390524 0.03716142025868055 0 -0.012802548468780371 0.036448471627553831 0 -0.01201786416717327 0.036801421591693625 0 -0.010744299189258072 0.036389107033427001 0 -0.01201786416717327 0.036801421591693625 0 -0.011587259323723741 0.037378086792312699 0 -0.010744299189258072 0.036389107033427001 0 -0.012048130192948404 0.035962397910953542 0 -0.01201786416717327 0.036801421591693625 0 -0.012305716028897566 0.03752018754006755 0 -0.011587259323723741 0.037378086792312699 0 -0.012308030729403927 0.038248199586757327 0 -0.012305716028897566 0.03752018754006755 0 -0.01201786416717327 0.036801421591693625 0 -0.011587259323723741 0.037378086792312699 0 -0.0090949069657444322 0.034167822962508816 0 -0.0091486318055899237 0.034072207536655436 0 -0.0092067736905396044 0.034157368043499003 0 -0.0090949069657444322 0.034167822962508816 0 -0.0091486318055899237 0.034072207536655436 0 -0.0090939191040764582 0.034007840032783537 0 -0.0089658962620833803 0.032393278535602602 0 -0.012237184345913397 0.03301294025311826 0 -0.010270045181152994 0.036298503370998263 0 -0.012237184345913397 0.03301294025311826 0 -0.0097302583254306654 0.0311215759108294 0 -0.009874493229785038 0.031005327922063196 0 -0.0097852444107093331 0.031125552394989084 0 -0.015871341540466526 0.015453482610116974 0 -0.013542849230308398 0.022974217440451326 0 -0.017430096511562802 0.010751456402851 0 -0.018623030418547324 0.013439844434641779 0 -0.018842268749964846 0.011890510192547154 0 -0.017430096511562802 0.010751456402851 0 -0.013841210564707909 0.01136703370672915 0 -0.018623030418547324 0.013439844434641779 0 -0.0099438939528756261 0.030859356787112085 0 -0.009874493229785038 0.031005327922063196 0 -0.0097852444107093331 0.031125552394989084 0 -0.015273801390727395 0.020024549057592315 0 -0.012237184345913397 0.03301294025311826 0 -0.0099438939528756261 0.030859356787112085 0 -0.0099373455565168467 0.030863996757929224 0 -0.009874493229785038 0.031005327922063196 0 -0.01642847676482985 0.013120043376113283 0 -0.015871341540466526 0.015453482610116974 0 -0.01642847676482985 0.013120043376113283 0 -0.015273801390727395 0.020024549057592315 0 -0.013293292744056105 0.019949869598660776 0 -0.010819416555482873 0.018682431231035135 0 -0.011914976898108477 0.017589847936370286 0 -0.015871341540466526 0.015453482610116974 0 -0.015273801390727395 0.020024549057592315 0 -0.019771692997795992 0.014272339298212174 0 -0.02082137943640321 0.016139769305665578 0 -0.018554589741230913 0.016006181396241929 0 -0.02082137943640321 0.016139769305665578 0 -0.018554589741230913 0.016006181396241929 0 -0.018464188625183588 0.017077851218759908 0 -0.019771692997795992 0.014272339298212174 0 -0.018554589741230913 0.016006181396241929 0 -0.016380929502232147 0.016240054202496076 0 -0.018554589741230913 0.016006181396241929 0 -0.018464188625183588 0.017077851218759908 0 -0.017368956533978065 0.016555539750491271 0 -0.014638053283153709 0.025992863241809289 0 -0.013666358063927088 0.026974000927736125 0 -0.015887607442128773 0.028267207039804385 0 -0.018464188625183588 0.017077851218759908 0 -0.017613957358652579 0.017672973879820246 0 -0.017368956533978065 0.016555539750491271 0 -0.012815317219666666 0.038447125249338486 0 -0.012308030729403927 0.038248199586757327 0 -0.012885471660221108 0.038382386746731639 0 -0.015273801390727395 0.020024549057592315 0 -0.0164507876904216 0.027425869813995578 0 -0.0164507876904216 0.027425869813995578 0 -0.012237184345913397 0.03301294025311826 0 -0.018464188625183588 0.017077851218759908 0 -0.017960232286435868 0.019013537072324761 0 -0.017613957358652579 0.017672973879820246 0 -0.02082137943640321 0.016139769305665578 0 -0.018464188625183588 0.017077851218759908 0 -0.017960232286435868 0.019013537072324761 0 -0.012305716028897566 0.03752018754006755 0 -0.012308030729403927 0.038248199586757327 0 -0.012793073413973562 0.037847387353371682 0 -0.012308030729403927 0.038248199586757327 0 -0.012793073413973562 0.037847387353371682 0 -0.012885471660221108 0.038382386746731639 0 -0.013241234843751396 0.038943917502233624 0 -0.015931544299396583 0.031505759165317906 0 -0.013140495348046049 0.038081600131353865 0 -0.013923034060800739 0.038339836813745892 0 -0.01334284806055671 0.038843078758599665 0 -0.013587073244029682 0.037713641067620055 0 -0.013140495348046049 0.038081600131353865 0 -0.013923034060800739 0.038339836813745892 0 -0.018662064127438788 0.030865188295172739 0 -0.018652743756219378 0.029407956107399425 0 -0.017558629637598865 0.030361076719284494 0 -0.018662064127438788 0.030865188295172739 0 -0.020028080101826527 0.029452905478155399 0 -0.018652743756219378 0.029407956107399425 0 -0.016193089736862145 0.034597947301731498 0 -0.015931544299396583 0.031505759165317906 0 -0.020028080101826527 0.029452905478155399 0 -0.019966909603172926 0.029032000604799914 0 -0.018652743756219378 0.029407956107399425 0 -0.015931544299396583 0.031505759165317906 0 -0.017945735196786244 0.024812352221734578 0 -0.015875960998934516 0.028272381333776266 0 -0.01685930260598896 0.027294764805438687 0 -0.01712629009869656 0.028963780897106196 0 -0.0164507876904216 0.027425869813995578 0 -0.015931544299396583 0.031505759165317906 0 -0.0164507876904216 0.027425869813995578 0 -0.017945735196786244 0.024812352221734578 0 -0.017960232286435868 0.019013537072324761 0 -0.016705119828178638 0.018301630175979168 0 -0.017613957358652579 0.017672973879820246 0 -0.017945735196786244 0.024812352221734578 0 -0.020331862674842265 0.013478471687947604 0 -0.016705119828178638 0.018301630175979168 0 -0.017368956533978065 0.016555539750491271 0 -0.01639423325413027 0.016251518189530894 0 -0.016705119828178638 0.018301630175979168 0 -0.017613957358652579 0.017672973879820246 0 -0.017368956533978065 0.016555539750491271 0 -0.018554589741230913 0.016006181396241929 0 -0.017368956533978065 0.016555539750491271 0 -0.016380929502232147 0.016240054202496076 0 -0.025448113232729854 0.0025861009804995865 0 -0.025587573500736135 0.0025165640055347356 0 -0.025470120937575461 0.002598534864158967 0 -0.019174987661223223 0.016397509370498033 0 -0.01924765021325843 0.016805446288365007 0 -0.020834120042010712 0.017209191426519995 0 -0.019989780751707303 0.013521705030613416 0 -0.020331862674842265 0.013478471687947604 0 -0.019771692997795992 0.014272339298212174 0 -0.016380929502232147 0.016240054202496076 0 -0.01574929914297327 0.012120745690534328 0 -0.020331862674842265 0.013478471687947604 0 -0.020007614009980065 0.0060658075915924359 0 -0.01642847676482985 0.013120043376113283 0 -0.020007614009980065 0.0060658075915924359 0 -0.017945735196786244 0.024812352221734578 0 -0.022529190113673617 0.012906260071329865 0 -0.020331862674842265 0.013478471687947604 0 -0.022529190113673617 0.012906260071329865 0 -0.019966909603172926 0.029032000604799914 0 -0.018652743756219378 0.029407956107399425 0 -0.018127631697569882 0.027950839769793036 0 -0.018652743756219378 0.029407956107399425 0 -0.018127631697569882 0.027950839769793036 0 -0.017142488881992303 0.028977731534076994 0 -0.01749274323136139 0.027751533185864409 0 -0.017142488881992303 0.028977731534076994 0 -0.014877354655770093 0.02829852975639803 0 -0.018652743756219378 0.029407956107399425 0 -0.017142488881992303 0.028977731534076994 0 -0.017558629637598865 0.030361076719284494 0 -0.01749274323136139 0.027751533185864409 0 -0.018127631697569882 0.027950839769793036 0 -0.017142488881992303 0.028977731534076994 0 -0.021079778833493261 0.01391222600302861 0 -0.022529190113673617 0.012906260071329865 0 -0.017142488881992303 0.028977731534076994 0 -0.017558629637598865 0.030361076719284494 0 -0.016062321584746606 0.030278733289754046 0 -0.017270813454068452 0.032283375678370738 0 -0.018662064127438788 0.030865188295172739 0 -0.017558629637598865 0.030361076719284494 0 -0.015834762388185385 0.035999917987198982 0 -0.016193089736862145 0.034597947301731498 0 -0.015834762388185385 0.035999917987198982 0 -0.016280923895659834 0.033518169122783638 0 -0.017270813454068452 0.032283375678370738 0 -0.017558629637598865 0.030361076719284494 0 -0.016062321584746606 0.030278733289754046 0 -0.0079957937196159217 0.030105743170500097 0 -0.0079374737025179748 0.02945084440997572 0 -0.0095203134158470763 0.031274947482920437 0 -0.0097478747718866016 0.034740382465353353 0 -0.0096121887943205198 0.03395141361470326 0 -0.0095203134158470763 0.031274947482920437 0 -0.010302062262448989 0.025242845845764562 0 -0.014253512292456328 0.021634460208567751 0 -0.0079957937196159217 0.030105743170500097 0 -0.00752956010101363 0.030167179183853938 0 -0.0092682411573792329 0.031412873663719865 0 -0.015333732052193872 0.011975829577922455 0 -0.019046970918446416 0.013141329366460536 0 -0.016865023541560897 0.01343793845333034 0 -0.0079583014652758466 0.027174630124879619 0 -0.010302062262448989 0.025242845845764562 0 -0.0079957937196159217 0.030105743170500097 0 -0.0075795675735122201 0.030013020477323977 0 -0.007720913193018133 0.029771099307320335 0 -0.015333732052193872 0.011975829577922455 0 -0.016865023541560897 0.01343793845333034 0 -0.015649734162061814 0.013323188184170016 0 -0.015333732052193872 0.011975829577922455 0 -0.014250760087147613 0.013837869889118386 0 -0.015649734162061814 0.013323188184170016 0 -0.015333732052193872 0.011975829577922455 0 -0.014250760087147613 0.013837869889118386 0 -0.012303312449065554 0.013560647093833467 0 -0.010302062262448989 0.025242845845764562 0 -0.0099992396806241717 0.020916797689967799 0 -0.0080664935947514557 0.029693896757136594 0 -0.0071955238051119794 0.029474553344852928 0 -0.0066675136465518736 0.029510435393531063 0 -0.0075795675735122201 0.030013020477323977 0 -0.0073587340555059094 0.029519614635775966 0 -0.007720913193018133 0.029771099307320335 0 -0.010302062262448989 0.025242845845764562 0 -0.0078801814286225645 0.028564743221319393 0 -0.0075795675735122201 0.030013020477323977 0 -0.0073587340555059094 0.029519614635775966 0 -0.0071955238051119794 0.029474553344852928 0 -0.0073587340555059094 0.029519614635775966 0 -0.0071955238051119794 0.029474553344852928 0 -0.0062851312571951534 0.029311237619724817 0 -0.0087789697826018333 0.031996828921295385 0 -0.0075142226472645389 0.031982158173865169 0 -0.0073587340555059094 0.029519614635775966 0 -0.0079374737025179748 0.02945084440997572 0 -0.007720913193018133 0.029771099307320335 0 -0.0095262790001622993 0.034615468254334161 0 -0.0097478747718866016 0.034740382465353353 0 -0.0085411668211338096 0.034595406573853522 0 -0.0073587340555059094 0.029519614635775966 0 -0.0079374737025179748 0.02945084440997572 0 -0.0062851312571951534 0.029311237619724817 0 -0.0095262790001622993 0.034615468254334161 0 -0.0097478747718866016 0.034740382465353353 0 -0.0096289298879546643 0.034476276927797693 0 -0.0079957937196159217 0.030105743170500097 0 -0.0079374737025179748 0.02945084440997572 0 -0.007720913193018133 0.029771099307320335 0 -0.0097478747718866016 0.034740382465353353 0 -0.0096121887943205198 0.03395141361470326 0 -0.0096289298879546643 0.034476276927797693 0 -0.0096441906980314889 0.034707623506862108 0 -0.0095262790001622993 0.034615468254334161 0 -0.0096289298879546643 0.034476276927797693 0 -0.0092047441474460302 0.034543549521350699 0 -0.0096441906980314889 0.034707623506862108 0 -0.0094173554340026642 0.034396008324952064 0 -0.0096441906980314889 0.034707623506862108 0 -0.0096289298879546643 0.034476276927797693 0 -0.0094173554340026642 0.034396008324952064 0 -0.0094173554340026642 0.034396008324952064 0 -0.0093649907886324806 0.034219090097483397 0 -0.0092665519105027388 0.034258176069756591 0 -0.0094173554340026642 0.034396008324952064 0 -0.0093649907886324806 0.034219090097483397 0 -0.0094399278680012567 0.034174709550500088 0 -0.0096121887943205198 0.03395141361470326 0 -0.0096289298879546643 0.034476276927797693 0 -0.0094399278680012567 0.034174709550500088 0 -0.0096289298879546643 0.034476276927797693 0 -0.0094173554340026642 0.034396008324952064 0 -0.0094399278680012567 0.034174709550500088 0 -0.0092047441474460302 0.034543549521350699 0 -0.0090949069657444322 0.034167822962508816 0 -0.0092665519105027388 0.034258176069756591 0 -0.0099618200256450812 0.035344827516868953 0 -0.010270045181152994 0.036298503370998263 0 -0.0092047441474460302 0.034543549521350699 0 -0.0094173554340026642 0.034396008324952064 0 -0.0092665519105027388 0.034258176069756591 0 -0.0089658962620833803 0.032393278535602602 0 -0.0095487931182461419 0.033009338844525782 0 -0.0091486318055899237 0.034072207536655436 0 -0.0092067736905396044 0.034157368043499003 0 -0.0093221457944939658 0.034143558013806322 0 -0.0097302583254306654 0.0311215759108294 0 -0.0095203134158470763 0.031274947482920437 0 -0.0094621690948577565 0.031466866666841953 0 -0.0090949069657444322 0.034167822962508816 0 -0.0092665519105027388 0.034258176069756591 0 -0.0092067736905396044 0.034157368043499003 0 -0.0092665519105027388 0.034258176069756591 0 -0.0092067736905396044 0.034157368043499003 0 -0.0093221457944939658 0.034143558013806322 0 -0.0096121887943205198 0.03395141361470326 0 -0.0094399278680012567 0.034174709550500088 0 -0.0093221457944939658 0.034143558013806322 0 -0.0087789697826018333 0.031996828921295385 0 -0.0092866905735017706 0.031325072895632994 0 -0.0079957937196159217 0.030105743170500097 0 -0.0095203134158470763 0.031274947482920437 0 -0.0092682411573792329 0.031412873663719865 0 -0.0096121887943205198 0.03395141361470326 0 -0.0095203134158470763 0.031274947482920437 0 -0.0094621690948577565 0.031466866666841953 0 -0.0097796208170655551 0.033759600888291483 0 -0.0095487931182461419 0.033009338844525782 0 -0.0093649907886324806 0.034219090097483397 0 -0.0092665519105027388 0.034258176069756591 0 -0.0093221457944939658 0.034143558013806322 0 -0.0093649907886324806 0.034219090097483397 0 -0.0094399278680012567 0.034174709550500088 0 -0.0093221457944939658 0.034143558013806322 0 -0.019046970918446416 0.013141329366460536 0 -0.018168218584326795 0.014011003845631193 0 -0.016865023541560897 0.01343793845333034 0 -0.019046970918446416 0.013141329366460536 0 -0.019306373718127986 0.013365341503792734 0 -0.018168218584326795 0.014011003845631193 0 -0.0095203134158470763 0.031274947482920437 0 -0.0092682411573792329 0.031412873663719865 0 -0.0097852444107093331 0.031125552394989084 0 -0.014253512292456328 0.021634460208567751 0 -0.013542849230308398 0.022974217440451326 0 -0.0097302583254306654 0.0311215759108294 0 -0.0095203134158470763 0.031274947482920437 0 -0.0097852444107093331 0.031125552394989084 0 -0.019046970918446416 0.013141329366460536 0 -0.019306373718127986 0.013365341503792734 0 -0.018623030418547324 0.013439844434641779 0 -0.019836336562330966 0.013308393844834385 0 -0.021116408187833904 0.0094624956631346683 0 -0.019344009911842569 0.0097099316655160171 0 -0.019306373718127986 0.013365341503792734 0 -0.018623030418547324 0.013439844434641779 0 -0.019836336562330966 0.013308393844834385 0 -0.018623030418547324 0.013439844434641779 0 -0.018842268749964846 0.011890510192547154 0 -0.019836336562330966 0.013308393844834385 0 -0.018842268749964846 0.011890510192547154 0 -0.019836336562330966 0.013308393844834385 0 -0.019344009911842569 0.0097099316655160171 0 -0.017430096511562802 0.010751456402851 0 -0.018842268749964846 0.011890510192547154 0 -0.019344009911842569 0.0097099316655160171 0 -0.018168218584326795 0.014011003845631193 0 -0.019836336562330966 0.013308393844834385 0 -0.017978062193408802 0.016206717698266013 0 -0.019836336562330966 0.013308393844834385 0 -0.023059160322936451 0.010956952541450586 0 -0.021116408187833904 0.0094624956631346683 0 -0.019306373718127986 0.013365341503792734 0 -0.018168218584326795 0.014011003845631193 0 -0.019836336562330966 0.013308393844834385 0 -0.019841669426517796 0.013557701500778981 0 -0.020610696677558871 0.013402913951367112 0 -0.018168218584326795 0.014011003845631193 0 -0.015978278799517843 0.015884240647851395 0 -0.015922691042994083 0.014301714412053357 0 -0.018168218584326795 0.014011003845631193 0 -0.017978062193408802 0.016206717698266013 0 -0.015978278799517843 0.015884240647851395 0 -0.018168218584326795 0.014011003845631193 0 -0.015922691042994083 0.014301714412053357 0 -0.016865023541560897 0.01343793845333034 0 -0.015922691042994083 0.014301714412053357 0 -0.016865023541560897 0.01343793845333034 0 -0.015649734162061814 0.013323188184170016 0 -0.015922691042994083 0.014301714412053357 0 -0.014250760087147613 0.013837869889118386 0 -0.015649734162061814 0.013323188184170016 0 -0.015922691042994083 0.014301714412053357 0 -0.014250760087147613 0.013837869889118386 0 -0.014477989395491239 0.015209434214699672 0 -0.014250760087147613 0.013837869889118386 0 -0.014477989395491239 0.015209434214699672 0 -0.012862015132002875 0.015227245339052698 0 -0.015978278799517843 0.015884240647851395 0 -0.014477989395491239 0.015209434214699672 0 -0.013488880043306284 0.016978630763629016 0 -0.015978278799517843 0.015884240647851395 0 -0.015922691042994083 0.014301714412053357 0 -0.014477989395491239 0.015209434214699672 0 -0.011514381649383489 0.016466573658795534 0 -0.012862015132002875 0.015227245339052698 0 -0.013488880043306284 0.016978630763629016 0 -0.014477989395491239 0.015209434214699672 0 -0.012862015132002875 0.015227245339052698 0 -0.013488880043306284 0.016978630763629016 0 -0.011315002298158875 0.016633946040731176 0 -0.012762194178139119 0.0170558448170684 0 -0.011514381649383489 0.016466573658795534 0 -0.011546967379282024 0.015181405018275338 0 -0.012862015132002875 0.015227245339052698 0 -0.011546967379282024 0.015181405018275338 0 -0.012303312449065554 0.013560647093833467 0 -0.010423814114057794 0.0153176648563712 0 -0.011514381649383489 0.016466573658795534 0 -0.011546967379282024 0.015181405018275338 0 -0.010091343914928367 0.016740521825034028 0 -0.014250760087147613 0.013837869889118386 0 -0.012862015132002875 0.015227245339052698 0 -0.012303312449065554 0.013560647093833467 0 -0.011546967379282024 0.015181405018275338 0 -0.012862015132002875 0.015227245339052698 0 -0.012303312449065554 0.013560647093833467 0 -0.0071955238051119794 0.029474553344852928 0 -0.0066675136465518736 0.029510435393531063 0 -0.0066238279682508325 0.029376277733987061 0 -0.0099992396806241717 0.020916797689967799 0 -0.0082097343153019215 0.022086861120453421 0 -0.0066675136465518736 0.029510435393531063 0 -0.0062033952091960507 0.029071739665256148 0 -0.005978883539492906 0.028785422366722154 0 -0.0066675136465518736 0.029510435393531063 0 -0.0062033952091960507 0.029071739665256148 0 -0.006365751546375714 0.029310780770890516 0 -0.0062033952091960507 0.029071739665256148 0 -0.006365751546375714 0.029310780770890516 0 -0.0062973451670949787 0.029376640125942866 0 -0.006365751546375714 0.029310780770890516 0 -0.0062973451670949787 0.029376640125942866 0 -0.0064703961560030445 0.029886656974840175 0 -0.0071955238051119794 0.029474553344852928 0 -0.0066238279682508325 0.029376277733987061 0 -0.0062851312571951534 0.029311237619724817 0 -0.0066675136465518736 0.029510435393531063 0 -0.006365751546375714 0.029310780770890516 0 -0.0066238279682508325 0.029376277733987061 0 -0.006365751546375714 0.029310780770890516 0 -0.0066238279682508325 0.029376277733987061 0 -0.0062851312571951534 0.029311237619724817 0 -0.0060389757240053004 0.029046483958084502 0 -0.0057884326919972534 0.028406250059548166 0 -0.0058045403687044094 0.02889449920521709 0 -0.0060389757240053004 0.029046483958084502 0 -0.0060496862778330008 0.028871396550097572 0 -0.0057884326919972534 0.028406250059548166 0 -0.0062033952091960507 0.029071739665256148 0 -0.0062973451670949787 0.029376640125942866 0 -0.0060496862778330008 0.028871396550097572 0 -0.0060389757240053004 0.029046483958084502 0 -0.0062973451670949787 0.029376640125942866 0 -0.0060496862778330008 0.028871396550097572 0 -0.0060496862778330008 0.028871396550097572 0 -0.0057884326919972534 0.028406250059548166 0 -0.005978883539492906 0.028785422366722154 0 -0.0062033952091960507 0.029071739665256148 0 -0.0060496862778330008 0.028871396550097572 0 -0.005978883539492906 0.028785422366722154 0 -0.0057884326919972534 0.028406250059548166 0 -0.005978883539492906 0.028785422366722154 0 -0.0054785366475678414 0.027319159601877991 0 -0.0082097343153019215 0.022086861120453421 0 -0.0073783767114758781 0.022110489228803105 0 -0.010423814114057794 0.0153176648563712 0 -0.010091343914928367 0.016740521825034028 0 -0.0089334468939595464 0.017035547140009009 0 -0.011546967379282024 0.015181405018275338 0 -0.010423814114057794 0.0153176648563712 0 -0.010091343914928367 0.016740521825034028 0 -0.011026772741698047 0.016824112143594135 0 -0.010091343914928367 0.016740521825034028 0 -0.010053453906529865 0.017933902587926296 0 -0.011315002298158875 0.016633946040731176 0 -0.01015832108466691 0.016633526695078858 0 -0.010091343914928367 0.016740521825034028 0 -0.0090727754439217934 0.018105124860035474 0 -0.0089334468939595464 0.017035547140009009 0 -0.010091343914928367 0.016740521825034028 0 -0.0090727754439217934 0.018105124860035474 0 -0.010053453906529865 0.017933902587926296 0 -0.0090727754439217934 0.018105124860035474 0 -0.0075655230964846078 0.019009726511257187 0 -0.0084222027654089083 0.019132106749548759 0 -0.0075655230964846078 0.019009726511257187 0 -0.0074368861986698941 0.019985533927363582 0 -0.0084222027654089083 0.019132106749548759 0 -0.0055407893267836001 0.024943754999113572 0 -0.0054785366475678414 0.027319159601877991 0 -0.0055707380899666942 0.026848829278849389 0 -0.0055407893267836001 0.024943754999113572 0 -0.0059365376588433874 0.025628863140630662 0 -0.0055707380899666942 0.026848829278849389 0 -0.0090727754439217934 0.018105124860035474 0 -0.0075655230964846078 0.019009726511257187 0 -0.0089334468939595464 0.017035547140009009 0 -0.0067937288417830475 0.021940327672638402 0 -0.0073783767114758781 0.022110489228803105 0 -0.007458201887661422 0.021454792667299497 0 -0.0069288885065960631 0.021743865311360574 0 -0.0071252197027286456 0.02078149269921209 0 -0.0067937288417830475 0.021940327672638402 0 -0.0071562658778501166 0.021713376666096539 0 -0.0075655230964846078 0.019009726511257187 0 -0.0069288885065960631 0.021743865311360574 0 -0.0074368861986698941 0.019985533927363582 0 -0.0055407893267836001 0.024943754999113572 0 -0.0069288885065960631 0.021743865311360574 0 -0.0059365376588433874 0.025628863140630662 0 -0.0069288885065960631 0.021743865311360574 0 -0.0069477041223152802 0.025165872149734966 0 -0.0059365376588433874 0.025628863140630662 0 -0.0059365376588433874 0.025628863140630662 0 -0.0058988373276574668 0.027193410172341698 0 -0.0055707380899666942 0.026848829278849389 0 -0.0069477041223152802 0.025165872149734966 0 -0.0059365376588433874 0.025628863140630662 0 -0.0058988373276574668 0.027193410172341698 0 -0.0058988373276574668 0.027193410172341698 0 -0.0066212291484546663 0.027151196943518949 0 -0.0061382571888782753 0.028318080506232395 0 -0.0069477041223152802 0.025165872149734966 0 -0.0058988373276574668 0.027193410172341698 0 -0.0066212291484546663 0.027151196943518949 0 -0.0074054202430469509 0.02628562028456401 0 -0.0069477041223152802 0.025165872149734966 0 -0.0066212291484546663 0.027151196943518949 0 -0.0074054202430469509 0.02628562028456401 0 -0.0066212291484546663 0.027151196943518949 0 -0.0070519841954418501 0.027994135171360783 0 -0.0054785366475678414 0.027319159601877991 0 -0.0056224737361650736 0.02792544232193904 0 -0.0055707380899666942 0.026848829278849389 0 -0.0057884326919972534 0.028406250059548166 0 -0.0054785366475678414 0.027319159601877991 0 -0.0056224737361650736 0.02792544232193904 0 -0.0058988373276574668 0.027193410172341698 0 -0.0055707380899666942 0.026848829278849389 0 -0.0056192975617025956 0.028386211821953191 0 -0.0058988373276574668 0.027193410172341698 0 -0.0056192975617025956 0.028386211821953191 0 -0.0057148161777316152 0.028519258765658671 0 -0.0056224737361650736 0.02792544232193904 0 -0.0055707380899666942 0.026848829278849389 0 -0.0056192975617025956 0.028386211821953191 0 -0.0056224737361650736 0.02792544232193904 0 -0.0056192975617025956 0.028386211821953191 0 -0.0058045403687044094 0.02889449920521709 0 -0.0057884326919972534 0.028406250059548166 0 -0.0056224737361650736 0.02792544232193904 0 -0.0058045403687044094 0.02889449920521709 0 -0.0056192975617025956 0.028386211821953191 0 -0.005512521305793076 0.029295770373558044 0 -0.0057582708785334667 0.029695279201839411 0 -0.0056192975617025956 0.028386211821953191 0 -0.0058045403687044094 0.02889449920521709 0 -0.0057582708785334667 0.029695279201839411 0 -0.0056192975617025956 0.028386211821953191 0 -0.0057148161777316152 0.028519258765658671 0 -0.005512521305793076 0.029295770373558044 0 -0.0057148161777316152 0.028519258765658671 0 -0.005512521305793076 0.029295770373558044 0 -0.0056464237124715013 0.0293710358536525 0 -0.0051654127862372952 0.02988455569521422 0 -0.0056464237124715013 0.0293710358536525 0 -0.0055716125209486237 0.030641592848382023 0 -0.005512521305793076 0.029295770373558044 0 -0.0051654127862372952 0.02988455569521422 0 -0.0057582708785334667 0.029695279201839411 0 -0.005512521305793076 0.029295770373558044 0 -0.0051654127862372952 0.02988455569521422 0 -0.0056464237124715013 0.0293710358536525 0 -0.0057582708785334667 0.029695279201839411 0 -0.0059251329884285218 0.029731013672410048 0 -0.0062942768433396201 0.030198330175681454 0 -0.0051654127862372952 0.02988455569521422 0 -0.0057582708785334667 0.029695279201839411 0 -0.0059251329884285218 0.029731013672410048 0 -0.0066212291484546663 0.027151196943518949 0 -0.0070519841954418501 0.027994135171360783 0 -0.0061382571888782753 0.028318080506232395 0 -0.0070519841954418501 0.027994135171360783 0 -0.0061382571888782753 0.028318080506232395 0 -0.0064081047239688046 0.029517037875845687 0 -0.0058988373276574668 0.027193410172341698 0 -0.0057148161777316152 0.028519258765658671 0 -0.0061382571888782753 0.028318080506232395 0 -0.0057148161777316152 0.028519258765658671 0 -0.0061382571888782753 0.028318080506232395 0 -0.0056464237124715013 0.0293710358536525 0 -0.0056464237124715013 0.0293710358536525 0 -0.0064081047239688046 0.029517037875845687 0 -0.0055716125209486237 0.030641592848382023 0 -0.0061382571888782753 0.028318080506232395 0 -0.0056464237124715013 0.0293710358536525 0 -0.0064081047239688046 0.029517037875845687 0 -0.0078029390819415586 0.029278374172173813 0 -0.0070519841954418501 0.027994135171360783 0 -0.0064081047239688046 0.029517037875845687 0 -0.0078029390819415586 0.029278374172173813 0 -0.0064081047239688046 0.029517037875845687 0 -0.0067199629454044191 0.031253536892122791 0 -0.0064081047239688046 0.029517037875845687 0 -0.0067199629454044191 0.031253536892122791 0 -0.0055716125209486237 0.030641592848382023 0 -0.0055716125209486237 0.030641592848382023 0 -0.005576915543855635 0.032258843064970948 0 -0.004967319722579985 0.031006330605506647 0 -0.0067199629454044191 0.031253536892122791 0 -0.0055716125209486237 0.030641592848382023 0 -0.005576915543855635 0.032258843064970948 0 -0.0054266080975228712 0.034246943904144241 0 -0.0047495707490891334 0.034244902386241387 0 -0.0046475551765155932 0.036661189016190872 0 -0.0046667723431149544 0.036091400598192276 0 -0.0045859240237184108 0.036880231911605568 0 -0.0054266080975228712 0.034246943904144241 0 -0.0069939828133851988 0.034670636493800221 0 -0.0067199629454044191 0.031253536892122791 0 -0.005576915543855635 0.032258843064970948 0 -0.0069684436246367672 0.034579286999364411 0 -0.0046475551765155932 0.036661189016190872 0 -0.0046667723431149544 0.036091400598192276 0 -0.0069684436246367672 0.034579286999364411 0 -0.0058275760709353601 0.032220935735721365 0 -0.0047495707490891334 0.034244902386241387 0 -0.0051654127862372952 0.02988455569521422 0 -0.0035355879955854381 0.030409393196198006 0 -0.004967319722579985 0.031006330605506647 0 -0.0049099640073747251 0.02972914875876323 0 -0.0058275760709353601 0.032220935735721365 0 -0.0055070523471484421 0.037850678046133457 0 -0.0047607013239659894 0.03726655905012291 0 -0.0050932776779761945 0.037154057396095487 0 -0.0051654127862372952 0.02988455569521422 0 -0.0055716125209486237 0.030641592848382023 0 -0.004967319722579985 0.031006330605506647 0 -0.0046667723431149544 0.036091400598192276 0 -0.0047607013239659894 0.03726655905012291 0 -0.0045859240237184108 0.036880231911605568 0 -0.0047607013239659894 0.03726655905012291 0 -0.0045859240237184108 0.036880231911605568 0 -0.0050932776779761945 0.037154057396095487 0 -0.0055070523471484421 0.037850678046133457 0 -0.0050932776779761945 0.037154057396095487 0 -0.0057717884552508326 0.037166535137112586 0 -0.0057717884552508326 0.037166535137112586 0 -0.0065113614551196635 0.037717737070884834 0 -0.0065864295660667043 0.037100848392615467 0 -0.0058275760709353601 0.032220935735721365 0 -0.006922905741165628 0.035115276771850043 0 -0.0082617440811748304 0.031628041701546657 0 -0.0070546735731704929 0.03206664478350954 0 -0.0069124870638769993 0.031103031934796001 0 -0.0055070523471484421 0.037850678046133457 0 -0.0057717884552508326 0.037166535137112586 0 -0.0065113614551196635 0.037717737070884834 0 -0.0058275760709353601 0.032220935735721365 0 -0.0072153150519091453 0.030803822633894695 0 -0.006922905741165628 0.035115276771850043 0 -0.0076467487284146247 0.035074818496206715 0 -0.0070546735731704929 0.03206664478350954 0 -0.0078930710474206627 0.03303948317099803 0 -0.0071601565760686754 0.032182372099075041 0 -0.0070546735731704929 0.03206664478350954 0 -0.0071601565760686754 0.032182372099075041 0 -0.0069124870638769993 0.031103031934796001 0 -0.0065113614551196635 0.037717737070884834 0 -0.0065864295660667043 0.037100848392615467 0 -0.0077087380587505415 0.036983817452933852 0 -0.0072939413580813961 0.036787090521941117 0 -0.0065864295660667043 0.037100848392615467 0 -0.0077087380587505415 0.036983817452933852 0 -0.0087241336625197303 0.035381043956481534 0 -0.0086291950786034476 0.033990498937484577 0 -0.0078930710474206627 0.03303948317099803 0 -0.0079850909611238179 0.03632666356383038 0 -0.0087241336625197303 0.035381043956481534 0 -0.0077087380587505415 0.036983817452933852 0 -0.008422916126458518 0.035324894474839851 0 -0.0076467487284146247 0.035074818496206715 0 -0.0086291950786034476 0.033990498937484577 0 -0.0078930710474206627 0.03303948317099803 0 -0.0078619091765760474 0.032919855492711751 0 -0.0078930710474206627 0.03303948317099803 0 -0.0071601565760686754 0.032182372099075041 0 -0.0078619091765760474 0.032919855492711751 0 -0.0067381949999000728 0.031669845688453185 0 -0.0078619091765760474 0.032919855492711751 0 -0.0085411668211338096 0.034595406573853522 0 -0.0071601565760686754 0.032182372099075041 0 -0.0067381949999000728 0.031669845688453185 0 -0.0078619091765760474 0.032919855492711751 0 -0.0086291950786034476 0.033990498937484577 0 -0.0088395600312362078 0.034010521027636548 0 -0.0078619091765760474 0.032919855492711751 0 -0.0088395600312362078 0.034010521027636548 0 -0.0078619091765760474 0.032919855492711751 0 -0.0085411668211338096 0.034595406573853522 0 -0.006365751546375714 0.029310780770890516 0 -0.0062851312571951534 0.029311237619724817 0 -0.0064703961560030445 0.029886656974840175 0 -0.0068970795352461733 0.031759617154326951 0 -0.0075142226472645389 0.031982158173865169 0 -0.0067381949999000728 0.031669845688453185 0 -0.0062851312571951534 0.029311237619724817 0 -0.0064703961560030445 0.029886656974840175 0 -0.0062973451670949787 0.029376640125942866 0 -0.0064703961560030445 0.029886656974840175 0 -0.0066303281212498795 0.030358286180125094 0 -0.0067381949999000728 0.031669845688453185 0 -0.0064703961560030445 0.029886656974840175 0 -0.0066303281212498795 0.030358286180125094 0 -0.0060389757240053004 0.029046483958084502 0 -0.0062973451670949787 0.029376640125942866 0 -0.0063070577511312531 0.029890676807407663 0 -0.0062973451670949787 0.029376640125942866 0 -0.0066303281212498795 0.030358286180125094 0 -0.0063070577511312531 0.029890676807407663 0 -0.0058045403687044094 0.02889449920521709 0 -0.0057582708785334667 0.029695279201839411 0 -0.0063070577511312531 0.029890676807407663 0 -0.0060389757240053004 0.029046483958084502 0 -0.0058045403687044094 0.02889449920521709 0 -0.0063070577511312531 0.029890676807407663 0 -0.0057582708785334667 0.029695279201839411 0 -0.0063070577511312531 0.029890676807407663 0 -0.0062942768433396201 0.030198330175681454 0 -0.0059251329884285218 0.029731013672410048 0 -0.0062942768433396201 0.030198330175681454 0 -0.0069124870638769993 0.031103031934796001 0 -0.0063070577511312531 0.029890676807407663 0 -0.0062942768433396201 0.030198330175681454 0 -0.0069124870638769993 0.031103031934796001 0 -0.0067381949999000728 0.031669845688453185 0 -0.0066303281212498795 0.030358286180125094 0 -0.0069124870638769993 0.031103031934796001 0 -0.0066303281212498795 0.030358286180125094 0 -0.0063070577511312531 0.029890676807407663 0 -0.0069124870638769993 0.031103031934796001 0 -0.0071601565760686754 0.032182372099075041 0 -0.0067381949999000728 0.031669845688453185 0 -0.0069124870638769993 0.031103031934796001 0 -0.036350129121654938 0.027458990321681732 0 -0.037738263596264615 0.027958770965684124 0 -0.036449601851302624 0.028679754087895654 0 -0.036350129121654938 0.027458990321681732 0 -0.034999604488555165 0.028362685903177431 0 -0.036449601851302624 0.028679754087895654 0 -0.036350129121654938 0.027458990321681732 0 -0.034999604488555165 0.028362685903177431 0 -0.035000087363247348 0.02658909784282951 0 -0.036350129121654938 0.027458990321681732 0 -0.035000087363247348 0.02658909784282951 0 -0.036310527955687205 0.025600684097310117 0 -0.036350129121654938 0.027458990321681732 0 -0.037676609654413683 0.026438675183091839 0 -0.036310527955687205 0.025600684097310117 0 -0.036350129121654938 0.027458990321681732 0 -0.037676609654413683 0.026438675183091839 0 -0.037738263596264615 0.027958770965684124 0 -0.037943322056169064 0.026296106759311363 0 -0.034909873845975783 0.028538490289552566 0 -0.037171509971416647 0.026033722690560149 0 -0.038162169578677539 0.026673360584840228 0 -0.037750963748870853 0.025296795025501761 0 -0.037676609654413683 0.026438675183091839 0 -0.039027052131557667 0.027307230487374823 0 -0.037738263596264615 0.027958770965684124 0 -0.029562939704204674 0.030595296375032562 0 -0.029764339641484693 0.03041915613357506 0 -0.029621058739094465 0.030027876417058279 0 -0.034909873845975783 0.028538490289552566 0 -0.033391538041228463 0.027503330919696443 0 -0.029562939704204674 0.030595296375032562 0 -0.029681232622471181 0.030659349840825131 0 -0.029764339641484693 0.03041915613357506 0 -0.034909873845975783 0.028538490289552566 0 -0.033086738903374976 0.028299418121885522 0 -0.039027052131557667 0.027307230487374823 0 -0.03938571911717266 0.028435487050263657 0 -0.037738263596264615 0.027958770965684124 0 -0.034909873845975783 0.028538490289552566 0 -0.034479267259775181 0.02961240318563815 0 -0.029592157310878709 0.030597083789514725 0 -0.029681232622471181 0.030659349840825131 0 -0.029731875957000869 0.031003295786614447 0 -0.03938571911717266 0.028435487050263657 0 -0.037738263596264615 0.027958770965684124 0 -0.037742792404033831 0.029671330033558017 0 -0.037738263596264615 0.027958770965684124 0 -0.037742792404033831 0.029671330033558017 0 -0.036449601851302624 0.028679754087895654 0 -0.03938571911717266 0.028435487050263657 0 -0.037742792404033831 0.029671330033558017 0 -0.039709705746621415 0.029517412614268327 0 -0.036207513918869519 0.031610394772508064 0 -0.03329082427526165 0.032009367973552791 0 -0.032814616388963616 0.033364710605275322 0 -0.030966525491279488 0.034087086816717849 0 -0.031098131250697603 0.035128624984241845 0 -0.033928455566274121 0.033601099511693759 0 -0.032814616388963616 0.033364710605275322 0 -0.031334342413161187 0.035439012493126899 0 -0.032814616388963616 0.033364710605275322 0 -0.031098131250697603 0.035128624984241845 0 -0.031334342413161187 0.035439012493126899 0 -0.033928455566274121 0.033601099511693759 0 -0.032814616388963616 0.033364710605275322 0 -0.035048019962846212 0.031572803120686319 0 -0.033928455566274121 0.033601099511693759 0 -0.035371805611687582 0.030146282187113998 0 -0.035048019962846212 0.031572803120686319 0 -0.037742792404033831 0.029671330033558017 0 -0.036449601851302624 0.028679754087895654 0 -0.035371805611687582 0.030146282187113998 0 -0.036207513918869519 0.031610394772508064 0 -0.035005644283266357 0.030401149149889027 0 -0.034999604488555165 0.028362685903177431 0 -0.036449601851302624 0.028679754087895654 0 -0.035371805611687582 0.030146282187113998 0 -0.034999604488555165 0.028362685903177431 0 -0.035371805611687582 0.030146282187113998 0 -0.034999526038293968 0.030138709468085535 0 -0.035371805611687582 0.030146282187113998 0 -0.034999526038293968 0.030138709468085535 0 -0.035048019962846212 0.031572803120686319 0 -0.034999526038293968 0.030138709468085535 0 -0.035048019962846212 0.031572803120686319 0 -0.034999869378619194 0.03190636272639806 0 -0.034999868178313388 0.034994295876557772 0 -0.031369007067320376 0.035306703166981257 0 -0.027560889912410142 0.034998036415866442 0 -0.035048019962846212 0.031572803120686319 0 -0.034492936406923899 0.03150333990276924 0 -0.034999869378619194 0.03190636272639806 0 -0.033841636899497519 0.033008165893495818 0 -0.034999264788122611 0.031909293391857295 0 -0.033446877751133836 0.034563811483222968 0 -0.034999868178313388 0.034994295876557772 0 -0.031369007067320376 0.035306703166981257 0 -0.033446877751133836 0.034563811483222968 0 -0.034996145571167758 0.031920020745882939 0 -0.034999868178313388 0.034994295876557772 0 -0.033841636899497519 0.033008165893495818 0 -0.031659597423424175 0.033981400954956047 0 -0.032814616388963616 0.033364710605275322 0 -0.034492936406923899 0.03150333990276924 0 -0.031805078556919296 0.032539382518996733 0 -0.032814616388963616 0.033364710605275322 0 -0.035048019962846212 0.031572803120686319 0 -0.034492936406923899 0.03150333990276924 0 -0.032814616388963616 0.033364710605275322 0 -0.031805078556919296 0.032539382518996733 0 -0.030966525491279488 0.034087086816717849 0 -0.031805078556919296 0.032539382518996733 0 -0.030966525491279488 0.034087086816717849 0 -0.029301956027893192 0.035133031217934083 0 -0.029600653905531907 0.035012502267049127 0 -0.029301956027893192 0.035133031217934083 0 -0.028441402239968733 0.035487144300740799 0 -0.030966525491279488 0.034087086816717849 0 -0.029600653905531907 0.035012502267049127 0 -0.029301956027893192 0.035133031217934083 0 -0.031659597423424175 0.033981400954956047 0 -0.029539929220616788 0.034935283110782193 0 -0.031369007067320376 0.035306703166981257 0 -0.029301956027893192 0.035133031217934083 0 -0.027560889912410142 0.034998036415866442 0 -0.029301956027893192 0.035133031217934083 0 -0.027560889912410142 0.034998036415866442 0 -0.027657695628607277 0.035509391285201315 0 -0.027560889912410142 0.034998036415866442 0 -0.027657695628607277 0.035509391285201315 0 -0.025946397963229867 0.035953191543417362 0 -0.027657695628607277 0.035509391285201315 0 -0.027441167736059542 0.035854659724004069 0 -0.028441402239968733 0.035487144300740799 0 -0.027657695628607277 0.035509391285201315 0 -0.027441167736059542 0.035854659724004069 0 -0.025946397963229867 0.035953191543417362 0 -0.029301956027893192 0.035133031217934083 0 -0.027657695628607277 0.035509391285201315 0 -0.028441402239968733 0.035487144300740799 0 -0.029600653905531907 0.035012502267049127 0 -0.028441402239968733 0.035487144300740799 0 -0.029061994167598724 0.035524202191002316 0 -0.028441402239968733 0.035487144300740799 0 -0.028375822910842258 0.035698019968766752 0 -0.029061994167598724 0.035524202191002316 0 -0.026378308655752594 0.036986183148894493 0 -0.026681902598948919 0.037645515090226962 0 -0.02605050196803968 0.037589492456888467 0 -0.026779415557784535 0.036268815970360135 0 -0.027729970484106647 0.037046345452474795 0 -0.027441167736059542 0.035854659724004069 0 -0.028441402239968733 0.035487144300740799 0 -0.028375822910842258 0.035698019968766752 0 -0.023803073420048955 0.037974237698027075 0 -0.025388257042191182 0.037242149765525319 0 -0.026681902598948919 0.037645515090226962 0 -0.026505941820112237 0.038189194160380635 0 -0.02605050196803968 0.037589492456888467 0 -0.026681902598948919 0.037645515090226962 0 -0.026505941820112237 0.038189194160380635 0 -0.026984257498004004 0.038140997045989521 0 -0.024305581572676691 0.037058081772778632 0 -0.02431208643017525 0.03707557795074945 0 -0.024224432850851546 0.036983783558578648 0 -0.018759354565964996 0.036822457156399861 0 -0.018989611118028191 0.036591865552621075 0 -0.019206191412534442 0.036813623103936439 0 -0.022338311554640181 0.037487114186957195 0 -0.022155357236575159 0.0372017905995988 0 -0.021596782420398804 0.037158792386567718 0 -0.023803073420048955 0.037974237698027075 0 -0.021608251783883068 0.036679787637950809 0 -0.023803073420048955 0.037974237698027075 0 -0.026834732171916585 0.035266994107306944 0 -0.022338311554640181 0.037487114186957195 0 -0.021596782420398804 0.037158792386567718 0 -0.020890827687478949 0.037547927449039148 0 -0.022155357236575159 0.0372017905995988 0 -0.021596782420398804 0.037158792386567718 0 -0.021002041206907556 0.036401600422981524 0 -0.021596782420398804 0.037158792386567718 0 -0.020890827687478949 0.037547927449039148 0 -0.021002041206907556 0.036401600422981524 0 -0.021608251783883068 0.036679787637950809 0 -0.020679457626936171 0.036240792317994326 0 -0.027729970484106647 0.037046345452474795 0 -0.026834732171916585 0.035266994107306944 0 -0.028375822910842258 0.035698019968766752 0 -0.028934173710171453 0.036115298959420443 0 -0.029061994167598724 0.035524202191002316 0 -0.029600653905531907 0.035012502267049127 0 -0.029061994167598724 0.035524202191002316 0 -0.030067229948450954 0.035158317525435023 0 -0.029061994167598724 0.035524202191002316 0 -0.030067229948450954 0.035158317525435023 0 -0.029817283751875989 0.035981271693777725 0 -0.030966525491279488 0.034087086816717849 0 -0.029600653905531907 0.035012502267049127 0 -0.030067229948450954 0.035158317525435023 0 -0.030966525491279488 0.034087086816717849 0 -0.030067229948450954 0.035158317525435023 0 -0.031098131250697603 0.035128624984241845 0 -0.030067229948450954 0.035158317525435023 0 -0.031098131250697603 0.035128624984241845 0 -0.029817283751875989 0.035981271693777725 0 -0.03329082427526165 0.032009367973552791 0 -0.030078155501339056 0.033661680099248435 0 -0.029872534167430045 0.031383206978790386 0 -0.030258791858399619 0.031369097930411927 0 -0.030028804555111515 0.031056437369512708 0 -0.031098131250697603 0.035128624984241845 0 -0.03128998198907796 0.03566787366863753 0 -0.029817283751875989 0.035981271693777725 0 -0.03298406265073333 0.034029521212161747 0 -0.03329082427526165 0.032009367973552791 0 -0.034479267259775181 0.02961240318563815 0 -0.03329082427526165 0.032009367973552791 0 -0.029731875957000869 0.031003295786614447 0 -0.029872534167430045 0.031383206978790386 0 -0.030028804555111515 0.031056437369512708 0 -0.028934173710171453 0.036115298959420443 0 -0.029061994167598724 0.035524202191002316 0 -0.029817283751875989 0.035981271693777725 0 -0.026834732171916585 0.035266994107306944 0 -0.030078155501339056 0.033661680099248435 0 -0.030627353193962717 0.031371054322541468 0 -0.030258791858399619 0.031369097930411927 0 -0.030331250168241917 0.030782495304658684 0 -0.019647580550410559 0.035729466372251772 0 -0.019816958543410926 0.035663698567966161 0 -0.021002041206907556 0.036401600422981524 0 -0.026834732171916585 0.035266994107306944 0 -0.024801890193712359 0.033049936098964672 0 -0.030258791858399619 0.031369097930411927 0 -0.030331250168241917 0.030782495304658684 0 -0.030028804555111515 0.031056437369512708 0 -0.030331250168241917 0.030782495304658684 0 -0.030028804555111515 0.031056437369512708 0 -0.029940749075036723 0.030723216336132751 0 -0.029731875957000869 0.031003295786614447 0 -0.030028804555111515 0.031056437369512708 0 -0.029940749075036723 0.030723216336132751 0 -0.029681232622471181 0.030659349840825131 0 -0.029731875957000869 0.031003295786614447 0 -0.029940749075036723 0.030723216336132751 0 -0.024801890193712359 0.033049936098964672 0 -0.024482023988407126 0.032504064878435768 0 -0.029940749075036723 0.030723216336132751 0 -0.029764339641484693 0.03041915613357506 0 -0.0300016164333602 0.030067781386498644 0 -0.030331250168241917 0.030782495304658684 0 -0.029940749075036723 0.030723216336132751 0 -0.0300016164333602 0.030067781386498644 0 -0.029681232622471181 0.030659349840825131 0 -0.029940749075036723 0.030723216336132751 0 -0.029764339641484693 0.03041915613357506 0 -0.019816958543410926 0.035663698567966161 0 -0.020397173957645908 0.035669154179732952 0 -0.019787188439824632 0.034866902690835123 0 -0.019647580550410559 0.035729466372251772 0 -0.019816958543410926 0.035663698567966161 0 -0.019787188439824632 0.034866902690835123 0 -0.019647580550410559 0.035729466372251772 0 -0.019787188439824632 0.034866902690835123 0 -0.019020464093465365 0.034803636282293618 0 -0.019206646881303562 0.035907018195346301 0 -0.019013055903012031 0.035426298530653065 0 -0.018458278991427129 0.036338496299714106 0 -0.018480273127174707 0.035952816137437588 0 -0.018192694140713915 0.035888643598954738 0 -0.018737471385155118 0.036146649223262335 0 -0.018458278991427129 0.036338496299714106 0 -0.018480273127174707 0.035952816137437588 0 -0.018737471385155118 0.036146649223262335 0 -0.018678266399950468 0.035822811215690004 0 -0.018480273127174707 0.035952816137437588 0 -0.018737471385155118 0.036146649223262335 0 -0.019057428452363898 0.036028356259279845 0 -0.018678266399950468 0.035822811215690004 0 -0.018737471385155118 0.036146649223262335 0 -0.018773270961292398 0.036460362863867404 0 -0.018973797800886205 0.036327272559413627 0 -0.018737471385155118 0.036146649223262335 0 -0.018973797800886205 0.036327272559413627 0 -0.019057428452363898 0.036028356259279845 0 -0.018737471385155118 0.036146649223262335 0 -0.018773270961292398 0.036460362863867404 0 -0.018458278991427129 0.036338496299714106 0 -0.018759354565964996 0.036822457156399861 0 -0.018773270961292398 0.036460362863867404 0 -0.018458278991427129 0.036338496299714106 0 -0.018773270961292398 0.036460362863867404 0 -0.018989611118028191 0.036591865552621075 0 -0.018973797800886205 0.036327272559413627 0 -0.018759354565964996 0.036822457156399861 0 -0.018773270961292398 0.036460362863867404 0 -0.018989611118028191 0.036591865552621075 0 -0.021608251783883068 0.036679787637950809 0 -0.019206646881303562 0.035907018195346301 0 -0.020890827687478949 0.037547927449039148 0 -0.019647580550410559 0.035729466372251772 0 -0.021002041206907556 0.036401600422981524 0 -0.020949028498296014 0.036501525633278679 0 -0.020367403071134559 0.03608126232087859 0 -0.020397173957645908 0.035669154179732952 0 -0.019816958543410926 0.035663698567966161 0 -0.020367403071134559 0.03608126232087859 0 -0.020397173957645908 0.035669154179732952 0 -0.019935252159717944 0.035731056992819914 0 -0.020679457626936171 0.036240792317994326 0 -0.019345273086275701 0.036308732126351884 0 -0.019617122792517719 0.037004442875434765 0 -0.01925569314509927 0.036470665975417829 0 -0.019528368778227754 0.036245340506451881 0 -0.019723787923097709 0.036931852429976597 0 -0.019069203012398638 0.036389457212095709 0 -0.019678372904300905 0.036709365843998885 0 -0.019865468050461677 0.037165312956148097 0 -0.018989611118028191 0.036591865552621075 0 -0.01925569314509927 0.036470665975417829 0 -0.019206191412534442 0.036813623103936439 0 -0.018989611118028191 0.036591865552621075 0 -0.018973797800886205 0.036327272559413627 0 -0.01925569314509927 0.036470665975417829 0 -0.019057428452363898 0.036028356259279845 0 -0.019528368778227754 0.036245340506451881 0 -0.019322155873621575 0.035612094333636254 0 -0.01925569314509927 0.036470665975417829 0 -0.019057428452363898 0.036028356259279845 0 -0.019528368778227754 0.036245340506451881 0 -0.018973797800886205 0.036327272559413627 0 -0.01925569314509927 0.036470665975417829 0 -0.019057428452363898 0.036028356259279845 0 -0.020168013936981057 0.036738695686588579 0 -0.019678372904300905 0.036709365843998885 0 -0.019294671979240337 0.035742624364824005 0 -0.019069203012398638 0.036389457212095709 0 -0.019678372904300905 0.036709365843998885 0 -0.019294671979240337 0.035742624364824005 0 -0.019289425330506579 0.036167461516836023 0 -0.019273800364320644 0.035778462037783752 0 -0.018454609690644906 0.035493243469840195 0 -0.018602030998917708 0.035568867150116298 0 -0.019294671979240337 0.035742624364824005 0 -0.020168013936981057 0.036738695686588579 0 -0.019678372904300905 0.036709365843998885 0 -0.020049184604200177 0.037087385111482719 0 -0.020168013936981057 0.036738695686588579 0 -0.020049184604200177 0.037087385111482719 0 -0.020073690553580919 0.037166733361066163 0 -0.019678372904300905 0.036709365843998885 0 -0.020049184604200177 0.037087385111482719 0 -0.019865468050461677 0.037165312956148097 0 -0.020049184604200177 0.037087385111482719 0 -0.02028627068655953 0.037151933687751229 0 -0.019865468050461677 0.037165312956148097 0 -0.020049184604200177 0.037087385111482719 0 -0.02026744131252451 0.037174604016543079 0 -0.020073690553580919 0.037166733361066163 0 -0.020049184604200177 0.037087385111482719 0 -0.02026744131252451 0.037174604016543079 0 -0.02028627068655953 0.037151933687751229 0 -0.02026744131252451 0.037174604016543079 0 -0.020628513047381041 0.03706953022663486 0 -0.020202340770890712 0.036985968865369749 0 -0.02026744131252451 0.037174604016543079 0 -0.02028627068655953 0.037151933687751229 0 -0.020628513047381041 0.03706953022663486 0 -0.02028627068655953 0.037151933687751229 0 -0.019865468050461677 0.037165312956148097 0 -0.02057508725260759 0.037107710763138138 0 -0.02028627068655953 0.037151933687751229 0 -0.02057508725260759 0.037107710763138138 0 -0.020628513047381041 0.03706953022663486 0 -0.019617122792517719 0.037004442875434765 0 -0.021437823094276068 0.037286185560119006 0 -0.021844917814924286 0.037161197914163245 0 -0.021437823094276068 0.037286185560119006 0 -0.019723787923097709 0.036931852429976597 0 -0.019311471947957043 0.037237291509467953 0 -0.019899966851586598 0.037653949125432774 0 -0.019723787923097709 0.036931852429976597 0 -0.019206191412534442 0.036813623103936439 0 -0.019311471947957043 0.037237291509467953 0 -0.01925569314509927 0.036470665975417829 0 -0.019723787923097709 0.036931852429976597 0 -0.019206191412534442 0.036813623103936439 0 -0.018759354565964996 0.036822457156399861 0 -0.019206191412534442 0.036813623103936439 0 -0.019311471947957043 0.037237291509467953 0 -0.021608251783883068 0.036679787637950809 0 -0.021844917814924286 0.037161197914163245 0 -0.024305581572676691 0.037058081772778632 0 -0.024224432850851546 0.036983783558578648 0 -0.024279837608633201 0.036900370168324807 0 -0.024224432850851546 0.036983783558578648 0 -0.024279837608633201 0.036900370168324807 0 -0.024145062823907489 0.036775175555315072 0 -0.027560889912410142 0.034998036415866442 0 -0.021960884725619266 0.034999425031022595 0 -0.023147964734424455 0.035331862295533409 0 -0.027560889912410142 0.034998036415866442 0 -0.023147964734424455 0.035331862295533409 0 -0.023869168828456921 0.035722460388143966 0 -0.025388257042191182 0.037242149765525319 0 -0.024645166520695479 0.036582585678276276 0 -0.026378308655752594 0.036986183148894493 0 -0.02605050196803968 0.037589492456888467 0 -0.02527744441598374 0.03672982683333291 0 -0.024145062823907489 0.036775175555315072 0 -0.024180341873633798 0.036524055567333132 0 -0.023902281761610203 0.036817199688608665 0 -0.024224432850851546 0.036983783558578648 0 -0.024145062823907489 0.036775175555315072 0 -0.023902281761610203 0.036817199688608665 0 -0.024279837608633201 0.036900370168324807 0 -0.024145062823907489 0.036775175555315072 0 -0.024180341873633798 0.036524055567333132 0 -0.026779415557784535 0.036268815970360135 0 -0.026071052841713967 0.035902219269456179 0 -0.026378308655752594 0.036986183148894493 0 -0.02527744441598374 0.03672982683333291 0 -0.025946397963229867 0.035953191543417362 0 -0.027560889912410142 0.034998036415866442 0 -0.025946397963229867 0.035953191543417362 0 -0.023869168828456921 0.035722460388143966 0 -0.02527744441598374 0.03672982683333291 0 -0.025946397963229867 0.035953191543417362 0 -0.023869168828456921 0.035722460388143966 0 -0.024645166520695479 0.036582585678276276 0 -0.023934594695916297 0.03573023042914613 0 -0.021960884725619266 0.034999425031022595 0 -0.023147964734424455 0.035331862295533409 0 -0.021956465092692831 0.035977261044388573 0 -0.023147964734424455 0.035331862295533409 0 -0.023869168828456921 0.035722460388143966 0 -0.0237645233546004 0.036295778520176535 0 -0.023147964734424455 0.035331862295533409 0 -0.021956465092692831 0.035977261044388573 0 -0.021922130861787039 0.036323682095992543 0 -0.024180341873633798 0.036524055567333132 0 -0.023869168828456921 0.035722460388143966 0 -0.0237645233546004 0.036295778520176535 0 -0.023005007668917409 0.035300911033786311 0 -0.023018687909499708 0.036226420088807006 0 -0.021960884725619266 0.034999425031022595 0 -0.021956465092692831 0.035977261044388573 0 -0.020978681829883519 0.036139857338923241 0 -0.021956465092692831 0.035977261044388573 0 -0.021397598962900711 0.036448364946835676 0 -0.021922130861787039 0.036323682095992543 0 -0.021956465092692831 0.035977261044388573 0 -0.021397598962900711 0.036448364946835676 0 -0.020978681829883519 0.036139857338923241 0 -0.021397598962900711 0.036448364946835676 0 -0.02075564705047124 0.036757048844859398 0 -0.020978681829883519 0.036139857338923241 0 -0.021397598962900711 0.036448364946835676 0 -0.021118227178996488 0.03694120567448328 0 -0.02075564705047124 0.036757048844859398 0 -0.023018687909499708 0.036226420088807006 0 -0.021437823094276068 0.037286185560119006 0 -0.024180341873633798 0.036524055567333132 0 -0.0237645233546004 0.036295778520176535 0 -0.023902281761610203 0.036817199688608665 0 -0.021118227178996488 0.03694120567448328 0 -0.021922130861787039 0.036323682095992543 0 -0.021776547307766032 0.037427509692914571 0 -0.021397598962900711 0.036448364946835676 0 -0.021118227178996488 0.03694120567448328 0 -0.021922130861787039 0.036323682095992543 0 -0.021118227178996488 0.03694120567448328 0 -0.02057508725260759 0.037107710763138138 0 -0.020628513047381041 0.03706953022663486 0 -0.021005381512641943 0.036954900229467041 0 -0.021437823094276068 0.037286185560119006 0 -0.02075564705047124 0.036757048844859398 0 -0.020628513047381041 0.03706953022663486 0 -0.020202340770890712 0.036985968865369749 0 -0.021118227178996488 0.03694120567448328 0 -0.02075564705047124 0.036757048844859398 0 -0.020628513047381041 0.03706953022663486 0 -0.020202340770890712 0.036985968865369749 0 -0.019569268865047493 0.036834997003437411 0 -0.020011323529672654 0.036589279088892708 0 -0.02075564705047124 0.036757048844859398 0 -0.020202340770890712 0.036985968865369749 0 -0.020011323529672654 0.036589279088892708 0 -0.019569268865047493 0.036834997003437411 0 -0.020011323529672654 0.036589279088892708 0 -0.019103687145713255 0.036516408252181047 0 -0.020011323529672654 0.036589279088892708 0 -0.019244335315422797 0.035948843234376769 0 -0.019103687145713255 0.036516408252181047 0 -0.02075564705047124 0.036757048844859398 0 -0.020011323529672654 0.036589279088892708 0 -0.020978681829883519 0.036139857338923241 0 -0.021960884725619266 0.034999425031022595 0 -0.020978681829883519 0.036139857338923241 0 -0.019244335315422797 0.035948843234376769 0 -0.021960884725619266 0.034999425031022595 0 -0.017851577745027006 0.034999136860616273 0 -0.019244335315422797 0.035948843234376769 0 -0.020011323529672654 0.036589279088892708 0 -0.020978681829883519 0.036139857338923241 0 -0.019244335315422797 0.035948843234376769 0 -0.017851577745027006 0.034999136860616273 0 -0.019244335315422797 0.035948843234376769 0 -0.017550448436487023 0.036080902860515844 0 -0.017550448436487023 0.036080902860515844 0 -0.018423779445209402 0.036386699917079046 0 -0.017681426148194089 0.036708690114412683 0 -0.019244335315422797 0.035948843234376769 0 -0.018423779445209402 0.036386699917079046 0 -0.019103687145713255 0.036516408252181047 0 -0.019244335315422797 0.035948843234376769 0 -0.017550448436487023 0.036080902860515844 0 -0.018423779445209402 0.036386699917079046 0 -0.019569268865047493 0.036834997003437411 0 -0.019103687145713255 0.036516408252181047 0 -0.018554369497672196 0.036890512380182303 0 -0.018423779445209402 0.036386699917079046 0 -0.019103687145713255 0.036516408252181047 0 -0.018554369497672196 0.036890512380182303 0 -0.018554369497672196 0.036890512380182303 0 -0.017681426148194089 0.036708690114412683 0 -0.018031442636285349 0.037104952509896739 0 -0.018423779445209402 0.036386699917079046 0 -0.018554369497672196 0.036890512380182303 0 -0.017681426148194089 0.036708690114412683 0 -0.017388738236302919 0.037025067041315807 0 -0.018031442636285349 0.037104952509896739 0 -0.017706794311715231 0.037223057085252594 0 -0.017388738236302919 0.037025067041315807 0 -0.017681426148194089 0.036708690114412683 0 -0.018031442636285349 0.037104952509896739 0 -0.017706794311715231 0.037223057085252594 0 -0.018486256603537508 0.037261848261277923 0 -0.018080132654197979 0.03711889295806272 0 -0.018031442636285349 0.037104952509896739 0 -0.017706794311715231 0.037223057085252594 0 -0.018486256603537508 0.037261848261277923 0 -0.018554369497672196 0.036890512380182303 0 -0.018031442636285349 0.037104952509896739 0 -0.018486256603537508 0.037261848261277923 0 -0.018554369497672196 0.036890512380182303 0 -0.018486256603537508 0.037261848261277923 0 -0.019647687050737519 0.037114377041634672 0 -0.020202340770890712 0.036985968865369749 0 -0.019569268865047493 0.036834997003437411 0 -0.019647687050737519 0.037114377041634672 0 -0.019569268865047493 0.036834997003437411 0 -0.018554369497672196 0.036890512380182303 0 -0.019647687050737519 0.037114377041634672 0 -0.02026744131252451 0.037174604016543079 0 -0.020202340770890712 0.036985968865369749 0 -0.019647687050737519 0.037114377041634672 0 -0.02026744131252451 0.037174604016543079 0 -0.019647687050737519 0.037114377041634672 0 -0.019992038459951508 0.037221373396030287 0 -0.019992038459951508 0.037221373396030287 0 -0.019823052179407358 0.037477413641006374 0 -0.020073690553580919 0.037166733361066163 0 -0.019647687050737519 0.037114377041634672 0 -0.019992038459951508 0.037221373396030287 0 -0.019823052179407358 0.037477413641006374 0 -0.02026744131252451 0.037174604016543079 0 -0.019992038459951508 0.037221373396030287 0 -0.020073690553580919 0.037166733361066163 0 -0.018486256603537508 0.037261848261277923 0 -0.019647687050737519 0.037114377041634672 0 -0.019823052179407358 0.037477413641006374 0 -0.018544760455307164 0.037202757995947307 0 -0.019045379622807283 0.037000462160390948 0 -0.018261566336444372 0.036603241964647926 0 -0.018377284263989758 0.036473831453042949 0 -0.018353520250769324 0.035603736508708531 0 -0.018486256603537508 0.037261848261277923 0 -0.018261566336444372 0.036603241964647926 0 -0.018382120270585087 0.036811476620475639 0 -0.018261566336444372 0.036603241964647926 0 -0.018377284263989758 0.036473831453042949 0 -0.018382120270585087 0.036811476620475639 0 -0.020168013936981057 0.036738695686588579 0 -0.019823052179407358 0.037477413641006374 0 -0.020073690553580919 0.037166733361066163 0 -0.019289425330506579 0.036167461516836023 0 -0.019045379622807283 0.037000462160390948 0 -0.018454609690644906 0.035493243469840195 0 -0.018261566336444372 0.036603241964647926 0 -0.018353520250769324 0.035603736508708531 0 -0.018353520250769324 0.035603736508708531 0 -0.017886569923262704 0.035331195854470816 0 -0.018363123818500422 0.035522017424474778 0 -0.018353520250769324 0.035603736508708531 0 -0.018363123818500422 0.035522017424474778 0 -0.018602030998917708 0.035568867150116298 0 -0.018454609690644906 0.035493243469840195 0 -0.018353520250769324 0.035603736508708531 0 -0.018602030998917708 0.035568867150116298 0 -0.018377284263989758 0.036473831453042949 0 -0.018353520250769324 0.035603736508708531 0 -0.018364159286452224 0.036920234282050414 0 -0.018353520250769324 0.035603736508708531 0 -0.017223418721814328 0.034882140673740937 0 -0.017886569923262704 0.035331195854470816 0 -0.018209597695703322 0.035640721340314568 0 -0.017755985577723531 0.035938828001981067 0 -0.017223570511490136 0.034979218542648696 0 -0.017223418721814328 0.034882140673740937 0 -0.017886569923262704 0.035331195854470816 0 -0.017223570511490136 0.034979218542648696 0 -0.017223418721814328 0.034882140673740937 0 -0.016869940547957703 0.03565415373228327 0 -0.016788391416744378 0.035887445663805292 0 -0.017223418721814328 0.034882140673740937 0 -0.016869940547957703 0.03565415373228327 0 -0.017054500816645463 0.034949557705198676 0 -0.016096514638172202 0.034873578755761428 0 -0.017573687969277781 0.037476379439758754 0 -0.018364159286452224 0.036920234282050414 0 -0.018080132654197979 0.03711889295806272 0 -0.017247635699441349 0.036645065941401447 0 -0.017755985577723531 0.035938828001981067 0 -0.017560521555732442 0.037233487938175283 0 -0.017706794311715231 0.037223057085252594 0 -0.018080132654197979 0.03711889295806272 0 -0.017573687969277781 0.037476379439758754 0 -0.017560521555732442 0.037233487938175283 0 -0.018080132654197979 0.03711889295806272 0 -0.018364159286452224 0.036920234282050414 0 -0.018080132654197979 0.03711889295806272 0 -0.018382120270585087 0.036811476620475639 0 -0.018486256603537508 0.037261848261277923 0 -0.018080132654197979 0.03711889295806272 0 -0.018382120270585087 0.036811476620475639 0 -0.018377284263989758 0.036473831453042949 0 -0.018364159286452224 0.036920234282050414 0 -0.018382120270585087 0.036811476620475639 0 -0.015749316240605785 0.035613566145936068 0 -0.017335554440899799 0.035618698769862532 0 -0.016631760271235151 0.036773228705229095 0 -0.0140847368696519 0.036571694706732868 0 -0.015749316240605785 0.035613566145936068 0 -0.016631760271235151 0.036773228705229095 0 -0.017223570511490136 0.034979218542648696 0 -0.015532608476506555 0.034029249474022139 0 -0.016324746504218324 0.035020544259764329 0 -0.015749316240605785 0.035613566145936068 0 -0.015379447506242578 0.034930858474330133 0 -0.016324746504218324 0.035020544259764329 0 -0.014529671558883839 0.035230282823667955 0 -0.015749316240605785 0.035613566145936068 0 -0.015379447506242578 0.034930858474330133 0 -0.014502502175618149 0.034486696520212613 0 -0.015532608476506555 0.034029249474022139 0 -0.015379447506242578 0.034930858474330133 0 -0.015532608476506555 0.034029249474022139 0 -0.015379447506242578 0.034930858474330133 0 -0.016324746504218324 0.035020544259764329 0 -0.015749316240605785 0.035613566145936068 0 -0.016324746504218324 0.035020544259764329 0 -0.017335554440899799 0.035618698769862532 0 -0.017223570511490136 0.034979218542648696 0 -0.016324746504218324 0.035020544259764329 0 -0.017335554440899799 0.035618698769862532 0 -0.017223570511490136 0.034979218542648696 0 -0.017335554440899799 0.035618698769862532 0 -0.017886569923262704 0.035331195854470816 0 -0.017335554440899799 0.035618698769862532 0 -0.017886569923262704 0.035331195854470816 0 -0.018160249558435478 0.035636543469412474 0 -0.017886569923262704 0.035331195854470816 0 -0.018160249558435478 0.035636543469412474 0 -0.018363123818500422 0.035522017424474778 0 -0.018160249558435478 0.035636543469412474 0 -0.018363123818500422 0.035522017424474778 0 -0.018796443779587047 0.035607086227963276 0 -0.018363123818500422 0.035522017424474778 0 -0.018796443779587047 0.035607086227963276 0 -0.018602030998917708 0.035568867150116298 0 -0.018160249558435478 0.035636543469412474 0 -0.018338398426719655 0.036271247983562405 0 -0.018796443779587047 0.035607086227963276 0 -0.018338398426719655 0.036271247983562405 0 -0.019145130207574291 0.035177282633721406 0 -0.018796443779587047 0.035607086227963276 0 -0.017335554440899799 0.035618698769862532 0 -0.018338398426719655 0.036271247983562405 0 -0.016631760271235151 0.036773228705229095 0 -0.017335554440899799 0.035618698769862532 0 -0.018160249558435478 0.035636543469412474 0 -0.018338398426719655 0.036271247983562405 0 -0.018299102416894322 0.035314267980217577 0 -0.01668461507279962 0.035414686911024902 0 -0.018406363151830196 0.034370324402263217 0 -0.018994469576622319 0.034936686894254144 0 -0.019145130207574291 0.035177282633721406 0 -0.018299102416894322 0.035314267980217577 0 -0.01902077882367393 0.035200540677292232 0 -0.018406363151830196 0.034370324402263217 0 -0.018174085693047588 0.034999454188702858 0 -0.018994469576622319 0.034936686894254144 0 -0.018406363151830196 0.034370324402263217 0 -0.018174085693047588 0.034999454188702858 0 -0.017184532481096828 0.035282054440496383 0 -0.018406363151830196 0.034370324402263217 0 -0.017184532481096828 0.035282054440496383 0 -0.016788134929078598 0.034071928997250069 0 -0.014385582667237745 0.035385246842755305 0 -0.01668461507279962 0.035414686911024902 0 -0.014591992979294279 0.034206385027706954 0 -0.016788134929078598 0.034071928997250069 0 -0.015639808068951946 0.035283745431290689 0 -0.017184532481096828 0.035282054440496383 0 -0.016788134929078598 0.034071928997250069 0 -0.015639808068951946 0.035283745431290689 0 -0.017184532481096828 0.035282054440496383 0 -0.015639808068951946 0.035283745431290689 0 -0.016188329377589655 0.036333486891362517 0 -0.017184532481096828 0.035282054440496383 0 -0.016188329377589655 0.036333486891362517 0 -0.017026270838695203 0.035962984923016833 0 -0.017184532481096828 0.035282054440496383 0 -0.017026270838695203 0.035962984923016833 0 -0.017958478151128197 0.035515224857527679 0 -0.017026270838695203 0.035962984923016833 0 -0.016596766951944897 0.036290132898752207 0 -0.017312228587509745 0.036138582570923686 0 -0.017026270838695203 0.035962984923016833 0 -0.017312228587509745 0.036138582570923686 0 -0.017958478151128197 0.035515224857527679 0 -0.016188329377589655 0.036333486891362517 0 -0.017026270838695203 0.035962984923016833 0 -0.016596766951944897 0.036290132898752207 0 -0.016298490124222142 0.036305076557525247 0 -0.016188329377589655 0.036333486891362517 0 -0.016596766951944897 0.036290132898752207 0 -0.016298490124222142 0.036305076557525247 0 -0.016596766951944897 0.036290132898752207 0 -0.016466542091417121 0.036512621971310111 0 -0.016596766951944897 0.036290132898752207 0 -0.016466542091417121 0.036512621971310111 0 -0.016946942318229401 0.036508738022671225 0 -0.016596766951944897 0.036290132898752207 0 -0.016946942318229401 0.036508738022671225 0 -0.017312228587509745 0.036138582570923686 0 -0.016946942318229401 0.036508738022671225 0 -0.017312228587509745 0.036138582570923686 0 -0.017751522672139041 0.036705706665162603 0 -0.019524991008536621 0.028481818950405947 0 -0.020625606369923 0.032698240905909566 0 -0.016946942318229401 0.036508738022671225 0 -0.016758651246233512 0.036949150301248651 0 -0.017751522672139041 0.036705706665162603 0 -0.024014511643985131 0.027556980520350972 0 -0.023160240847375644 0.027816759173425534 0 -0.023768250894282032 0.027099258692417246 0 -0.021079778833493261 0.01391222600302861 0 -0.019524991008536621 0.028481818950405947 0 -0.016466542091417121 0.036512621971310111 0 -0.016946942318229401 0.036508738022671225 0 -0.016758651246233512 0.036949150301248651 0 -0.017142488881992303 0.028977731534076994 0 -0.016062321584746606 0.030278733289754046 0 -0.014877354655770093 0.02829852975639803 0 -0.016280923895659834 0.033518169122783638 0 -0.019524991008536621 0.028481818950405947 0 -0.020625606369923 0.032698240905909566 0 -0.020225608809663818 0.032072110881884081 0 -0.022911396963996244 0.027503127550869168 0 -0.022162031318576317 0.027963763155473473 0 -0.022292819941347495 0.028120634846671294 0 -0.027142033462203199 0.028698958299744632 0 -0.025722808366078823 0.028138710032207317 0 -0.022911396963996244 0.027503127550869168 0 -0.023160240847375644 0.027816759173425534 0 -0.022292819941347495 0.028120634846671294 0 -0.031724291074967971 0.027243643308670861 0 -0.028579546711815024 0.029038395283081511 0 -0.028952640075588541 0.026351334134282645 0 -0.022911396963996244 0.027503127550869168 0 -0.023160240847375644 0.027816759173425534 0 -0.023649225109941122 0.027064164356600744 0 -0.017312228587509745 0.036138582570923686 0 -0.017751522672139041 0.036705706665162603 0 -0.018164282412213337 0.035889736018958611 0 -0.018164282412213337 0.035889736018958611 0 -0.018894874482087157 0.035224445152715389 0 -0.018906633377876382 0.035996482206506537 0 -0.017751522672139041 0.036705706665162603 0 -0.018164282412213337 0.035889736018958611 0 -0.018906633377876382 0.035996482206506537 0 -0.018164282412213337 0.035889736018958611 0 -0.017958478151128197 0.035515224857527679 0 -0.018894874482087157 0.035224445152715389 0 -0.017312228587509745 0.036138582570923686 0 -0.018164282412213337 0.035889736018958611 0 -0.017958478151128197 0.035515224857527679 0 -0.018174085693047588 0.034999454188702858 0 -0.017184532481096828 0.035282054440496383 0 -0.017958478151128197 0.035515224857527679 0 -0.017958478151128197 0.035515224857527679 0 -0.018894874482087157 0.035224445152715389 0 -0.018994469576622319 0.034936686894254144 0 -0.018174085693047588 0.034999454188702858 0 -0.017958478151128197 0.035515224857527679 0 -0.018994469576622319 0.034936686894254144 0 -0.019517750378413658 0.03465961464993484 0 -0.018894874482087157 0.035224445152715389 0 -0.018994469576622319 0.034936686894254144 0 -0.019517750378413658 0.03465961464993484 0 -0.019343863486967355 0.034824679415712642 0 -0.018994469576622319 0.034936686894254144 0 -0.019517750378413658 0.03465961464993484 0 -0.019567864766995464 0.034592429816504067 0 -0.019343863486967355 0.034824679415712642 0 -0.019517750378413658 0.03465961464993484 0 -0.019690214097893208 0.034716645854717815 0 -0.020097495475334948 0.034047093933452087 0 -0.019690214097893208 0.034716645854717815 0 -0.020164751025458158 0.034025082904575857 0 -0.020097495475334948 0.034047093933452087 0 -0.019517750378413658 0.03465961464993484 0 -0.018894874482087157 0.035224445152715389 0 -0.019690214097893208 0.034716645854717815 0 -0.022003613055854739 0.031262164402188236 0 -0.020225608809663818 0.032072110881884081 0 -0.018894874482087157 0.035224445152715389 0 -0.019690214097893208 0.034716645854717815 0 -0.018906633377876382 0.035996482206506537 0 -0.019690214097893208 0.034716645854717815 0 -0.019937937547876584 0.03485387943769197 0 -0.018906633377876382 0.035996482206506537 0 -0.019690214097893208 0.034716645854717815 0 -0.019937937547876584 0.03485387943769197 0 -0.020164751025458158 0.034025082904575857 0 -0.025094662668201803 0.031162432602881481 0 -0.025768246903152527 0.027476309163276043 0 -0.022817136640479418 0.029459761542957767 0 -0.025094662668201803 0.031162432602881481 0 -0.025768246903152527 0.027476309163276043 0 -0.028579546711815024 0.029038395283081511 0 -0.022003613055854739 0.031262164402188236 0 -0.025722808366078823 0.028138710032207317 0 -0.021396608640241389 0.028454901318863312 0 -0.022162031318576317 0.027963763155473473 0 -0.022292819941347495 0.028120634846671294 0 -0.025768246903152527 0.027476309163276043 0 -0.028579546711815024 0.029038395283081511 0 -0.028952640075588541 0.026351334134282645 0 -0.019761181596912168 0.029324080878734723 0 -0.022817136640479418 0.029459761542957767 0 -0.022583765695402595 0.026578797949966291 0 -0.019761181596912168 0.029324080878734723 0 -0.022817136640479418 0.029459761542957767 0 -0.020812742034035454 0.032618165823825623 0 -0.025768246903152527 0.027476309163276043 0 -0.022817136640479418 0.029459761542957767 0 -0.022583765695402595 0.026578797949966291 0 -0.019937937547876584 0.03485387943769197 0 -0.020164751025458158 0.034025082904575857 0 -0.020812742034035454 0.032618165823825623 0 -0.025094662668201803 0.031162432602881481 0 -0.022817136640479418 0.029459761542957767 0 -0.020812742034035454 0.032618165823825623 0 -0.022003613055854739 0.031262164402188236 0 -0.020860530388132046 0.033002891071122469 0 -0.020164751025458158 0.034025082904575857 0 -0.020812742034035454 0.032618165823825623 0 -0.020097495475334948 0.034047093933452087 0 -0.019761181596912168 0.029324080878734723 0 -0.020812742034035454 0.032618165823825623 0 -0.01871175449966726 0.032268885892800629 0 -0.020812742034035454 0.032618165823825623 0 -0.01953746664527066 0.033811081744710862 0 -0.01871175449966726 0.032268885892800629 0 -0.020812742034035454 0.032618165823825623 0 -0.01953746664527066 0.033811081744710862 0 -0.020097495475334948 0.034047093933452087 0 -0.01953746664527066 0.033811081744710862 0 -0.020097495475334948 0.034047093933452087 0 -0.019567864766995464 0.034592429816504067 0 -0.019517750378413658 0.03465961464993484 0 -0.020097495475334948 0.034047093933452087 0 -0.019567864766995464 0.034592429816504067 0 -0.01953746664527066 0.033811081744710862 0 -0.019567864766995464 0.034592429816504067 0 -0.019014717808769271 0.034362443742277524 0 -0.019523981723741184 0.034579263311748029 0 -0.018982012759475538 0.034718936788416081 0 -0.019567864766995464 0.034592429816504067 0 -0.018867593851168239 0.034910204018088545 0 -0.019110210940144558 0.03505699091720417 0 -0.019567864766995464 0.034592429816504067 0 -0.019013720544196321 0.034554862935145855 0 -0.019014717808769271 0.034362443742277524 0 -0.018867593851168239 0.034910204018088545 0 -0.019110210940144558 0.03505699091720417 0 -0.01887104525127032 0.035321366792869048 0 -0.019110210940144558 0.03505699091720417 0 -0.019153153385177146 0.035232638078990006 0 -0.019307402296731058 0.034960099225353806 0 -0.019567864766995464 0.034592429816504067 0 -0.019110210940144558 0.03505699091720417 0 -0.019307402296731058 0.034960099225353806 0 -0.019567864766995464 0.034592429816504067 0 -0.019307402296731058 0.034960099225353806 0 -0.019343863486967355 0.034824679415712642 0 -0.019307402296731058 0.034960099225353806 0 -0.019343863486967355 0.034824679415712642 0 -0.019145130207574291 0.035177282633721406 0 -0.019343863486967355 0.034824679415712642 0 -0.018994469576622319 0.034936686894254144 0 -0.019145130207574291 0.035177282633721406 0 -0.019153153385177146 0.035232638078990006 0 -0.019307402296731058 0.034960099225353806 0 -0.019145130207574291 0.035177282633721406 0 -0.019153153385177146 0.035232638078990006 0 -0.019145130207574291 0.035177282633721406 0 -0.019159263791877258 0.035467818039020646 0 -0.019145130207574291 0.035177282633721406 0 -0.019159263791877258 0.035467818039020646 0 -0.018796443779587047 0.035607086227963276 0 -0.018796443779587047 0.035607086227963276 0 -0.018602030998917708 0.035568867150116298 0 -0.019294671979240337 0.035742624364824005 0 -0.019159263791877258 0.035467818039020646 0 -0.018796443779587047 0.035607086227963276 0 -0.019294671979240337 0.035742624364824005 0 -0.019159263791877258 0.035467818039020646 0 -0.019294671979240337 0.035742624364824005 0 -0.018936985203207902 0.035475269847759651 0 -0.019069203012398638 0.036389457212095709 0 -0.019294671979240337 0.035742624364824005 0 -0.018936985203207902 0.035475269847759651 0 -0.019345273086275701 0.036308732126351884 0 -0.019134436986089125 0.035556522156221466 0 -0.019057428452363898 0.036028356259279845 0 -0.019322155873621575 0.035612094333636254 0 -0.018909867485489514 0.035658535279435605 0 -0.019322155873621575 0.035612094333636254 0 -0.01887104525127032 0.035321366792869048 0 -0.018909867485489514 0.035658535279435605 0 -0.019110210940144558 0.03505699091720417 0 -0.019322155873621575 0.035612094333636254 0 -0.01887104525127032 0.035321366792869048 0 -0.019105522102800119 0.035095551868175007 0 -0.019134436986089125 0.035556522156221466 0 -0.019153153385177146 0.035232638078990006 0 -0.019159263791877258 0.035467818039020646 0 -0.018936985203207902 0.035475269847759651 0 -0.019110210940144558 0.03505699091720417 0 -0.019153153385177146 0.035232638078990006 0 -0.018936985203207902 0.035475269847759651 0 -0.018342752005891215 0.035590515793242711 0 -0.018631449110607556 0.035526517519866685 0 -0.018435758361268414 0.035188762946665286 0 -0.01887104525127032 0.035321366792869048 0 -0.018631449110607556 0.035526517519866685 0 -0.018909867485489514 0.035658535279435605 0 -0.01887104525127032 0.035321366792869048 0 -0.018631449110607556 0.035526517519866685 0 -0.018435758361268414 0.035188762946665286 0 -0.019057428452363898 0.036028356259279845 0 -0.018909867485489514 0.035658535279435605 0 -0.018678266399950468 0.035822811215690004 0 -0.018631449110607556 0.035526517519866685 0 -0.018909867485489514 0.035658535279435605 0 -0.018678266399950468 0.035822811215690004 0 -0.018342752005891215 0.035590515793242711 0 -0.018631449110607556 0.035526517519866685 0 -0.018678266399950468 0.035822811215690004 0 -0.018342752005891215 0.035590515793242711 0 -0.018678266399950468 0.035822811215690004 0 -0.018480273127174707 0.035952816137437588 0 -0.018342752005891215 0.035590515793242711 0 -0.018480273127174707 0.035952816137437588 0 -0.018192694140713915 0.035888643598954738 0 -0.019787188439824632 0.034866902690835123 0 -0.019020464093465365 0.034803636282293618 0 -0.01917564588682617 0.034289792427587305 0 -0.019013055903012031 0.035426298530653065 0 -0.018677979818134637 0.034819705801779385 0 -0.018342752005891215 0.035590515793242711 0 -0.018192694140713915 0.035888643598954738 0 -0.017941807196619985 0.035472160007235909 0 -0.019020464093465365 0.034803636282293618 0 -0.019028674541052303 0.034381842695905579 0 -0.01917564588682617 0.034289792427587305 0 -0.029764339641484693 0.03041915613357506 0 -0.0300016164333602 0.030067781386498644 0 -0.029621058739094465 0.030027876417058279 0 -0.019020464093465365 0.034803636282293618 0 -0.01888674955861289 0.034320940599652579 0 -0.018726288008885792 0.034262301357063402 0 -0.018875138082381043 0.034252947990088205 0 -0.018905349925271736 0.034270584385457513 0 -0.018838395492879981 0.034271298266914399 0 -0.019020464093465365 0.034803636282293618 0 -0.019028674541052303 0.034381842695905579 0 -0.01888674955861289 0.034320940599652579 0 -0.024482023988407126 0.032504064878435768 0 -0.024672127843266563 0.031467553445739947 0 -0.019028674541052303 0.034381842695905579 0 -0.019033136137279003 0.034346396312248263 0 -0.018967149740143581 0.03432712260456372 0 -0.019028674541052303 0.034381842695905579 0 -0.018967149740143581 0.03432712260456372 0 -0.01888674955861289 0.034320940599652579 0 -0.018939929073206567 0.034615577413466984 0 -0.018677979818134637 0.034819705801779385 0 -0.019033136137279003 0.034346396312248263 0 -0.018905349925271736 0.034270584385457513 0 -0.018967149740143581 0.03432712260456372 0 -0.018677979818134637 0.034819705801779385 0 -0.018685497261911908 0.034521872929096711 0 -0.018905349925271736 0.034270584385457513 0 -0.018967149740143581 0.03432712260456372 0 -0.01888674955861289 0.034320940599652579 0 -0.018905349925271736 0.034270584385457513 0 -0.01888674955861289 0.034320940599652579 0 -0.018833794353961052 0.034248595440705756 0 -0.01888674955861289 0.034320940599652579 0 -0.018833794353961052 0.034248595440705756 0 -0.018726288008885792 0.034262301357063402 0 -0.018677979818134637 0.034819705801779385 0 -0.018557340217032363 0.034787270306740101 0 -0.018342752005891215 0.035590515793242711 0 -0.017941807196619985 0.035472160007235909 0 -0.018435758361268414 0.035188762946665286 0 -0.018875138082381043 0.034252947990088205 0 -0.018838395492879981 0.034271298266914399 0 -0.018770981442590731 0.034341037403325683 0 -0.018838395492879981 0.034271298266914399 0 -0.018807728522326032 0.034275333188377978 0 -0.018770981442590731 0.034341037403325683 0 -0.018905349925271736 0.034270584385457513 0 -0.018838395492879981 0.034271298266914399 0 -0.018833794353961052 0.034248595440705756 0 -0.018838395492879981 0.034271298266914399 0 -0.018833794353961052 0.034248595440705756 0 -0.018765317678262269 0.034191900922754724 0 -0.018765317678262269 0.034191900922754724 0 -0.018789917775892222 0.034166059681111263 0 -0.018680979027732286 0.034043523979660671 0 -0.018838395492879981 0.034271298266914399 0 -0.018765317678262269 0.034191900922754724 0 -0.018789917775892222 0.034166059681111263 0 -0.018789917775892222 0.034166059681111263 0 -0.018807728522326032 0.034275333188377978 0 -0.018856676286128721 0.034135917984719773 0 -0.018838395492879981 0.034271298266914399 0 -0.018789917775892222 0.034166059681111263 0 -0.018807728522326032 0.034275333188377978 0 -0.018807728522326032 0.034275333188377978 0 -0.018696458381432694 0.034365036603463892 0 -0.018856676286128721 0.034135917984719773 0 -0.018807728522326032 0.034275333188377978 0 -0.018696458381432694 0.034365036603463892 0 -0.018770981442590731 0.034341037403325683 0 -0.018982012759475538 0.034718936788416081 0 -0.018557340217032363 0.034787270306740101 0 -0.018867593851168239 0.034910204018088545 0 -0.01887104525127032 0.035321366792869048 0 -0.018435758361268414 0.035188762946665286 0 -0.019013720544196321 0.034554862935145855 0 -0.018696458381432694 0.034365036603463892 0 -0.018770981442590731 0.034341037403325683 0 -0.019013720544196321 0.034554862935145855 0 -0.018696458381432694 0.034365036603463892 0 -0.019014717808769271 0.034362443742277524 0 -0.018696458381432694 0.034365036603463892 0 -0.019014717808769271 0.034362443742277524 0 -0.017423100603565528 0.033584126039413291 0 -0.018696458381432694 0.034365036603463892 0 -0.019106058588816848 0.033889489813561532 0 -0.018856676286128721 0.034135917984719773 0 -0.0186202924164698 0.034351235219977266 0 -0.018243979067186028 0.033411781475204232 0 -0.01953746664527066 0.033811081744710862 0 -0.017423100603565528 0.033584126039413291 0 -0.01871175449966726 0.032268885892800629 0 -0.01953746664527066 0.033811081744710862 0 -0.019014717808769271 0.034362443742277524 0 -0.017423100603565528 0.033584126039413291 0 -0.019761181596912168 0.029324080878734723 0 -0.01871175449966726 0.032268885892800629 0 -0.015912537907277785 0.03053243067049468 0 -0.018243979067186028 0.033411781475204232 0 -0.017414335784001176 0.032895872979742592 0 -0.017423100603565528 0.033584126039413291 0 -0.01871175449966726 0.032268885892800629 0 -0.015912537907277785 0.03053243067049468 0 -0.01920151245317369 0.033356731235968363 0 -0.019046079136418606 0.032726796374866592 0 -0.019209811264326269 0.03264407650954565 0 -0.015912537907277785 0.03053243067049468 0 -0.01776928465402618 0.027224711214432394 0 -0.014758974488641505 0.025794550715375585 0 -0.017414335784001176 0.032895872979742592 0 -0.019236683103975236 0.024257701307054409 0 -0.019761181596912168 0.029324080878734723 0 -0.01776928465402618 0.027224711214432394 0 -0.01997150196138044 0.026009431547604933 0 -0.019761181596912168 0.029324080878734723 0 -0.015912537907277785 0.03053243067049468 0 -0.01776928465402618 0.027224711214432394 0 -0.025551939429557049 0.026185721510091395 0 -0.02557738569475234 0.026155459846905437 0 -0.025440286610336094 0.02617505421404441 0 -0.025551939429557049 0.026185721510091395 0 -0.02557738569475234 0.026155459846905437 0 -0.025549851827567142 0.026221759372463703 0 -0.01920151245317369 0.033356731235968363 0 -0.018706805854517262 0.033344035528056169 0 -0.019046079136418606 0.032726796374866592 0 -0.02204094952539588 0.030573063919795897 0 -0.021866032075078194 0.02469589468086314 0 -0.01920151245317369 0.033356731235968363 0 -0.018706805854517262 0.033344035528056169 0 -0.018782632359692207 0.033905292198106236 0 -0.02204094952539588 0.030573063919795897 0 -0.021737638547454946 0.030076169394021364 0 -0.018706805854517262 0.033344035528056169 0 -0.018782632359692207 0.033905292198106236 0 -0.018607173513838154 0.033761174973490904 0 -0.025551939429557049 0.026185721510091395 0 -0.02555452045738044 0.02637616322818542 0 -0.025549851827567142 0.026221759372463703 0 -0.018782632359692207 0.033905292198106236 0 -0.018680979027732286 0.034043523979660671 0 -0.018607173513838154 0.033761174973490904 0 -0.019106058588816848 0.033889489813561532 0 -0.01920151245317369 0.033356731235968363 0 -0.018782632359692207 0.033905292198106236 0 -0.019106058588816848 0.033889489813561532 0 -0.018782632359692207 0.033905292198106236 0 -0.018856676286128721 0.034135917984719773 0 -0.018789917775892222 0.034166059681111263 0 -0.018782632359692207 0.033905292198106236 0 -0.018856676286128721 0.034135917984719773 0 -0.018789917775892222 0.034166059681111263 0 -0.018782632359692207 0.033905292198106236 0 -0.018680979027732286 0.034043523979660671 0 -0.018680979027732286 0.034043523979660671 0 -0.01857349129973811 0.033965367678862858 0 -0.018607173513838154 0.033761174973490904 0 -0.024294658818673463 0.030029841904542155 0 -0.027467170890435884 0.025084317451940358 0 -0.029430339819140783 0.027033934580631757 0 -0.028691847500961556 0.025300781538131489 0 -0.02875071900210666 0.02723623372626274 0 -0.030657956229009378 0.025916253736478628 0 -0.029651250745865911 0.027233019130035351 0 -0.029430339819140783 0.027033934580631757 0 -0.02875071900210666 0.02723623372626274 0 -0.028914518508751475 0.027661744738949612 0 -0.032944445008301987 0.025021707330234948 0 -0.032948633995182504 0.026335619780060354 0 -0.033290943458495724 0.025922959063581552 0 -0.024294658818673463 0.030029841904542155 0 -0.029651250745865911 0.027233019130035351 0 -0.025336423698168044 0.026738785792540579 0 -0.025439017518329689 0.026474494479217122 0 -0.02555452045738044 0.02637616322818542 0 -0.024294658818673463 0.030029841904542155 0 -0.021737638547454946 0.030076169394021364 0 -0.025336423698168044 0.026738785792540579 0 -0.025439017518329689 0.026474494479217122 0 -0.025212774958485541 0.026430448204845264 0 -0.024927505568445526 0.026191815005333012 0 -0.027467170890435884 0.025084317451940358 0 -0.025439017518329689 0.026474494479217122 0 -0.025459305288719838 0.026286706159278389 0 -0.025375330578315154 0.026379438316225395 0 -0.025439017518329689 0.026474494479217122 0 -0.02555452045738044 0.02637616322818542 0 -0.025459305288719838 0.026286706159278389 0 -0.02555452045738044 0.02637616322818542 0 -0.025524570788486887 0.026218561229908354 0 -0.025459305288719838 0.026286706159278389 0 -0.02555452045738044 0.02637616322818542 0 -0.025549851827567142 0.026221759372463703 0 -0.025524570788486887 0.026218561229908354 0 -0.025524570788486887 0.026218561229908354 0 -0.025459305288719838 0.026286706159278389 0 -0.025466583506118811 0.02615402754831947 0 -0.025459305288719838 0.026286706159278389 0 -0.025466583506118811 0.02615402754831947 0 -0.025367704975096824 0.026202484828880317 0 -0.025459305288719838 0.026286706159278389 0 -0.025367704975096824 0.026202484828880317 0 -0.025375330578315154 0.026379438316225395 0 -0.032020342899694409 0.011169367128774131 0 -0.033190032038219297 0.012434345540748992 0 -0.030927497611726692 0.013131209217480842 0 -0.028006662111281486 0.011532180075376625 0 -0.032020342899694409 0.011169367128774131 0 -0.033021750590193376 0.010906862736466644 0 -0.032020342899694409 0.011169367128774131 0 -0.032744974808343673 0.010989746795779019 0 -0.033190032038219297 0.012434345540748992 0 -0.032696816857702593 0.014382431363881487 0 -0.029784444274172851 0.017552347803155805 0 -0.028006662111281486 0.011532180075376625 0 -0.032020342899694409 0.011169367128774131 0 -0.030927497611726692 0.013131209217480842 0 -0.02698058637009839 0.01828494308533897 0 -0.029784444274172851 0.017552347803155805 0 -0.02557738569475234 0.026155459846905437 0 -0.025524570788486887 0.026218561229908354 0 -0.025466583506118811 0.02615402754831947 0 -0.02557738569475234 0.026155459846905437 0 -0.025549851827567142 0.026221759372463703 0 -0.025524570788486887 0.026218561229908354 0 -0.035520652096888289 0.017683417647063007 0 -0.035992090433884905 0.018282632576046669 0 -0.035529746014915972 0.016993858883653842 0 -0.035787127322733099 0.018095381327694619 0 -0.034999977044860714 0.018264489020457273 0 -0.034999999785713116 0.016990132684815307 0 -0.03552472615047958 0.017943725631705251 0 -0.033701538322764547 0.01949946215508002 0 -0.035787127322733099 0.018095381327694619 0 -0.034999977044860714 0.018264489020457273 0 -0.035677191275664724 0.018656182267335567 0 -0.032744974808343673 0.010989746795779019 0 -0.033190032038219297 0.012434345540748992 0 -0.034344365954286304 0.010577902440494195 0 -0.033190032038219297 0.012434345540748992 0 -0.034344365954286304 0.010577902440494195 0 -0.035316973450192107 0.013767650362847788 0 -0.031983612988979448 0.018055293420992182 0 -0.035685385859083811 0.014704502796250209 0 -0.030469867347354296 0.021607997420479527 0 -0.027467170890435884 0.025084317451940358 0 -0.035520652096888289 0.017683417647063007 0 -0.035992090433884905 0.018282632576046669 0 -0.035741816513780868 0.01837838225870872 0 -0.030004388972996544 0.022209897744248776 0 -0.029649401664850795 0.02240555292236401 0 -0.030008419582766562 0.023385530834766289 0 -0.031284130159050745 0.021316277732962147 0 -0.030974621986508608 0.020616023884169801 0 -0.03210932266500436 0.020529614613372618 0 -0.030469867347354296 0.021607997420479527 0 -0.032732931317363288 0.020952879055668706 0 -0.030974621986508608 0.020616023884169801 0 -0.03210932266500436 0.020529614613372618 0 -0.032873786000473637 0.019575197427115561 0 -0.031983612988979448 0.018055293420992182 0 -0.030469867347354296 0.021607997420479527 0 -0.031983612988979448 0.018055293420992182 0 -0.033701538322764547 0.01949946215508002 0 -0.03210932266500436 0.020529614613372618 0 -0.033255133391345205 0.020563877683879801 0 -0.032873786000473637 0.019575197427115561 0 -0.031284130159050745 0.021316277732962147 0 -0.03210932266500436 0.020529614613372618 0 -0.033255133391345205 0.020563877683879801 0 -0.033701538322764547 0.01949946215508002 0 -0.032732931317363288 0.020952879055668706 0 -0.029784444274172851 0.017552347803155805 0 -0.030469867347354296 0.021607997420479527 0 -0.029967251129364426 0.018620469005518704 0 -0.031180623396670097 0.018186688996188433 0 -0.031109287352130682 0.018026677890814902 0 -0.029784444274172851 0.017552347803155805 0 -0.031983612988979448 0.018055293420992182 0 -0.032732931317363288 0.020952879055668706 0 -0.030976634603275207 0.023490080084893755 0 -0.034999999131911437 0.018264511632953229 0 -0.035627825442306277 0.01924778758223851 0 -0.034999993941304396 0.01948831084980435 0 -0.03281516327850071 0.021500726423015031 0 -0.032547213613546053 0.021648608572136237 0 -0.032766359804160643 0.022003836454234819 0 -0.034355421490486586 0.020465307622385295 0 -0.034942264816868525 0.019700334902791487 0 -0.033701538322764547 0.01949946215508002 0 -0.034942264816868525 0.019700334902791487 0 -0.0335480160280393 0.020639640586415653 0 -0.033424600549270801 0.020320632408117607 0 -0.034250430677212881 0.019868224097152377 0 -0.0335480160280393 0.020639640586415653 0 -0.034250430677212881 0.019868224097152377 0 -0.034511537048448795 0.020271588190926882 0 -0.032732931317363288 0.020952879055668706 0 -0.034355421490486586 0.020465307622385295 0 -0.036124246276178336 0.019023289164240533 0 -0.035608380727283513 0.019221668565028535 0 -0.035677191275664724 0.018656182267335567 0 -0.035787127322733099 0.018095381327694619 0 -0.036124246276178336 0.019023289164240533 0 -0.035677191275664724 0.018656182267335567 0 -0.035000142630691969 0.018264797551522268 0 -0.034942264816868525 0.019700334902791487 0 -0.034999977044860714 0.018264489020457273 0 -0.035608380727283513 0.019221668565028535 0 -0.035677191275664724 0.018656182267335567 0 -0.034942264816868525 0.019700334902791487 0 -0.035000422025545888 0.019488289097528564 0 -0.035626833302542744 0.019491272264673329 0 -0.034999114342429805 0.019488551129387771 0 -0.034923675829187956 0.019857403120922431 0 -0.035626833302542744 0.019491272264673329 0 -0.035508568912032586 0.019306811931357949 0 -0.034999114342429805 0.019488551129387771 0 -0.034355421490486586 0.020465307622385295 0 -0.035099118231630866 0.020522153995327547 0 -0.034923007380547447 0.019857660875156606 0 -0.035361310014224677 0.020471528491365701 0 -0.034999850896239228 0.021538654574595761 0 -0.034416787175981442 0.021133474681279033 0 -0.034744371608039525 0.020953005115584723 0 -0.034238732889974539 0.020862172572022827 0 -0.035099118231630866 0.020522153995327547 0 -0.033971951711387519 0.021723717865402819 0 -0.034923007380547447 0.019857660875156606 0 -0.035361310014224677 0.020471528491365701 0 -0.036077559923712151 0.020076974791195454 0 -0.034355421490486586 0.020465307622385295 0 -0.033971951711387519 0.021723717865402819 0 -0.035361310014224677 0.020471528491365701 0 -0.036077559923712151 0.020076974791195454 0 -0.035830335247512786 0.021090814130046553 0 -0.027975261186439945 0.025155589410163222 0 -0.028691847500961556 0.025300781538131489 0 -0.02875071900210666 0.02723623372626274 0 -0.030004388972996544 0.022209897744248776 0 -0.030008419582766562 0.023385530834766289 0 -0.030542169391347844 0.023494210415140264 0 -0.030976634603275207 0.023490080084893755 0 -0.027467170890435884 0.025084317451940358 0 -0.03281516327850071 0.021500726423015031 0 -0.033018336520549633 0.02205669123092336 0 -0.032766359804160643 0.022003836454234819 0 -0.030976634603275207 0.023490080084893755 0 -0.033971951711387519 0.021723717865402819 0 -0.036077559923712151 0.020076974791195454 0 -0.036762459625551129 0.021162292798147256 0 -0.035830335247512786 0.021090814130046553 0 -0.032943668759987242 0.022386616695894878 0 -0.032604434232972018 0.022318664105614242 0 -0.033136406588683526 0.02316182970782063 0 -0.033971951711387519 0.021723717865402819 0 -0.03301928929313503 0.023349152750030921 0 -0.030976634603275207 0.023490080084893755 0 -0.03301928929313503 0.023349152750030921 0 -0.036762459625551129 0.021162292798147256 0 -0.035917070816569675 0.022236265886648347 0 -0.037085992072550603 0.02210332632812374 0 -0.036762459625551129 0.021162292798147256 0 -0.035830335247512786 0.021090814130046553 0 -0.035917070816569675 0.022236265886648347 0 -0.030996947965967959 0.023416690397575556 0 -0.031283522830529639 0.024567464158109887 0 -0.031653376686656902 0.025150426578582342 0 -0.030976634603275207 0.023490080084893755 0 -0.030657956229009378 0.025916253736478628 0 -0.03301928929313503 0.023349152750030921 0 -0.033610080491636725 0.024392723844179964 0 -0.032000821432971401 0.023551691946128994 0 -0.032944445008301987 0.025021707330234948 0 -0.032948633995182504 0.026335619780060354 0 -0.03301928929313503 0.023349152750030921 0 -0.030657956229009378 0.025916253736478628 0 -0.035830335247512786 0.021090814130046553 0 -0.034999850896239228 0.021538654574595761 0 -0.035917070816569675 0.022236265886648347 0 -0.035361310014224677 0.020471528491365701 0 -0.035830335247512786 0.021090814130046553 0 -0.034999850896239228 0.021538654574595761 0 -0.035917070816569675 0.022236265886648347 0 -0.035974336299892391 0.023462054858707157 0 -0.034999925586661082 0.023177410224480711 0 -0.034999850896239228 0.021538654574595761 0 -0.035917070816569675 0.022236265886648347 0 -0.034999925586661082 0.023177410224480711 0 -0.035974336299892391 0.023462054858707157 0 -0.034999925586661082 0.023177410224480711 0 -0.035000024835050159 0.024815471758540573 0 -0.035974336299892391 0.023462054858707157 0 -0.037303151317480923 0.023842126002825866 0 -0.036435407701413521 0.024448508041279703 0 -0.035974336299892391 0.023462054858707157 0 -0.036813478457739315 0.022486139590254195 0 -0.037303151317480923 0.023842126002825866 0 -0.035917070816569675 0.022236265886648347 0 -0.035974336299892391 0.023462054858707157 0 -0.037085992072550603 0.02210332632812374 0 -0.03721220156749018 0.022365834552329777 0 -0.033610080491636725 0.024392723844179964 0 -0.028717168084092439 0.027461890229864436 0 -0.028804868252426882 0.027359146618323373 0 -0.029096866412529124 0.028428265998037428 0 -0.028733002627861177 0.027955514692133088 0 -0.02915175176147804 0.028574136785812557 0 -0.029004543058875523 0.028693126706179031 0 -0.033610080491636725 0.024392723844179964 0 -0.029651250745865911 0.027233019130035351 0 -0.024294658818673463 0.030029841904542155 0 -0.021591825520219043 0.032554063089117583 0 -0.024987525767969254 0.029646784833718066 0 -0.024815319719699469 0.029859127630494128 0 -0.025266638510261376 0.030349957478458381 0 -0.029651250745865911 0.027233019130035351 0 -0.027166033782615506 0.029554187181314071 0 -0.024815319719699469 0.029859127630494128 0 -0.025266638510261376 0.030349957478458381 0 -0.025189217482534637 0.03044375539552896 0 -0.029651250745865911 0.027233019130035351 0 -0.028991241930615991 0.028602818419006245 0 -0.033610080491636725 0.024392723844179964 0 -0.033087431981690403 0.026388121767783938 0 -0.018680979027732286 0.034043523979660671 0 -0.01857349129973811 0.033965367678862858 0 -0.018652314495774917 0.034155847540928423 0 -0.018765317678262269 0.034191900922754724 0 -0.018680979027732286 0.034043523979660671 0 -0.018652314495774917 0.034155847540928423 0 -0.018765317678262269 0.034191900922754724 0 -0.018652314495774917 0.034155847540928423 0 -0.018726288008885792 0.034262301357063402 0 -0.021591825520219043 0.032554063089117583 0 -0.024672127843266563 0.031467553445739947 0 -0.02915175176147804 0.028574136785812557 0 -0.029004543058875523 0.028693126706179031 0 -0.029563519830609862 0.029194005184064703 0 -0.018833794353961052 0.034248595440705756 0 -0.018765317678262269 0.034191900922754724 0 -0.018726288008885792 0.034262301357063402 0 -0.027166033782615506 0.029554187181314071 0 -0.024672127843266563 0.031467553445739947 0 -0.025266638510261376 0.030349957478458381 0 -0.025189217482534637 0.03044375539552896 0 -0.0255167758559188 0.03104670450100765 0 -0.028717168084092439 0.027461890229864436 0 -0.029096866412529124 0.028428265998037428 0 -0.029010767970601804 0.028718886440015887 0 -0.029096866412529124 0.028428265998037428 0 -0.029010767970601804 0.028718886440015887 0 -0.029302086248164917 0.029392688884339657 0 -0.029010767970601804 0.028718886440015887 0 -0.029302086248164917 0.029392688884339657 0 -0.029260339397775333 0.029786782037032569 0 -0.037303151317480923 0.023842126002825866 0 -0.036959416780228849 0.025010573124060173 0 -0.037750963748870853 0.025296795025501761 0 -0.037303151317480923 0.023842126002825866 0 -0.036959416780228849 0.025010573124060173 0 -0.036435407701413521 0.024448508041279703 0 -0.028991241930615991 0.028602818419006245 0 -0.029295255610328114 0.029304471876145471 0 -0.033087431981690403 0.026388121767783938 0 -0.033391538041228463 0.027503330919696443 0 -0.029302086248164917 0.029392688884339657 0 -0.029563519830609862 0.029194005184064703 0 -0.029260339397775333 0.029786782037032569 0 -0.029004543058875523 0.028693126706179031 0 -0.029302086248164917 0.029392688884339657 0 -0.029563519830609862 0.029194005184064703 0 -0.029562939704204674 0.030595296375032562 0 -0.029260339397775333 0.029786782037032569 0 -0.029621058739094465 0.030027876417058279 0 -0.029563519830609862 0.029194005184064703 0 -0.029260339397775333 0.029786782037032569 0 -0.029621058739094465 0.030027876417058279 0 -0.0300016164333602 0.030067781386498644 0 -0.029563519830609862 0.029194005184064703 0 -0.029621058739094465 0.030027876417058279 0 -0.037171509971416647 0.026033722690560149 0 -0.036959416780228849 0.025010573124060173 0 -0.037750963748870853 0.025296795025501761 0 -0.037171509971416647 0.026033722690560149 0 -0.036959416780228849 0.025010573124060173 0 -0.036122297413370454 0.025406468248096371 0 -0.037943322056169064 0.026296106759311363 0 -0.036124238343206598 0.025471450730689123 0 -0.036124238343206598 0.025471450730689123 0 -0.035000370996836325 0.024815988230636403 0 -0.035000087363247348 0.02658909784282951 0 -0.036310527955687205 0.025600684097310117 0 -0.034999961459125713 0.024815777428865284 0 -0.035974336299892391 0.023462054858707157 0 -0.035000024835050159 0.024815471758540573 0 -0.036435407701413521 0.024448508041279703 0 -0.036122297413370454 0.025406468248096371 0 -0.035000024835050159 0.024815471758540573 0 -0.036435407701413521 0.024448508041279703 0 -0.036959416780228849 0.025010573124060173 0 -0.036122297413370454 0.025406468248096371 0 -0.036435407701413521 0.024448508041279703 0 -0.035848085723030942 0.0078061932880204724 0 -0.035738450018017051 0.00855431180244841 0 -0.035503993419198264 0.0062308566603093756 0 -0.035292426721770936 0.0061215152565549588 0 -0.035366279447854081 0.0059512636464362969 0 -0.03500000874846166 0.0097831070342781126 0 -0.036963779918945477 0.011043475833430445 0 -0.034999946527184946 0.011269782968440528 0 -0.03500000874846166 0.0097831070342781126 0 -0.036182582947516917 0.0093074579857111948 0 -0.036963779918945477 0.011043475833430445 0 -0.035000224374581106 0.0097831101214885304 0 -0.035848085723030942 0.0078061932880204724 0 -0.035000104957820667 0.009783661067623942 0 -0.036283612859807676 0.0093560010402612276 0 -0.034999887533567177 0.007965402570917969 0 -0.035503993419198264 0.0062308566603093756 0 -0.035291595462971455 0.006307363656786553 0 -0.035292426721770936 0.0061215152565549588 0 -0.035848085723030942 0.0078061932880204724 0 -0.035334603435686486 0.0061184527991193323 0 -0.035181630620727683 0.0061900708079265093 0 -0.035291595462971455 0.006307363656786553 0 -0.035292426721770936 0.0061215152565549588 0 -0.035181630620727683 0.0061900708079265093 0 -0.035068866381007889 0.0061811805940911414 0 -0.035103259221880005 0.0062899167030536765 0 -0.032779547527187231 0.0047999333249204319 0 -0.032848294045309673 0.0045449992399324672 0 -0.032709215104689722 0.0046646649810374186 0 -0.035181630620727683 0.0061900708079265093 0 -0.035068866381007889 0.0061811805940911414 0 -0.035127951410818807 0.0059563410537155333 0 -0.032848294045309673 0.0045449992399324672 0 -0.032709215104689722 0.0046646649810374186 0 -0.032612353136679019 0.0045551257834786701 0 -0.033950039923029418 0.0055697983262169527 0 -0.03360499107806484 0.0048295731201857582 0 -0.035181630620727683 0.0061900708079265093 0 -0.035292426721770936 0.0061215152565549588 0 -0.035127951410818807 0.0059563410537155333 0 -0.035292426721770936 0.0061215152565549588 0 -0.035127951410818807 0.0059563410537155333 0 -0.035366279447854081 0.0059512636464362969 0 -0.03360499107806484 0.0048295731201857582 0 -0.035738450018017051 0.00855431180244841 0 -0.034174980332641845 0.0045813826443375323 0 -0.033473036820706854 0.004643271322063775 0 -0.034284621636586195 0.0048220504802350241 0 -0.03342595517684456 0.0048423199637613861 0 -0.033473036820706854 0.004643271322063775 0 -0.034284621636586195 0.0048220504802350241 0 -0.034174980332641845 0.0045813826443375323 0 -0.033473036820706854 0.004643271322063775 0 -0.033266493106823225 0.0042733143510709183 0 -0.03500266548559889 0.0079252589685298008 0 -0.03362502252863412 0.0048516183167736171 0 -0.03360499107806484 0.0048295731201857582 0 -0.032605300200068917 0.0046359597705921728 0 -0.033125923999173273 0.0045634917819411839 0 -0.033421959746705823 0.0047854744433350766 0 -0.032775395506002697 0.0047237858389044098 0 -0.033125923999173273 0.0045634917819411839 0 -0.033421959746705823 0.0047854744433350766 0 -0.033473036820706854 0.004643271322063775 0 -0.03360499107806484 0.0048295731201857582 0 -0.033581641336491351 0.0047645705341848614 0 -0.033125923999173273 0.0045634917819411839 0 -0.033473036820706854 0.004643271322063775 0 -0.033266493106823225 0.0042733143510709183 0 -0.033125923999173273 0.0045634917819411839 0 -0.033266493106823225 0.0042733143510709183 0 -0.032827199415046887 0.0044151790463723192 0 -0.034184218961983238 0.0059712448803603347 0 -0.035040643639489701 0.0054278482334339422 0 -0.033502351796856865 0.0048322837861370085 0 -0.033777700128024446 0.018410332006930312 0 -0.029986928978644051 0.015066972075061039 0 -0.032812799155024178 0.025112396581515203 0 -0.035037404313963058 0.025581685866147053 0 -0.033682588978224973 0.023338839018918967 0 -0.035532348783653286 0.0065206809590684662 0 -0.034184218961983238 0.0059712448803603347 0 -0.035040643639489701 0.0054278482334339422 0 -0.035815047215072199 0.012829946080224756 0 -0.036570455239537704 0.014583575752129851 0 -0.03515550312177089 0.014117290290052579 0 -0.03500266548559889 0.0079252589685298008 0 -0.033777700128024446 0.018410332006930312 0 -0.033777700128024446 0.018410332006930312 0 -0.035513944253283948 0.019892929753660263 0 -0.035037404313963058 0.025581685866147053 0 -0.036946992413216653 0.026068973657780686 0 -0.035445144308182616 0.023923094845015945 0 -0.03515550312177089 0.014117290290052579 0 -0.034605244185464325 0.013379744298475485 0 -0.033755200816406442 0.01365998784451404 0 -0.035513944253283948 0.019892929753660263 0 -0.034948811616716535 0.016227405905898173 0 -0.034995506376618545 0.012540642209501286 0 -0.035566115665685731 0.012281929947936709 0 -0.032966218456250057 0.012552771403774683 0 -0.035815047215072199 0.012829946080224756 0 -0.03515550312177089 0.014117290290052579 0 -0.034605244185464325 0.013379744298475485 0 -0.035815047215072199 0.012829946080224756 0 -0.034605244185464325 0.013379744298475485 0 -0.034995506376618545 0.012540642209501286 0 -0.03579226441999498 0.01277719236333282 0 -0.034995506376618545 0.012540642209501286 0 -0.035566115665685731 0.012281929947936709 0 -0.03500266548559889 0.0079252589685298008 0 -0.035979298265046367 0.010865492718791647 0 -0.03500266548559889 0.0079252589685298008 0 -0.035738450018017051 0.00855431180244841 0 -0.034605244185464325 0.013379744298475485 0 -0.034995506376618545 0.012540642209501286 0 -0.032966218456250057 0.012552771403774683 0 -0.034605244185464325 0.013379744298475485 0 -0.032966218456250057 0.012552771403774683 0 -0.033755200816406442 0.01365998784451404 0 -0.035738450018017051 0.00855431180244841 0 -0.033978068532728674 0.012327111847307278 0 -0.034999245841049645 0.0119370216463881 0 -0.034948811616716535 0.016227405905898173 0 -0.034999995241391774 0.011269903353036214 0 -0.03499999973005629 0.011933910448633891 0 -0.035613672232383618 0.012143242459128832 0 -0.033978068532728674 0.012327111847307278 0 -0.034948811616716535 0.016227405905898173 0 -0.034948811616716535 0.016227405905898173 0 -0.035712699600617244 0.019478260576083532 0 -0.034999995960577082 0.01193424701207195 0 -0.035419579515379454 0.012334473958893618 0 -0.035227862078946966 0.013308723717758935 0 -0.035419579515379454 0.012334473958893618 0 -0.035227862078946966 0.013308723717758935 0 -0.035485498582465878 0.014065613687495619 0 -0.034999995960577082 0.01193424701207195 0 -0.035227862078946966 0.013308723717758935 0 -0.034998891726482559 0.013689965707193552 0 -0.035227862078946966 0.013308723717758935 0 -0.035160626782480782 0.014033461258212775 0 -0.034998891726482559 0.013689965707193552 0 -0.035160626782480782 0.014033461258212775 0 -0.034998891726482559 0.013689965707193552 0 -0.034982425667155662 0.015018931397710631 0 -0.035227862078946966 0.013308723717758935 0 -0.035160626782480782 0.014033461258212775 0 -0.035485498582465878 0.014065613687495619 0 -0.035712699600617244 0.019478260576083532 0 -0.0338570273221604 0.018129928816147552 0 -0.035445144308182616 0.023923094845015945 0 -0.033872184625951658 0.021174148418855999 0 -0.033682588978224973 0.023338839018918967 0 -0.035160626782480782 0.014033461258212775 0 -0.035485498582465878 0.014065613687495619 0 -0.034982425667155662 0.015018931397710631 0 -0.035037404313963058 0.025581685866147053 0 -0.035445144308182616 0.023923094845015945 0 -0.033682588978224973 0.023338839018918967 0 -0.035485498582465878 0.014065613687495619 0 -0.034982425667155662 0.015018931397710631 0 -0.034397572632066158 0.015708050405839405 0 -0.034982425667155662 0.015018931397710631 0 -0.034506590615603398 0.015430558143583489 0 -0.034397572632066158 0.015708050405839405 0 -0.034506590615603398 0.015430558143583489 0 -0.033568846272711811 0.015823863037593078 0 -0.034397572632066158 0.015708050405839405 0 -0.034998891726482559 0.013689965707193552 0 -0.034982425667155662 0.015018931397710631 0 -0.035000652376552525 0.01544128710034383 0 -0.034982425667155662 0.015018931397710631 0 -0.035000652376552525 0.01544128710034383 0 -0.034506590615603398 0.015430558143583489 0 -0.035000654876957686 0.015444074129968106 0 -0.034999299839908633 0.015714405181699118 0 -0.035529746014915972 0.016993858883653842 0 -0.035000652376552525 0.01544128710034383 0 -0.034506590615603398 0.015430558143583489 0 -0.035316973450192107 0.013767650362847788 0 -0.035000122919387831 0.015443355279963229 0 -0.035685385859083811 0.014704502796250209 0 -0.035000085391957342 0.015716072443260239 0 -0.03533421046365913 0.016832871787757844 0 -0.034506590615603398 0.015430558143583489 0 -0.033508157017713779 0.01461059135361171 0 -0.033568846272711811 0.015823863037593078 0 -0.034506590615603398 0.015430558143583489 0 -0.035316973450192107 0.013767650362847788 0 -0.033508157017713779 0.01461059135361171 0 -0.033190032038219297 0.012434345540748992 0 -0.035316973450192107 0.013767650362847788 0 -0.033508157017713779 0.01461059135361171 0 -0.034999299839908633 0.015714405181699118 0 -0.035529746014915972 0.016993858883653842 0 -0.035258572967845306 0.016763040031763786 0 -0.035520652096888289 0.017683417647063007 0 -0.035529746014915972 0.016993858883653842 0 -0.035258572967845306 0.016763040031763786 0 -0.034999997795787087 0.015715734940578319 0 -0.034999999785713116 0.016990132684815307 0 -0.035401737196889521 0.016904375203745287 0 -0.035787127322733099 0.018095381327694619 0 -0.034999999785713116 0.016990132684815307 0 -0.035401737196889521 0.016904375203745287 0 -0.03552472615047958 0.017943725631705251 0 -0.03533421046365913 0.016832871787757844 0 -0.028006662111281486 0.011532180075376625 0 -0.030927497611726692 0.013131209217480842 0 -0.027889216898809913 0.015294730163125209 0 -0.030927497611726692 0.013131209217480842 0 -0.031634016229980792 0.016710859109011107 0 -0.027889216898809913 0.015294730163125209 0 -0.030927497611726692 0.013131209217480842 0 -0.033508157017713779 0.01461059135361171 0 -0.031634016229980792 0.016710859109011107 0 -0.033190032038219297 0.012434345540748992 0 -0.030927497611726692 0.013131209217480842 0 -0.033508157017713779 0.01461059135361171 0 -0.033568846272711811 0.015823863037593078 0 -0.031634016229980792 0.016710859109011107 0 -0.034397572632066158 0.015708050405839405 0 -0.033508157017713779 0.01461059135361171 0 -0.033568846272711811 0.015823863037593078 0 -0.031634016229980792 0.016710859109011107 0 -0.031634016229980792 0.016710859109011107 0 -0.027147382310987265 0.018706901960854824 0 -0.027889216898809913 0.015294730163125209 0 -0.031634016229980792 0.016710859109011107 0 -0.030378225403917561 0.021357443149282038 0 -0.027147382310987265 0.018706901960854824 0 -0.031634016229980792 0.016710859109011107 0 -0.030378225403917561 0.021357443149282038 0 -0.033872184625951658 0.021174148418855999 0 -0.031888178899890922 0.016630088777030757 0 -0.0338570273221604 0.018129928816147552 0 -0.030378225403917561 0.021357443149282038 0 -0.033872184625951658 0.021174148418855999 0 -0.033682588978224973 0.023338839018918967 0 -0.032812799155024178 0.025112396581515203 0 -0.030378225403917561 0.021357443149282038 0 -0.033682588978224973 0.023338839018918967 0 -0.033777700128024446 0.018410332006930312 0 -0.030831317620910292 0.024721054301776072 0 -0.033294361473560984 0.027784662165842043 0 -0.030378225403917561 0.021357443149282038 0 -0.026423464530077163 0.025823775086109977 0 -0.030378225403917561 0.021357443149282038 0 -0.026423464530077163 0.025823775086109977 0 -0.024107851480883867 0.02200621979523246 0 -0.029986928978644051 0.015066972075061039 0 -0.026295189740162827 0.013897567844219836 0 -0.033502351796856865 0.0048322837861370085 0 -0.032240660622703081 0.0042294625586104398 0 -0.03294418394876996 0.0053135578275652498 0 -0.032240660622703081 0.0042294625586104398 0 -0.031986915010356741 0.0046102973845199569 0 -0.03294418394876996 0.0053135578275652498 0 -0.026423464530077163 0.025823775086109977 0 -0.020131657775500047 0.023551656943287994 0 -0.024107851480883867 0.02200621979523246 0 -0.020131657775500047 0.023551656943287994 0 -0.019923032502830885 0.021259304627617479 0 -0.024107851480883867 0.02200621979523246 0 -0.019923032502830885 0.021259304627617479 0 -0.024107851480883867 0.02200621979523246 0 -0.023517687969703591 0.019526472085195201 0 -0.030378225403917561 0.021357443149282038 0 -0.024107851480883867 0.02200621979523246 0 -0.027147382310987265 0.018706901960854824 0 -0.024107851480883867 0.02200621979523246 0 -0.027147382310987265 0.018706901960854824 0 -0.023517687969703591 0.019526472085195201 0 -0.027147382310987265 0.018706901960854824 0 -0.025005360277075665 0.017392533407021252 0 -0.027889216898809913 0.015294730163125209 0 -0.025005360277075665 0.017392533407021252 0 -0.027889216898809913 0.015294730163125209 0 -0.024317692919118752 0.014975186813734968 0 -0.027147382310987265 0.018706901960854824 0 -0.025005360277075665 0.017392533407021252 0 -0.023517687969703591 0.019526472085195201 0 -0.019923032502830885 0.021259304627617479 0 -0.021752288592067629 0.017392147345926673 0 -0.019112503257958498 0.013973847527492696 0 -0.025005360277075665 0.017392533407021252 0 -0.023517687969703591 0.019526472085195201 0 -0.021752288592067629 0.017392147345926673 0 -0.019923032502830885 0.021259304627617479 0 -0.023517687969703591 0.019526472085195201 0 -0.021752288592067629 0.017392147345926673 0 -0.025005360277075665 0.017392533407021252 0 -0.021752288592067629 0.017392147345926673 0 -0.024317692919118752 0.014975186813734968 0 -0.021752288592067629 0.017392147345926673 0 -0.021368615389518519 0.014707126477899105 0 -0.024317692919118752 0.014975186813734968 0 -0.021368615389518519 0.014707126477899105 0 -0.020916736425413567 0.013446167474577527 0 -0.024317692919118752 0.014975186813734968 0 -0.021752288592067629 0.017392147345926673 0 -0.021368615389518519 0.014707126477899105 0 -0.019112503257958498 0.013973847527492696 0 -0.021368615389518519 0.014707126477899105 0 -0.020916736425413567 0.013446167474577527 0 -0.019112503257958498 0.013973847527492696 0 -0.021866032075078194 0.02469589468086314 0 -0.019236683103975236 0.024257701307054409 0 -0.02698058637009839 0.01828494308533897 0 -0.021866032075078194 0.02469589468086314 0 -0.028006662111281486 0.011532180075376625 0 -0.027889216898809913 0.015294730163125209 0 -0.024317692919118752 0.014975186813734968 0 -0.028006662111281486 0.011532180075376625 0 -0.020916736425413567 0.013446167474577527 0 -0.024317692919118752 0.014975186813734968 0 -0.01898779188600426 0.023880244789475862 0 -0.02043476120813292 0.023561273284145919 0 -0.01997150196138044 0.026009431547604933 0 -0.01776928465402618 0.027224711214432394 0 -0.01898779188600426 0.023880244789475862 0 -0.01997150196138044 0.026009431547604933 0 -0.019236683103975236 0.024257701307054409 0 -0.01801082610331137 0.024118374113144429 0 -0.01776928465402618 0.027224711214432394 0 -0.014758974488641505 0.025794550715375585 0 -0.01898779188600426 0.023880244789475862 0 -0.018818806034346013 0.023186664579206987 0 -0.019229398174987769 0.022478534698785385 0 -0.01898779188600426 0.023880244789475862 0 -0.019585380275370403 0.018897305353253596 0 -0.019236683103975236 0.024257701307054409 0 -0.019923032502830885 0.021259304627617479 0 -0.018818806034346013 0.023186664579206987 0 -0.019229398174987769 0.022478534698785385 0 -0.019923032502830885 0.021259304627617479 0 -0.019229398174987769 0.022478534698785385 0 -0.019383841902422896 0.022046059026325383 0 -0.019229398174987769 0.022478534698785385 0 -0.019341221991528934 0.022549661637585136 0 -0.019383841902422896 0.022046059026325383 0 -0.019229398174987769 0.022478534698785385 0 -0.019341221991528934 0.022549661637585136 0 -0.01898779188600426 0.023880244789475862 0 -0.019341221991528934 0.022549661637585136 0 -0.01898779188600426 0.023880244789475862 0 -0.02043476120813292 0.023561273284145919 0 -0.019341221991528934 0.022549661637585136 0 -0.019388761578595815 0.021700381656449989 0 -0.02043476120813292 0.023561273284145919 0 -0.019341221991528934 0.022549661637585136 0 -0.019388761578595815 0.021700381656449989 0 -0.019383841902422896 0.022046059026325383 0 -0.020131657775500047 0.023551656943287994 0 -0.019923032502830885 0.021259304627617479 0 -0.019383841902422896 0.022046059026325383 0 -0.020131657775500047 0.023551656943287994 0 -0.019388761578595815 0.021700381656449989 0 -0.019383841902422896 0.022046059026325383 0 -0.026295189740162827 0.013897567844219836 0 -0.025526896323973695 0.012742551730983273 0 -0.032240660622703081 0.0042294625586104398 0 -0.031535032666320489 0.0036770965562289508 0 -0.031793760683296125 0.0041111339742171561 0 -0.032240660622703081 0.0042294625586104398 0 -0.031986915010356741 0.0046102973845199569 0 -0.031793760683296125 0.0041111339742171561 0 -0.032045155198346761 0.0042952631251654437 0 -0.031531559699541724 0.0039765581554199727 0 -0.031986915010356741 0.0046102973845199569 0 -0.031470329479485915 0.0039150750973899265 0 -0.031793760683296125 0.0041111339742171561 0 -0.032072845057565899 0.0039882859795258851 0 -0.031470329479485915 0.0039150750973899265 0 -0.031712343765763686 0.0041795656322287629 0 -0.031535032666320489 0.0036770965562289508 0 -0.031470329479485915 0.0039150750973899265 0 -0.031793760683296125 0.0041111339742171561 0 -0.031712343765763686 0.0041795656322287629 0 -0.031643059545855792 0.0045120152131577235 0 -0.031305695316338637 0.0042702533269337551 0 -0.031470329479485915 0.0039150750973899265 0 -0.031712343765763686 0.0041795656322287629 0 -0.031456532505393792 0.0040836677598939993 0 -0.031643059545855792 0.0045120152131577235 0 -0.032079740447692573 0.0043719635682380499 0 -0.031961514588637101 0.00472091149749739 0 -0.031712343765763686 0.0041795656322287629 0 -0.031643059545855792 0.0045120152131577235 0 -0.032079740447692573 0.0043719635682380499 0 -0.032079740447692573 0.0043719635682380499 0 -0.032303318088030636 0.0046250607190369162 0 -0.031961514588637101 0.00472091149749739 0 -0.032072845057565899 0.0039882859795258851 0 -0.031712343765763686 0.0041795656322287629 0 -0.032079740447692573 0.0043719635682380499 0 -0.032072845057565899 0.0039882859795258851 0 -0.032079740447692573 0.0043719635682380499 0 -0.032294380877283653 0.004217969828533427 0 -0.032072845057565899 0.0039882859795258851 0 -0.032294380877283653 0.004217969828533427 0 -0.032605658193282351 0.0041096727403736244 0 -0.032045155198346761 0.0042952631251654437 0 -0.032831723459994855 0.0047481938290650661 0 -0.032294380877283653 0.004217969828533427 0 -0.032605658193282351 0.0041096727403736244 0 -0.032430752723038553 0.0043960394130604201 0 -0.03362502252863412 0.0048516183167736171 0 -0.032831723459994855 0.0047481938290650661 0 -0.034184218961983238 0.0059712448803603347 0 -0.033502351796856865 0.0048322837861370085 0 -0.03294418394876996 0.0053135578275652498 0 -0.033266493106823225 0.0042733143510709183 0 -0.032605658193282351 0.0041096727403736244 0 -0.032827199415046887 0.0044151790463723192 0 -0.032605658193282351 0.0041096727403736244 0 -0.032827199415046887 0.0044151790463723192 0 -0.032430752723038553 0.0043960394130604201 0 -0.032827199415046887 0.0044151790463723192 0 -0.032430752723038553 0.0043960394130604201 0 -0.032775395506002697 0.0047237858389044098 0 -0.033125923999173273 0.0045634917819411839 0 -0.032827199415046887 0.0044151790463723192 0 -0.032775395506002697 0.0047237858389044098 0 -0.032079740447692573 0.0043719635682380499 0 -0.032294380877283653 0.004217969828533427 0 -0.032430752723038553 0.0043960394130604201 0 -0.032430752723038553 0.0043960394130604201 0 -0.032303318088030636 0.0046250607190369162 0 -0.032775395506002697 0.0047237858389044098 0 -0.032079740447692573 0.0043719635682380499 0 -0.032430752723038553 0.0043960394130604201 0 -0.032303318088030636 0.0046250607190369162 0 -0.032303318088030636 0.0046250607190369162 0 -0.032397948131194218 0.0047553726714761029 0 -0.032178304091805297 0.0048415473250865808 0 -0.032303318088030636 0.0046250607190369162 0 -0.032612353136679019 0.0045551257834786701 0 -0.032397948131194218 0.0047553726714761029 0 -0.032383724628658593 0.0046312427566554057 0 -0.032605300200068917 0.0046359597705921728 0 -0.032709215104689722 0.0046646649810374186 0 -0.032612353136679019 0.0045551257834786701 0 -0.032614980608470644 0.0047601023251879152 0 -0.032612353136679019 0.0045551257834786701 0 -0.032614980608470644 0.0047601023251879152 0 -0.032397948131194218 0.0047553726714761029 0 -0.032779547527187231 0.0047999333249204319 0 -0.032614980608470644 0.0047601023251879152 0 -0.032685226063528729 0.0048590613165871675 0 -0.032779547527187231 0.0047999333249204319 0 -0.032709215104689722 0.0046646649810374186 0 -0.032614980608470644 0.0047601023251879152 0 -0.032614980608470644 0.0047601023251879152 0 -0.032470730483458644 0.004853264862217075 0 -0.032685226063528729 0.0048590613165871675 0 -0.032397948131194218 0.0047553726714761029 0 -0.032470730483458644 0.004853264862217075 0 -0.032178304091805297 0.0048415473250865808 0 -0.032614980608470644 0.0047601023251879152 0 -0.032397948131194218 0.0047553726714761029 0 -0.032470730483458644 0.004853264862217075 0 -0.032178304091805297 0.0048415473250865808 0 -0.031954762991055513 0.0049603195939511265 0 -0.031961514588637101 0.00472091149749739 0 -0.031954762991055513 0.0049603195939511265 0 -0.031961514588637101 0.00472091149749739 0 -0.031586317767968698 0.0048467536895879749 0 -0.031643059545855792 0.0045120152131577235 0 -0.031961514588637101 0.00472091149749739 0 -0.031586317767968698 0.0048467536895879749 0 -0.032303318088030636 0.0046250607190369162 0 -0.032178304091805297 0.0048415473250865808 0 -0.031961514588637101 0.00472091149749739 0 -0.031034105834670735 0.0050286121158650355 0 -0.030425747477285721 0.0048375724950162832 0 -0.031155968820768317 0.0046580765838091604 0 -0.031034105834670735 0.0050286121158650355 0 -0.031586317767968698 0.0048467536895879749 0 -0.031155968820768317 0.0046580765838091604 0 -0.031954762991055513 0.0049603195939511265 0 -0.031586317767968698 0.0048467536895879749 0 -0.031524287317451008 0.0050708706996228214 0 -0.031034105834670735 0.0050286121158650355 0 -0.031586317767968698 0.0048467536895879749 0 -0.031524287317451008 0.0050708706996228214 0 -0.031034105834670735 0.0050286121158650355 0 -0.031524287317451008 0.0050708706996228214 0 -0.031125445417512929 0.0052722052221654018 0 -0.031034105834670735 0.0050286121158650355 0 -0.030555794513729959 0.0052974103751248286 0 -0.031125445417512929 0.0052722052221654018 0 -0.031034105834670735 0.0050286121158650355 0 -0.030555794513729959 0.0052974103751248286 0 -0.030498550094509344 0.0051139907957561499 0 -0.030555794513729959 0.0052974103751248286 0 -0.029813515949277218 0.0052969577635405525 0 -0.029749611377853421 0.0056362252322812428 0 -0.030555794513729959 0.0052974103751248286 0 -0.029813515949277218 0.0052969577635405525 0 -0.030498550094509344 0.0051139907957561499 0 -0.029813515949277218 0.0052969577635405525 0 -0.030425747477285721 0.0048375724950162832 0 -0.029671422429679989 0.004884530790435407 0 -0.029813515949277218 0.0052969577635405525 0 -0.030498550094509344 0.0051139907957561499 0 -0.030425747477285721 0.0048375724950162832 0 -0.031034105834670735 0.0050286121158650355 0 -0.030498550094509344 0.0051139907957561499 0 -0.030425747477285721 0.0048375724950162832 0 -0.030425747477285721 0.0048375724950162832 0 -0.030085756860452683 0.0043736424682979287 0 -0.030717820136654087 0.0043117621071551643 0 -0.030425747477285721 0.0048375724950162832 0 -0.029671422429679989 0.004884530790435407 0 -0.030085756860452683 0.0043736424682979287 0 -0.030085756860452683 0.0043736424682979287 0 -0.0298398458222188 0.0036995613255225964 0 -0.029228213892619471 0.0044564100896902457 0 -0.029671422429679989 0.004884530790435407 0 -0.030085756860452683 0.0043736424682979287 0 -0.029228213892619471 0.0044564100896902457 0 -0.030085756860452683 0.0043736424682979287 0 -0.030717820136654087 0.0043117621071551643 0 -0.030541879022585837 0.0038844053852293194 0 -0.030717820136654087 0.0043117621071551643 0 -0.031305695316338637 0.0042702533269337551 0 -0.031118619005706737 0.0038631974165048944 0 -0.030717820136654087 0.0043117621071551643 0 -0.031155968820768317 0.0046580765838091604 0 -0.031305695316338637 0.0042702533269337551 0 -0.030425747477285721 0.0048375724950162832 0 -0.030717820136654087 0.0043117621071551643 0 -0.031155968820768317 0.0046580765838091604 0 -0.031643059545855792 0.0045120152131577235 0 -0.031155968820768317 0.0046580765838091604 0 -0.031305695316338637 0.0042702533269337551 0 -0.031643059545855792 0.0045120152131577235 0 -0.031586317767968698 0.0048467536895879749 0 -0.031155968820768317 0.0046580765838091604 0 -0.031712343765763686 0.0041795656322287629 0 -0.031305695316338637 0.0042702533269337551 0 -0.031456532505393792 0.0040836677598939993 0 -0.031305695316338637 0.0042702533269337551 0 -0.031456532505393792 0.0040836677598939993 0 -0.031118619005706737 0.0038631974165048944 0 -0.031470329479485915 0.0039150750973899265 0 -0.031456532505393792 0.0040836677598939993 0 -0.031118619005706737 0.0038631974165048944 0 -0.031535032666320489 0.0036770965562289508 0 -0.031470329479485915 0.0039150750973899265 0 -0.031118619005706737 0.0038631974165048944 0 -0.031118619005706737 0.0038631974165048944 0 -0.030881341361713836 0.0031344018586838512 0 -0.030541879022585837 0.0038844053852293194 0 -0.030717820136654087 0.0043117621071551643 0 -0.031118619005706737 0.0038631974165048944 0 -0.030541879022585837 0.0038844053852293194 0 -0.025526896323973695 0.012742551730983273 0 -0.026937516943570883 0.012601960788342812 0 -0.019388761578595815 0.021700381656449989 0 -0.022943004440078341 0.022007755614199771 0 -0.02043476120813292 0.023561273284145919 0 -0.031535032666320489 0.0036770965562289508 0 -0.031118619005706737 0.0038631974165048944 0 -0.030881341361713836 0.0031344018586838512 0 -0.022943004440078341 0.022007755614199771 0 -0.02043476120813292 0.023561273284145919 0 -0.022583765695402595 0.026578797949966291 0 -0.022943004440078341 0.022007755614199771 0 -0.022583765695402595 0.026578797949966291 0 -0.024697747211695688 0.024710764284495177 0 -0.025768246903152527 0.027476309163276043 0 -0.022583765695402595 0.026578797949966291 0 -0.024697747211695688 0.024710764284495177 0 -0.02043476120813292 0.023561273284145919 0 -0.022583765695402595 0.026578797949966291 0 -0.01997150196138044 0.026009431547604933 0 -0.019761181596912168 0.029324080878734723 0 -0.022583765695402595 0.026578797949966291 0 -0.01997150196138044 0.026009431547604933 0 -0.025768246903152527 0.027476309163276043 0 -0.028952640075588541 0.026351334134282645 0 -0.027231346851610678 0.023299745946745141 0 -0.025768246903152527 0.027476309163276043 0 -0.024697747211695688 0.024710764284495177 0 -0.027231346851610678 0.023299745946745141 0 -0.026937516943570883 0.012601960788342812 0 -0.028332275302801482 0.012918332461870161 0 -0.022943004440078341 0.022007755614199771 0 -0.024697747211695688 0.024710764284495177 0 -0.027231346851610678 0.023299745946745141 0 -0.028952640075588541 0.026351334134282645 0 -0.027231346851610678 0.023299745946745141 0 -0.031158623999272016 0.024667136257861565 0 -0.028332275302801482 0.012918332461870161 0 -0.030417551319122962 0.013178896107965462 0 -0.029788469794002143 0.0025434986794825071 0 -0.0298398458222188 0.0036995613255225964 0 -0.028968306610508636 0.0036294683014480755 0 -0.030881341361713836 0.0031344018586838512 0 -0.029788469794002143 0.0025434986794825071 0 -0.0298398458222188 0.0036995613255225964 0 -0.030881341361713836 0.0031344018586838512 0 -0.030541879022585837 0.0038844053852293194 0 -0.0298398458222188 0.0036995613255225964 0 -0.030085756860452683 0.0043736424682979287 0 -0.030541879022585837 0.0038844053852293194 0 -0.0298398458222188 0.0036995613255225964 0 -0.0298398458222188 0.0036995613255225964 0 -0.028968306610508636 0.0036294683014480755 0 -0.029228213892619471 0.0044564100896902457 0 -0.028968306610508636 0.0036294683014480755 0 -0.028091425348984237 0.0036980960809615574 0 -0.028364302108324791 0.0044324570983947584 0 -0.027251375292941839 0.0042080763606387444 0 -0.028091425348984237 0.0036980960809615574 0 -0.028364302108324791 0.0044324570983947584 0 -0.027251375292941839 0.0042080763606387444 0 -0.028091425348984237 0.0036980960809615574 0 -0.027433625529193737 0.0032585569535211931 0 -0.027433625529193737 0.0032585569535211931 0 -0.028361648225556362 0.0029180118962426854 0 -0.027245536418750781 0.0025104790947900828 0 -0.028091425348984237 0.0036980960809615574 0 -0.027433625529193737 0.0032585569535211931 0 -0.028361648225556362 0.0029180118962426854 0 -0.027433625529193737 0.0032585569535211931 0 -0.027245536418750781 0.0025104790947900828 0 -0.026716777565895546 0.0028794889437146211 0 -0.029788469794002143 0.0025434986794825071 0 -0.028968306610508636 0.0036294683014480755 0 -0.028361648225556362 0.0029180118962426854 0 -0.028968306610508636 0.0036294683014480755 0 -0.028091425348984237 0.0036980960809615574 0 -0.028361648225556362 0.0029180118962426854 0 -0.029788469794002143 0.0025434986794825071 0 -0.028361648225556362 0.0029180118962426854 0 -0.028259687188538631 0.0019185188487268292 0 -0.028361648225556362 0.0029180118962426854 0 -0.028259687188538631 0.0019185188487268292 0 -0.027245536418750781 0.0025104790947900828 0 -0.028259687188538631 0.0019185188487268292 0 -0.027245536418750781 0.0025104790947900828 0 -0.026798717139287317 0.0015933603339628277 0 -0.030417551319122962 0.013178896107965462 0 -0.027271790732099038 0.015153366966192858 0 -0.031724291074967971 0.027243643308670861 0 -0.031158623999272016 0.024667136257861565 0 -0.034643628977445835 0.025726385176167297 0 -0.027142033462203199 0.028698958299744632 0 -0.027271790732099038 0.015153366966192858 0 -0.031724291074967971 0.027243643308670861 0 -0.028952640075588541 0.026351334134282645 0 -0.031158623999272016 0.024667136257861565 0 -0.021571872292133247 0.017287261578136211 0 -0.022635601501490854 0.01710811674006554 0 -0.02306843802609752 0.017745899771284997 0 -0.021079778833493261 0.01391222600302861 0 -0.025698600116336342 0.013368110269384651 0 -0.026038108625400635 0.0024084422671323542 0 -0.025974630011092171 0.002381955974473474 0 -0.02570389111825408 0.0024588839424671085 0 -0.025631974964267307 0.0024623831660046456 0 -0.026038108625400635 0.0024084422671323542 0 -0.02570389111825408 0.0024588839424671085 0 -0.026038108625400635 0.0024084422671323542 0 -0.026044159551301217 0.002420314034602153 0 -0.025974630011092171 0.002381955974473474 0 -0.026575879506233129 0.0086568841853811775 0 -0.026828176034811437 0.0023906814645484088 0 -0.019524991008536621 0.028481818950405947 0 -0.025698600116336342 0.013368110269384651 0 -0.023160240847375644 0.027816759173425534 0 -0.023768250894282032 0.027099258692417246 0 -0.023649225109941122 0.027064164356600744 0 -0.025698600116336342 0.013368110269384651 0 -0.027271790732099038 0.015153366966192858 0 -0.025698600116336342 0.013368110269384651 0 -0.026575879506233129 0.0086568841853811775 0 -0.023675392443047047 0.01396248041236468 0 -0.027513870102440247 0.015146775057776944 0 -0.025092257313408733 0.016210965309908495 0 -0.027271790732099038 0.015153366966192858 0 -0.026575879506233129 0.0086568841853811775 0 -0.027245536418750781 0.0025104790947900828 0 -0.026798717139287317 0.0015933603339628277 0 -0.026695266829908776 0.0016431116023153669 0 -0.027245536418750781 0.0025104790947900828 0 -0.02640930983708396 0.0018779621318604253 0 -0.026555508338611814 0.0023188699583342933 0 -0.026505528140069241 0.0001180153631345342 0 -0.026575879506233129 0.0086568841853811775 0 -0.02640930983708396 0.0018779621318604253 0 -0.026555508338611814 0.0023188699583342933 0 -0.025974630011092171 0.002381955974473474 0 -0.026555508338611814 0.0023188699583342933 0 -0.025974630011092171 0.002381955974473474 0 -0.02572593963923004 0.0024635633251064142 0 -0.026291830624258272 0.0024430704358955587 0 -0.025205850298969653 0.00074674032906137946 0 -0.026555508338611814 0.0023188699583342933 0 -0.024832895908866857 0.0020631025405615558 0 -0.023782319962176696 0.00044313107939354229 0 -0.026555508338611814 0.0023188699583342933 0 -0.024832895908866857 0.0020631025405615558 0 -0.025732647178968886 0.0029411419605944182 0 -0.024832895908866857 0.0020631025405615558 0 -0.02365213175859894 0.0020010393327022113 0 -0.023782319962176696 0.00044313107939354229 0 -0.024832895908866857 0.0020631025405615558 0 -0.024312689905110395 0.0028853841768750905 0 -0.02365213175859894 0.0020010393327022113 0 -0.024832895908866857 0.0020631025405615558 0 -0.024312689905110395 0.0028853841768750905 0 -0.025732647178968886 0.0029411419605944182 0 -0.024312689905110395 0.0028853841768750905 0 -0.025732647178968886 0.0029411419605944182 0 -0.025069834521012517 0.0038490387012392819 0 -0.025732647178968886 0.0029411419605944182 0 -0.026423869774848934 0.0035500267747924463 0 -0.025069834521012517 0.0038490387012392819 0 -0.024312689905110395 0.0028853841768750905 0 -0.025069834521012517 0.0038490387012392819 0 -0.023314756555338496 0.0042558784731051829 0 -0.027245536418750781 0.0025104790947900828 0 -0.026555508338611814 0.0023188699583342933 0 -0.026716777565895546 0.0028794889437146211 0 -0.026555508338611814 0.0023188699583342933 0 -0.025732647178968886 0.0029411419605944182 0 -0.026716777565895546 0.0028794889437146211 0 -0.025732647178968886 0.0029411419605944182 0 -0.026716777565895546 0.0028794889437146211 0 -0.026423869774848934 0.0035500267747924463 0 -0.027433625529193737 0.0032585569535211931 0 -0.026716777565895546 0.0028794889437146211 0 -0.026423869774848934 0.0035500267747924463 0 -0.027251375292941839 0.0042080763606387444 0 -0.027433625529193737 0.0032585569535211931 0 -0.026423869774848934 0.0035500267747924463 0 -0.026423869774848934 0.0035500267747924463 0 -0.026070076431189353 0.0044172773611657066 0 -0.025069834521012517 0.0038490387012392819 0 -0.027251375292941839 0.0042080763606387444 0 -0.026423869774848934 0.0035500267747924463 0 -0.026070076431189353 0.0044172773611657066 0 -0.026070076431189353 0.0044172773611657066 0 -0.025069834521012517 0.0038490387012392819 0 -0.024228534907985128 0.0049202430878987867 0 -0.025069834521012517 0.0038490387012392819 0 -0.024228534907985128 0.0049202430878987867 0 -0.023314756555338496 0.0042558784731051829 0 -0.024228534907985128 0.0049202430878987867 0 -0.025268696029647316 0.0053022294819905051 0 -0.023482485323064219 0.0058581814582025537 0 -0.026070076431189353 0.0044172773611657066 0 -0.024228534907985128 0.0049202430878987867 0 -0.025268696029647316 0.0053022294819905051 0 -0.025997271696918515 0.0059118149840886895 0 -0.023953000839833812 0.0049533305764804369 0 -0.025085224419007845 0.0062349670660040418 0 -0.025268696029647316 0.0053022294819905051 0 -0.025997271696918515 0.0059118149840886895 0 -0.023482485323064219 0.0058581814582025537 0 -0.025682018656387921 0.0059706556291266588 0 -0.023423666046835115 0.0060416284288284964 0 -0.025268696029647316 0.0053022294819905051 0 -0.025997271696918515 0.0059118149840886895 0 -0.02658254597989838 0.0050803780239996772 0 -0.025997271696918515 0.0059118149840886895 0 -0.027276094039992614 0.0054758463265331516 0 -0.02658254597989838 0.0050803780239996772 0 -0.027276094039992614 0.0054758463265331516 0 -0.02658254597989838 0.0050803780239996772 0 -0.027592457199933491 0.0048648914483662067 0 -0.026070076431189353 0.0044172773611657066 0 -0.025268696029647316 0.0053022294819905051 0 -0.02658254597989838 0.0050803780239996772 0 -0.027251375292941839 0.0042080763606387444 0 -0.026070076431189353 0.0044172773611657066 0 -0.02658254597989838 0.0050803780239996772 0 -0.027251375292941839 0.0042080763606387444 0 -0.02658254597989838 0.0050803780239996772 0 -0.027592457199933491 0.0048648914483662067 0 -0.027251375292941839 0.0042080763606387444 0 -0.027592457199933491 0.0048648914483662067 0 -0.028364302108324791 0.0044324570983947584 0 -0.027592457199933491 0.0048648914483662067 0 -0.028364302108324791 0.0044324570983947584 0 -0.028643580309251404 0.005187258685670622 0 -0.029228213892619471 0.0044564100896902457 0 -0.028364302108324791 0.0044324570983947584 0 -0.028643580309251404 0.005187258685670622 0 -0.028968306610508636 0.0036294683014480755 0 -0.029228213892619471 0.0044564100896902457 0 -0.028364302108324791 0.0044324570983947584 0 -0.029813515949277218 0.0052969577635405525 0 -0.029671422429679989 0.004884530790435407 0 -0.028643580309251404 0.005187258685670622 0 -0.029671422429679989 0.004884530790435407 0 -0.029228213892619471 0.0044564100896902457 0 -0.028643580309251404 0.005187258685670622 0 -0.027276094039992614 0.0054758463265331516 0 -0.028643580309251404 0.005187258685670622 0 -0.027685684683870979 0.0059772885485594703 0 -0.027276094039992614 0.0054758463265331516 0 -0.027592457199933491 0.0048648914483662067 0 -0.028643580309251404 0.005187258685670622 0 -0.028643580309251404 0.005187258685670622 0 -0.02899830728360903 0.0056077402721109769 0 -0.027685684683870979 0.0059772885485594703 0 -0.029813515949277218 0.0052969577635405525 0 -0.028643580309251404 0.005187258685670622 0 -0.02899830728360903 0.0056077402721109769 0 -0.02899830728360903 0.0056077402721109769 0 -0.029749611377853421 0.0056362252322812428 0 -0.028813635267310785 0.0057605756587895945 0 -0.029813515949277218 0.0052969577635405525 0 -0.02899830728360903 0.0056077402721109769 0 -0.029749611377853421 0.0056362252322812428 0 -0.02899830728360903 0.0056077402721109769 0 -0.028813635267310785 0.0057605756587895945 0 -0.027685684683870979 0.0059772885485594703 0 -0.028545313393799499 0.0058128266532092914 0 -0.026053946453985639 0.0058208100344191013 0 -0.028813635267310785 0.0057605756587895945 0 -0.026345115581925451 0.0069717078839426861 0 -0.027685684683870979 0.0059772885485594703 0 -0.028813635267310785 0.0057605756587895945 0 -0.025803176559766269 0.0046937796886997148 0 -0.026159924384808287 0.0064927814275357546 0 -0.025997271696918515 0.0059118149840886895 0 -0.026345115581925451 0.0069717078839426861 0 -0.025085224419007845 0.0062349670660040418 0 -0.025997271696918515 0.0059118149840886895 0 -0.026345115581925451 0.0069717078839426861 0 -0.027685684683870979 0.0059772885485594703 0 -0.025997271696918515 0.0059118149840886895 0 -0.027276094039992614 0.0054758463265331516 0 -0.027685684683870979 0.0059772885485594703 0 -0.028765261248017166 0.0065240160532502546 0 -0.027921134338930551 0.0075014224879500022 0 -0.028742772981118488 0.006481404460444427 0 -0.029406287831800625 0.0060052020793736442 0 -0.029759667054479765 0.0060942497001883669 0 -0.026159924384808287 0.0064927814275357546 0 -0.028742772981118488 0.006481404460444427 0 -0.026209330268671328 0.0089515824077251692 0 -0.026159924384808287 0.0064927814275357546 0 -0.026209330268671328 0.0089515824077251692 0 -0.023734235851185292 0.0084615889709780019 0 -0.026159924384808287 0.0064927814275357546 0 -0.023734235851185292 0.0084615889709780019 0 -0.023426006848979292 0.0063947686610979614 0 -0.025803176559766269 0.0046937796886997148 0 -0.026159924384808287 0.0064927814275357546 0 -0.023426006848979292 0.0063947686610979614 0 -0.028813635267310785 0.0057605756587895945 0 -0.026159924384808287 0.0064927814275357546 0 -0.028742772981118488 0.006481404460444427 0 -0.028813635267310785 0.0057605756587895945 0 -0.028742772981118488 0.006481404460444427 0 -0.029376236412374006 0.0059440282919257514 0 -0.028742772981118488 0.006481404460444427 0 -0.029376236412374006 0.0059440282919257514 0 -0.02986553370427961 0.0058315402441863366 0 -0.029749611377853421 0.0056362252322812428 0 -0.02986553370427961 0.0058315402441863366 0 -0.030587419406675771 0.0054895047930849684 0 -0.029749611377853421 0.0056362252322812428 0 -0.029376236412374006 0.0059440282919257514 0 -0.02986553370427961 0.0058315402441863366 0 -0.029749611377853421 0.0056362252322812428 0 -0.028813635267310785 0.0057605756587895945 0 -0.029376236412374006 0.0059440282919257514 0 -0.028742772981118488 0.006481404460444427 0 -0.02986553370427961 0.0058315402441863366 0 -0.029406287831800625 0.0060052020793736442 0 -0.029865831772076742 0.0058186621095883267 0 -0.029406287831800625 0.0060052020793736442 0 -0.029688163476594469 0.0058342675596955614 0 -0.02986553370427961 0.0058315402441863366 0 -0.029865831772076742 0.0058186621095883267 0 -0.029406287831800625 0.0060052020793736442 0 -0.02986553370427961 0.0058315402441863366 0 -0.029865831772076742 0.0058186621095883267 0 -0.030682114658137721 0.0055268404836556892 0 -0.029865831772076742 0.0058186621095883267 0 -0.030488640887247728 0.0057699114537277593 0 -0.030682114658137721 0.0055268404836556892 0 -0.029865831772076742 0.0058186621095883267 0 -0.030488640887247728 0.0057699114537277593 0 -0.029997543990276983 0.0060720245725701559 0 -0.030488640887247728 0.0057699114537277593 0 -0.029997543990276983 0.0060720245725701559 0 -0.030534851552096186 0.0062960575750731782 0 -0.029865831772076742 0.0058186621095883267 0 -0.029688163476594469 0.0058342675596955614 0 -0.029997543990276983 0.0060720245725701559 0 -0.029688163476594469 0.0058342675596955614 0 -0.029817000372178583 0.0058560432195203975 0 -0.029787250601535052 0.0054802952709439101 0 -0.029406287831800625 0.0060052020793736442 0 -0.029759667054479765 0.0060942497001883669 0 -0.029817000372178583 0.0058560432195203975 0 -0.029406287831800625 0.0060052020793736442 0 -0.029688163476594469 0.0058342675596955614 0 -0.029817000372178583 0.0058560432195203975 0 -0.026209330268671328 0.0089515824077251692 0 -0.023734235851185292 0.0084615889709780019 0 -0.023965376702986263 0.010940011580985301 0 -0.029759667054479765 0.0060942497001883669 0 -0.029817000372178583 0.0058560432195203975 0 -0.030241977767745221 0.0058798061390297526 0 -0.027921134338930551 0.0075014224879500022 0 -0.027555063494924665 0.0084099823584525869 0 -0.029787250601535052 0.0054802952709439101 0 -0.030241977767745221 0.0058798061390297526 0 -0.03045385850571827 0.0051703096041673625 0 -0.029817000372178583 0.0058560432195203975 0 -0.029787250601535052 0.0054802952709439101 0 -0.030241977767745221 0.0058798061390297526 0 -0.029787250601535052 0.0054802952709439101 0 -0.02974385535694405 0.0039700791530046927 0 -0.030346755984796744 0.0045548483902127209 0 -0.029787250601535052 0.0054802952709439101 0 -0.030346755984796744 0.0045548483902127209 0 -0.03045385850571827 0.0051703096041673625 0 -0.029688163476594469 0.0058342675596955614 0 -0.029787250601535052 0.0054802952709439101 0 -0.02974505709865995 0.0060882535158275821 0 -0.029787250601535052 0.0054802952709439101 0 -0.028991283627648346 0.0045749695725702619 0 -0.02974385535694405 0.0039700791530046927 0 -0.029826281947279109 0.0055072912613569058 0 -0.029258729428110607 0.0054405849359675639 0 -0.028991283627648346 0.0045749695725702619 0 -0.029104290717642405 0.0035913709713434406 0 -0.02974385535694405 0.0039700791530046927 0 -0.02974385535694405 0.0039700791530046927 0 -0.030422852749595556 0.0037646052952072569 0 -0.030346755984796744 0.0045548483902127209 0 -0.02974385535694405 0.0039700791530046927 0 -0.03002300498697634 0.0031584972939325087 0 -0.030422852749595556 0.0037646052952072569 0 -0.02974385535694405 0.0039700791530046927 0 -0.03002300498697634 0.0031584972939325087 0 -0.029572775425834533 0.0031135317242850964 0 -0.03002300498697634 0.0031584972939325087 0 -0.029572775425834533 0.0031135317242850964 0 -0.029668040631407662 0.0025956463477321084 0 -0.029104290717642405 0.0035913709713434406 0 -0.02974385535694405 0.0039700791530046927 0 -0.029572775425834533 0.0031135317242850964 0 -0.029104290717642405 0.0035913709713434406 0 -0.029572775425834533 0.0031135317242850964 0 -0.029309465212249024 0.0023662949173412088 0 -0.029572775425834533 0.0031135317242850964 0 -0.029668040631407662 0.0025956463477321084 0 -0.029309465212249024 0.0023662949173412088 0 -0.029668040631407662 0.0025956463477321084 0 -0.029309465212249024 0.0023662949173412088 0 -0.029571977654255625 0.0024130235799726795 0 -0.029668040631407662 0.0025956463477321084 0 -0.03010957222807302 0.0026149455654986753 0 -0.029747831431384496 0.0023800147856110872 0 -0.03002300498697634 0.0031584972939325087 0 -0.029668040631407662 0.0025956463477321084 0 -0.03010957222807302 0.0026149455654986753 0 -0.030606886166607575 0.0021646805372972757 0 -0.029806316279726554 0.0023620952854054092 0 -0.030207168493123278 0.0018314539593471486 0 -0.030606886166607575 0.0021646805372972757 0 -0.030207168493123278 0.0018314539593471486 0 -0.031034927159153555 0.00148865275319256 0 -0.029806316279726554 0.0023620952854054092 0 -0.029309465212249024 0.0023662949173412088 0 -0.029571977654255625 0.0024130235799726795 0 -0.029806316279726554 0.0023620952854054092 0 -0.029309465212249024 0.0023662949173412088 0 -0.030207168493123278 0.0018314539593471486 0 -0.028943130364744909 0.0019693272354201308 0 -0.03040037195987505 0.0037039298070382781 0 -0.029309465212249024 0.0023662949173412088 0 -0.030207168493123278 0.0018314539593471486 0 -0.030065169537581975 0.00091541995240923806 0 -0.029104290717642405 0.0035913709713434406 0 -0.029309465212249024 0.0023662949173412088 0 -0.027967418566828887 0.0038412160627958485 0 -0.030207168493123278 0.0018314539593471486 0 -0.030065169537581975 0.00091541995240923806 0 -0.031034927159153555 0.00148865275319256 0 -0.03040037195987505 0.0037039298070382781 0 -0.032251716129134446 0.0021467637008533162 0 -0.03040037195987505 0.0037039298070382781 0 -0.031947305669619536 0.0053649450578498363 0 -0.033563390118781407 0.0035128198320418954 0 -0.033091797134336312 0.0035925278383934158 0 -0.033061181048655873 0.0031283283318332398 0 -0.033563390118781407 0.0035128198320418954 0 -0.033076036230138571 0.0041747656667330355 0 -0.033091797134336312 0.0035925278383934158 0 -0.028991283627648346 0.0045749695725702619 0 -0.029104290717642405 0.0035913709713434406 0 -0.027967418566828887 0.0038412160627958485 0 -0.029258729428110607 0.0054405849359675639 0 -0.03040037195987505 0.0037039298070382781 0 -0.029688163476594469 0.0058342675596955614 0 -0.02974505709865995 0.0060882535158275821 0 -0.029997543990276983 0.0060720245725701559 0 -0.02974505709865995 0.0060882535158275821 0 -0.030102210731142259 0.006508154928964777 0 -0.029997543990276983 0.0060720245725701559 0 -0.030102210731142259 0.006508154928964777 0 -0.029997543990276983 0.0060720245725701559 0 -0.030534851552096186 0.0062960575750731782 0 -0.033076036230138571 0.0041747656667330355 0 -0.032200126274557719 0.0043843918597676213 0 -0.032733485681759836 0.0035968287496198313 0 -0.032733485681759836 0.0035968287496198313 0 -0.033091797134336312 0.0035925278383934158 0 -0.033061181048655873 0.0031283283318332398 0 -0.033076036230138571 0.0041747656667330355 0 -0.032733485681759836 0.0035968287496198313 0 -0.033091797134336312 0.0035925278383934158 0 -0.033061181048655873 0.0031283283318332398 0 -0.033016663157139546 0.0027771090370672679 0 -0.032863787259829511 0.0031189047098408415 0 -0.032733485681759836 0.0035968287496198313 0 -0.033061181048655873 0.0031283283318332398 0 -0.032863787259829511 0.0031189047098408415 0 -0.032251716129134446 0.0021467637008533162 0 -0.032464443385977322 0.0022866473042016289 0 -0.031034927159153555 0.00148865275319256 0 -0.031953346375559195 0.0017904769025862313 0 -0.031296998117330922 0.0021448043597378941 0 -0.030606886166607575 0.0021646805372972757 0 -0.031034927159153555 0.00148865275319256 0 -0.031296998117330922 0.0021448043597378941 0 -0.03302016421278111 0.0027352915272716265 0 -0.033427332141860028 0.0022739708895861618 0 -0.033041363798093859 0.0022445683823452381 0 -0.03302016421278111 0.0027352915272716265 0 -0.033274454580276079 0.0025597557948528618 0 -0.033427332141860028 0.0022739708895861618 0 -0.032464443385977322 0.0022866473042016289 0 -0.032980840285533268 0.0022760841324327703 0 -0.033016663157139546 0.0027771090370672679 0 -0.03302016421278111 0.0027352915272716265 0 -0.033041363798093859 0.0022445683823452381 0 -0.033016663157139546 0.0027771090370672679 0 -0.032863787259829511 0.0031189047098408415 0 -0.03302016421278111 0.0027352915272716265 0 -0.032863787259829511 0.0031189047098408415 0 -0.03302016421278111 0.0027352915272716265 0 -0.032627719712193123 0.0035338850701070474 0 -0.03302016421278111 0.0027352915272716265 0 -0.032627719712193123 0.0035338850701070474 0 -0.033080322623117782 0.0029434327462382935 0 -0.032627719712193123 0.0035338850701070474 0 -0.032710515857774687 0.0035968239765473697 0 -0.033080322623117782 0.0029434327462382935 0 -0.032733485681759836 0.0035968287496198313 0 -0.032863787259829511 0.0031189047098408415 0 -0.032627719712193123 0.0035338850701070474 0 -0.032200126274557719 0.0043843918597676213 0 -0.032627719712193123 0.0035338850701070474 0 -0.032387311174691381 0.0041524772344055452 0 -0.032200126274557719 0.0043843918597676213 0 -0.032733485681759836 0.0035968287496198313 0 -0.032627719712193123 0.0035338850701070474 0 -0.032627719712193123 0.0035338850701070474 0 -0.032387311174691381 0.0041524772344055452 0 -0.032710515857774687 0.0035968239765473697 0 -0.032387311174691381 0.0041524772344055452 0 -0.031994432765175024 0.004868973331111655 0 -0.032342256127890358 0.0044174482912273999 0 -0.031994432765175024 0.004868973331111655 0 -0.03203114338152796 0.0049201490869541144 0 -0.032342256127890358 0.0044174482912273999 0 -0.032200126274557719 0.0043843918597676213 0 -0.032387311174691381 0.0041524772344055452 0 -0.031994432765175024 0.004868973331111655 0 -0.032200126274557719 0.0043843918597676213 0 -0.031994432765175024 0.004868973331111655 0 -0.031748701373973467 0.005333258534485138 0 -0.031947305669619536 0.0053649450578498363 0 -0.031760050412658176 0.0052463382130793499 0 -0.033076036230138571 0.0041747656667330355 0 -0.032200126274557719 0.0043843918597676213 0 -0.031748701373973467 0.005333258534485138 0 -0.030488640887247728 0.0057699114537277593 0 -0.030534851552096186 0.0062960575750731782 0 -0.031748701373973467 0.005333258534485138 0 -0.031748701373973467 0.005333258534485138 0 -0.030682114658137721 0.0055268404836556892 0 -0.031421171420074799 0.0052849554966123277 0 -0.030488640887247728 0.0057699114537277593 0 -0.031748701373973467 0.005333258534485138 0 -0.030682114658137721 0.0055268404836556892 0 -0.031994432765175024 0.004868973331111655 0 -0.031748701373973467 0.005333258534485138 0 -0.031421171420074799 0.0052849554966123277 0 -0.030682114658137721 0.0055268404836556892 0 -0.031421171420074799 0.0052849554966123277 0 -0.030587419406675771 0.0054895047930849684 0 -0.02986553370427961 0.0058315402441863366 0 -0.030682114658137721 0.0055268404836556892 0 -0.030587419406675771 0.0054895047930849684 0 -0.030555794513729959 0.0052974103751248286 0 -0.029749611377853421 0.0056362252322812428 0 -0.030587419406675771 0.0054895047930849684 0 -0.030555794513729959 0.0052974103751248286 0 -0.030587419406675771 0.0054895047930849684 0 -0.031125445417512929 0.0052722052221654018 0 -0.031421171420074799 0.0052849554966123277 0 -0.030587419406675771 0.0054895047930849684 0 -0.031125445417512929 0.0052722052221654018 0 -0.031524287317451008 0.0050708706996228214 0 -0.031125445417512929 0.0052722052221654018 0 -0.031614238612804872 0.0051563709737492205 0 -0.031524287317451008 0.0050708706996228214 0 -0.031849636724552391 0.0050536371777994442 0 -0.031614238612804872 0.0051563709737492205 0 -0.031954762991055513 0.0049603195939511265 0 -0.031524287317451008 0.0050708706996228214 0 -0.031849636724552391 0.0050536371777994442 0 -0.031849636724552391 0.0050536371777994442 0 -0.03203114338152796 0.0049201490869541144 0 -0.031614238612804872 0.0051563709737492205 0 -0.031994432765175024 0.004868973331111655 0 -0.03203114338152796 0.0049201490869541144 0 -0.031614238612804872 0.0051563709737492205 0 -0.031421171420074799 0.0052849554966123277 0 -0.031125445417512929 0.0052722052221654018 0 -0.031614238612804872 0.0051563709737492205 0 -0.031994432765175024 0.004868973331111655 0 -0.031421171420074799 0.0052849554966123277 0 -0.031614238612804872 0.0051563709737492205 0 -0.032113954287663234 0.0050034867033494773 0 -0.032307912139100191 0.0049592731067485667 0 -0.032304029071965362 0.005020611836966467 0 -0.031849636724552391 0.0050536371777994442 0 -0.03203114338152796 0.0049201490869541144 0 -0.032113954287663234 0.0050034867033494773 0 -0.031954762991055513 0.0049603195939511265 0 -0.031849636724552391 0.0050536371777994442 0 -0.032113954287663234 0.0050034867033494773 0 -0.031954762991055513 0.0049603195939511265 0 -0.032113954287663234 0.0050034867033494773 0 -0.032307912139100191 0.0049592731067485667 0 -0.032178304091805297 0.0048415473250865808 0 -0.031954762991055513 0.0049603195939511265 0 -0.032307912139100191 0.0049592731067485667 0 -0.032470730483458644 0.004853264862217075 0 -0.032307912139100191 0.0049592731067485667 0 -0.032634260388632444 0.0049443242603107295 0 -0.032470730483458644 0.004853264862217075 0 -0.032178304091805297 0.0048415473250865808 0 -0.032307912139100191 0.0049592731067485667 0 -0.032779547527187231 0.0047999333249204319 0 -0.032685226063528729 0.0048590613165871675 0 -0.032880289588041386 0.0049484850147081226 0 -0.032470730483458644 0.004853264862217075 0 -0.032634260388632444 0.0049443242603107295 0 -0.032685226063528729 0.0048590613165871675 0 -0.032634260388632444 0.0049443242603107295 0 -0.032685226063528729 0.0048590613165871675 0 -0.032880289588041386 0.0049484850147081226 0 -0.033711108509840201 0.0055601438244491088 0 -0.033400776201605267 0.0057018645629952815 0 -0.032880289588041386 0.0049484850147081226 0 -0.032805422105985478 0.0050949776724272238 0 -0.033351278034736039 0.0055827457334419878 0 -0.032634260388632444 0.0049443242603107295 0 -0.032880289588041386 0.0049484850147081226 0 -0.032805422105985478 0.0050949776724272238 0 -0.032307912139100191 0.0049592731067485667 0 -0.032561173074485111 0.0050391872533802756 0 -0.032304029071965362 0.005020611836966467 0 -0.032307912139100191 0.0049592731067485667 0 -0.032634260388632444 0.0049443242603107295 0 -0.032561173074485111 0.0050391872533802756 0 -0.032634260388632444 0.0049443242603107295 0 -0.032805422105985478 0.0050949776724272238 0 -0.032561173074485111 0.0050391872533802756 0 -0.032805422105985478 0.0050949776724272238 0 -0.032561173074485111 0.0050391872533802756 0 -0.032698393404117509 0.0052260637826602955 0 -0.032698393404117509 0.0052260637826602955 0 -0.032462046319562329 0.0054056445454751635 0 -0.032304029071965362 0.005020611836966467 0 -0.032698393404117509 0.0052260637826602955 0 -0.033351278034736039 0.0055827457334419878 0 -0.032462046319562329 0.0054056445454751635 0 -0.032561173074485111 0.0050391872533802756 0 -0.032698393404117509 0.0052260637826602955 0 -0.032304029071965362 0.005020611836966467 0 -0.033351278034736039 0.0055827457334419878 0 -0.03351977862900319 0.0058646231897225521 0 -0.034133742609271302 0.0057970408083820512 0 -0.032805422105985478 0.0050949776724272238 0 -0.032698393404117509 0.0052260637826602955 0 -0.033351278034736039 0.0055827457334419878 0 -0.034632489389921126 0.0060852450257458 0 -0.033351278034736039 0.0055827457334419878 0 -0.034133742609271302 0.0057970408083820512 0 -0.033315125919542124 0.0031242687896173411 0 -0.033367865205065329 0.0030793922002055503 0 -0.033385871463061309 0.0030105216590734902 0 -0.033315125919542124 0.0031242687896173411 0 -0.033367865205065329 0.0030793922002055503 0 -0.03315412762194607 0.0032643686991332198 0 -0.033351278034736039 0.0055827457334419878 0 -0.03351977862900319 0.0058646231897225521 0 -0.032462046319562329 0.0054056445454751635 0 -0.03433945294073168 0.0043818705675821266 0 -0.034035281734772903 0.0023398965254794028 0 -0.03433945294073168 0.0043818705675821266 0 -0.032664221837589602 0.0043615754133588674 0 -0.033315125919542124 0.0031242687896173411 0 -0.03315412762194607 0.0032643686991332198 0 -0.033390937958735711 0.0030734144623690324 0 -0.03315412762194607 0.0032643686991332198 0 -0.032889652610243687 0.0034988619397591184 0 -0.033390937958735711 0.0030734144623690324 0 -0.03315412762194607 0.0032643686991332198 0 -0.032889652610243687 0.0034988619397591184 0 -0.032342256127890358 0.0044174482912273999 0 -0.032664221837589602 0.0043615754133588674 0 -0.032574362645237859 0.0044148259089799779 0 -0.032113954287663234 0.0050034867033494773 0 -0.032304029071965362 0.005020611836966467 0 -0.032342256127890358 0.0044174482912273999 0 -0.032462046319562329 0.0054056445454751635 0 -0.032304029071965362 0.005020611836966467 0 -0.032342256127890358 0.0044174482912273999 0 -0.03203114338152796 0.0049201490869541144 0 -0.032113954287663234 0.0050034867033494773 0 -0.032342256127890358 0.0044174482912273999 0 -0.032387311174691381 0.0041524772344055452 0 -0.032342256127890358 0.0044174482912273999 0 -0.032710515857774687 0.0035968239765473697 0 -0.032889652610243687 0.0034988619397591184 0 -0.032342256127890358 0.0044174482912273999 0 -0.032710515857774687 0.0035968239765473697 0 -0.032889652610243687 0.0034988619397591184 0 -0.032710515857774687 0.0035968239765473697 0 -0.033150596301169941 0.0031179579875667261 0 -0.032889652610243687 0.0034988619397591184 0 -0.033150596301169941 0.0031179579875667261 0 -0.033390937958735711 0.0030734144623690324 0 -0.033150596301169941 0.0031179579875667261 0 -0.033438519944157662 0.0026941224310482038 0 -0.0336542772161346 0.0026204735418812602 0 -0.033150596301169941 0.0031179579875667261 0 -0.033438519944157662 0.0026941224310482038 0 -0.033080322623117782 0.0029434327462382935 0 -0.032710515857774687 0.0035968239765473697 0 -0.033150596301169941 0.0031179579875667261 0 -0.033080322623117782 0.0029434327462382935 0 -0.03302016421278111 0.0027352915272716265 0 -0.033080322623117782 0.0029434327462382935 0 -0.033274454580276079 0.0025597557948528618 0 -0.033080322623117782 0.0029434327462382935 0 -0.033274454580276079 0.0025597557948528618 0 -0.033528866980933512 0.0024334011018221115 0 -0.033528866980933512 0.0024334011018221115 0 -0.034038315149362189 0.0020376606723454915 0 -0.033840946343451507 0.0023513416562911953 0 -0.033438519944157662 0.0026941224310482038 0 -0.033528866980933512 0.0024334011018221115 0 -0.033840946343451507 0.0023513416562911953 0 -0.033438519944157662 0.0026941224310482038 0 -0.033080322623117782 0.0029434327462382935 0 -0.033528866980933512 0.0024334011018221115 0 -0.033528866980933512 0.0024334011018221115 0 -0.034038315149362189 0.0020376606723454915 0 -0.034025895708180556 0.0018975916251275057 0 -0.033528866980933512 0.0024334011018221115 0 -0.033427332141860028 0.0022739708895861618 0 -0.034025895708180556 0.0018975916251275057 0 -0.033274454580276079 0.0025597557948528618 0 -0.033528866980933512 0.0024334011018221115 0 -0.033427332141860028 0.0022739708895861618 0 -0.034673385939447451 0.0016160374234922201 0 -0.034302722324505402 0.0019208715167215529 0 -0.03421629051079049 0.0021985922347406719 0 -0.034673385939447451 0.0016160374234922201 0 -0.034302722324505402 0.0019208715167215529 0 -0.034459876857671407 0.0016003893254331284 0 -0.034038315149362189 0.0020376606723454915 0 -0.034302722324505402 0.0019208715167215529 0 -0.033840946343451507 0.0023513416562911953 0 -0.034038315149362189 0.0020376606723454915 0 -0.034302722324505402 0.0019208715167215529 0 -0.034459876857671407 0.0016003893254331284 0 -0.033840946343451507 0.0023513416562911953 0 -0.03421629051079049 0.0021985922347406719 0 -0.0336542772161346 0.0026204735418812602 0 -0.034302722324505402 0.0019208715167215529 0 -0.033840946343451507 0.0023513416562911953 0 -0.03421629051079049 0.0021985922347406719 0 -0.034673385939447451 0.0016160374234922201 0 -0.03421629051079049 0.0021985922347406719 0 -0.034719614253643866 0.0020688275075906666 0 -0.03421629051079049 0.0021985922347406719 0 -0.033974592686145715 0.0024309616409156571 0 -0.034719614253643866 0.0020688275075906666 0 -0.033974592686145715 0.0024309616409156571 0 -0.0336542772161346 0.0026204735418812602 0 -0.033390937958735711 0.0030734144623690324 0 -0.033438519944157662 0.0026941224310482038 0 -0.033840946343451507 0.0023513416562911953 0 -0.0336542772161346 0.0026204735418812602 0 -0.03421629051079049 0.0021985922347406719 0 -0.033974592686145715 0.0024309616409156571 0 -0.0336542772161346 0.0026204735418812602 0 -0.033150596301169941 0.0031179579875667261 0 -0.0336542772161346 0.0026204735418812602 0 -0.033390937958735711 0.0030734144623690324 0 -0.033921239850216375 0.0025988948537242974 0 -0.034035281734772903 0.0023398965254794028 0 -0.033315125919542124 0.0031242687896173411 0 -0.033390937958735711 0.0030734144623690324 0 -0.033385871463061309 0.0030105216590734902 0 -0.033974592686145715 0.0024309616409156571 0 -0.034474739811238816 0.002141163522395587 0 -0.034797102676079973 0.0022445531995630989 0 -0.033974592686145715 0.0024309616409156571 0 -0.033390937958735711 0.0030734144623690324 0 -0.033385871463061309 0.0030105216590734902 0 -0.034833507056666227 0.0022341293545487142 0 -0.035122717275970675 0.0024263249393630388 0 -0.034797102676079973 0.0022445531995630989 0 -0.034666274496620172 0.0020258671014717297 0 -0.034474739811238816 0.002141163522395587 0 -0.034833507056666227 0.0022341293545487142 0 -0.034474739811238816 0.002141163522395587 0 -0.034833507056666227 0.0022341293545487142 0 -0.034797102676079973 0.0022445531995630989 0 -0.035122717275970675 0.0024263249393630388 0 -0.035267559193223351 0.0030454356593344676 0 -0.03504678995572786 0.0023153083293425639 0 -0.034833507056666227 0.0022341293545487142 0 -0.035122717275970675 0.0024263249393630388 0 -0.03504678995572786 0.0023153083293425639 0 -0.035122717275970675 0.0024263249393630388 0 -0.035125763723649429 0.0020812436693282252 0 -0.035305224464065296 0.0026373086400871496 0 -0.035122717275970675 0.0024263249393630388 0 -0.035125763723649429 0.0020812436693282252 0 -0.034797102676079973 0.0022445531995630989 0 -0.033974592686145715 0.0024309616409156571 0 -0.034797102676079973 0.0022445531995630989 0 -0.034719614253643866 0.0020688275075906666 0 -0.035125763723649429 0.0020812436693282252 0 -0.034797102676079973 0.0022445531995630989 0 -0.034719614253643866 0.0020688275075906666 0 -0.034673385939447451 0.0016160374234922201 0 -0.034719614253643866 0.0020688275075906666 0 -0.035037105132558276 0.0015185656918906868 0 -0.035125763723649429 0.0020812436693282252 0 -0.034719614253643866 0.0020688275075906666 0 -0.035037105132558276 0.0015185656918906868 0 -0.035125763723649429 0.0020812436693282252 0 -0.035037105132558276 0.0015185656918906868 0 -0.035228003845029859 0.0016052122565033816 0 -0.035037105132558276 0.0015185656918906868 0 -0.035155344406085962 0.0007457560294321532 0 -0.034925656761268138 0.0010043464425114024 0 -0.034673385939447451 0.0016160374234922201 0 -0.035037105132558276 0.0015185656918906868 0 -0.034925656761268138 0.0010043464425114024 0 -0.034999304434964094 0.00048270472297097717 0 -0.035155344406085962 0.0007457560294321532 0 -0.035228003845029859 0.0016052122565033816 0 -0.035037105132558276 0.0015185656918906868 0 -0.035155344406085962 0.0007457560294321532 0 -0.035228003845029859 0.0016052122565033816 0 -0.034999304434964094 0.00048270472297097717 0 -0.035228003845029859 0.0016052122565033816 0 -0.034999274814419799 0.0024081758650182673 0 -0.035228003845029859 0.0016052122565033816 0 -0.034999274814419799 0.0024081758650182673 0 -0.035305224464065296 0.0026373086400871496 0 -0.035125763723649429 0.0020812436693282252 0 -0.035228003845029859 0.0016052122565033816 0 -0.035305224464065296 0.0026373086400871496 0 -0.035122717275970675 0.0024263249393630388 0 -0.035305224464065296 0.0026373086400871496 0 -0.035267559193223351 0.0030454356593344676 0 -0.035305224464065296 0.0026373086400871496 0 -0.034999785485372907 0.0043298784411703369 0 -0.035267559193223351 0.0030454356593344676 0 -0.034999274814419799 0.0024081758650182673 0 -0.035305224464065296 0.0026373086400871496 0 -0.034999785485372907 0.0043298784411703369 0 -0.034999786803522268 0.0043330671436467537 0 -0.035275699796024587 0.0041676492212954965 0 -0.034999706043618468 0.0043348092606553682 0 -0.035460179798287278 0.0056510458546490724 0 -0.034999780133636069 0.0061494765905502234 0 -0.034999706043618468 0.0043348092606553682 0 -0.035460179798287278 0.0056510458546490724 0 -0.035647368224373373 0.0053205242223772235 0 -0.035460179798287278 0.0056510458546490724 0 -0.034999780133636069 0.0061494765905502234 0 -0.035522103685014197 0.0063903170226341484 0 -0.035460179798287278 0.0056510458546490724 0 -0.035522103685014197 0.0063903170226341484 0 -0.035656986782084552 0.0058898782079179401 0 -0.035522103685014197 0.0063903170226341484 0 -0.035656986782084552 0.0058898782079179401 0 -0.035580668891316745 0.0063306659088787917 0 -0.035656986782084552 0.0058898782079179401 0 -0.035647368224373373 0.0053205242223772235 0 -0.035751693971820084 0.0057651457658950359 0 -0.035460179798287278 0.0056510458546490724 0 -0.035656986782084552 0.0058898782079179401 0 -0.035647368224373373 0.0053205242223772235 0 -0.035275699796024587 0.0041676492212954965 0 -0.035552536148116563 0.0040311802940567569 0 -0.035751693971820084 0.0057651457658950359 0 -0.035787503917259884 0.0059805513269633806 0 -0.035683707476746894 0.0060594393000162877 0 -0.035656986782084552 0.0058898782079179401 0 -0.035751693971820084 0.0057651457658950359 0 -0.035683707476746894 0.0060594393000162877 0 -0.034666274496620172 0.0020258671014717297 0 -0.034833507056666227 0.0022341293545487142 0 -0.03504678995572786 0.0023153083293425639 0 -0.03433945294073168 0.0043818705675821266 0 -0.035552536148116563 0.0040311802940567569 0 -0.03595736083976895 0.0058598015934133328 0 -0.035751693971820084 0.0057651457658950359 0 -0.035787503917259884 0.0059805513269633806 0 -0.03595736083976895 0.0058598015934133328 0 -0.035787503917259884 0.0059805513269633806 0 -0.035756299029572246 0.0062240422266907442 0 -0.03433945294073168 0.0043818705675821266 0 -0.034946329568208256 0.0062387062990737633 0 -0.035787503917259884 0.0059805513269633806 0 -0.035756299029572246 0.0062240422266907442 0 -0.035683707476746894 0.0060594393000162877 0 -0.035756299029572246 0.0062240422266907442 0 -0.035683707476746894 0.0060594393000162877 0 -0.035522759126303455 0.0063369456485881459 0 -0.035683707476746894 0.0060594393000162877 0 -0.035522759126303455 0.0063369456485881459 0 -0.035580668891316745 0.0063306659088787917 0 -0.035656986782084552 0.0058898782079179401 0 -0.035683707476746894 0.0060594393000162877 0 -0.035580668891316745 0.0063306659088787917 0 -0.035522759126303455 0.0063369456485881459 0 -0.035438259695249316 0.0064721797224647389 0 -0.035580668891316745 0.0063306659088787917 0 -0.035522759126303455 0.0063369456485881459 0 -0.035438259695249316 0.0064721797224647389 0 -0.035103259221880005 0.0062899167030536765 0 -0.035756299029572246 0.0062240422266907442 0 -0.035522759126303455 0.0063369456485881459 0 -0.035103259221880005 0.0062899167030536765 0 -0.034632489389921126 0.0060852450257458 0 -0.034133742609271302 0.0057970408083820512 0 -0.035103259221880005 0.0062899167030536765 0 -0.034946329568208256 0.0062387062990737633 0 -0.035113119127551121 0.0060511948573807647 0 -0.033950039923029418 0.0055697983262169527 0 -0.033711108509840201 0.0055601438244491088 0 -0.035068866381007889 0.0061811805940911414 0 -0.034632489389921126 0.0060852450257458 0 -0.035103259221880005 0.0062899167030536765 0 -0.035181630620727683 0.0061900708079265093 0 -0.035291595462971455 0.006307363656786553 0 -0.035103259221880005 0.0062899167030536765 0 -0.035291595462971455 0.006307363656786553 0 -0.035438259695249316 0.0064721797224647389 0 -0.035458706499428366 0.0066498729517482352 0 -0.035291595462971455 0.006307363656786553 0 -0.035438259695249316 0.0064721797224647389 0 -0.035103259221880005 0.0062899167030536765 0 -0.035562991735682198 0.0063265452445109959 0 -0.035291595462971455 0.006307363656786553 0 -0.035458706499428366 0.0066498729517482352 0 -0.035848085723030942 0.0078061932880204724 0 -0.035423334266244437 0.0071962427619766765 0 -0.036283612859807676 0.0093560010402612276 0 -0.034999887533567177 0.007965402570917969 0 -0.035367334691654699 0.0071938875290833253 0 -0.035562991735682198 0.0063265452445109959 0 -0.035458706499428366 0.0066498729517482352 0 -0.035367334691654699 0.0071938875290833253 0 -0.034999780133636069 0.0061494765905502234 0 -0.034999887533567177 0.007965402570917969 0 -0.035367334691654699 0.0071938875290833253 0 -0.034999780133636069 0.0061494765905502234 0 -0.035522103685014197 0.0063903170226341484 0 -0.035367334691654699 0.0071938875290833253 0 -0.035458706499428366 0.0066498729517482352 0 -0.035367334691654699 0.0071938875290833253 0 -0.035467520290214868 0.0067688264909246581 0 -0.035522103685014197 0.0063903170226341484 0 -0.035367334691654699 0.0071938875290833253 0 -0.035467520290214868 0.0067688264909246581 0 -0.035522103685014197 0.0063903170226341484 0 -0.035505128876229544 0.0065741468534294403 0 -0.035467520290214868 0.0067688264909246581 0 -0.035522103685014197 0.0063903170226341484 0 -0.035580668891316745 0.0063306659088787917 0 -0.035505128876229544 0.0065741468534294403 0 -0.035438259695249316 0.0064721797224647389 0 -0.035458706499428366 0.0066498729517482352 0 -0.035505128876229544 0.0065741468534294403 0 -0.035438259695249316 0.0064721797224647389 0 -0.035580668891316745 0.0063306659088787917 0 -0.035505128876229544 0.0065741468534294403 0 -0.035458706499428366 0.0066498729517482352 0 -0.035505128876229544 0.0065741468534294403 0 -0.035467520290214868 0.0067688264909246581 0 -0.0066459477803892594 0.012504352399669258 0 -0.0068771323196579965 0.013362174515521954 0 -0.0055614878042223644 0.01316821016508909 0 -0.0066459477803892594 0.012504352399669258 0 -0.0055730926843382718 0.011949833907586324 0 -0.007686179455936872 0.011460800498396149 0 -0.0066459477803892594 0.012504352399669258 0 -0.007686179455936872 0.011460800498396149 0 -0.0077088053554584457 0.012513797730512349 0 -0.0066459477803892594 0.012504352399669258 0 -0.0077088053554584457 0.012513797730512349 0 -0.0068771323196579965 0.013362174515521954 0 -0.0066459477803892594 0.012504352399669258 0 -0.0055730926843382718 0.011949833907586324 0 -0.0055614878042223644 0.01316821016508909 0 -0.0055730926843382718 0.011949833907586324 0 -0.0055614878042223644 0.01316821016508909 0 -0.0045445395711559509 0.012972198643655238 0 -0.0059966471408175641 0.01408840476590625 0 -0.0047291846579605949 0.012548955147726054 0 -0.0057736389856349775 0.012358681053686675 0 -0.0059966471408175641 0.01408840476590625 0 -0.0081380051671150165 0.013686465705700137 0 -0.0057736389856349775 0.012358681053686675 0 -0.0060184378923264737 0.012990747698513831 0 -0.0074840049452950599 0.013452554117178684 0 -0.0059966471408175641 0.01408840476590625 0 -0.0084436374168683059 0.014938998862359559 0 -0.0081380051671150165 0.013686465705700137 0 -0.0093644203099042568 0.015677833166994136 0 -0.0089399997628276853 0.01543917689545786 0 -0.0084436374168683059 0.014938998862359559 0 -0.0093726096667875094 0.015726125762839018 0 -0.0081380051671150165 0.013686465705700137 0 -0.0074840049452950599 0.013452554117178684 0 -0.012377556189311635 0.011187194137186494 0 -0.0093726096667875094 0.015726125762839018 0 -0.0093043152724742121 0.015421783259999711 0 -0.0092229818687005749 0.017120195814603344 0 -0.018668916029586126 0.0065321420653664487 0 -0.018576579689498905 0.0067460253049642918 0 -0.018638222320615645 0.0065865537954720183 0 -0.0084436374168683059 0.014938998862359559 0 -0.0093726096667875094 0.015726125762839018 0 -0.0093043152724742121 0.015421783259999711 0 -0.012377556189311635 0.011187194137186494 0 -0.014087312897552268 0.011712550872626636 0 -0.007686179455936872 0.011460800498396149 0 -0.0099243895754083603 0.011321411153061709 0 -0.0087983221973439753 0.012117121255806031 0 -0.012377556189311635 0.011187194137186494 0 -0.015270847046924045 0.0093086341061077767 0 -0.0099243895754083603 0.011321411153061709 0 -0.0094702084388896043 0.012190028350071583 0 -0.010092180602026879 0.01246866797007024 0 -0.0099243895754083603 0.011321411153061709 0 -0.0087983221973439753 0.012117121255806031 0 -0.0094702084388896043 0.012190028350071583 0 -0.0087983221973439753 0.012117121255806031 0 -0.0094702084388896043 0.012190028350071583 0 -0.0090724112981917012 0.012841172596967399 0 -0.0094702084388896043 0.012190028350071583 0 -0.0090724112981917012 0.012841172596967399 0 -0.010092180602026879 0.01246866797007024 0 -0.007686179455936872 0.011460800498396149 0 -0.0087983221973439753 0.012117121255806031 0 -0.0077088053554584457 0.012513797730512349 0 -0.0087983221973439753 0.012117121255806031 0 -0.00816145858396637 0.013241441420010342 0 -0.0090724112981917012 0.012841172596967399 0 -0.0087983221973439753 0.012117121255806031 0 -0.0077088053554584457 0.012513797730512349 0 -0.00816145858396637 0.013241441420010342 0 -0.00816145858396637 0.013241441420010342 0 -0.0087451302778314387 0.014389382853974234 0 -0.0073555945326050139 0.014140498352708416 0 -0.0077088053554584457 0.012513797730512349 0 -0.00816145858396637 0.013241441420010342 0 -0.0068771323196579965 0.013362174515521954 0 -0.00816145858396637 0.013241441420010342 0 -0.0090724112981917012 0.012841172596967399 0 -0.0087451302778314387 0.014389382853974234 0 -0.00816145858396637 0.013241441420010342 0 -0.0073555945326050139 0.014140498352708416 0 -0.0068771323196579965 0.013362174515521954 0 -0.0090724112981917012 0.012841172596967399 0 -0.0087451302778314387 0.014389382853974234 0 -0.010092180602026879 0.01246866797007024 0 -0.01309624300489484 0.0093762914533516775 0 -0.015270847046924045 0.0093086341061077767 0 -0.017938600939001327 0.0069411607959229604 0 -0.017847752077023726 0.0070930145144628073 0 -0.01810382024884661 0.0068236076989695946 0 -0.017938600939001327 0.0069411607959229604 0 -0.017937136663801298 0.0069670360460048807 0 -0.017847752077023726 0.0070930145144628073 0 -0.017970753197454239 0.0069375977055395818 0 -0.017814232999351379 0.0069024049875489567 0 -0.017634587467231164 0.0070467326098276467 0 -0.017938600939001327 0.0069411607959229604 0 -0.017970753197454239 0.0069375977055395818 0 -0.01810382024884661 0.0068236076989695946 0 -0.018690199441407405 0.0061362411991887321 0 -0.01309624300489484 0.0093762914533516775 0 -0.017938600939001327 0.0069411607959229604 0 -0.017970753197454239 0.0069375977055395818 0 -0.017814232999351379 0.0069024049875489567 0 -0.0087451302778314387 0.014389382853974234 0 -0.0075765866464642855 0.015196968353624401 0 -0.0073555945326050139 0.014140498352708416 0 -0.01309624300489484 0.0093762914533516775 0 -0.0055988623105372379 0.0090792254333935708 0 -0.011211375149763494 0.007172409897511136 0 -0.0094044731609413384 0.0084271121622140153 0 -0.01017365851370306 0.0086915317904186756 0 -0.01309624300489484 0.0093762914533516775 0 -0.010307788430773171 0.0035644363144440531 0 -0.0075765866464642855 0.015196968353624401 0 -0.0073555945326050139 0.014140498352708416 0 -0.0055971997881458574 0.014467472983181746 0 -0.0036192354235066084 0.013462644253086541 0 -0.0037895911935029937 0.01360324390744923 0 -0.0036978037585857939 0.013425803774827237 0 -0.0055988623105372379 0.0090792254333935708 0 -0.0048788283381336608 0.014750952610522408 0 -0.0073555945326050139 0.014140498352708416 0 -0.0068771323196579965 0.013362174515521954 0 -0.0055971997881458574 0.014467472983181746 0 -0.0068771323196579965 0.013362174515521954 0 -0.0055614878042223644 0.01316821016508909 0 -0.0055971997881458574 0.014467472983181746 0 -0.0037895911935029937 0.01360324390744923 0 -0.0038822544629996858 0.013596803768736596 0 -0.0038287276004139673 0.013507380444517667 0 -0.0048788283381336608 0.014750952610522408 0 -0.0039242922656201502 0.013482465685591038 0 -0.0037895911935029937 0.01360324390744923 0 -0.0038822544629996858 0.013596803768736596 0 -0.0039984526998293165 0.013643958400485452 0 -0.0038822544629996858 0.013596803768736596 0 -0.0037480660467220147 0.013627313769623357 0 -0.0039984526998293165 0.013643958400485452 0 -0.0037480660467220147 0.013627313769623357 0 -0.0039984526998293165 0.013643958400485452 0 -0.00360567575227692 0.01341586360810567 0 -0.0039984526998293165 0.013643958400485452 0 -0.0045445395711559509 0.012972198643655238 0 -0.003834177226678441 0.013145304756035984 0 -0.0039984526998293165 0.013643958400485452 0 -0.00360567575227692 0.01341586360810567 0 -0.003834177226678441 0.013145304756035984 0 -0.0055614878042223644 0.01316821016508909 0 -0.0055971997881458574 0.014467472983181746 0 -0.0039984526998293165 0.013643958400485452 0 -0.0055614878042223644 0.01316821016508909 0 -0.0039984526998293165 0.013643958400485452 0 -0.0045445395711559509 0.012972198643655238 0 -0.0029816501558427764 0.013533126420461837 0 -0.0034325739572394235 0.013530821460667848 0 -0.0034667418952485504 0.013822152057140902 0 -0.0029816501558427764 0.013533126420461837 0 -0.0034325739572394235 0.013530821460667848 0 -0.0031611107606656095 0.013373250722602554 0 0.0057157266027205861 0.0098164434363939915 0 0.0047110659242036099 0.010382458776267502 0 -0.0037480660467220147 0.013627313769623357 0 -0.0034325739572394235 0.013530821460667848 0 -0.00360567575227692 0.01341586360810567 0 -0.0034325739572394235 0.013530821460667848 0 -0.00360567575227692 0.01341586360810567 0 -0.0033127200472141682 0.013223785307300373 0 -0.00360567575227692 0.01341586360810567 0 -0.0033127200472141682 0.013223785307300373 0 -0.003834177226678441 0.013145304756035984 0 -0.0034325739572394235 0.013530821460667848 0 -0.0033127200472141682 0.013223785307300373 0 -0.0031611107606656095 0.013373250722602554 0 0.0045574643538712732 0.010531480049583604 0 0.0047110659242036099 0.010382458776267502 0 0.01239195052454292 0.0077115763558897972 0 0.012756130497185835 0.0077194520043654784 0 0.012416564539066192 0.0074230531669665254 0 0.012756130497185835 0.0077194520043654784 0 0.013284674819447001 0.0087262179489656002 0 0.012617764534043613 0.0083210289818103321 0 0.01239195052454292 0.0077115763558897972 0 0.012756130497185835 0.0077194520043654784 0 0.012617764534043613 0.0083210289818103321 0 -0.0033127200472141682 0.013223785307300373 0 -0.0036695173174675312 0.012766544944811945 0 -0.003834177226678441 0.013145304756035984 0 0.0045574643538712732 0.010531480049583604 0 0.005775433709905472 0.010309443534669557 0 0.012248138756472396 0.0088040723424853105 0 0.012617764534043613 0.0083210289818103321 0 0.012853773666893231 0.0092297031338527402 0 0.013284674819447001 0.0087262179489656002 0 0.012617764534043613 0.0083210289818103321 0 0.012853773666893231 0.0092297031338527402 0 -0.0055730926843382718 0.011949833907586324 0 -0.0045445395711559509 0.012972198643655238 0 -0.0042830890211654326 0.012866740301567125 0 -0.0045445395711559509 0.012972198643655238 0 -0.003834177226678441 0.013145304756035984 0 -0.0042830890211654326 0.012866740301567125 0 -0.0036695173174675312 0.012766544944811945 0 -0.0042830890211654326 0.012866740301567125 0 -0.0047291846579605949 0.012548955147726054 0 -0.0036695173174675312 0.012766544944811945 0 -0.003834177226678441 0.013145304756035984 0 -0.0042830890211654326 0.012866740301567125 0 -0.0060184378923264737 0.012990747698513831 0 -0.0044058837412915162 0.012898804135826253 0 -0.0059966471408175641 0.01408840476590625 0 -0.0042830890211654326 0.012866740301567125 0 -0.0047291846579605949 0.012548955147726054 0 -0.0022293364099385516 0.014333225649208923 0 -0.009108676154558978 0.015434444140681212 0 -0.0047291846579605949 0.012548955147726054 0 -0.0042186318426055934 0.011912411243565115 0 -0.0057736389856349775 0.012358681053686675 0 0.005775433709905472 0.010309443534669557 0 -0.0022293364099385516 0.014333225649208923 0 -0.0036695173174675312 0.012766544944811945 0 -0.0047291846579605949 0.012548955147726054 0 -0.0042186318426055934 0.011912411243565115 0 -0.0078484716035682016 0.021079284669384787 0 -0.0084492222855910831 0.020474207668371807 0 -0.0075071226798703507 0.020564842036708046 0 -0.010300233339093251 0.018159886525380819 0 -0.01012867843598388 0.018238304722784746 0 -0.010239463220512548 0.018070546873867076 0 -0.0022293364099385516 0.014333225649208923 0 -0.0094705431085030604 0.019652907786984589 0 -0.010300233339093251 0.018159886525380819 0 -0.010241947836010101 0.018396865979895198 0 -0.01012867843598388 0.018238304722784746 0 0.01236386290636776 0.009627999594296487 0 0.012853773666893231 0.0092297031338527402 0 0.012894565171031373 0.0099664790385513621 0 0.012248138756472396 0.0088040723424853105 0 0.01236386290636776 0.009627999594296487 0 0.012853773666893231 0.0092297031338527402 0 0.013284674819447001 0.0087262179489656002 0 0.013618868934572046 0.0096600584053313232 0 0.012853773666893231 0.0092297031338527402 0 0.013618868934572046 0.0096600584053313232 0 0.012853773666893231 0.0092297031338527402 0 0.012894565171031373 0.0099664790385513621 0 -0.0078484716035682016 0.021079284669384787 0 -0.0071313628455702983 0.020759713882258349 0 -0.0075071226798703507 0.020564842036708046 0 -0.0022293364099385516 0.014333225649208923 0 0.0037600222603948138 0.015499223524783015 0 0.0028943756456188854 0.015073839939559365 0 0.0037600222603948138 0.015499223524783015 0 0.01236386290636776 0.009627999594296487 0 0.011935786157546624 0.010599386524627032 0 0.012894565171031373 0.0099664790385513621 0 -0.0072783877278179004 0.020802876075610002 0 -0.0071313628455702983 0.020759713882258349 0 -0.0071252197027286456 0.02078149269921209 0 -0.0071252197027286456 0.02078149269921209 0 -0.0075071226798703507 0.020564842036708046 0 -0.0074368861986698941 0.019985533927363582 0 -0.0071313628455702983 0.020759713882258349 0 -0.0071252197027286456 0.02078149269921209 0 -0.0075071226798703507 0.020564842036708046 0 -0.0069288885065960631 0.021743865311360574 0 -0.0071252197027286456 0.02078149269921209 0 -0.0074368861986698941 0.019985533927363582 0 -0.0094705431085030604 0.019652907786984589 0 -0.0095583561951579389 0.018960752822935436 0 -0.010241947836010101 0.018396865979895198 0 -0.0095305432809332739 0.018980934790999656 0 -0.01012867843598388 0.018238304722784746 0 -0.0084492222855910831 0.020474207668371807 0 -0.0084222027654089083 0.019132106749548759 0 -0.0095305432809332739 0.018980934790999656 0 -0.0084492222855910831 0.020474207668371807 0 -0.0075071226798703507 0.020564842036708046 0 -0.0074368861986698941 0.019985533927363582 0 -0.0084492222855910831 0.020474207668371807 0 -0.0074368861986698941 0.019985533927363582 0 -0.0084222027654089083 0.019132106749548759 0 -0.0090727754439217934 0.018105124860035474 0 -0.0084222027654089083 0.019132106749548759 0 -0.0095305432809332739 0.018980934790999656 0 -0.0090727754439217934 0.018105124860035474 0 -0.0095305432809332739 0.018980934790999656 0 -0.010053453906529865 0.017933902587926296 0 -0.0095305432809332739 0.018980934790999656 0 -0.010053453906529865 0.017933902587926296 0 -0.010050999504510189 0.01844326564390732 0 -0.010053453906529865 0.017933902587926296 0 -0.010050999504510189 0.01844326564390732 0 -0.01060894201636866 0.017913701194461396 0 -0.011026772741698047 0.016824112143594135 0 -0.010053453906529865 0.017933902587926296 0 -0.01060894201636866 0.017913701194461396 0 -0.010050999504510189 0.01844326564390732 0 -0.010295537767709929 0.018218383724332148 0 -0.010498575440102579 0.018312886032807223 0 -0.010050999504510189 0.01844326564390732 0 -0.010498575440102579 0.018312886032807223 0 -0.01060894201636866 0.017913701194461396 0 -0.0095305432809332739 0.018980934790999656 0 -0.010050999504510189 0.01844326564390732 0 -0.01012867843598388 0.018238304722784746 0 -0.010050999504510189 0.01844326564390732 0 -0.01012867843598388 0.018238304722784746 0 -0.010295537767709929 0.018218383724332148 0 -0.01012867843598388 0.018238304722784746 0 -0.010295537767709929 0.018218383724332148 0 -0.010371127461815536 0.01796797667909452 0 -0.01012867843598388 0.018238304722784746 0 -0.010371127461815536 0.01796797667909452 0 -0.010239463220512548 0.018070546873867076 0 -0.010295537767709929 0.018218383724332148 0 -0.010371127461815536 0.01796797667909452 0 -0.010433978039133044 0.017839970363558021 0 -0.010295537767709929 0.018218383724332148 0 -0.010433978039133044 0.017839970363558021 0 -0.010498575440102579 0.018312886032807223 0 -0.010371127461815536 0.01796797667909452 0 -0.010547308714985722 0.017339281644862349 0 -0.010239463220512548 0.018070546873867076 0 -0.010371127461815536 0.01796797667909452 0 -0.010547308714985722 0.017339281644862349 0 -0.010433978039133044 0.017839970363558021 0 -0.0089399997628276853 0.01543917689545786 0 -0.009108676154558978 0.015434444140681212 0 -0.0093726096667875094 0.015726125762839018 0 -0.0092229818687005749 0.017120195814603344 0 -0.0099871785523159839 0.017134874924395752 0 -0.0092229818687005749 0.017120195814603344 0 -0.0099871785523159839 0.017134874924395752 0 -0.010046336645456637 0.017747322368847403 0 -0.0093726096667875094 0.015726125762839018 0 -0.010547308714985722 0.017339281644862349 0 -0.0099871785523159839 0.017134874924395752 0 -0.010547308714985722 0.017339281644862349 0 -0.0099871785523159839 0.017134874924395752 0 -0.010433978039133044 0.017839970363558021 0 -0.0099871785523159839 0.017134874924395752 0 -0.010433978039133044 0.017839970363558021 0 -0.010046336645456637 0.017747322368847403 0 -0.010433978039133044 0.017839970363558021 0 -0.010519128276357018 0.018341181351253285 0 -0.010046336645456637 0.017747322368847403 0 -0.010433978039133044 0.017839970363558021 0 -0.010519128276357018 0.018341181351253285 0 -0.010498575440102579 0.018312886032807223 0 -0.0092229818687005749 0.017120195814603344 0 -0.010046336645456637 0.017747322368847403 0 -0.0096435613227938734 0.018840916846816078 0 -0.018576579689498905 0.0067460253049642918 0 -0.018083163914034684 0.0070047595973514714 0 -0.018385559185712618 0.0068281841116828871 0 -0.014087312897552268 0.011712550872626636 0 -0.013506872731257575 0.013811208799418696 0 -0.010519128276357018 0.018341181351253285 0 -0.010046336645456637 0.017747322368847403 0 -0.0096435613227938734 0.018840916846816078 0 -0.013506872731257575 0.013811208799418696 0 -0.013451926512312671 0.015571317262659395 0 -0.011947059840534275 0.018413344386794064 0 -0.012050085660653352 0.018142289669566145 0 -0.011063912398962679 0.018234675563862861 0 -0.0094765952359727786 0.018828282959256537 0 -0.013506872731257575 0.013811208799418696 0 -0.010519128276357018 0.018341181351253285 0 -0.011947059840534275 0.018413344386794064 0 -0.011063912398962679 0.018234675563862861 0 -0.012050085660653352 0.018142289669566145 0 -0.011063912398962679 0.018234675563862861 0 -0.011458269078523806 0.017502237377305632 0 -0.010519128276357018 0.018341181351253285 0 -0.010498575440102579 0.018312886032807223 0 -0.011063912398962679 0.018234675563862861 0 -0.011063912398962679 0.018234675563862861 0 -0.01060894201636866 0.017913701194461396 0 -0.011458269078523806 0.017502237377305632 0 -0.010498575440102579 0.018312886032807223 0 -0.011063912398962679 0.018234675563862861 0 -0.01060894201636866 0.017913701194461396 0 -0.011026772741698047 0.016824112143594135 0 -0.01060894201636866 0.017913701194461396 0 -0.011458269078523806 0.017502237377305632 0 -0.011026772741698047 0.016824112143594135 0 -0.011458269078523806 0.017502237377305632 0 -0.01249656844791969 0.016439726979903122 0 -0.012706643545184771 0.017198382126974106 0 -0.011458269078523806 0.017502237377305632 0 -0.01249656844791969 0.016439726979903122 0 -0.012050085660653352 0.018142289669566145 0 -0.012706643545184771 0.017198382126974106 0 -0.011458269078523806 0.017502237377305632 0 -0.012050085660653352 0.018142289669566145 0 -0.012706643545184771 0.017198382126974106 0 -0.015117917484999539 0.016740291887299794 0 -0.012706643545184771 0.017198382126974106 0 -0.01249656844791969 0.016439726979903122 0 -0.015117917484999539 0.016740291887299794 0 -0.015978278799517843 0.015884240647851395 0 -0.013488880043306284 0.016978630763629016 0 -0.016036119439387184 0.017805137317477668 0 -0.012762194178139119 0.0170558448170684 0 -0.018401655255060979 0.012518427514649511 0 -0.018083163914034684 0.0070047595973514714 0 -0.018298778428677179 0.0068106848853311556 0 -0.018267661793705047 0.0065869207675636858 0 -0.012166130100306571 0.018511388161252192 0 -0.012050085660653352 0.018142289669566145 0 -0.015117917484999539 0.016740291887299794 0 -0.013506872731257575 0.013811208799418696 0 -0.018401655255060979 0.012518427514649511 0 -0.018298778428677179 0.0068106848853311556 0 -0.018411666743318612 0.0066655904624219548 0 -0.018267661793705047 0.0065869207675636858 0 -0.01847564814599692 0.0067264024280068793 0 -0.018298778428677179 0.0068106848853311556 0 -0.018411666743318612 0.0066655904624219548 0 -0.01847564814599692 0.0067264024280068793 0 -0.018298778428677179 0.0068106848853311556 0 -0.018415817373580827 0.0067770518499492777 0 -0.018083163914034684 0.0070047595973514714 0 -0.018298778428677179 0.0068106848853311556 0 -0.018385559185712618 0.0068281841116828871 0 -0.018411666743318612 0.0066655904624219548 0 -0.018267661793705047 0.0065869207675636858 0 -0.018885434662667223 0.0063796204950126983 0 -0.018683695169219753 0.006621210241238365 0 -0.018411666743318612 0.0066655904624219548 0 -0.018885434662667223 0.0063796204950126983 0 -0.018683695169219753 0.006621210241238365 0 -0.018885434662667223 0.0063796204950126983 0 -0.019012784199389194 0.0065693590563458484 0 -0.01847564814599692 0.0067264024280068793 0 -0.018683695169219753 0.006621210241238365 0 -0.018411666743318612 0.0066655904624219548 0 -0.023059160322936451 0.010956952541450586 0 -0.025544092526278497 0.009083253876014467 0 -0.0225821478541068 0.0077493650042157669 0 -0.018401655255060979 0.012518427514649511 0 -0.020978240865980803 0.0071640398593912488 0 -0.017978062193408802 0.016206717698266013 0 -0.015978278799517843 0.015884240647851395 0 -0.016036119439387184 0.017805137317477668 0 -0.020610696677558871 0.013402913951367112 0 -0.018401655255060979 0.012518427514649511 0 -0.021116408187833904 0.0094624956631346683 0 -0.019575814514985235 0.0065580693824524566 0 -0.0225821478541068 0.0077493650042157669 0 -0.023059160322936451 0.010956952541450586 0 -0.021116408187833904 0.0094624956631346683 0 -0.0225821478541068 0.0077493650042157669 0 -0.019344009911842569 0.0097099316655160171 0 -0.019575814514985235 0.0065580693824524566 0 -0.018302533802221747 0.0071186474773226611 0 -0.021116408187833904 0.0094624956631346683 0 -0.019344009911842569 0.0097099316655160171 0 -0.019575814514985235 0.0065580693824524566 0 -0.019575814514985235 0.0065580693824524566 0 -0.018302533802221747 0.0071186474773226611 0 -0.019163343552578257 0.0061612890228183431 0 -0.019575814514985235 0.0065580693824524566 0 -0.019012784199389194 0.0065693590563458484 0 -0.019229440975729234 0.0063376717057259902 0 -0.019627874282041841 0.0065882975495651147 0 -0.020978240865980803 0.0071640398593912488 0 -0.019575814514985235 0.0065580693824524566 0 -0.018885434662667223 0.0063796204950126983 0 -0.019012784199389194 0.0065693590563458484 0 -0.019012784199389194 0.0065693590563458484 0 -0.018998797934076148 0.0064829767575352547 0 -0.018729656654112251 0.0066253568035185388 0 -0.019012784199389194 0.0065693590563458484 0 -0.018998797934076148 0.0064829767575352547 0 -0.019229440975729234 0.0063376717057259902 0 -0.018998797934076148 0.0064829767575352547 0 -0.019229440975729234 0.0063376717057259902 0 -0.019059995659552693 0.0063527094836681001 0 -0.019575814514985235 0.0065580693824524566 0 -0.019229440975729234 0.0063376717057259902 0 -0.019163343552578257 0.0061612890228183431 0 -0.019229440975729234 0.0063376717057259902 0 -0.019163343552578257 0.0061612890228183431 0 -0.019334926648782839 0.00606096645864985 0 -0.019229440975729234 0.0063376717057259902 0 -0.019059995659552693 0.0063527094836681001 0 -0.019334926648782839 0.00606096645864985 0 -0.019059995659552693 0.0063527094836681001 0 -0.019334926648782839 0.00606096645864985 0 -0.01914993651090104 0.0063478780634956874 0 -0.018998797934076148 0.0064829767575352547 0 -0.018885975385095927 0.006502891075229604 0 -0.019059995659552693 0.0063527094836681001 0 -0.018885975385095927 0.006502891075229604 0 -0.019059995659552693 0.0063527094836681001 0 -0.018857559737172534 0.0064511357830923915 0 -0.019059995659552693 0.0063527094836681001 0 -0.018857559737172534 0.0064511357830923915 0 -0.018988885241831482 0.0063723903960439489 0 -0.018857559737172534 0.0064511357830923915 0 -0.018745674702233418 0.0065075066972990342 0 -0.018786635539427228 0.0064363556317412396 0 -0.018857559737172534 0.0064511357830923915 0 -0.018754744888592613 0.0065575245254837211 0 -0.018745674702233418 0.0065075066972990342 0 -0.018885975385095927 0.006502891075229604 0 -0.018857559737172534 0.0064511357830923915 0 -0.018754744888592613 0.0065575245254837211 0 -0.018754744888592613 0.0065575245254837211 0 -0.018637222657032469 0.0066458220045496758 0 -0.018674429008316479 0.0065847107644366283 0 -0.018754744888592613 0.0065575245254837211 0 -0.018674429008316479 0.0065847107644366283 0 -0.018745674702233418 0.0065075066972990342 0 -0.018674429008316479 0.0065847107644366283 0 -0.018745674702233418 0.0065075066972990342 0 -0.018689344820908681 0.0065408917610598966 0 -0.018674429008316479 0.0065847107644366283 0 -0.018689344820908681 0.0065408917610598966 0 -0.01863125385351139 0.0065982767277905155 0 -0.018689344820908681 0.0065408917610598966 0 -0.01863125385351139 0.0065982767277905155 0 -0.01867613735779949 0.0065311084438640686 0 -0.018576579689498905 0.0067460253049642918 0 -0.01863125385351139 0.0065982767277905155 0 -0.018638222320615645 0.0065865537954720183 0 -0.018576579689498905 0.0067460253049642918 0 -0.01863125385351139 0.0065982767277905155 0 -0.018557223382530613 0.0066955961976018271 0 -0.018637222657032469 0.0066458220045496758 0 -0.018674429008316479 0.0065847107644366283 0 -0.018557223382530613 0.0066955961976018271 0 -0.018674429008316479 0.0065847107644366283 0 -0.01863125385351139 0.0065982767277905155 0 -0.018557223382530613 0.0066955961976018271 0 -0.018637222657032469 0.0066458220045496758 0 -0.018557223382530613 0.0066955961976018271 0 -0.018508506380892523 0.0067309404253708925 0 -0.018557223382530613 0.0066955961976018271 0 -0.018508506380892523 0.0067309404253708925 0 -0.018385559185712618 0.0068281841116828871 0 -0.018576579689498905 0.0067460253049642918 0 -0.018557223382530613 0.0066955961976018271 0 -0.018385559185712618 0.0068281841116828871 0 -0.018298778428677179 0.0068106848853311556 0 -0.018385559185712618 0.0068281841116828871 0 -0.018415817373580827 0.0067770518499492777 0 -0.018508506380892523 0.0067309404253708925 0 -0.018385559185712618 0.0068281841116828871 0 -0.018415817373580827 0.0067770518499492777 0 -0.01847564814599692 0.0067264024280068793 0 -0.018508506380892523 0.0067309404253708925 0 -0.018415817373580827 0.0067770518499492777 0 -0.01847564814599692 0.0067264024280068793 0 -0.018683695169219753 0.006621210241238365 0 -0.018729656654112251 0.0066253568035185388 0 -0.01847564814599692 0.0067264024280068793 0 -0.018508506380892523 0.0067309404253708925 0 -0.018729656654112251 0.0066253568035185388 0 -0.018683695169219753 0.006621210241238365 0 -0.019012784199389194 0.0065693590563458484 0 -0.018729656654112251 0.0066253568035185388 0 -0.018885975385095927 0.006502891075229604 0 -0.018754744888592613 0.0065575245254837211 0 -0.018729656654112251 0.0066253568035185388 0 -0.018998797934076148 0.0064829767575352547 0 -0.018885975385095927 0.006502891075229604 0 -0.018729656654112251 0.0066253568035185388 0 -0.018754744888592613 0.0065575245254837211 0 -0.018637222657032469 0.0066458220045496758 0 -0.018729656654112251 0.0066253568035185388 0 -0.018637222657032469 0.0066458220045496758 0 -0.018508506380892523 0.0067309404253708925 0 -0.018729656654112251 0.0066253568035185388 0 -0.022535158180406072 0.0016074290561066355 0 -0.023782319962176696 0.00044313107939354229 0 -0.02116746243321908 0.00075541465469424612 0 -0.022535158180406072 0.0016074290561066355 0 -0.021170849375013828 0.0023063294429127592 0 -0.022782952726079251 0.0029002549116960816 0 -0.02365213175859894 0.0020010393327022113 0 -0.022535158180406072 0.0016074290561066355 0 -0.022782952726079251 0.0029002549116960816 0 -0.02365213175859894 0.0020010393327022113 0 -0.022535158180406072 0.0016074290561066355 0 -0.023782319962176696 0.00044313107939354229 0 -0.025587573500736135 0.0025165640055347356 0 -0.02572593963923004 0.0024635633251064142 0 -0.02570389111825408 0.0024588839424671085 0 -0.025205850298969653 0.00074674032906137946 0 -0.020007614009980065 0.0060658075915924359 0 -0.025587573500736135 0.0025165640055347356 0 -0.02572593963923004 0.0024635633251064142 0 -0.025470120937575461 0.002598534864158967 0 -0.025974630011092171 0.002381955974473474 0 -0.02572593963923004 0.0024635633251064142 0 -0.02570389111825408 0.0024588839424671085 0 -0.022529190113673617 0.012906260071329865 0 -0.023677355552178855 0.0052922492547570416 0 -0.025631974964267307 0.0024623831660046456 0 -0.025553770643416775 0.0024970635581409782 0 -0.02570389111825408 0.0024588839424671085 0 -0.01642847676482985 0.013120043376113283 0 -0.019384536177984163 0.0031373998019434252 0 -0.023782319962176696 0.00044313107939354229 0 -0.020973742704722229 0.00042860583109236624 0 -0.02116746243321908 0.00075541465469424612 0 -0.023782319962176696 0.00044313107939354229 0 -0.020734163078005192 -0.0010524076294060531 0 -0.020973742704722229 0.00042860583109236624 0 -0.019824327989039228 0.0096376415253892102 0 -0.017629551825736504 0.0084655499180662872 0 -0.017067655953941427 0.0047300543408208759 0 -0.020007614009980065 0.0060658075915924359 0 -0.019384536177984163 0.0031373998019434252 0 -0.019384536177984163 0.0031373998019434252 0 -0.01940546880593785 0.0026088580890824909 0 -0.019692946278320182 0.0061930963597387704 0 -0.019906172089418635 0.005754655013337882 0 -0.019694405507642808 0.0060895474740135782 0 -0.021001114071887487 0.00042744736041198743 0 -0.02116746243321908 0.00075541465469424612 0 -0.021170849375013828 0.0023063294429127592 0 -0.019384536177984163 0.0031373998019434252 0 -0.020637142105144522 0.0041727906094520114 0 -0.022535158180406072 0.0016074290561066355 0 -0.02116746243321908 0.00075541465469424612 0 -0.021170849375013828 0.0023063294429127592 0 -0.019906172089418635 0.005754655013337882 0 -0.019694405507642808 0.0060895474740135782 0 -0.020011929813932433 0.0056379530366343746 0 -0.019694405507642808 0.0060895474740135782 0 -0.019579447213084571 0.0059300917269102518 0 -0.020011929813932433 0.0056379530366343746 0 -0.019694405507642808 0.0060895474740135782 0 -0.01917783841769341 0.0064585419121342266 0 -0.019579447213084571 0.0059300917269102518 0 -0.019694405507642808 0.0060895474740135782 0 -0.01917783841769341 0.0064585419121342266 0 -0.019507201201712569 0.0062413052350584353 0 -0.019692946278320182 0.0061930963597387704 0 -0.019694405507642808 0.0060895474740135782 0 -0.019507201201712569 0.0062413052350584353 0 -0.019569082074615784 0.0056573194201766323 0 -0.019507201201712569 0.0062413052350584353 0 -0.019221209760131541 0.0062552735947199204 0 -0.019569082074615784 0.0056573194201766323 0 -0.019692946278320182 0.0061930963597387704 0 -0.019507201201712569 0.0062413052350584353 0 -0.019375120668608404 0.0054737332136706599 0 -0.019221209760131541 0.0062552735947199204 0 -0.018302533802221747 0.0071186474773226611 0 -0.019569082074615784 0.0056573194201766323 0 -0.019375120668608404 0.0054737332136706599 0 -0.019221209760131541 0.0062552735947199204 0 -0.01917783841769341 0.0064585419121342266 0 -0.019507201201712569 0.0062413052350584353 0 -0.019221209760131541 0.0062552735947199204 0 -0.017430096511562802 0.010751456402851 0 -0.019344009911842569 0.0097099316655160171 0 -0.018302533802221747 0.0071186474773226611 0 -0.015871341540466526 0.015453482610116974 0 -0.019089941950730587 0.0046981460310618799 0 -0.017430096511562802 0.010751456402851 0 -0.013841210564707909 0.01136703370672915 0 -0.018302533802221747 0.0071186474773226611 0 -0.01917783841769341 0.0064585419121342266 0 -0.019221209760131541 0.0062552735947199204 0 -0.018302533802221747 0.0071186474773226611 0 -0.01917783841769341 0.0064585419121342266 0 -0.019163343552578257 0.0061612890228183431 0 -0.019579447213084571 0.0059300917269102518 0 -0.01917783841769341 0.0064585419121342266 0 -0.018302533802221747 0.0071186474773226611 0 -0.019163343552578257 0.0061612890228183431 0 -0.019163343552578257 0.0061612890228183431 0 -0.019589244751992439 0.0058495339889805169 0 -0.019579447213084571 0.0059300917269102518 0 -0.019163343552578257 0.0061612890228183431 0 -0.019589244751992439 0.0058495339889805169 0 -0.019334926648782839 0.00606096645864985 0 -0.019589244751992439 0.0058495339889805169 0 -0.019334926648782839 0.00606096645864985 0 -0.020234187117827158 0.0058860853134926 0 -0.019589244751992439 0.0058495339889805169 0 -0.020124948798102567 0.0055054000549866547 0 -0.020234187117827158 0.0058860853134926 0 -0.020124948798102567 0.0055054000549866547 0 -0.02124588175052709 0.004701335775664982 0 -0.020234187117827158 0.0058860853134926 0 -0.019589244751992439 0.0058495339889805169 0 -0.020124948798102567 0.0055054000549866547 0 -0.019579447213084571 0.0059300917269102518 0 -0.020124948798102567 0.0055054000549866547 0 -0.019579447213084571 0.0059300917269102518 0 -0.020011929813932433 0.0056379530366343746 0 -0.021170849375013828 0.0023063294429127592 0 -0.02124588175052709 0.004701335775664982 0 -0.022782952726079251 0.0029002549116960816 0 -0.020637142105144522 0.0041727906094520114 0 -0.021046484259485573 0.0047675950779315392 0 -0.019906172089418635 0.005754655013337882 0 -0.020011929813932433 0.0056379530366343746 0 -0.02124588175052709 0.004701335775664982 0 -0.020124948798102567 0.0055054000549866547 0 -0.020011929813932433 0.0056379530366343746 0 -0.02124588175052709 0.004701335775664982 0 -0.02124588175052709 0.004701335775664982 0 -0.022019908596566214 0.0055501661345128891 0 -0.020234187117827158 0.0058860853134926 0 -0.024228534907985128 0.0049202430878987867 0 -0.023314756555338496 0.0042558784731051829 0 -0.022019908596566214 0.0055501661345128891 0 -0.02124588175052709 0.004701335775664982 0 -0.023314756555338496 0.0042558784731051829 0 -0.022019908596566214 0.0055501661345128891 0 -0.024312689905110395 0.0028853841768750905 0 -0.023314756555338496 0.0042558784731051829 0 -0.022782952726079251 0.0029002549116960816 0 -0.02124588175052709 0.004701335775664982 0 -0.023314756555338496 0.0042558784731051829 0 -0.022782952726079251 0.0029002549116960816 0 -0.024312689905110395 0.0028853841768750905 0 -0.02365213175859894 0.0020010393327022113 0 -0.022782952726079251 0.0029002549116960816 0 -0.022964887984710438 0.0072092240515240352 0 -0.023482485323064219 0.0058581814582025537 0 -0.021738951885832775 0.006452572693459265 0 -0.025997271696918515 0.0059118149840886895 0 -0.022964887984710438 0.0072092240515240352 0 -0.023482485323064219 0.0058581814582025537 0 -0.024228534907985128 0.0049202430878987867 0 -0.023482485323064219 0.0058581814582025537 0 -0.022019908596566214 0.0055501661345128891 0 -0.021738951885832775 0.006452572693459265 0 -0.022019908596566214 0.0055501661345128891 0 -0.020234187117827158 0.0058860853134926 0 -0.023482485323064219 0.0058581814582025537 0 -0.021738951885832775 0.006452572693459265 0 -0.022019908596566214 0.0055501661345128891 0 -0.022964887984710438 0.0072092240515240352 0 -0.021738951885832775 0.006452572693459265 0 -0.020590582267656983 0.0071593194314838546 0 -0.023953000839833812 0.0049533305764804369 0 -0.021256574632026778 0.0048064846148833428 0 -0.022341206545250673 0.0056591313609832359 0 -0.023423666046835115 0.0060416284288284964 0 -0.02098537423893054 0.0059997591901329896 0 -0.020590582267656983 0.0071593194314838546 0 -0.020234187117827158 0.0058860853134926 0 -0.019757381416664221 0.0064138332038218481 0 -0.021738951885832775 0.006452572693459265 0 -0.020590582267656983 0.0071593194314838546 0 -0.020234187117827158 0.0058860853134926 0 -0.019334926648782839 0.00606096645864985 0 -0.019757381416664221 0.0064138332038218481 0 -0.01914993651090104 0.0063478780634956874 0 -0.019334926648782839 0.00606096645864985 0 -0.020234187117827158 0.0058860853134926 0 -0.019757381416664221 0.0064138332038218481 0 -0.019757381416664221 0.0064138332038218481 0 -0.019363204938839741 0.0067496073838392888 0 -0.01914993651090104 0.0063478780634956874 0 -0.02098537423893054 0.0059997591901329896 0 -0.019655625062526751 0.006073249836081861 0 -0.020590582267656983 0.0071593194314838546 0 -0.019757381416664221 0.0064138332038218481 0 -0.019363204938839741 0.0067496073838392888 0 -0.021256574632026778 0.0048064846148833428 0 -0.019795084420859504 0.0053782426926352643 0 -0.020116331989177217 0.0057675007114144005 0 -0.020116331989177217 0.0057675007114144005 0 -0.01999410299304279 0.0063080552082581051 0 -0.019324231095936454 0.0061330202762083794 0 -0.020116331989177217 0.0057675007114144005 0 -0.01999410299304279 0.0063080552082581051 0 -0.020703994778636922 0.0058374709188517655 0 -0.019795084420859504 0.0053782426926352643 0 -0.020116331989177217 0.0057675007114144005 0 -0.019324231095936454 0.0061330202762083794 0 -0.01999410299304279 0.0063080552082581051 0 -0.020991983243360532 0.0062406232229453296 0 -0.020184967014514284 0.0066481947140232247 0 -0.01999410299304279 0.0063080552082581051 0 -0.020991983243360532 0.0062406232229453296 0 -0.020703994778636922 0.0058374709188517655 0 -0.021256574632026778 0.0048064846148833428 0 -0.020703994778636922 0.0058374709188517655 0 -0.022341206545250673 0.0056591313609832359 0 -0.021256574632026778 0.0048064846148833428 0 -0.020116331989177217 0.0057675007114144005 0 -0.020703994778636922 0.0058374709188517655 0 -0.020932712339273296 0.0058179526215161306 0 -0.023143321204255642 0.0059076910986154236 0 -0.020703994778636922 0.0058374709188517655 0 -0.022341206545250673 0.0056591313609832359 0 -0.023650107725499071 0.0070232792378114627 0 -0.023953000839833812 0.0049533305764804369 0 -0.022341206545250673 0.0056591313609832359 0 -0.023650107725499071 0.0070232792378114627 0 -0.020991983243360532 0.0062406232229453296 0 -0.020703994778636922 0.0058374709188517655 0 -0.022556531136416869 0.0048009681526992474 0 -0.020991983243360532 0.0062406232229453296 0 -0.022556531136416869 0.0048009681526992474 0 -0.023426006848979292 0.0063947686610979614 0 -0.026053946453985639 0.0058208100344191013 0 -0.023143321204255642 0.0059076910986154236 0 -0.025803176559766269 0.0046937796886997148 0 -0.022556531136416869 0.0048009681526992474 0 -0.023426006848979292 0.0063947686610979614 0 -0.026345115581925451 0.0069717078839426861 0 -0.023650107725499071 0.0070232792378114627 0 -0.025085224419007845 0.0062349670660040418 0 -0.023953000839833812 0.0049533305764804369 0 -0.023650107725499071 0.0070232792378114627 0 -0.025085224419007845 0.0062349670660040418 0 -0.018778713662830612 0.0063104527468085484 0 -0.018603607777564063 0.0063300873899143489 0 -0.01869021638324422 0.0063585639836855057 0 -0.018778713662830612 0.0063104527468085484 0 -0.01893701841520435 0.0062941960252498319 0 -0.018708008989376329 0.0064115949149892004 0 -0.018778713662830612 0.0063104527468085484 0 -0.018583002333608347 0.0063766287680109652 0 -0.018708008989376329 0.0064115949149892004 0 -0.018778713662830612 0.0063104527468085484 0 -0.018583002333608347 0.0063766287680109652 0 -0.018603607777564063 0.0063300873899143489 0 -0.018583002333608347 0.0063766287680109652 0 -0.018316640991927122 0.0063545384194383225 0 -0.018603607777564063 0.0063300873899143489 0 -0.018583002333608347 0.0063766287680109652 0 -0.018316640991927122 0.0063545384194383225 0 -0.018457519142660767 0.0065120774725782775 0 -0.018316640991927122 0.0063545384194383225 0 -0.018603607777564063 0.0063300873899143489 0 -0.018581404263602528 0.006277867692476821 0 -0.014950317573125154 0.0089262363469161388 0 -0.015083149274511534 0.010046635968967614 0 -0.015822771287575452 0.0089361883494131177 0 -0.015270847046924045 0.0093086341061077767 0 -0.018306780981447238 0.0073373758124629131 0 -0.018603607777564063 0.0063300873899143489 0 -0.018581404263602528 0.006277867692476821 0 -0.01869021638324422 0.0063585639836855057 0 -0.018306780981447238 0.0073373758124629131 0 -0.018597949564043904 0.0069616825225485438 0 -0.018730091164277894 0.0064407371538089805 0 -0.018701656154628377 0.0064837200661152098 0 -0.01869021638324422 0.0063585639836855057 0 -0.018306780981447238 0.0073373758124629131 0 -0.018520588724409016 0.0069746441702129985 0 -0.018664619730825491 0.0065222872918808145 0 -0.018701656154628377 0.0064837200661152098 0 -0.018659705658825028 0.0065319421291080305 0 -0.018701656154628377 0.0064837200661152098 0 -0.018704203396136373 0.0064516449465312018 0 -0.01869021638324422 0.0063585639836855057 0 -0.018668916029586126 0.0065321420653664487 0 -0.018664619730825491 0.0065222872918808145 0 -0.018659705658825028 0.0065319421291080305 0 -0.012377556189311635 0.011187194137186494 0 -0.018306780981447238 0.0073373758124629131 0 -0.018668916029586126 0.0065321420653664487 0 -0.018638222320615645 0.0065865537954720183 0 -0.018659705658825028 0.0065319421291080305 0 -0.01863125385351139 0.0065982767277905155 0 -0.018638222320615645 0.0065865537954720183 0 -0.01867613735779949 0.0065311084438640686 0 -0.018638222320615645 0.0065865537954720183 0 -0.018659705658825028 0.0065319421291080305 0 -0.01867613735779949 0.0065311084438640686 0 -0.018701656154628377 0.0064837200661152098 0 -0.01867613735779949 0.0065311084438640686 0 -0.018704203396136373 0.0064516449465312018 0 -0.018701656154628377 0.0064837200661152098 0 -0.018659705658825028 0.0065319421291080305 0 -0.01867613735779949 0.0065311084438640686 0 -0.018745674702233418 0.0065075066972990342 0 -0.018689344820908681 0.0065408917610598966 0 -0.01872385625837495 0.0064749400953262497 0 -0.018689344820908681 0.0065408917610598966 0 -0.01867613735779949 0.0065311084438640686 0 -0.01872385625837495 0.0064749400953262497 0 -0.018745674702233418 0.0065075066972990342 0 -0.01872385625837495 0.0064749400953262497 0 -0.018786635539427228 0.0064363556317412396 0 -0.01872385625837495 0.0064749400953262497 0 -0.018757134923230515 0.0063835457347017855 0 -0.018786635539427228 0.0064363556317412396 0 -0.01872385625837495 0.0064749400953262497 0 -0.018704203396136373 0.0064516449465312018 0 -0.018757134923230515 0.0063835457347017855 0 -0.01867613735779949 0.0065311084438640686 0 -0.01872385625837495 0.0064749400953262497 0 -0.018704203396136373 0.0064516449465312018 0 -0.018778713662830612 0.0063104527468085484 0 -0.018757134923230515 0.0063835457347017855 0 -0.01869021638324422 0.0063585639836855057 0 -0.018704203396136373 0.0064516449465312018 0 -0.018757134923230515 0.0063835457347017855 0 -0.01869021638324422 0.0063585639836855057 0 -0.018778713662830612 0.0063104527468085484 0 -0.018757134923230515 0.0063835457347017855 0 -0.018869997249448919 0.0063596901603043664 0 -0.018757134923230515 0.0063835457347017855 0 -0.018786635539427228 0.0064363556317412396 0 -0.018869997249448919 0.0063596901603043664 0 -0.018857559737172534 0.0064511357830923915 0 -0.018786635539427228 0.0064363556317412396 0 -0.018869997249448919 0.0063596901603043664 0 -0.018988885241831482 0.0063723903960439489 0 -0.01914993651090104 0.0063478780634956874 0 -0.01899692373396367 0.0062106655557923329 0 -0.018988885241831482 0.0063723903960439489 0 -0.018869997249448919 0.0063596901603043664 0 -0.01899692373396367 0.0062106655557923329 0 -0.018857559737172534 0.0064511357830923915 0 -0.018988885241831482 0.0063723903960439489 0 -0.018869997249448919 0.0063596901603043664 0 -0.019059995659552693 0.0063527094836681001 0 -0.018988885241831482 0.0063723903960439489 0 -0.01914993651090104 0.0063478780634956874 0 -0.019655625062526751 0.006073249836081861 0 -0.019106181161836711 0.0061787587515138853 0 -0.019363204938839741 0.0067496073838392888 0 -0.01914993651090104 0.0063478780634956874 0 -0.01899692373396367 0.0062106655557923329 0 -0.019795084420859504 0.0053782426926352643 0 -0.01899692373396367 0.0062106655557923329 0 -0.019324231095936454 0.0061330202762083794 0 -0.018778713662830612 0.0063104527468085484 0 -0.01899692373396367 0.0062106655557923329 0 -0.01893701841520435 0.0062941960252498319 0 -0.018778713662830612 0.0063104527468085484 0 -0.018869997249448919 0.0063596901603043664 0 -0.01899692373396367 0.0062106655557923329 0 -0.01899692373396367 0.0062106655557923329 0 -0.01893701841520435 0.0062941960252498319 0 -0.019324231095936454 0.0061330202762083794 0 -0.019324231095936454 0.0061330202762083794 0 -0.019354060382275891 0.0065320875407218013 0 -0.018941196434442285 0.0065053861348413813 0 -0.01893701841520435 0.0062941960252498319 0 -0.019324231095936454 0.0061330202762083794 0 -0.018941196434442285 0.0065053861348413813 0 -0.01999410299304279 0.0063080552082581051 0 -0.019354060382275891 0.0065320875407218013 0 -0.019714580821122898 0.006913538284578075 0 -0.01999410299304279 0.0063080552082581051 0 -0.019324231095936454 0.0061330202762083794 0 -0.019354060382275891 0.0065320875407218013 0 -0.018941196434442285 0.0065053861348413813 0 -0.018712868878609557 0.0068300885406805201 0 -0.019081489335984855 0.0068958679831713178 0 -0.019354060382275891 0.0065320875407218013 0 -0.018941196434442285 0.0065053861348413813 0 -0.019081489335984855 0.0068958679831713178 0 -0.018941196434442285 0.0065053861348413813 0 -0.018712868878609557 0.0068300885406805201 0 -0.018559587461482022 0.006664062768095327 0 -0.018712868878609557 0.0068300885406805201 0 -0.018559587461482022 0.006664062768095327 0 -0.018341051425842154 0.0069353757686409353 0 -0.018941196434442285 0.0065053861348413813 0 -0.018559587461482022 0.006664062768095327 0 -0.018708008989376329 0.0064115949149892004 0 -0.018559587461482022 0.006664062768095327 0 -0.018708008989376329 0.0064115949149892004 0 -0.018457519142660767 0.0065120774725782775 0 -0.018583002333608347 0.0063766287680109652 0 -0.018708008989376329 0.0064115949149892004 0 -0.018457519142660767 0.0065120774725782775 0 -0.01893701841520435 0.0062941960252498319 0 -0.018941196434442285 0.0065053861348413813 0 -0.018708008989376329 0.0064115949149892004 0 -0.018316640991927122 0.0063545384194383225 0 -0.018457519142660767 0.0065120774725782775 0 -0.01810382024884661 0.0068236076989695946 0 -0.015270847046924045 0.0093086341061077767 0 -0.018353621852844792 0.005974742046540406 0 -0.018559587461482022 0.006664062768095327 0 -0.018457519142660767 0.0065120774725782775 0 -0.01810382024884661 0.0068236076989695946 0 -0.017970753197454239 0.0069375977055395818 0 -0.01810382024884661 0.0068236076989695946 0 -0.018341051425842154 0.0069353757686409353 0 -0.018559587461482022 0.006664062768095327 0 -0.01810382024884661 0.0068236076989695946 0 -0.018341051425842154 0.0069353757686409353 0 -0.018341051425842154 0.0069353757686409353 0 -0.018091277230431135 0.0071731245687585952 0 -0.01869469507500339 0.0072324178907892537 0 -0.017970753197454239 0.0069375977055395818 0 -0.018341051425842154 0.0069353757686409353 0 -0.018091277230431135 0.0071731245687585952 0 -0.016664727910637542 0.0053980408985598877 0 -0.016840998630796161 0.0054944539134164326 0 -0.013414196652835558 0.0030506635274317787 0 -0.01441174647190162 0.0046307576626550169 0 -0.013185106779339048 0.0046596016466259006 0 -0.013414196652835558 0.0030506635274317787 0 -0.01441174647190162 0.0046307576626550169 0 -0.015418189627903263 0.0038930098289606057 0 -0.01441174647190162 0.0046307576626550169 0 -0.015418189627903263 0.0038930098289606057 0 -0.015864898084928615 0.005106172048033545 0 -0.018712868878609557 0.0068300885406805201 0 -0.018341051425842154 0.0069353757686409353 0 -0.01869469507500339 0.0072324178907892537 0 -0.018712868878609557 0.0068300885406805201 0 -0.01869469507500339 0.0072324178907892537 0 -0.019081489335984855 0.0068958679831713178 0 -0.019081489335984855 0.0068958679831713178 0 -0.019714580821122898 0.006913538284578075 0 -0.019365941732449043 0.0072394776947634189 0 -0.019354060382275891 0.0065320875407218013 0 -0.019081489335984855 0.0068958679831713178 0 -0.019714580821122898 0.006913538284578075 0 -0.019714580821122898 0.006913538284578075 0 -0.019365941732449043 0.0072394776947634189 0 -0.019802400349131697 0.0070905543635440887 0 -0.018521443897282042 0.0062078693730886611 0 -0.019650383828562733 0.0069337763158817175 0 -0.01869469507500339 0.0072324178907892537 0 -0.019081489335984855 0.0068958679831713178 0 -0.019365941732449043 0.0072394776947634189 0 -0.015418189627903263 0.0038930098289606057 0 -0.015864898084928615 0.005106172048033545 0 -0.017684207866806866 0.0050813877311856768 0 -0.016840998630796161 0.0054944539134164326 0 -0.018521443897282042 0.0062078693730886611 0 -0.015864898084928615 0.005106172048033545 0 -0.017684207866806866 0.0050813877311856768 0 -0.016643529216770276 0.0059198675382529714 0 -0.016643529216770276 0.0059198675382529714 0 -0.01607896677533727 0.0062364411077440738 0 -0.016319295931189474 0.0065760357683553334 0 -0.017684207866806866 0.0050813877311856768 0 -0.016643529216770276 0.0059198675382529714 0 -0.018708083716413332 0.0069708736250539225 0 -0.016643529216770276 0.0059198675382529714 0 -0.018708083716413332 0.0069708736250539225 0 -0.018731977324947784 0.0083066676228572781 0 -0.017684207866806866 0.0050813877311856768 0 -0.018708083716413332 0.0069708736250539225 0 -0.019802400349131697 0.0070905543635440887 0 -0.018708083716413332 0.0069708736250539225 0 -0.018731977324947784 0.0083066676228572781 0 -0.019702250267251812 0.0078264690301764906 0 -0.016643529216770276 0.0059198675382529714 0 -0.016712014611176645 0.0067990113816077087 0 -0.016319295931189474 0.0065760357683553334 0 -0.016671652249558508 0.0059840520270346143 0 -0.0177044964344873 0.0074512146220109465 0 -0.016712014611176645 0.0067990113816077087 0 -0.016319295931189474 0.0065760357683553334 0 -0.01620151503818144 0.0069403841305973411 0 -0.01607896677533727 0.0062364411077440738 0 -0.016319295931189474 0.0065760357683553334 0 -0.015787367755007494 0.0065813831912383651 0 -0.016319295931189474 0.0065760357683553334 0 -0.015787367755007494 0.0065813831912383651 0 -0.01620151503818144 0.0069403841305973411 0 -0.015787367755007494 0.0065813831912383651 0 -0.01556898873946295 0.0070669917188872847 0 -0.01620151503818144 0.0069403841305973411 0 -0.01607896677533727 0.0062364411077440738 0 -0.015787367755007494 0.0065813831912383651 0 -0.015461456013485281 0.0058185502722647182 0 -0.015787367755007494 0.0065813831912383651 0 -0.014889251322301343 0.006357564272273083 0 -0.015461456013485281 0.0058185502722647182 0 -0.014889251322301343 0.006357564272273083 0 -0.014475007450824542 0.0073193335721146724 0 -0.01556898873946295 0.0070669917188872847 0 -0.015787367755007494 0.0065813831912383651 0 -0.014889251322301343 0.006357564272273083 0 -0.01556898873946295 0.0070669917188872847 0 -0.014889251322301343 0.006357564272273083 0 -0.013628925839058614 0.0058125763997834475 0 -0.014475007450824542 0.0073193335721146724 0 -0.013287036166709469 0.0061698350796683139 0 -0.012009575557061974 0.0060586300059747153 0 -0.014889251322301343 0.006357564272273083 0 -0.014264820371282409 0.0054825320873476994 0 -0.013628925839058614 0.0058125763997834475 0 -0.01441174647190162 0.0046307576626550169 0 -0.014264820371282409 0.0054825320873476994 0 -0.013185106779339048 0.0046596016466259006 0 -0.014264820371282409 0.0054825320873476994 0 -0.013628925839058614 0.0058125763997834475 0 -0.013185106779339048 0.0046596016466259006 0 -0.01441174647190162 0.0046307576626550169 0 -0.014264820371282409 0.0054825320873476994 0 -0.015461456013485281 0.0058185502722647182 0 -0.01441174647190162 0.0046307576626550169 0 -0.015864898084928615 0.005106172048033545 0 -0.015461456013485281 0.0058185502722647182 0 -0.015864898084928615 0.005106172048033545 0 -0.016643529216770276 0.0059198675382529714 0 -0.015461456013485281 0.0058185502722647182 0 -0.016643529216770276 0.0059198675382529714 0 -0.01607896677533727 0.0062364411077440738 0 -0.015461456013485281 0.0058185502722647182 0 -0.014889251322301343 0.006357564272273083 0 -0.014264820371282409 0.0054825320873476994 0 -0.015461456013485281 0.0058185502722647182 0 -0.023734235851185292 0.0084615889709780019 0 -0.023426006848979292 0.0063947686610979614 0 -0.021210633461020471 0.0076161941117780969 0 -0.020991983243360532 0.0062406232229453296 0 -0.023426006848979292 0.0063947686610979614 0 -0.021210633461020471 0.0076161941117780969 0 -0.021210633461020471 0.0076161941117780969 0 -0.020248059620766881 0.0071380186467173371 0 -0.020268506780937692 0.0075918595318037315 0 -0.020248059620766881 0.0071380186467173371 0 -0.019802400349131697 0.0070905543635440887 0 -0.020268506780937692 0.0075918595318037315 0 -0.020991983243360532 0.0062406232229453296 0 -0.020248059620766881 0.0071380186467173371 0 -0.020184967014514284 0.0066481947140232247 0 -0.020991983243360532 0.0062406232229453296 0 -0.021210633461020471 0.0076161941117780969 0 -0.020248059620766881 0.0071380186467173371 0 -0.019714580821122898 0.006913538284578075 0 -0.020248059620766881 0.0071380186467173371 0 -0.020184967014514284 0.0066481947140232247 0 -0.01999410299304279 0.0063080552082581051 0 -0.019714580821122898 0.006913538284578075 0 -0.020184967014514284 0.0066481947140232247 0 -0.019714580821122898 0.006913538284578075 0 -0.020248059620766881 0.0071380186467173371 0 -0.019802400349131697 0.0070905543635440887 0 -0.018708083716413332 0.0069708736250539225 0 -0.019802400349131697 0.0070905543635440887 0 -0.019702250267251812 0.0078264690301764906 0 -0.019802400349131697 0.0070905543635440887 0 -0.019702250267251812 0.0078264690301764906 0 -0.020268506780937692 0.0075918595318037315 0 -0.018731977324947784 0.0083066676228572781 0 -0.019702250267251812 0.0078264690301764906 0 -0.019427746279015112 0.0082363283130856123 0 -0.019956886400758822 0.0080026114927473774 0 -0.020268506780937692 0.0075918595318037315 0 -0.02038926342650629 0.0077602816419725428 0 -0.019702250267251812 0.0078264690301764906 0 -0.019956886400758822 0.0080026114927473774 0 -0.020268506780937692 0.0075918595318037315 0 -0.019702250267251812 0.0078264690301764906 0 -0.019956886400758822 0.0080026114927473774 0 -0.019674173642008838 0.0081870741645947171 0 -0.023734235851185292 0.0084615889709780019 0 -0.021210633461020471 0.0076161941117780969 0 -0.021648655230522278 0.010462393548681923 0 -0.021164689162065872 0.007477116275297617 0 -0.020816315859602079 0.0095423117277832568 0 -0.021210633461020471 0.0076161941117780969 0 -0.020268506780937692 0.0075918595318037315 0 -0.02038926342650629 0.0077602816419725428 0 -0.020816315859602079 0.0095423117277832568 0 -0.023735502557133106 0.0080187577918790446 0 -0.021648655230522278 0.010462393548681923 0 -0.023965376702986263 0.010940011580985301 0 -0.02197810739635413 0.012865795543694511 0 -0.019956886400758822 0.0080026114927473774 0 -0.02038926342650629 0.0077602816419725428 0 -0.019907244818075688 0.0081579968821354123 0 -0.027555063494924665 0.0084099823584525869 0 -0.023735502557133106 0.0080187577918790446 0 -0.030241977767745221 0.0058798061390297526 0 -0.03045385850571827 0.0051703096041673625 0 -0.031185647524446369 0.0050750375709359219 0 -0.023734235851185292 0.0084615889709780019 0 -0.021648655230522278 0.010462393548681923 0 -0.023965376702986263 0.010940011580985301 0 -0.030422852749595556 0.0037646052952072569 0 -0.030757098799557125 0.0042856424958884606 0 -0.031039017711594355 0.0037188252879901602 0 -0.030757098799557125 0.0042856424958884606 0 -0.030346755984796744 0.0045548483902127209 0 -0.030687386569357301 0.0047445242114038996 0 -0.030422852749595556 0.0037646052952072569 0 -0.030757098799557125 0.0042856424958884606 0 -0.030346755984796744 0.0045548483902127209 0 -0.030346755984796744 0.0045548483902127209 0 -0.03045385850571827 0.0051703096041673625 0 -0.030687386569357301 0.0047445242114038996 0 -0.03045385850571827 0.0051703096041673625 0 -0.030687386569357301 0.0047445242114038996 0 -0.031185647524446369 0.0050750375709359219 0 -0.030757098799557125 0.0042856424958884606 0 -0.030687386569357301 0.0047445242114038996 0 -0.031185647524446369 0.0050750375709359219 0 -0.023735502557133106 0.0080187577918790446 0 -0.022205866000704198 0.008815232836496479 0 -0.019956886400758822 0.0080026114927473774 0 -0.019907244818075688 0.0081579968821354123 0 -0.019749856093624778 0.0081747665325946055 0 -0.01978231957194302 0.0081934446587001095 0 -0.019748318613151988 0.0081986220125338776 0 -0.019531219333785592 0.0081982283134073627 0 -0.019749856093624778 0.0081747665325946055 0 -0.019748318613151988 0.0081986220125338776 0 -0.019653214908646559 0.0082040894432565594 0 -0.019748318613151988 0.0081986220125338776 0 -0.019653214908646559 0.0082040894432565594 0 -0.019531219333785592 0.0081982283134073627 0 -0.019907244818075688 0.0081579968821354123 0 -0.019749856093624778 0.0081747665325946055 0 -0.019748318613151988 0.0081986220125338776 0 -0.01978231957194302 0.0081934446587001095 0 -0.019531219333785592 0.0081982283134073627 0 -0.019349117729166948 0.0081880867230157382 0 -0.023735502557133106 0.0080187577918790446 0 -0.025337926871693346 0.0054191758898528728 0 -0.019653214908646559 0.0082040894432565594 0 -0.019531219333785592 0.0081982283134073627 0 -0.019569960367674475 0.0082273736297845991 0 -0.030757098799557125 0.0042856424958884606 0 -0.031185647524446369 0.0050750375709359219 0 -0.031039017711594355 0.0037188252879901602 0 -0.019531219333785592 0.0081982283134073627 0 -0.019340392772843638 0.0081823397334339319 0 -0.019229450782779236 0.0080577192292190843 0 -0.019531219333785592 0.0081982283134073627 0 -0.019229450782779236 0.0080577192292190843 0 -0.019349117729166948 0.0081880867230157382 0 -0.019340392772843638 0.0081823397334339319 0 -0.019538630740048912 0.0082796864493289955 0 -0.019540474928085305 0.0083107791948302916 0 -0.019340392772843638 0.0081823397334339319 0 -0.019569960367674475 0.0082273736297845991 0 -0.019538630740048912 0.0082796864493289955 0 -0.019531219333785592 0.0081982283134073627 0 -0.019340392772843638 0.0081823397334339319 0 -0.019569960367674475 0.0082273736297845991 0 -0.019749856093624778 0.0081747665325946055 0 -0.019653214908646559 0.0082040894432565594 0 -0.019569960367674475 0.0082273736297845991 0 -0.019749856093624778 0.0081747665325946055 0 -0.019569960367674475 0.0082273736297845991 0 -0.019674173642008838 0.0081870741645947171 0 -0.019956886400758822 0.0080026114927473774 0 -0.019749856093624778 0.0081747665325946055 0 -0.019674173642008838 0.0081870741645947171 0 -0.019569960367674475 0.0082273736297845991 0 -0.019674173642008838 0.0081870741645947171 0 -0.019538630740048912 0.0082796864493289955 0 -0.019538630740048912 0.0082796864493289955 0 -0.019427746279015112 0.0082363283130856123 0 -0.019540474928085305 0.0083107791948302916 0 -0.0177044964344873 0.0074512146220109465 0 -0.018316043237702469 0.007636358076107669 0 -0.019702250267251812 0.0078264690301764906 0 -0.019674173642008838 0.0081870741645947171 0 -0.019427746279015112 0.0082363283130856123 0 -0.019674173642008838 0.0081870741645947171 0 -0.019538630740048912 0.0082796864493289955 0 -0.019427746279015112 0.0082363283130856123 0 -0.018731977324947784 0.0083066676228572781 0 -0.019427746279015112 0.0082363283130856123 0 -0.019540474928085305 0.0083107791948302916 0 -0.017099407069766228 0.0068496304391330197 0 -0.017295063951372848 0.0072751003049271309 0 -0.016621059065874581 0.007126212987954985 0 -0.017099407069766228 0.0068496304391330197 0 -0.017295063951372848 0.0072751003049271309 0 -0.018719869499486688 0.0080307951949103035 0 -0.017295063951372848 0.0072751003049271309 0 -0.017451585801316435 0.008326175613194129 0 -0.018719869499486688 0.0080307951949103035 0 -0.017295063951372848 0.0072751003049271309 0 -0.017451585801316435 0.008326175613194129 0 -0.016118958097970808 0.0076540357468619473 0 -0.017295063951372848 0.0072751003049271309 0 -0.015950904240981733 0.0069880061529341677 0 -0.016118958097970808 0.0076540357468619473 0 -0.017451585801316435 0.008326175613194129 0 -0.016130958591718442 0.0086898417986592119 0 -0.017389247020614708 0.0094424829825027791 0 -0.017451585801316435 0.008326175613194129 0 -0.016118958097970808 0.0076540357468619473 0 -0.016130958591718442 0.0086898417986592119 0 -0.017451585801316435 0.008326175613194129 0 -0.01844505046049745 0.008913457822428356 0 -0.018719869499486688 0.0080307951949103035 0 -0.017451585801316435 0.008326175613194129 0 -0.01844505046049745 0.008913457822428356 0 -0.017389247020614708 0.0094424829825027791 0 -0.01844505046049745 0.008913457822428356 0 -0.019042507856506387 0.0082284080140318325 0 -0.019269314996335846 0.0091287764271539475 0 -0.01844505046049745 0.008913457822428356 0 -0.018719869499486688 0.0080307951949103035 0 -0.019042507856506387 0.0082284080140318325 0 -0.018316043237702469 0.007636358076107669 0 -0.018734541056294872 0.0080575539483197338 0 -0.019340392772843638 0.0081823397334339319 0 -0.019540474928085305 0.0083107791948302916 0 -0.018719869499486688 0.0080307951949103035 0 -0.018719869499486688 0.0080307951949103035 0 -0.019229450782779236 0.0080577192292190843 0 -0.019042507856506387 0.0082284080140318325 0 -0.019340392772843638 0.0081823397334339319 0 -0.018719869499486688 0.0080307951949103035 0 -0.019229450782779236 0.0080577192292190843 0 -0.025337926871693346 0.0054191758898528728 0 -0.025286231917930911 0.0063816016435836939 0 -0.019349117729166948 0.0081880867230157382 0 -0.019318641419783532 0.007640449350155884 0 -0.019382078439657474 0.0079249804376134419 0 -0.019229450782779236 0.0080577192292190843 0 -0.019349117729166948 0.0081880867230157382 0 -0.019382078439657474 0.0079249804376134419 0 -0.019229450782779236 0.0080577192292190843 0 -0.019042507856506387 0.0082284080140318325 0 -0.019382078439657474 0.0079249804376134419 0 -0.019042507856506387 0.0082284080140318325 0 -0.019382078439657474 0.0079249804376134419 0 -0.019269314996335846 0.0091287764271539475 0 -0.019675760134450101 0.0074238081834985727 0 -0.019213483839839798 0.0097280031143541362 0 -0.019318641419783532 0.007640449350155884 0 -0.019382078439657474 0.0079249804376134419 0 -0.020005913699063821 0.0070825956910467698 0 -0.03010957222807302 0.0026149455654986753 0 -0.03069860711439662 0.0026901436096304523 0 -0.030304967230160663 0.0023390766906558188 0 -0.03010957222807302 0.0026149455654986753 0 -0.03069860711439662 0.0026901436096304523 0 -0.030456083937404774 0.0031643593592878116 0 -0.03002300498697634 0.0031584972939325087 0 -0.03010957222807302 0.0026149455654986753 0 -0.030456083937404774 0.0031643593592878116 0 -0.031039017711594355 0.0037188252879901602 0 -0.03069860711439662 0.0026901436096304523 0 -0.030456083937404774 0.0031643593592878116 0 -0.030422852749595556 0.0037646052952072569 0 -0.031039017711594355 0.0037188252879901602 0 -0.030456083937404774 0.0031643593592878116 0 -0.03002300498697634 0.0031584972939325087 0 -0.030422852749595556 0.0037646052952072569 0 -0.030456083937404774 0.0031643593592878116 0 -0.012476792436170576 0.0059376647854181381 0 -0.01318328355508749 0.0057197387562954926 0 -0.01324612357860218 0.0062132150020288582 0 -0.01318328355508749 0.0057197387562954926 0 -0.01324612357860218 0.0062132150020288582 0 -0.014045945510092131 0.0066754289602862166 0 -0.012476792436170576 0.0059376647854181381 0 -0.013027143744278916 0.0064149623068640964 0 -0.01324612357860218 0.0062132150020288582 0 -0.013027143744278916 0.0064149623068640964 0 -0.01324612357860218 0.0062132150020288582 0 -0.013462075852472642 0.0065454549060183767 0 -0.013027143744278916 0.0064149623068640964 0 -0.013462075852472642 0.0065454549060183767 0 -0.013466383595004067 0.0069637329159785112 0 -0.013027143744278916 0.0064149623068640964 0 -0.012483883372437879 0.00649239750608477 0 -0.012901037070714444 0.0068730897237873241 0 -0.012476792436170576 0.0059376647854181381 0 -0.013027143744278916 0.0064149623068640964 0 -0.012483883372437879 0.00649239750608477 0 -0.012476792436170576 0.0059376647854181381 0 -0.012483883372437879 0.00649239750608477 0 -0.012092289493439202 0.0062312168355829443 0 -0.012483883372437879 0.00649239750608477 0 -0.012070014187632684 0.0066027235464996186 0 -0.012092289493439202 0.0062312168355829443 0 -0.012483883372437879 0.00649239750608477 0 -0.012070014187632684 0.0066027235464996186 0 -0.012414965036395954 0.0069566710228191036 0 -0.012070014187632684 0.0066027235464996186 0 -0.01157876449065914 0.0064070063372614512 0 -0.011897804199815948 0.0069915330841694035 0 -0.012070014187632684 0.0066027235464996186 0 -0.012092289493439202 0.0062312168355829443 0 -0.01157876449065914 0.0064070063372614512 0 -0.01157876449065914 0.0064070063372614512 0 -0.011652219596845542 0.0057853611277822641 0 -0.010954309748507836 0.0060026408575309491 0 -0.012092289493439202 0.0062312168355829443 0 -0.01157876449065914 0.0064070063372614512 0 -0.011652219596845542 0.0057853611277822641 0 -0.012476792436170576 0.0059376647854181381 0 -0.012092289493439202 0.0062312168355829443 0 -0.011652219596845542 0.0057853611277822641 0 -0.012476792436170576 0.0059376647854181381 0 -0.011652219596845542 0.0057853611277822641 0 -0.011680038847460879 0.0051004777357610389 0 -0.011652219596845542 0.0057853611277822641 0 -0.011680038847460879 0.0051004777357610389 0 -0.011172259605893322 0.0053325276991860893 0 -0.011680038847460879 0.0051004777357610389 0 -0.011172259605893322 0.0053325276991860893 0 -0.011006652614909499 0.0053364895818197623 0 -0.013774505243286668 0.0057544927983193325 0 -0.012738180223704333 0.0048769806067421682 0 -0.013915114865883744 0.0054482637679254334 0 -0.013287036166709469 0.0061698350796683139 0 -0.014968723330167636 0.0064037091906283834 0 -0.014475007450824542 0.0073193335721146724 0 -0.016006447808588779 0.0073917699014396697 0 -0.01556898873946295 0.0070669917188872847 0 -0.012476792436170576 0.0059376647854181381 0 -0.01318328355508749 0.0057197387562954926 0 -0.011680038847460879 0.0051004777357610389 0 -0.013263749649834225 0.0055425623226290424 0 -0.013287036166709469 0.0061698350796683139 0 -0.01556898873946295 0.0070669917188872847 0 -0.016021290121103014 0.0071517865396497236 0 -0.01620151503818144 0.0069403841305973411 0 -0.016006447808588779 0.0073917699014396697 0 -0.01556898873946295 0.0070669917188872847 0 -0.016021290121103014 0.0071517865396497236 0 -0.016712014611176645 0.0067990113816077087 0 -0.01620151503818144 0.0069403841305973411 0 -0.016457972201810476 0.0070304412535635323 0 -0.016021290121103014 0.0071517865396497236 0 -0.01620151503818144 0.0069403841305973411 0 -0.016276651189510133 0.0071687176852013833 0 -0.01620151503818144 0.0069403841305973411 0 -0.016457972201810476 0.0070304412535635323 0 -0.016276651189510133 0.0071687176852013833 0 -0.016457972201810476 0.0070304412535635323 0 -0.016276651189510133 0.0071687176852013833 0 -0.016621059065874581 0.007126212987954985 0 -0.016006447808588779 0.0073917699014396697 0 -0.016021290121103014 0.0071517865396497236 0 -0.016276651189510133 0.0071687176852013833 0 -0.016712014611176645 0.0067990113816077087 0 -0.017099407069766228 0.0068496304391330197 0 -0.016621059065874581 0.007126212987954985 0 -0.016712014611176645 0.0067990113816077087 0 -0.016457972201810476 0.0070304412535635323 0 -0.016621059065874581 0.007126212987954985 0 -0.017190410621328468 0.0072181198270344525 0 -0.015992772167977221 0.006653874966340464 0 -0.017295063951372848 0.0072751003049271309 0 -0.015376575732317772 0.0061161813259130379 0 -0.015950904240981733 0.0069880061529341677 0 -0.015376575732317772 0.0061161813259130379 0 -0.015017862204278804 0.0068948617817688185 0 -0.015950904240981733 0.0069880061529341677 0 -0.013263749649834225 0.0055425623226290424 0 -0.015027921601728644 0.0069345780559877173 0 -0.016006447808588779 0.0073917699014396697 0 -0.016276651189510133 0.0071687176852013833 0 -0.016621059065874581 0.007126212987954985 0 -0.01318328355508749 0.0057197387562954926 0 -0.014045945510092131 0.0066754289602862166 0 -0.015017862204278804 0.0068948617817688185 0 -0.014968723330167636 0.0064037091906283834 0 -0.015992772167977221 0.006653874966340464 0 -0.013774505243286668 0.0057544927983193325 0 -0.013915114865883744 0.0054482637679254334 0 -0.015376575732317772 0.0061161813259130379 0 -0.013774505243286668 0.0057544927983193325 0 -0.015376575732317772 0.0061161813259130379 0 -0.015017862204278804 0.0068948617817688185 0 -0.01324612357860218 0.0062132150020288582 0 -0.013462075852472642 0.0065454549060183767 0 -0.014045945510092131 0.0066754289602862166 0 -0.014045945510092131 0.0066754289602862166 0 -0.014174583546112937 0.0073715487028697445 0 -0.013466383595004067 0.0069637329159785112 0 -0.013462075852472642 0.0065454549060183767 0 -0.014045945510092131 0.0066754289602862166 0 -0.013466383595004067 0.0069637329159785112 0 -0.014045945510092131 0.0066754289602862166 0 -0.015017862204278804 0.0068948617817688185 0 -0.014174583546112937 0.0073715487028697445 0 -0.015017862204278804 0.0068948617817688185 0 -0.014174583546112937 0.0073715487028697445 0 -0.015039492195611463 0.0079851670950668203 0 -0.014174583546112937 0.0073715487028697445 0 -0.015039492195611463 0.0079851670950668203 0 -0.013939720543673133 0.0081652519713858642 0 -0.014174583546112937 0.0073715487028697445 0 -0.013939720543673133 0.0081652519713858642 0 -0.013523267878255408 0.007564532018563757 0 -0.014174583546112937 0.0073715487028697445 0 -0.013523267878255408 0.007564532018563757 0 -0.013466383595004067 0.0069637329159785112 0 -0.015017862204278804 0.0068948617817688185 0 -0.015950904240981733 0.0069880061529341677 0 -0.016118958097970808 0.0076540357468619473 0 -0.015017862204278804 0.0068948617817688185 0 -0.016118958097970808 0.0076540357468619473 0 -0.015039492195611463 0.0079851670950668203 0 -0.016118958097970808 0.0076540357468619473 0 -0.015039492195611463 0.0079851670950668203 0 -0.016130958591718442 0.0086898417986592119 0 -0.015039492195611463 0.0079851670950668203 0 -0.016130958591718442 0.0086898417986592119 0 -0.014747041513652817 0.0090976690006307637 0 -0.015039492195611463 0.0079851670950668203 0 -0.013939720543673133 0.0081652519713858642 0 -0.014747041513652817 0.0090976690006307637 0 -0.013939720543673133 0.0081652519713858642 0 -0.013837086740080487 0.0089638266637763475 0 -0.01327341318681498 0.0085381391332248254 0 -0.013939720543673133 0.0081652519713858642 0 -0.013837086740080487 0.0089638266637763475 0 -0.014747041513652817 0.0090976690006307637 0 -0.01327341318681498 0.0085381391332248254 0 -0.012801177437050421 0.0088823825276413328 0 -0.013248285440183572 0.0092052251878214347 0 -0.013837086740080487 0.0089638266637763475 0 -0.01327341318681498 0.0085381391332248254 0 -0.013248285440183572 0.0092052251878214347 0 -0.012801177437050421 0.0088823825276413328 0 -0.012422370526533414 0.0086436882611951159 0 -0.012336909678436096 0.0090294525543027603 0 -0.01327341318681498 0.0085381391332248254 0 -0.012801177437050421 0.0088823825276413328 0 -0.012756773889010923 0.0083472149091290398 0 -0.012801177437050421 0.0088823825276413328 0 -0.012422370526533414 0.0086436882611951159 0 -0.012756773889010923 0.0083472149091290398 0 -0.012422370526533414 0.0086436882611951159 0 -0.012756773889010923 0.0083472149091290398 0 -0.012260047665666116 0.0081991024166494873 0 -0.012756773889010923 0.0083472149091290398 0 -0.012609086799314271 0.007837148093794882 0 -0.012260047665666116 0.0081991024166494873 0 -0.012756773889010923 0.0083472149091290398 0 -0.012609086799314271 0.007837148093794882 0 -0.013134814325667878 0.0079487118071088266 0 -0.013939720543673133 0.0081652519713858642 0 -0.013134814325667878 0.0079487118071088266 0 -0.013523267878255408 0.007564532018563757 0 -0.013939720543673133 0.0081652519713858642 0 -0.01327341318681498 0.0085381391332248254 0 -0.013134814325667878 0.0079487118071088266 0 -0.01327341318681498 0.0085381391332248254 0 -0.012756773889010923 0.0083472149091290398 0 -0.013134814325667878 0.0079487118071088266 0 -0.013523267878255408 0.007564532018563757 0 -0.012922342875503236 0.007375561303972912 0 -0.013466383595004067 0.0069637329159785112 0 -0.013134814325667878 0.0079487118071088266 0 -0.013523267878255408 0.007564532018563757 0 -0.012922342875503236 0.007375561303972912 0 -0.012609086799314271 0.007837148093794882 0 -0.013134814325667878 0.0079487118071088266 0 -0.012922342875503236 0.007375561303972912 0 -0.012609086799314271 0.007837148093794882 0 -0.012349254746321489 0.0074298021532358824 0 -0.01221472526002168 0.0078004930035441592 0 -0.012609086799314271 0.007837148093794882 0 -0.012922342875503236 0.007375561303972912 0 -0.012349254746321489 0.0074298021532358824 0 -0.012922342875503236 0.007375561303972912 0 -0.012414965036395954 0.0069566710228191036 0 -0.012349254746321489 0.0074298021532358824 0 -0.012922342875503236 0.007375561303972912 0 -0.012414965036395954 0.0069566710228191036 0 -0.012901037070714444 0.0068730897237873241 0 -0.012483883372437879 0.00649239750608477 0 -0.012414965036395954 0.0069566710228191036 0 -0.012901037070714444 0.0068730897237873241 0 -0.013027143744278916 0.0064149623068640964 0 -0.012901037070714444 0.0068730897237873241 0 -0.013466383595004067 0.0069637329159785112 0 -0.012922342875503236 0.007375561303972912 0 -0.012901037070714444 0.0068730897237873241 0 -0.013466383595004067 0.0069637329159785112 0 -0.01157876449065914 0.0064070063372614512 0 -0.011153265900988992 0.007065360119437725 0 -0.01102413311667215 0.0065422337231280277 0 -0.011897804199815948 0.0069915330841694035 0 -0.011865238132721096 0.0075367182667131008 0 -0.011153265900988992 0.007065360119437725 0 -0.01157876449065914 0.0064070063372614512 0 -0.011897804199815948 0.0069915330841694035 0 -0.011153265900988992 0.007065360119437725 0 -0.012070014187632684 0.0066027235464996186 0 -0.012414965036395954 0.0069566710228191036 0 -0.011897804199815948 0.0069915330841694035 0 -0.012414965036395954 0.0069566710228191036 0 -0.011897804199815948 0.0069915330841694035 0 -0.012349254746321489 0.0074298021532358824 0 -0.011897804199815948 0.0069915330841694035 0 -0.012349254746321489 0.0074298021532358824 0 -0.011865238132721096 0.0075367182667131008 0 -0.012349254746321489 0.0074298021532358824 0 -0.01221472526002168 0.0078004930035441592 0 -0.011865238132721096 0.0075367182667131008 0 -0.011865238132721096 0.0075367182667131008 0 -0.011251831230656104 0.0079265358798011019 0 -0.011153265900988992 0.007065360119437725 0 -0.011865238132721096 0.0075367182667131008 0 -0.011251831230656104 0.0079265358798011019 0 -0.011861107519646608 0.0081132891893765848 0 -0.011251831230656104 0.0079265358798011019 0 -0.011861107519646608 0.0081132891893765848 0 -0.0115071323740968 0.0086198233764228083 0 -0.012609086799314271 0.007837148093794882 0 -0.01221472526002168 0.0078004930035441592 0 -0.012260047665666116 0.0081991024166494873 0 -0.01221472526002168 0.0078004930035441592 0 -0.011861107519646608 0.0081132891893765848 0 -0.012260047665666116 0.0081991024166494873 0 -0.01221472526002168 0.0078004930035441592 0 -0.011865238132721096 0.0075367182667131008 0 -0.011861107519646608 0.0081132891893765848 0 -0.011861107519646608 0.0081132891893765848 0 -0.012260047665666116 0.0081991024166494873 0 -0.012044652167482706 0.0086131307177062938 0 -0.012422370526533414 0.0086436882611951159 0 -0.012260047665666116 0.0081991024166494873 0 -0.012044652167482706 0.0086131307177062938 0 -0.011861107519646608 0.0081132891893765848 0 -0.012044652167482706 0.0086131307177062938 0 -0.0115071323740968 0.0086198233764228083 0 -0.012044652167482706 0.0086131307177062938 0 -0.0115071323740968 0.0086198233764228083 0 -0.011878972405374014 0.0090841367935525115 0 -0.012422370526533414 0.0086436882611951159 0 -0.012044652167482706 0.0086131307177062938 0 -0.012336909678436096 0.0090294525543027603 0 -0.012044652167482706 0.0086131307177062938 0 -0.012336909678436096 0.0090294525543027603 0 -0.011878972405374014 0.0090841367935525115 0 -0.0115071323740968 0.0086198233764228083 0 -0.010726043126560822 0.0087858835363529772 0 -0.011338859543244801 0.009189698480829624 0 -0.0115071323740968 0.0086198233764228083 0 -0.011338859543244801 0.009189698480829624 0 -0.011878972405374014 0.0090841367935525115 0 -0.011251831230656104 0.0079265358798011019 0 -0.010726043126560822 0.0087858835363529772 0 -0.010183810867015685 0.0074561646681822469 0 -0.010726043126560822 0.0087858835363529772 0 -0.0093287724108805405 0.0079343577166123488 0 -0.010183810867015685 0.0074561646681822469 0 -0.010726043126560822 0.0087858835363529772 0 -0.0093287724108805405 0.0079343577166123488 0 -0.010054874035614014 0.0097234160828417477 0 -0.011251831230656104 0.0079265358798011019 0 -0.0115071323740968 0.0086198233764228083 0 -0.010726043126560822 0.0087858835363529772 0 -0.0091782067778022995 0.0074836375228281137 0 -0.0092452912264940294 0.0068144893320656692 0 -0.0092401798550159932 0.0068589278784513021 0 -0.010387709713684044 0.0067115495759426016 0 -0.010183810867015685 0.0074561646681822469 0 -0.0093287724108805405 0.0079343577166123488 0 -0.0092401798550159932 0.0068589278784513021 0 -0.010183810867015685 0.0074561646681822469 0 -0.010387709713684044 0.0067115495759426016 0 -0.011153265900988992 0.007065360119437725 0 -0.010183810867015685 0.0074561646681822469 0 -0.010387709713684044 0.0067115495759426016 0 -0.011153265900988992 0.007065360119437725 0 -0.01102413311667215 0.0065422337231280277 0 -0.011251831230656104 0.0079265358798011019 0 -0.011153265900988992 0.007065360119437725 0 -0.010183810867015685 0.0074561646681822469 0 0.011203775961445932 -0.0041005124063278218 0 0.011295024833752181 -0.0042051801879172315 0 0.011312238092086715 -0.0043307870094915733 0 0.0029219310062399946 0.001182055526499337 0 0.0057407292680355946 0.0002961578643268775 0 -0.0071802444821767271 0.0085942950084459003 0 -0.006056320733821707 0.006370890824003125 0 -0.0050414555679739468 0.0097568853521267339 0 -0.0093287724108805405 0.0079343577166123488 0 -0.0071802444821767271 0.0085942950084459003 0 -0.006056320733821707 0.006370890824003125 0 -0.0093287724108805405 0.0079343577166123488 0 -0.0082758608133930191 0.0052435201272141322 0 -0.006056320733821707 0.006370890824003125 0 0.011203775961445932 -0.0041005124063278218 0 0.011265675125812332 -0.0041319711393196122 0 0.011295024833752181 -0.0042051801879172315 0 0.011203775961445932 -0.0041005124063278218 0 0.011265675125812332 -0.0041319711393196122 0 0.011131766957162862 -0.0041780139276142575 0 0.011131766957162862 -0.0041780139276142575 0 0.010880046935577498 -0.0042228417610948405 0 0.011111191205574985 -0.0042818137125994419 0 0.011203685014785282 -0.004216375328697044 0 0.011131766957162862 -0.0041780139276142575 0 0.011111191205574985 -0.0042818137125994419 0 0.011203685014785282 -0.004216375328697044 0 0.011111191205574985 -0.0042818137125994419 0 0.011291370322021752 -0.0043015395411486624 0 0.011265675125812332 -0.0041319711393196122 0 0.011203685014785282 -0.004216375328697044 0 0.011131766957162862 -0.0041780139276142575 0 -0.0092401798550159932 0.0068589278784513021 0 -0.0092124784471684096 0.0055703798126414692 0 -0.0087417273037041186 0.0056294513581742773 0 0.011203775961445932 -0.0041005124063278218 0 0.011131766957162862 -0.0041780139276142575 0 0.010880046935577498 -0.0042228417610948405 0 0.0029219310062399946 0.001182055526499337 0 -0.0032245960429320994 0.0015737509656572448 0 -0.0092452912264940294 0.0068144893320656692 0 -0.0032245960429320994 0.0015737509656572448 0 -0.0082758608133930191 0.0052435201272141322 0 -0.006056320733821707 0.006370890824003125 0 -0.0071451913339985167 0.0026534688249289311 0 0.010880046935577498 -0.0042228417610948405 0 0.010888401494711458 -0.0043449675737227507 0 0.011111191205574985 -0.0042818137125994419 0 -0.0032245960429320994 0.0015737509656572448 0 -0.0081391420661202259 0.0042373715645322068 0 -0.0092124784471684096 0.0055703798126414692 0 -0.0087417273037041186 0.0056294513581742773 0 -0.0088874902120798776 0.0050041036215749974 0 -0.0081391420661202259 0.0042373715645322068 0 -1.3631712513290968e-05 0.0015279262481709944 0 -0.010590624832545588 0.0069201308892075193 0 -0.01019313708768709 0.0068651496411844216 0 -0.010360295574033486 0.0061280046729103648 0 -0.0037168298721140568 0.0026100257484530883 0 -0.0035191025624211648 0.0032549903752475792 0 -0.0039986428171183376 0.0033056905366573657 0 -0.0032245960429320994 0.0015737509656572448 0 -1.3631712513290968e-05 0.0015279262481709944 0 0.010888401494711458 -0.0043449675737227507 0 0.011111191205574985 -0.0042818137125994419 0 0.011350585323595702 -0.0045286592754323288 0 0.00062878835433618011 0.00020546011659146467 0 0.0027189472815787991 -0.0007835327038021603 0 0.003823282255803986 -0.0001431060093836343 0 -1.3631712513290968e-05 0.0015279262481709944 0 0.0089597605246804508 -0.0029099683226430418 0 -0.010954309748507836 0.0060026408575309491 0 -0.010249256831954065 0.0061217331081284817 0 -0.010808661112174241 0.0053848627689932664 0 -0.010387709713684044 0.0067115495759426016 0 -0.010954309748507836 0.0060026408575309491 0 -0.01102413311667215 0.0065422337231280277 0 -0.01157876449065914 0.0064070063372614512 0 -0.010954309748507836 0.0060026408575309491 0 -0.01102413311667215 0.0065422337231280277 0 -0.010387709713684044 0.0067115495759426016 0 -0.010954309748507836 0.0060026408575309491 0 -0.010249256831954065 0.0061217331081284817 0 -0.0092401798550159932 0.0068589278784513021 0 -0.010249256831954065 0.0061217331081284817 0 -0.0097542129121241886 0.0056625004586534121 0 -0.0092401798550159932 0.0068589278784513021 0 -0.0092124784471684096 0.0055703798126414692 0 -0.0097542129121241886 0.0056625004586534121 0 -0.0092401798550159932 0.0068589278784513021 0 -0.010387709713684044 0.0067115495759426016 0 -0.010249256831954065 0.0061217331081284817 0 -0.0088874902120798776 0.0050041036215749974 0 -0.0097542129121241886 0.0056625004586534121 0 -0.010808661112174241 0.0053848627689932664 0 -0.0081391420661202259 0.0042373715645322068 0 -0.01159443817879586 0.0056035834473549271 0 -0.010249256831954065 0.0061217331081284817 0 -0.0097542129121241886 0.0056625004586534121 0 -0.010808661112174241 0.0053848627689932664 0 -0.011397146734881732 0.0054594492973870298 0 -0.011108235057240843 0.0055450236094565751 0 -0.010808661112174241 0.0053848627689932664 0 -0.0092124784471684096 0.0055703798126414692 0 -0.0088874902120798776 0.0050041036215749974 0 -0.0097542129121241886 0.0056625004586534121 0 -0.011397146734881732 0.0054594492973870298 0 -0.011108235057240843 0.0055450236094565751 0 -0.011195342842224659 0.0057017326488055147 0 -0.011108235057240843 0.0055450236094565751 0 -0.010808661112174241 0.0053848627689932664 0 -0.011128136072306808 0.0055330248689145507 0 -0.011652219596845542 0.0057853611277822641 0 -0.010954309748507836 0.0060026408575309491 0 -0.011172259605893322 0.0053325276991860893 0 -0.010954309748507836 0.0060026408575309491 0 -0.010808661112174241 0.0053848627689932664 0 -0.011172259605893322 0.0053325276991860893 0 -0.010808661112174241 0.0053848627689932664 0 -0.011172259605893322 0.0053325276991860893 0 -0.011006652614909499 0.0053364895818197623 0 -0.014314855685645658 0.0075569511618696541 0 -0.012924805892396404 0.0068256551419120029 0 -0.012350418583170335 0.0058618298395145046 0 -0.013287036166709469 0.0061698350796683139 0 -0.012947181610943624 0.0064225383124470745 0 -0.013628925839058614 0.0058125763997834475 0 -0.014475007450824542 0.0073193335721146724 0 -0.012350418583170335 0.0058618298395145046 0 -0.010808661112174241 0.0053848627689932664 0 -0.011006652614909499 0.0053364895818197623 0 -0.011128136072306808 0.0055330248689145507 0 -0.011006652614909499 0.0053364895818197623 0 -0.011417566014361199 0.0058582486875066288 0 -0.011128136072306808 0.0055330248689145507 0 -0.012924805892396404 0.0068256551419120029 0 -0.012350418583170335 0.0058618298395145046 0 -0.011417566014361199 0.0058582486875066288 0 -0.012009575557061974 0.0060586300059747153 0 -0.011520849360598611 0.0058886550573683041 0 -0.013628925839058614 0.0058125763997834475 0 -0.012350418583170335 0.0058618298395145046 0 -0.01258855993695261 0.0052263969294413801 0 -0.012350418583170335 0.0058618298395145046 0 -0.01258855993695261 0.0052263969294413801 0 -0.011831871610655407 0.0053458517919481637 0 -0.01258855993695261 0.0052263969294413801 0 -0.013185106779339048 0.0046596016466259006 0 -0.011898210217631319 0.0046701088496241298 0 -0.01258855993695261 0.0052263969294413801 0 -0.011831871610655407 0.0053458517919481637 0 -0.011898210217631319 0.0046701088496241298 0 -0.013628925839058614 0.0058125763997834475 0 -0.01258855993695261 0.0052263969294413801 0 -0.013185106779339048 0.0046596016466259006 0 -0.011223084402400815 0.0052511284936808027 0 -0.010566026580554482 0.0051149883996908993 0 -0.011100740224102134 0.0046199220556664752 0 -0.011223084402400815 0.0052511284936808027 0 -0.011898210217631319 0.0046701088496241298 0 -0.011100740224102134 0.0046199220556664752 0 -0.011831871610655407 0.0053458517919481637 0 -0.011223084402400815 0.0052511284936808027 0 -0.011898210217631319 0.0046701088496241298 0 -0.011831871610655407 0.0053458517919481637 0 -0.011223084402400815 0.0052511284936808027 0 -0.011417566014361199 0.0058582486875066288 0 -0.012350418583170335 0.0058618298395145046 0 -0.011831871610655407 0.0053458517919481637 0 -0.011417566014361199 0.0058582486875066288 0 -0.011223084402400815 0.0052511284936808027 0 -0.01109897094964246 0.0057825577697536157 0 -0.011417566014361199 0.0058582486875066288 0 -0.01109897094964246 0.0057825577697536157 0 -0.011417566014361199 0.0058582486875066288 0 -0.011195342842224659 0.0057017326488055147 0 -0.011397146734881732 0.0054594492973870298 0 -0.01109897094964246 0.0057825577697536157 0 -0.011195342842224659 0.0057017326488055147 0 -0.011417566014361199 0.0058582486875066288 0 -0.011128136072306808 0.0055330248689145507 0 -0.011195342842224659 0.0057017326488055147 0 -0.011108235057240843 0.0055450236094565751 0 -0.011128136072306808 0.0055330248689145507 0 -0.011195342842224659 0.0057017326488055147 0 -0.0081391420661202259 0.0042373715645322068 0 -0.011220380128726785 0.0062138022613269775 0 -0.010590624832545588 0.0069201308892075193 0 -0.01109897094964246 0.0057825577697536157 0 -0.010360295574033486 0.0061280046729103648 0 -0.01019313708768709 0.0068651496411844216 0 -0.010360295574033486 0.0061280046729103648 0 -0.0095829000481699768 0.0054203231136187146 0 -0.010360295574033486 0.0061280046729103648 0 -0.010389643151661642 0.005607461698889319 0 -0.0095829000481699768 0.0054203231136187146 0 -0.01109897094964246 0.0057825577697536157 0 -0.010360295574033486 0.0061280046729103648 0 -0.010389643151661642 0.005607461698889319 0 -1.3631712513290968e-05 0.0015279262481709944 0 -0.0012720291141057219 0.00074284494735275483 0 0.00062878835433618011 0.00020546011659146467 0 0.0027189472815787991 -0.0007835327038021603 0 0.0016802646123997265 -0.0023030987946469719 0 0.0024548730706837516 -0.0011990541352711458 0 -0.0012720291141057219 0.00074284494735275483 0 0.0027189472815787991 -0.0007835327038021603 0 0.0017835239182156554 -0.0023051043348355088 0 0.0030111180374555505 -0.0019636793731438191 0 0.0018622489403994978 -0.0024332005105706265 0 0.0023692514752535437 -0.0035465987903519642 0 0.0016367578756053588 -0.0038906035668502159 0 0.0017835239182156554 -0.0023051043348355088 0 0.0031165580504219441 -0.003097026288428673 0 0.0030111180374555505 -0.0019636793731438191 0 -0.0012720291141057219 0.00074284494735275483 0 0.0025383211333776779 -0.0044924242868826071 0 0.0017835239182156554 -0.0023051043348355088 0 0.0023692514752535437 -0.0035465987903519642 0 0.0031165580504219441 -0.003097026288428673 0 -0.0095829000481699768 0.0054203231136187146 0 -0.010566026580554482 0.0051149883996908993 0 -0.010461349601208463 0.0040678559498856836 0 -0.0012720291141057219 0.00074284494735275483 0 -0.004785945562514572 -0.00073416640240084254 0 0.0018622489403994978 -0.0024332005105706265 0 0.00075645296602168323 -0.0041165607088746543 0 0.0016367578756053588 -0.0038906035668502159 0 -0.011223084402400815 0.0052511284936808027 0 -0.01109897094964246 0.0057825577697536157 0 -0.010566026580554482 0.0051149883996908993 0 -0.01109897094964246 0.0057825577697536157 0 -0.010389643151661642 0.005607461698889319 0 -0.010566026580554482 0.0051149883996908993 0 -0.010389643151661642 0.005607461698889319 0 -0.0095829000481699768 0.0054203231136187146 0 -0.010566026580554482 0.0051149883996908993 0 -0.010566026580554482 0.0051149883996908993 0 -0.010461349601208463 0.0040678559498856836 0 -0.011100740224102134 0.0046199220556664752 0 0.00075645296602168323 -0.0041165607088746543 0 0.0016367578756053588 -0.0038906035668502159 0 0.0010366853710365475 -0.004688848615786799 0 0.0023692514752535437 -0.0035465987903519642 0 0.0021743355893936865 -0.004526519166804209 0 0.0028993428303481614 -0.0037583605216678869 0 0.0023692514752535437 -0.0035465987903519642 0 0.0016367578756053588 -0.0038906035668502159 0 0.0021743355893936865 -0.004526519166804209 0 0.0016367578756053588 -0.0038906035668502159 0 0.0021743355893936865 -0.004526519166804209 0 0.0010366853710365475 -0.004688848615786799 0 0.0047194730604432876 -0.0028479743357422084 0 0.0040267672933240505 -0.0021083401958902279 0 0.0039450469757538516 -0.0031342009813100646 0 -0.0037895911935029937 0.01360324390744923 0 -0.0036978037585857939 0.013425803774827237 0 -0.0038287276004139673 0.013507380444517667 0 0.0010646002270325887 0.0013032751930235522 0 0.00023181359654224243 0.0059619576671198684 0 0.0047194730604432876 -0.0028479743357422084 0 0.0058247840467316875 -0.0019702815473172644 0 0.0040267672933240505 -0.0021083401958902279 0 0.0021743355893936865 -0.004526519166804209 0 0.0010366853710365475 -0.004688848615786799 0 0.0011070761031407323 -0.0050267157604300672 0 0.0032699171014089301 -0.0036618849191136257 0 0.0010646002270325887 0.0013032751930235522 0 0.0010366853710365475 -0.004688848615786799 0 0.0011070761031407323 -0.0050267157604300672 0 -0.00028151047742588404 -0.0054216179725641162 0 0.00011507508179437243 -0.0055632059758024864 0 0.0011070761031407323 -0.0050267157604300672 0 -0.00028151047742588404 -0.0054216179725641162 0 0.00075645296602168323 -0.0041165607088746543 0 0.0010366853710365475 -0.004688848615786799 0 -0.00028151047742588404 -0.0054216179725641162 0 -0.0055988623105372379 0.0090792254333935708 0 0.0010646002270325887 0.0013032751930235522 0 -0.010461349601208463 0.0040678559498856836 0 -0.01149582060254525 0.0024110351009226862 0 -0.011437989829298707 0.0039380515679342558 0 -0.01149582060254525 0.0024110351009226862 0 -0.012471284009438831 0.003864443271580675 0 -0.011437989829298707 0.0039380515679342558 0 -0.004785945562514572 -0.00073416640240084254 0 -0.010307788430773171 0.0035644363144440531 0 -0.0055988623105372379 0.0090792254333935708 0 -0.010307788430773171 0.0035644363144440531 0 -0.017970753197454239 0.0069375977055395818 0 -0.018091277230431135 0.0071731245687585952 0 -0.017634587467231164 0.0070467326098276467 0 -0.013414196652835558 0.0030506635274317787 0 -0.01149582060254525 0.0024110351009226862 0 -0.012471284009438831 0.003864443271580675 0 -0.016664727910637542 0.0053980408985598877 0 -0.010307788430773171 0.0035644363144440531 0 -0.013414196652835558 0.0030506635274317787 0 -0.012471284009438831 0.003864443271580675 0 -0.013185106779339048 0.0046596016466259006 0 -0.012471284009438831 0.003864443271580675 0 -0.013185106779339048 0.0046596016466259006 0 -0.011898210217631319 0.0046701088496241298 0 -0.012471284009438831 0.003864443271580675 0 -0.011898210217631319 0.0046701088496241298 0 -0.011437989829298707 0.0039380515679342558 0 -0.011898210217631319 0.0046701088496241298 0 -0.011100740224102134 0.0046199220556664752 0 -0.011437989829298707 0.0039380515679342558 0 -0.010461349601208463 0.0040678559498856836 0 -0.011100740224102134 0.0046199220556664752 0 -0.011437989829298707 0.0039380515679342558 0 0.0065041138993726785 -0.004502545886614159 0 0.0075860726445034152 -0.0059938907427710504 0 0.0074737413358295229 -0.003996064055235852 0 0.0087554928604672115 -0.0047448462384008516 0 0.0075860726445034152 -0.0059938907427710504 0 0.0074737413358295229 -0.003996064055235852 0 0.0065041138993726785 -0.004502545886614159 0 0.0075860726445034152 -0.0059938907427710504 0 0.005613110685982579 -0.0051460170636098068 0 0.00056927756427742153 0.0030060244341898711 0 0.0045127897309787893 -0.0046781141595741271 0 0.0087554928604672115 -0.0047448462384008516 0 0.0096455151369253811 -0.0058355053508555603 0 0.0075860726445034152 -0.0059938907427710504 0 0.010462292149290878 -0.0044603180901135768 0 0.0087554928604672115 -0.0047448462384008516 0 0.0091203541870902953 -0.0034765974955262764 0 0.010462292149290878 -0.0044603180901135768 0 0.0087554928604672115 -0.0047448462384008516 0 0.0096455151369253811 -0.0058355053508555603 0 -0.0028599744609201366 0.013650703451843028 0 -0.0029816501558427764 0.013533126420461837 0 -0.0034667418952485504 0.013822152057140902 0 0.0086610602524458524 -0.00083796377365625532 0 0.00056927756427742153 0.0030060244341898711 0 0.0096502844779369386 0.00090658883050285437 0 0.0072511306762970103 0.0043168097958126957 0 0.0026388868754163995 0.0039720664742668218 0 0.0087107445942227746 0.0079639021353749978 0 0.00056927756427742153 0.0030060244341898711 0 -0.0037480660467220147 0.013627313769623357 0 -0.0034325739572394235 0.013530821460667848 0 -0.0034667418952485504 0.013822152057140902 0 0.00056927756427742153 0.0030060244341898711 0 -0.0013952291053119356 0.0058820273838404826 0 -0.0037480660467220147 0.013627313769623357 0 -0.0034667418952485504 0.013822152057140902 0 -0.0038013698001164923 0.013693333377211533 0 -0.0038822544629996858 0.013596803768736596 0 -0.0037480660467220147 0.013627313769623357 0 -0.0038013698001164923 0.013693333377211533 0 -0.0038822544629996858 0.013596803768736596 0 -0.0038013698001164923 0.013693333377211533 0 -0.0038287276004139673 0.013507380444517667 0 0.0019350417892397365 -0.0021545771860309085 0 0.0040267672933240505 -0.0021083401958902279 0 0.002976946537654135 -0.0026918672878357562 0 -0.0013952291053119356 0.0058820273838404826 0 0.00023181359654224243 0.0059619576671198684 0 0.0040267672933240505 -0.0021083401958902279 0 0.0035045815126321512 -0.002928380317293235 0 0.002976946537654135 -0.0026918672878357562 0 0.0030534550101662728 -0.0032944014336035096 0 0.0034736846342412206 -0.0039640606789054025 0 0.0015354786477269592 -0.0031525898342771824 0 0.0047194730604432876 -0.0028479743357422084 0 0.0039450469757538516 -0.0031342009813100646 0 0.0034641592578390961 -0.003897966120105064 0 0.0032699171014089301 -0.0036618849191136257 0 0.0034759511774210498 -0.0038003446291110586 0 0.0040267672933240505 -0.0021083401958902279 0 0.0039450469757538516 -0.0031342009813100646 0 0.0035045815126321512 -0.002928380317293235 0 0.0039450469757538516 -0.0031342009813100646 0 0.0035045815126321512 -0.002928380317293235 0 0.0035301230078741549 -0.0034189294313031172 0 0.0035045815126321512 -0.002928380317293235 0 0.0030534550101662728 -0.0032944014336035096 0 0.0035301230078741549 -0.0034189294313031172 0 0.0035045815126321512 -0.002928380317293235 0 0.002976946537654135 -0.0026918672878357562 0 0.0030534550101662728 -0.0032944014336035096 0 0.002976946537654135 -0.0026918672878357562 0 0.0030534550101662728 -0.0032944014336035096 0 0.002330041377131413 -0.0028275690112242618 0 0.0043466388145218769 -0.0041109799467394948 0 0.0046000869315228829 -0.0038639415102896145 0 0.0037531744035588285 -0.0035346262580325562 0 0.0034736846342412206 -0.0039640606789054025 0 0.003346166811943736 -0.0036705428739716478 0 0.0037531744035588285 -0.0035346262580325562 0 0.0043466388145218769 -0.0041109799467394948 0 0.0034736846342412206 -0.0039640606789054025 0 0.0037531744035588285 -0.0035346262580325562 0 0.0034736846342412206 -0.0039640606789054025 0 0.0034188269730052972 -0.0036732305633841206 0 0.0034641592578390961 -0.003897966120105064 0 0.0030534550101662728 -0.0032944014336035096 0 0.0034736846342412206 -0.0039640606789054025 0 0.0034188269730052972 -0.0036732305633841206 0 0.0030534550101662728 -0.0032944014336035096 0 0.0034188269730052972 -0.0036732305633841206 0 0.0035301230078741549 -0.0034189294313031172 0 0.0021743355893936865 -0.004526519166804209 0 0.0034641592578390961 -0.003897966120105064 0 0.0028993428303481614 -0.0037583605216678869 0 0.0039450469757538516 -0.0031342009813100646 0 0.0035301230078741549 -0.0034189294313031172 0 0.0034641592578390961 -0.003897966120105064 0 0.0034188269730052972 -0.0036732305633841206 0 0.0035301230078741549 -0.0034189294313031172 0 0.0034641592578390961 -0.003897966120105064 0 0.0034641592578390961 -0.003897966120105064 0 0.0028993428303481614 -0.0037583605216678869 0 0.003346166811943736 -0.0036705428739716478 0 0.0034736846342412206 -0.0039640606789054025 0 0.0034641592578390961 -0.003897966120105064 0 0.003346166811943736 -0.0036705428739716478 0 0.0043466388145218769 -0.0041109799467394948 0 0.0034736846342412206 -0.0039640606789054025 0 0.005613110685982579 -0.0051460170636098068 0 -0.00034253726016829643 -0.0022269745617992448 0 0.0019350417892397365 -0.0021545771860309085 0 0.0015354786477269592 -0.0031525898342771824 0 0.0031409465721760452 -0.0038526527721704689 0 0.0045127897309787893 -0.0046781141595741271 0 0.0019350417892397365 -0.0021545771860309085 0 0.0015354786477269592 -0.0031525898342771824 0 0.002330041377131413 -0.0028275690112242618 0 0.0019350417892397365 -0.0021545771860309085 0 0.002976946537654135 -0.0026918672878357562 0 0.002330041377131413 -0.0028275690112242618 0 0.0030534550101662728 -0.0032944014336035096 0 0.0015354786477269592 -0.0031525898342771824 0 0.002330041377131413 -0.0028275690112242618 0 0.0043466388145218769 -0.0041109799467394948 0 0.005613110685982579 -0.0051460170636098068 0 0.0046000869315228829 -0.0038639415102896145 0 0.005613110685982579 -0.0051460170636098068 0 0.0046000869315228829 -0.0038639415102896145 0 0.0055732446781188378 -0.0040207161537090157 0 0.0065041138993726785 -0.004502545886614159 0 0.005613110685982579 -0.0051460170636098068 0 0.0055732446781188378 -0.0040207161537090157 0 0.0065041138993726785 -0.004502545886614159 0 0.0055732446781188378 -0.0040207161537090157 0 0.0061997272002150897 -0.003296188950528408 0 0.0061997272002150897 -0.003296188950528408 0 0.0051129079105350205 -0.0034579381760733259 0 0.0050758706614258461 -0.0025659867175017448 0 0.0055732446781188378 -0.0040207161537090157 0 0.0061997272002150897 -0.003296188950528408 0 0.0051129079105350205 -0.0034579381760733259 0 0.0051129079105350205 -0.0034579381760733259 0 0.0050758706614258461 -0.0025659867175017448 0 0.0040668855042167778 -0.003041765531624848 0 0.0046000869315228829 -0.0038639415102896145 0 0.0051129079105350205 -0.0034579381760733259 0 0.0040668855042167778 -0.003041765531624848 0 0.0046000869315228829 -0.0038639415102896145 0 0.0055732446781188378 -0.0040207161537090157 0 0.0051129079105350205 -0.0034579381760733259 0 0.0061997272002150897 -0.003296188950528408 0 0.0050758706614258461 -0.0025659867175017448 0 0.0061842462623176806 -0.0020342882452014624 0 0.0028993428303481614 -0.0037583605216678869 0 0.0031165580504219441 -0.003097026288428673 0 0.003346166811943736 -0.0036705428739716478 0 0.0023692514752535437 -0.0035465987903519642 0 0.0028993428303481614 -0.0037583605216678869 0 0.0031165580504219441 -0.003097026288428673 0 0.0031165580504219441 -0.003097026288428673 0 0.003346166811943736 -0.0036705428739716478 0 0.0037531744035588285 -0.0035346262580325562 0 0.0031165580504219441 -0.003097026288428673 0 0.0037531744035588285 -0.0035346262580325562 0 0.0040668855042167778 -0.003041765531624848 0 0.0046000869315228829 -0.0038639415102896145 0 0.0037531744035588285 -0.0035346262580325562 0 0.0040668855042167778 -0.003041765531624848 0 0.0040668855042167778 -0.003041765531624848 0 0.003534170137542834 -0.0025152431809242603 0 0.0040089307877705987 -0.0021276893053783462 0 0.0050758706614258461 -0.0025659867175017448 0 0.0040668855042167778 -0.003041765531624848 0 0.0040089307877705987 -0.0021276893053783462 0 0.0031165580504219441 -0.003097026288428673 0 0.0040668855042167778 -0.003041765531624848 0 0.003534170137542834 -0.0025152431809242603 0 0.003534170137542834 -0.0025152431809242603 0 0.0030111180374555505 -0.0019636793731438191 0 0.0040089307877705987 -0.0021276893053783462 0 0.0031165580504219441 -0.003097026288428673 0 0.003534170137542834 -0.0025152431809242603 0 0.0030111180374555505 -0.0019636793731438191 0 0.0030111180374555505 -0.0019636793731438191 0 0.0040089307877705987 -0.0021276893053783462 0 0.0037305455135393487 -0.001211712232983568 0 0.0027189472815787991 -0.0007835327038021603 0 0.0030111180374555505 -0.0019636793731438191 0 0.0037305455135393487 -0.001211712232983568 0 0.0040089307877705987 -0.0021276893053783462 0 0.0037305455135393487 -0.001211712232983568 0 0.0049417814729258575 -0.0014750079103363672 0 0.0037305455135393487 -0.001211712232983568 0 0.0049417814729258575 -0.0014750079103363672 0 0.003823282255803986 -0.0001431060093836343 0 0.0027189472815787991 -0.0007835327038021603 0 0.0037305455135393487 -0.001211712232983568 0 0.003823282255803986 -0.0001431060093836343 0 0.0061842462623176806 -0.0020342882452014624 0 0.0049417814729258575 -0.0014750079103363672 0 0.0071862283042925688 -0.00056021098377911395 0 0.0049417814729258575 -0.0014750079103363672 0 0.0071862283042925688 -0.00056021098377911395 0 0.003823282255803986 -0.0001431060093836343 0 0.0050758706614258461 -0.0025659867175017448 0 0.0061842462623176806 -0.0020342882452014624 0 0.0049417814729258575 -0.0014750079103363672 0 0.0050758706614258461 -0.0025659867175017448 0 0.0040089307877705987 -0.0021276893053783462 0 0.0049417814729258575 -0.0014750079103363672 0 0.0061842462623176806 -0.0020342882452014624 0 0.0071862283042925688 -0.00056021098377911395 0 0.0077839199096091964 -0.002381455576612377 0 0.0061997272002150897 -0.003296188950528408 0 0.0061842462623176806 -0.0020342882452014624 0 0.0077839199096091964 -0.002381455576612377 0 0.0065041138993726785 -0.004502545886614159 0 0.0061997272002150897 -0.003296188950528408 0 0.0074737413358295229 -0.003996064055235852 0 0.0061997272002150897 -0.003296188950528408 0 0.0077839199096091964 -0.002381455576612377 0 0.0074737413358295229 -0.003996064055235852 0 0.0087554928604672115 -0.0047448462384008516 0 0.0074737413358295229 -0.003996064055235852 0 0.0091203541870902953 -0.0034765974955262764 0 0.0077839199096091964 -0.002381455576612377 0 0.0074737413358295229 -0.003996064055235852 0 0.0091203541870902953 -0.0034765974955262764 0 0.01069461017198187 -0.0013026667213300756 0 0.0071862283042925688 -0.00056021098377911395 0 0.0077839199096091964 -0.002381455576612377 0 0.01069461017198187 -0.0013026667213300756 0 0.0077839199096091964 -0.002381455576612377 0 0.0091203541870902953 -0.0034765974955262764 0 0.012153814077405803 -0.0027343537853175628 0 0.0093995375186313873 -0.0024794948848337502 0 0.013611718531836996 -0.0041568135093430041 0 0.012271428286039226 -0.0046112205028878712 0 0.013261707472601636 -0.0038747446511704334 0 0.012271428286039226 -0.0046112205028878712 0 0.011817660194486747 -0.0039672578186901297 0 0.013261707472601636 -0.0038747446511704334 0 0.011817660194486747 -0.0039672578186901297 0 0.013261707472601636 -0.0038747446511704334 0 0.012994495449336023 -0.0033593901272127706 0 0.011111191205574985 -0.0042818137125994419 0 0.011291370322021752 -0.0043015395411486624 0 0.011350585323595702 -0.0045286592754323288 0 0.011291370322021752 -0.0043015395411486624 0 0.011350585323595702 -0.0045286592754323288 0 0.011446580481448117 -0.0041540126694192487 0 0.0093995375186313873 -0.0024794948848337502 0 0.0089597605246804508 -0.0029099683226430418 0 0.012271428286039226 -0.0046112205028878712 0 0.011817660194486747 -0.0039672578186901297 0 0.011446580481448117 -0.0041540126694192487 0 0.012271428286039226 -0.0046112205028878712 0 0.011350585323595702 -0.0045286592754323288 0 0.011446580481448117 -0.0041540126694192487 0 0.011817660194486747 -0.0039672578186901297 0 0.011446580481448117 -0.0041540126694192487 0 0.011375553278539714 -0.0041289231032659475 0 0.011203685014785282 -0.004216375328697044 0 0.011291370322021752 -0.0043015395411486624 0 0.011446580481448117 -0.0041540126694192487 0 0.011265675125812332 -0.0041319711393196122 0 0.011203685014785282 -0.004216375328697044 0 0.011446580481448117 -0.0041540126694192487 0 0.011265675125812332 -0.0041319711393196122 0 0.011375553278539714 -0.0041289231032659475 0 0.011295024833752181 -0.0042051801879172315 0 0.011265675125812332 -0.0041319711393196122 0 0.011446580481448117 -0.0041540126694192487 0 0.011375553278539714 -0.0041289231032659475 0 0.011817660194486747 -0.0039672578186901297 0 0.011375553278539714 -0.0041289231032659475 0 0.011389510351223245 -0.0042951842865820667 0 0.011389510351223245 -0.0042951842865820667 0 0.01126164275802476 -0.0044702096681127216 0 0.01111769869114545 -0.004548826028416132 0 0.011375553278539714 -0.0041289231032659475 0 0.011389510351223245 -0.0042951842865820667 0 0.01111769869114545 -0.004548826028416132 0 0.011375553278539714 -0.0041289231032659475 0 0.011295024833752181 -0.0042051801879172315 0 0.01111769869114545 -0.004548826028416132 0 0.011295024833752181 -0.0042051801879172315 0 0.01111769869114545 -0.004548826028416132 0 0.011312238092086715 -0.0043307870094915733 0 0.013593061536627305 -0.0035601629202017307 0 0.013261707472601636 -0.0038747446511704334 0 0.012994495449336023 -0.0033593901272127706 0 0.011778328359435991 -0.0040920492268947499 0 0.012142685796796291 -0.0035670225003466794 0 0.011817660194486747 -0.0039672578186901297 0 0.011389510351223245 -0.0042951842865820667 0 0.011222639120410167 -0.0043082516390404325 0 0.011389510351223245 -0.0042951842865820667 0 0.011222639120410167 -0.0043082516390404325 0 0.01126164275802476 -0.0044702096681127216 0 0.012142685796796291 -0.0035670225003466794 0 0.012685535041541638 -0.0054397871162921042 0 0.011222639120410167 -0.0043082516390404325 0 0.01126164275802476 -0.0044702096681127216 0 0.011223447793299236 -0.0044529269882079368 0 0.01126164275802476 -0.0044702096681127216 0 0.011313550092266686 -0.0044599365347463803 0 0.011223447793299236 -0.0044529269882079368 0 0.01165584734326033 -0.011572748980108055 0 0.011082580369108893 -0.011459131944738578 0 0.010888973587904582 -0.010675580442592401 0 0.011353470812037867 -0.008297461045998657 0 0.012685535041541638 -0.0054397871162921042 0 0.01126164275802476 -0.0044702096681127216 0 0.011313550092266686 -0.0044599365347463803 0 0.011132932678131984 -0.0044650058719859897 0 0.011353470812037867 -0.008297461045998657 0 0.011738843215446361 -0.0078806993129392332 0 0.011313550092266686 -0.0044599365347463803 0 0.011132932678131984 -0.0044650058719859897 0 0.011256344779356095 -0.0041252470293557837 0 0.01165584734326033 -0.011572748980108055 0 0.011477918523365093 -0.012299381847139433 0 0.011082580369108893 -0.011459131944738578 0 0.01165584734326033 -0.011572748980108055 0 0.011477918523365093 -0.012299381847139433 0 0.012261402757871692 -0.012388156057522106 0 0.01111769869114545 -0.004548826028416132 0 0.010667297382976233 -0.0045800399758488793 0 0.010053397874501834 -0.0050036875197710948 0 0.013256683355618122 -0.005915939331160594 0 0.0057407292680355946 0.0002961578643268775 0 0.01111769869114545 -0.004548826028416132 0 0.011132932678131984 -0.0044650058719859897 0 0.010667297382976233 -0.0045800399758488793 0 0.01126164275802476 -0.0044702096681127216 0 0.01111769869114545 -0.004548826028416132 0 0.011132932678131984 -0.0044650058719859897 0 0.011132932678131984 -0.0044650058719859897 0 0.010667297382976233 -0.0045800399758488793 0 0.010716671916622905 -0.0041030146138107612 0 0.011132932678131984 -0.0044650058719859897 0 0.010716671916622905 -0.0041030146138107612 0 0.011256344779356095 -0.0041252470293557837 0 0.010667297382976233 -0.0045800399758488793 0 0.010716671916622905 -0.0041030146138107612 0 0.010178520400619777 -0.0042467705769959748 0 0.010667297382976233 -0.0045800399758488793 0 0.010047430655202028 -0.0048351604318988793 0 0.010053397874501834 -0.0050036875197710948 0 0.010667297382976233 -0.0045800399758488793 0 0.010178520400619777 -0.0042467705769959748 0 0.010047430655202028 -0.0048351604318988793 0 0.010716671916622905 -0.0041030146138107612 0 0.010178520400619777 -0.0042467705769959748 0 0.0098129242367187928 -0.0033915932244774592 0 0.010716671916622905 -0.0041030146138107612 0 0.010785214496384853 -0.0033744390694567796 0 0.0098129242367187928 -0.0033915932244774592 0 0.011104192872278882 -0.010527764760670967 0 0.011738843215446361 -0.0078806993129392332 0 0.010716671916622905 -0.0041030146138107612 0 0.010785214496384853 -0.0033744390694567796 0 0.011256344779356095 -0.0041252470293557837 0 0.012891920954438167 -0.013103999574320053 0 0.012261402757871692 -0.012388156057522106 0 0.012166447825396788 -0.013323833605771289 0 0.011104192872278882 -0.010527764760670967 0 0.012552255967482322 -0.013321547698204554 0 0.011104192872278882 -0.010527764760670967 0 0.0093410636648964852 -0.0071993671003840638 0 0.0092883761600929451 -0.01129179628539791 0 0.008856871525004785 -0.010892860678572629 0 0.008579447400886217 -0.011461290061768123 0 0.011104192872278882 -0.010527764760670967 0 0.011013669634909981 -0.012328454709435189 0 0.011477918523365093 -0.012299381847139433 0 0.011844495369148672 -0.012872111784685029 0 0.011444273936741337 -0.012878761152207941 0 0.011477918523365093 -0.012299381847139433 0 0.011444273936741337 -0.012878761152207941 0 0.011099803813507749 -0.012718053908203745 0 0.011477918523365093 -0.012299381847139433 0 0.012261402757871692 -0.012388156057522106 0 0.011844495369148672 -0.012872111784685029 0 0.012261402757871692 -0.012388156057522106 0 0.011844495369148672 -0.012872111784685029 0 0.012166447825396788 -0.013323833605771289 0 0.011844495369148672 -0.012872111784685029 0 0.012166447825396788 -0.013323833605771289 0 0.011677213962993302 -0.013316695799312345 0 0.011844495369148672 -0.012872111784685029 0 0.011677213962993302 -0.013316695799312345 0 0.011444273936741337 -0.012878761152207941 0 0.011444273936741337 -0.012878761152207941 0 0.011241839001767217 -0.013271428134149053 0 0.011099803813507749 -0.012718053908203745 0 0.011677213962993302 -0.013316695799312345 0 0.011444273936741337 -0.012878761152207941 0 0.011241839001767217 -0.013271428134149053 0 0.011677213962993302 -0.013316695799312345 0 0.011464494249432097 -0.013725451777896299 0 0.011241839001767217 -0.013271428134149053 0 0.011677213962993302 -0.013316695799312345 0 0.011464494249432097 -0.013725451777896299 0 0.011873179004275185 -0.013721191547196332 0 0.011464494249432097 -0.013725451777896299 0 0.011585128402794242 -0.014121330947223279 0 0.011873179004275185 -0.013721191547196332 0 0.011585128402794242 -0.014121330947223279 0 0.01140412517523068 -0.014477378957023498 0 0.011709279018291255 -0.014581549869444934 0 0.011464494249432097 -0.013725451777896299 0 0.011585128402794242 -0.014121330947223279 0 0.011289266256071344 -0.014108481444840389 0 0.011585128402794242 -0.014121330947223279 0 0.01140412517523068 -0.014477378957023498 0 0.011289266256071344 -0.014108481444840389 0 0.011585128402794242 -0.014121330947223279 0 0.011960566760494734 -0.014116044729872225 0 0.011709279018291255 -0.014581549869444934 0 0.011960566760494734 -0.014116044729872225 0 0.012326292817209246 -0.014276579037223076 0 0.011709279018291255 -0.014581549869444934 0 0.011585128402794242 -0.014121330947223279 0 0.011960566760494734 -0.014116044729872225 0 0.011873179004275185 -0.013721191547196332 0 0.011960566760494734 -0.014116044729872225 0 0.011873179004275185 -0.013721191547196332 0 0.012449900384531625 -0.013763408559383681 0 0.012166447825396788 -0.013323833605771289 0 0.011873179004275185 -0.013721191547196332 0 0.012449900384531625 -0.013763408559383681 0 0.012166447825396788 -0.013323833605771289 0 0.011677213962993302 -0.013316695799312345 0 0.011873179004275185 -0.013721191547196332 0 0.012587952715946467 -0.013234773076906636 0 0.012166447825396788 -0.013323833605771289 0 0.012449900384531625 -0.013763408559383681 0 0.012449900384531625 -0.013763408559383681 0 0.012933351783264137 -0.01361685008412432 0 0.012808777537816691 -0.01437408158613027 0 0.012587952715946467 -0.013234773076906636 0 0.012449900384531625 -0.013763408559383681 0 0.012933351783264137 -0.01361685008412432 0 0.010977099373261414 -0.015918235761534262 0 0.0087543377401467434 -0.014817688958228147 0 0.012933351783264137 -0.01361685008412432 0 0.012808777537816691 -0.01437408158613027 0 0.01327222889691633 -0.014005657299925934 0 0.011960566760494734 -0.014116044729872225 0 0.012449900384531625 -0.013763408559383681 0 0.012326292817209246 -0.014276579037223076 0 0.012449900384531625 -0.013763408559383681 0 0.012808777537816691 -0.01437408158613027 0 0.012326292817209246 -0.014276579037223076 0 0.010977099373261414 -0.015918235761534262 0 0.011052723036316891 -0.015710939411502541 0 0.012808777537816691 -0.01437408158613027 0 0.012326292817209246 -0.014276579037223076 0 0.012271506359110276 -0.014828791696346485 0 0.0087680969488558008 -0.017390295896621021 0 0.0087437222201802393 -0.016173311426211787 0 0.0077109405400453508 -0.016712929530175953 0 0.0087680969488558008 -0.017390295896621021 0 0.0099273572104346692 -0.016632294800786797 0 0.0087437222201802393 -0.016173311426211787 0 0.0087437222201802393 -0.016173311426211787 0 0.0076857323345441682 -0.01569567042138786 0 0.0086344979606874771 -0.015281270217498125 0 0.0087437222201802393 -0.016173311426211787 0 0.0099202671614878248 -0.015412951253103501 0 0.0086344979606874771 -0.015281270217498125 0 0.0099273572104346692 -0.016632294800786797 0 0.0087437222201802393 -0.016173311426211787 0 0.0099202671614878248 -0.015412951253103501 0 0.0099273572104346692 -0.016632294800786797 0 0.01128187405826314 -0.015368748293663199 0 0.0099202671614878248 -0.015412951253103501 0 0.011052723036316891 -0.015710939411502541 0 0.011289036898785455 -0.015428401077183535 0 0.011388190455440065 -0.01490314992450026 0 0.011452750275901431 -0.015038956886553597 0 0.011443494153903158 -0.014735223432613489 0 0.01128187405826314 -0.015368748293663199 0 0.011388190455440065 -0.01490314992450026 0 0.011452750275901431 -0.015038956886553597 0 0.011388190455440065 -0.01490314992450026 0 0.01140412517523068 -0.014477378957023498 0 0.011709279018291255 -0.014581549869444934 0 0.011388190455440065 -0.01490314992450026 0 0.01140412517523068 -0.014477378957023498 0 0.011443494153903158 -0.014735223432613489 0 0.012271506359110276 -0.014828791696346485 0 0.01128187405826314 -0.015368748293663199 0 0.011709279018291255 -0.014581549869444934 0 0.012326292817209246 -0.014276579037223076 0 0.012271506359110276 -0.014828791696346485 0 0.011709279018291255 -0.014581549869444934 0 0.01128187405826314 -0.015368748293663199 0 0.011388190455440065 -0.01490314992450026 0 0.011709279018291255 -0.014581549869444934 0 0.0055731416064795656 -0.015961232618904548 0 0.004728706301837843 -0.015820640029367439 0 0.00510575489076227 -0.015698298253535515 0 0.0055731416064795656 -0.015961232618904548 0 0.004728706301837843 -0.015820640029367439 0 0.0053860553858795417 -0.016110503697585713 0 0.004728706301837843 -0.015820640029367439 0 0.0049133772675077278 -0.015627315197409328 0 0.0050280544809121639 -0.015477719375844842 0 0.004728706301837843 -0.015820640029367439 0 0.0049133772675077278 -0.015627315197409328 0 0.00510575489076227 -0.015698298253535515 0 0.0049133772675077278 -0.015627315197409328 0 0.00510575489076227 -0.015698298253535515 0 0.0050331582427023212 -0.015377307643762677 0 0.0050331582427023212 -0.015377307643762677 0 0.0047629785317967448 -0.015368128565169569 0 0.0048065595344224683 -0.015013039888568664 0 0.00510575489076227 -0.015698298253535515 0 0.0050331582427023212 -0.015377307643762677 0 0.0055551309541067581 -0.01548253220036618 0 0.0049133772675077278 -0.015627315197409328 0 0.0050331582427023212 -0.015377307643762677 0 0.0047629785317967448 -0.015368128565169569 0 0.0050331582427023212 -0.015377307643762677 0 0.0055551309541067581 -0.01548253220036618 0 0.0053324753607384796 -0.015025498641621574 0 0.0055731416064795656 -0.015961232618904548 0 0.0055551309541067581 -0.01548253220036618 0 0.0066121074088760622 -0.015739527011219199 0 0.0055551309541067581 -0.01548253220036618 0 0.0066121074088760622 -0.015739527011219199 0 0.00610502640152801 -0.015092596795338462 0 0.0055731416064795656 -0.015961232618904548 0 0.00510575489076227 -0.015698298253535515 0 0.0055551309541067581 -0.01548253220036618 0 0.0066121074088760622 -0.015739527011219199 0 0.0076857323345441682 -0.01569567042138786 0 0.0077109405400453508 -0.016712929530175953 0 0.0087437222201802393 -0.016173311426211787 0 0.0076857323345441682 -0.01569567042138786 0 0.0077109405400453508 -0.016712929530175953 0 0.0066121074088760622 -0.015739527011219199 0 0.0077109405400453508 -0.016712929530175953 0 0.0067008952929637289 -0.017224463166655272 0 0.0055731416064795656 -0.015961232618904548 0 0.0066121074088760622 -0.015739527011219199 0 0.0067008952929637289 -0.017224463166655272 0 0.0056068201226116571 -0.016013096597330516 0 0.0061117671744377235 -0.016784942005214572 0 0.0055731416064795656 -0.015961232618904548 0 0.0056107438770220553 -0.016101994333572345 0 0.0053860553858795417 -0.016110503697585713 0 0.0056107438770220553 -0.016101994333572345 0 0.0055073181535939351 -0.016363174042561917 0 0.0053860553858795417 -0.016110503697585713 0 0.0056107438770220553 -0.016101994333572345 0 0.0055073181535939351 -0.016363174042561917 0 0.0059518857717412834 -0.016404925511318398 0 0.0087680969488558008 -0.017390295896621021 0 0.0077109405400453508 -0.016712929530175953 0 0.0076406974657698846 -0.018139275092984394 0 0.0077109405400453508 -0.016712929530175953 0 0.0067008952929637289 -0.017224463166655272 0 0.0076406974657698846 -0.018139275092984394 0 0.0061117671744377235 -0.016784942005214572 0 0.0087543377401467434 -0.014817688958228147 0 0.008856871525004785 -0.010892860678572629 0 0.00843566850568136 -0.010509906850680418 0 0.00827505465321976 -0.011101594637194009 0 0.011013669634909981 -0.012328454709435189 0 0.0087543377401467434 -0.014817688958228147 0 0.0087543377401467434 -0.014817688958228147 0 0.0042414610456564051 -0.012384873578277432 0 0.0055073181535939351 -0.016363174042561917 0 0.0059518857717412834 -0.016404925511318398 0 0.0053801448746745853 -0.016776661642510193 0 0.00843566850568136 -0.010509906850680418 0 0.0076293987726664047 -0.011025785431725076 0 0.00827505465321976 -0.011101594637194009 0 0.0055073181535939351 -0.016363174042561917 0 0.0053801448746745853 -0.016776661642510193 0 0.0052059537307338425 -0.016450901687940084 0 0.0042414610456564051 -0.012384873578277432 0 0.0041470012353115445 -0.015429928225170581 0 0.0016487617242914811 -0.011498689118608865 0 0.0029373631585722449 -0.014028272139150318 0 0.004146130613988299 -0.012124209497755098 0 0.004728706301837843 -0.015820640029367439 0 0.0052059537307338425 -0.016450901687940084 0 0.0053860553858795417 -0.016110503697585713 0 0.0045292104461475665 -0.015627239884424958 0 0.0041470012353115445 -0.015429928225170581 0 0.0055073181535939351 -0.016363174042561917 0 0.0052059537307338425 -0.016450901687940084 0 0.0053860553858795417 -0.016110503697585713 0 0.004728706301837843 -0.015820640029367439 0 0.0029373631585722449 -0.014028272139150318 0 0.0046528654659589181 -0.014237925741686303 0 0.004728706301837843 -0.015820640029367439 0 0.0046528654659589181 -0.014237925741686303 0 0.0050280544809121639 -0.015477719375844842 0 0.004146130613988299 -0.012124209497755098 0 0.0055793075754003258 -0.010364832343415344 0 0.006803973650790056 -0.012497601019088193 0 0.0046528654659589181 -0.014237925741686303 0 0.004146130613988299 -0.012124209497755098 0 0.006803973650790056 -0.012497601019088193 0 0.0029373631585722449 -0.014028272139150318 0 0.0046528654659589181 -0.014237925741686303 0 0.004146130613988299 -0.012124209497755098 0 0.004146130613988299 -0.012124209497755098 0 0.0055793075754003258 -0.010364832343415344 0 0.0039725037769462847 -0.0095242535862443863 0 0.0055793075754003258 -0.010364832343415344 0 0.0039725037769462847 -0.0095242535862443863 0 0.0053787451055715731 -0.0084777291243040981 0 0.0016487617242914811 -0.011498689118608865 0 0.004146130613988299 -0.012124209497755098 0 0.0039725037769462847 -0.0095242535862443863 0 0.0014518502934022504 -0.011210729306831821 0 0.002063246112485124 -0.0090980106637306418 0 0.00032849975550493937 -0.0083424175089880336 0 0.0014518502934022504 -0.011210729306831821 0 0.0039725037769462847 -0.0095242535862443863 0 0.002063246112485124 -0.0090980106637306418 0 0.0042414610456564051 -0.012384873578277432 0 0.0031415130404597227 -0.0097824836606959873 0 0.0066274679531381359 -0.0049152575423834213 0 0.0078048843742851634 -0.0043071333891257241 0 0.0073386660385800937 -0.0051433598907073778 0 0.0039725037769462847 -0.0095242535862443863 0 0.002063246112485124 -0.0090980106637306418 0 0.0032097778736792115 -0.0074817774913499687 0 0.002063246112485124 -0.0090980106637306418 0 0.0032097778736792115 -0.0074817774913499687 0 0.00032849975550493937 -0.0083424175089880336 0 0.0045716982698267251 -0.0062730977180470091 0 0.0065766123100432991 -0.0070891592042826414 0 0.0066274679531381359 -0.0049152575423834213 0 0.0063647526956870353 -0.0056477701385865362 0 0.0063839062674311024 -0.006380691027750034 0 0.0045716982698267251 -0.0062730977180470091 0 0.0065051287389179509 -0.0062072426700575346 0 0.0032097778736792115 -0.0074817774913499687 0 0.0053787451055715731 -0.0084777291243040981 0 0.0063839062674311024 -0.006380691027750034 0 0.0039725037769462847 -0.0095242535862443863 0 0.0032097778736792115 -0.0074817774913499687 0 0.0053787451055715731 -0.0084777291243040981 0 0.00827505465321976 -0.011101594637194009 0 0.008579447400886217 -0.011461290061768123 0 0.0078824642481248666 -0.011616586596735243 0 0.008856871525004785 -0.010892860678572629 0 0.00827505465321976 -0.011101594637194009 0 0.008579447400886217 -0.011461290061768123 0 0.0076293987726664047 -0.011025785431725076 0 0.00827505465321976 -0.011101594637194009 0 0.0078824642481248666 -0.011616586596735243 0 0.0042414610456564051 -0.012384873578277432 0 0.0065766123100432991 -0.0070891592042826414 0 0.0083380247308100716 -0.0035546412677192859 0 0.0094152754699291675 -0.0041315806759910064 0 0.0086998113416596728 -0.0052279225204003438 0 0.0065766123100432991 -0.0070891592042826414 0 0.0087895023277649656 -0.0041030769738123621 0 0.010178520400619777 -0.0042467705769959748 0 0.0098129242367187928 -0.0033915932244774592 0 0.0094152754699291675 -0.0041315806759910064 0 0.0093410636648964852 -0.0071993671003840638 0 0.0065766123100432991 -0.0070891592042826414 0 0.0098129242367187928 -0.0033915932244774592 0 0.0083380247308100716 -0.0035546412677192859 0 0.0094152754699291675 -0.0041315806759910064 0 0.010178520400619777 -0.0042467705769959748 0 0.0094152754699291675 -0.0041315806759910064 0 0.010047430655202028 -0.0048351604318988793 0 0.0094152754699291675 -0.0041315806759910064 0 0.010047430655202028 -0.0048351604318988793 0 0.0086998113416596728 -0.0052279225204003438 0 0.010047430655202028 -0.0048351604318988793 0 0.0086998113416596728 -0.0052279225204003438 0 0.0095276608264206857 -0.0062167107293163862 0 0.0078048843742851634 -0.0043071333891257241 0 0.0086998113416596728 -0.0052279225204003438 0 0.0073386660385800937 -0.0051433598907073778 0 0.0086998113416596728 -0.0052279225204003438 0 0.0073386660385800937 -0.0051433598907073778 0 0.0070985685324806988 -0.0059435268347624009 0 -0.0071802444821767271 0.0085942950084459003 0 -0.0050414555679739468 0.0097568853521267339 0 -0.0086939352906151238 0.010233253570728728 0 0.0086998113416596728 -0.0052279225204003438 0 0.0095276608264206857 -0.0062167107293163862 0 0.0070985685324806988 -0.0059435268347624009 0 0.0057407292680355946 0.0002961578643268775 0 -0.0019299700911193359 0.0027358801050259875 0 0.0088497899322153278 -0.0057766828881076386 0 0.0057407292680355946 0.0002961578643268775 0 -0.0019299700911193359 0.0027358801050259875 0 -0.0009137285303388471 0.00052909452843057352 0 0.0061978121967692004 -0.0055688277715991415 0 0.0066801161886249297 -0.0054651533450010914 0 0.0070985685324806988 -0.0059435268347624009 0 0.0061978121967692004 -0.0055688277715991415 0 0.0070985685324806988 -0.0059435268347624009 0 0.0059795598806775541 -0.005530569992434062 0 0.0040103926480850437 -0.0010682183632291192 0 -0.0009137285303388471 0.00052909452843057352 0 0.0063647526956870353 -0.0056477701385865362 0 0.0063780325266975767 -0.0057421956112194469 0 0.0063839062674311024 -0.006380691027750034 0 0.0061978121967692004 -0.0055688277715991415 0 0.0063647526956870353 -0.0056477701385865362 0 0.0063780325266975767 -0.0057421956112194469 0 0.0066274679531381359 -0.0049152575423834213 0 0.0063647526956870353 -0.0056477701385865362 0 0.0066801161886249297 -0.0054651533450010914 0 0.0061978121967692004 -0.0055688277715991415 0 0.0063647526956870353 -0.0056477701385865362 0 0.0066801161886249297 -0.0054651533450010914 0 0.0066274679531381359 -0.0049152575423834213 0 0.0066801161886249297 -0.0054651533450010914 0 0.0073386660385800937 -0.0051433598907073778 0 0.0066801161886249297 -0.0054651533450010914 0 0.0073386660385800937 -0.0051433598907073778 0 0.0070985685324806988 -0.0059435268347624009 0 -0.0093287724108805405 0.0079343577166123488 0 -0.0071802444821767271 0.0085942950084459003 0 -0.0086939352906151238 0.010233253570728728 0 -0.0093287724108805405 0.0079343577166123488 0 -0.0086939352906151238 0.010233253570728728 0 -0.010054874035614014 0.0097234160828417477 0 -0.010726043126560822 0.0087858835363529772 0 -0.010054874035614014 0.0097234160828417477 0 -0.01067173114061405 0.0095242327321293993 0 -0.0086939352906151238 0.010233253570728728 0 -0.010054874035614014 0.0097234160828417477 0 -0.011356315421552585 0.010477484702334512 0 -0.01102871582707194 0.0099053473692876925 0 -0.01067173114061405 0.0095242327321293993 0 -0.011507683291697249 0.0097277297635429815 0 -0.010054874035614014 0.0097234160828417477 0 -0.01102871582707194 0.0099053473692876925 0 -0.01067173114061405 0.0095242327321293993 0 -0.010054874035614014 0.0097234160828417477 0 -0.01102871582707194 0.0099053473692876925 0 -0.011356315421552585 0.010477484702334512 0 -0.010726043126560822 0.0087858835363529772 0 -0.01067173114061405 0.0095242327321293993 0 -0.011338859543244801 0.009189698480829624 0 -0.01067173114061405 0.0095242327321293993 0 -0.011338859543244801 0.009189698480829624 0 -0.011507683291697249 0.0097277297635429815 0 -0.011338859543244801 0.009189698480829624 0 -0.011878972405374014 0.0090841367935525115 0 -0.011863589891037868 0.0094953764425761318 0 -0.011338859543244801 0.009189698480829624 0 -0.011863589891037868 0.0094953764425761318 0 -0.011507683291697249 0.0097277297635429815 0 -0.012336909678436096 0.0090294525543027603 0 -0.011878972405374014 0.0090841367935525115 0 -0.012199466010147613 0.0093705663002692854 0 -0.011878972405374014 0.0090841367935525115 0 -0.011863589891037868 0.0094953764425761318 0 -0.012199466010147613 0.0093705663002692854 0 -0.011863589891037868 0.0094953764425761318 0 -0.012199466010147613 0.0093705663002692854 0 -0.012302687028890509 0.0096897452542727171 0 -0.011863589891037868 0.0094953764425761318 0 -0.012302687028890509 0.0096897452542727171 0 -0.012019990848398367 0.009927785246667863 0 -0.012302687028890509 0.0096897452542727171 0 -0.012019990848398367 0.009927785246667863 0 -0.012367036329953892 0.009969411622273305 0 -0.011863589891037868 0.0094953764425761318 0 -0.012019990848398367 0.009927785246667863 0 -0.011507683291697249 0.0097277297635429815 0 -0.011883423245499866 0.010193826902452146 0 -0.012019990848398367 0.009927785246667863 0 -0.011581730754164398 0.010063138481120341 0 -0.011883423245499866 0.010193826902452146 0 -0.012019990848398367 0.009927785246667863 0 -0.012165823061936155 0.010120080918100599 0 -0.012019990848398367 0.009927785246667863 0 -0.012165823061936155 0.010120080918100599 0 -0.012367036329953892 0.009969411622273305 0 -0.012165823061936155 0.010120080918100599 0 -0.012367036329953892 0.009969411622273305 0 -0.012385906946766107 0.01019075726810573 0 -0.01102871582707194 0.0099053473692876925 0 -0.011507683291697249 0.0097277297635429815 0 -0.011581730754164398 0.010063138481120341 0 -0.012019990848398367 0.009927785246667863 0 -0.011507683291697249 0.0097277297635429815 0 -0.011581730754164398 0.010063138481120341 0 -0.01102871582707194 0.0099053473692876925 0 -0.011581730754164398 0.010063138481120341 0 -0.011356315421552585 0.010477484702334512 0 0.0061978121967692004 -0.0055688277715991415 0 0.006491897069059652 -0.0053446302640221526 0 0.0067122720170680024 -0.0054987656606721048 0 0.0068331883948167336 -0.0057223241046239527 0 0.0078735543167225298 -0.0049910969902498842 0 0.0077632759998227368 -0.0081692926811696917 0 0.0061978121967692004 -0.0055688277715991415 0 0.0067122720170680024 -0.0054987656606721048 0 0.0063780325266975767 -0.0057421956112194469 0 -0.011883423245499866 0.010193826902452146 0 -0.011581730754164398 0.010063138481120341 0 -0.011356315421552585 0.010477484702334512 0 0.0067122720170680024 -0.0054987656606721048 0 0.0068331883948167336 -0.0057223241046239527 0 0.0078735543167225298 -0.0049910969902498842 0 -0.011883423245499866 0.010193826902452146 0 -0.011356315421552585 0.010477484702334512 0 -0.01217155974535843 0.01031499064711598 0 -0.011356315421552585 0.010477484702334512 0 -0.01217155974535843 0.01031499064711598 0 -0.012484566687128225 0.010442022713225209 0 -0.0009137285303388471 0.00052909452843057352 0 -0.0024711841398561054 -0.0037384295431642949 0 0.006491897069059652 -0.0053446302640221526 0 0.0067122720170680024 -0.0054987656606721048 0 0.0078735543167225298 -0.0049910969902498842 0 -0.011883423245499866 0.010193826902452146 0 -0.012165823061936155 0.010120080918100599 0 -0.01217155974535843 0.01031499064711598 0 -0.012165823061936155 0.010120080918100599 0 -0.01217155974535843 0.01031499064711598 0 -0.012385906946766107 0.01019075726810573 0 -0.01217155974535843 0.01031499064711598 0 -0.012396421701115882 0.010321678967929732 0 -0.012385906946766107 0.01019075726810573 0 0.0063780325266975767 -0.0057421956112194469 0 0.0068331883948167336 -0.0057223241046239527 0 0.0063839062674311024 -0.006380691027750034 0 0.0067122720170680024 -0.0054987656606721048 0 0.0063780325266975767 -0.0057421956112194469 0 0.0068331883948167336 -0.0057223241046239527 0 0.003536599066112867 -0.016030482892961627 0 0.0031602543058040973 -0.016185990890344556 0 0.0034758082109088142 -0.015968951489927583 0 -0.0024711841398561054 -0.0037384295431642949 0 -0.0063443492865960897 -0.0027142460516208331 0 -0.01217155974535843 0.01031499064711598 0 -0.012484566687128225 0.010442022713225209 0 -0.012396421701115882 0.010321678967929732 0 -0.012484566687128225 0.010442022713225209 0 -0.012518882005048354 0.01032984341720208 0 -0.012396421701115882 0.010321678967929732 0 -0.0024711841398561054 -0.0037384295431642949 0 -0.002603190693856572 -0.0021346339694902142 0 -0.012518882005048354 0.01032984341720208 0 -0.012396421701115882 0.010321678967929732 0 -0.012385906946766107 0.01019075726810573 0 -0.012481200242234996 0.010470008964484688 0 -0.012948995558097897 0.009846480635680532 0 -0.013986584245385928 0.0098260995723140968 0 -0.012481200242234996 0.010470008964484688 0 -0.012518882005048354 0.01032984341720208 0 -0.012948995558097897 0.009846480635680532 0 -0.012518882005048354 0.01032984341720208 0 -0.012385906946766107 0.01019075726810573 0 -0.012560668319484096 0.010027421803824318 0 -0.012367036329953892 0.009969411622273305 0 -0.012385906946766107 0.01019075726810573 0 -0.012560668319484096 0.010027421803824318 0 -0.012367036329953892 0.009969411622273305 0 -0.012560668319484096 0.010027421803824318 0 -0.012590083126626661 0.0097967930247515999 0 -0.012518882005048354 0.01032984341720208 0 -0.012560668319484096 0.010027421803824318 0 -0.012948995558097897 0.009846480635680532 0 -0.012948995558097897 0.009846480635680532 0 -0.012590083126626661 0.0097967930247515999 0 -0.012658771048935384 0.009432321627570352 0 -0.012560668319484096 0.010027421803824318 0 -0.012948995558097897 0.009846480635680532 0 -0.012590083126626661 0.0097967930247515999 0 -0.012302687028890509 0.0096897452542727171 0 -0.012590083126626661 0.0097967930247515999 0 -0.012658771048935384 0.009432321627570352 0 -0.012302687028890509 0.0096897452542727171 0 -0.012367036329953892 0.009969411622273305 0 -0.012590083126626661 0.0097967930247515999 0 -0.012948995558097897 0.009846480635680532 0 -0.012658771048935384 0.009432321627570352 0 -0.013248285440183572 0.0092052251878214347 0 -0.012199466010147613 0.0093705663002692854 0 -0.012302687028890509 0.0096897452542727171 0 -0.012658771048935384 0.009432321627570352 0 -0.012801177437050421 0.0088823825276413328 0 -0.012658771048935384 0.009432321627570352 0 -0.013248285440183572 0.0092052251878214347 0 -0.012801177437050421 0.0088823825276413328 0 -0.012336909678436096 0.0090294525543027603 0 -0.012658771048935384 0.009432321627570352 0 -0.012336909678436096 0.0090294525543027603 0 -0.012199466010147613 0.0093705663002692854 0 -0.012658771048935384 0.009432321627570352 0 -0.012948995558097897 0.009846480635680532 0 -0.013248285440183572 0.0092052251878214347 0 -0.013986584245385928 0.0098260995723140968 0 -0.013837086740080487 0.0089638266637763475 0 -0.014747041513652817 0.0090976690006307637 0 -0.013986584245385928 0.0098260995723140968 0 -0.014747041513652817 0.0090976690006307637 0 -0.013986584245385928 0.0098260995723140968 0 -0.014527066287364356 0.010585591274548738 0 -0.013837086740080487 0.0089638266637763475 0 -0.013248285440183572 0.0092052251878214347 0 -0.013986584245385928 0.0098260995723140968 0 -0.015891460353930839 0.0096804177165335133 0 -0.014527066287364356 0.010585591274548738 0 -0.016649812260544159 0.010596812871329192 0 -0.014747041513652817 0.0090976690006307637 0 -0.015891460353930839 0.0096804177165335133 0 -0.014527066287364356 0.010585591274548738 0 -0.016130958591718442 0.0086898417986592119 0 -0.014747041513652817 0.0090976690006307637 0 -0.015891460353930839 0.0096804177165335133 0 -0.0063443492865960897 -0.0027142460516208331 0 -0.0058947633202160749 -0.0027060094796412769 0 0.0031602543058040973 -0.016185990890344556 0 0.0028726241072112679 -0.015922335806480042 0 0.0025909693521551777 -0.016240945730354971 0 -0.012481200242234996 0.010470008964484688 0 -0.013986584245385928 0.0098260995723140968 0 -0.014527066287364356 0.010585591274548738 0 0.0031602543058040973 -0.016185990890344556 0 0.0033034695440323125 -0.01589045363478233 0 0.0034758082109088142 -0.015968951489927583 0 0.0031602543058040973 -0.016185990890344556 0 0.0033034695440323125 -0.01589045363478233 0 0.0028726241072112679 -0.015922335806480042 0 0.0028726241072112679 -0.015922335806480042 0 0.0031118232535031023 -0.015758529474047378 0 0.0025888552379041661 -0.015603370179519611 0 0.0033034695440323125 -0.01589045363478233 0 0.0028726241072112679 -0.015922335806480042 0 0.0031118232535031023 -0.015758529474047378 0 0.0033034695440323125 -0.01589045363478233 0 0.0034671237451866493 -0.01578908898705509 0 0.0036340037253924989 -0.015848032863990325 0 0.0033034695440323125 -0.01589045363478233 0 0.0031118232535031023 -0.015758529474047378 0 0.0034671237451866493 -0.01578908898705509 0 0.0034671237451866493 -0.01578908898705509 0 0.0036340037253924989 -0.015848032863990325 0 0.0037296032294738077 -0.015734829845173093 0 0.0036340037253924989 -0.015848032863990325 0 0.0037108623212214614 -0.015875343902132136 0 0.004096500716619004 -0.015845343867446193 0 0.0065383888194956823 -0.013351817132166485 0 0.0053663764876058749 -0.013814141358383117 0 0.0055793075754003258 -0.010364832343415344 0 0.0053787451055715731 -0.0084777291243040981 0 0.0077632759998227368 -0.0081692926811696917 0 0.0055793075754003258 -0.010364832343415344 0 0.0077632759998227368 -0.0081692926811696917 0 0.006803973650790056 -0.012497601019088193 0 0.0068331883948167336 -0.0057223241046239527 0 0.0077632759998227368 -0.0081692926811696917 0 0.0063839062674311024 -0.006380691027750034 0 0.0053787451055715731 -0.0084777291243040981 0 0.0077632759998227368 -0.0081692926811696917 0 0.0063839062674311024 -0.006380691027750034 0 -0.0024711841398561054 -0.0037384295431642949 0 0.0065383888194956823 -0.013351817132166485 0 0.0036340037253924989 -0.015848032863990325 0 0.0037108623212214614 -0.015875343902132136 0 0.0034758082109088142 -0.015968951489927583 0 0.0033034695440323125 -0.01589045363478233 0 0.0036340037253924989 -0.015848032863990325 0 0.0034758082109088142 -0.015968951489927583 0 0.003536599066112867 -0.016030482892961627 0 0.0037108623212214614 -0.015875343902132136 0 0.0034758082109088142 -0.015968951489927583 0 -0.018885842830219504 -0.009752654364787396 0 -0.018789978863939238 -0.0098662936610478449 0 -0.01875011326074183 -0.0097457395490352632 0 -0.022544502423156206 -0.0016017365361529461 0 -0.025429092562439769 -0.0024718310558949743 0 -0.018885842830219504 -0.009752654364787396 0 -0.018830472501705837 -0.0098982855111265679 0 -0.018789978863939238 -0.0098662936610478449 0 -0.022544502423156206 -0.0016017365361529461 0 -0.019185702431904615 -0.011932040237546467 0 -0.025286231917930911 0.0063816016435836939 0 -0.022544502423156206 -0.0016017365361529461 0 -0.03069860711439662 0.0026901436096304523 0 -0.030514394160737968 0.0018059624385961838 0 -0.030304967230160663 0.0023390766906558188 0 -0.030514394160737968 0.0018059624385961838 0 -0.030304967230160663 0.0023390766906558188 0 -0.029945170755223106 0.0021939273854406187 0 -0.03010957222807302 0.0026149455654986753 0 -0.030304967230160663 0.0023390766906558188 0 -0.029945170755223106 0.0021939273854406187 0 -0.019318641419783532 0.007640449350155884 0 -0.018960391725063908 0.0055636880353805238 0 -0.020005913699063821 0.0070825956910467698 0 -0.019213483839839798 0.0097280031143541362 0 -0.013206734398936056 -0.0041498756894915384 0 -0.018960391725063908 0.0055636880353805238 0 -0.020005913699063821 0.0070825956910467698 0 -0.020601443207763994 0.005533465991963883 0 -0.018812904588560646 -0.0098792451329201419 0 -0.0187754043068157 -0.0098992750874785651 0 -0.018789370746306471 -0.0099532499779734981 0 -0.022544502423156206 -0.0016017365361529461 0 -0.013206734398936056 -0.0041498756894915384 0 -0.018812904588560646 -0.0098792451329201419 0 -0.018789370746306471 -0.0099532499779734981 0 -0.018830472501705837 -0.0098982855111265679 0 0.0019491448259787152 -0.016189954036425227 0 0.0025909693521551777 -0.016240945730354971 0 0.0023034015652584378 -0.015858602325855623 0 -0.013206734398936056 -0.0041498756894915384 0 -0.0080175076277795524 -0.014511169452310169 0 -0.013206734398936056 -0.0041498756894915384 0 -0.0058947633202160749 -0.0027060094796412769 0 -0.01844505046049745 0.008913457822428356 0 -0.019269314996335846 0.0091287764271539475 0 -0.018683772776607432 0.010491516870494407 0 -0.01844505046049745 0.008913457822428356 0 -0.018683772776607432 0.010491516870494407 0 -0.017389247020614708 0.0094424829825027791 0 -0.015891460353930839 0.0096804177165335133 0 -0.017389247020614708 0.0094424829825027791 0 -0.016649812260544159 0.010596812871329192 0 -0.018683772776607432 0.010491516870494407 0 -0.017389247020614708 0.0094424829825027791 0 -0.016649812260544159 0.010596812871329192 0 -0.016130958591718442 0.0086898417986592119 0 -0.015891460353930839 0.0096804177165335133 0 -0.017389247020614708 0.0094424829825027791 0 0.0028726241072112679 -0.015922335806480042 0 0.0025909693521551777 -0.016240945730354971 0 0.0023034015652584378 -0.015858602325855623 0 0.0028726241072112679 -0.015922335806480042 0 0.0023034015652584378 -0.015858602325855623 0 0.0025888552379041661 -0.015603370179519611 0 -0.0080175076277795524 -0.014511169452310169 0 -0.0082318543291980996 -0.012405097371327219 0 -0.01875847404227415 -0.010056373274912562 0 -0.018743538957004934 -0.010032403743582002 0 -0.018580720501522818 -0.01006442508045691 0 -0.01875847404227415 -0.010056373274912562 0 -0.018743538957004934 -0.010032403743582002 0 -0.018813478324410857 -0.010015667403563827 0 -0.0187754043068157 -0.0098992750874785651 0 -0.018743538957004934 -0.010032403743582002 0 -0.018789370746306471 -0.0099532499779734981 0 -0.018743538957004934 -0.010032403743582002 0 -0.018789370746306471 -0.0099532499779734981 0 -0.018813478324410857 -0.010015667403563827 0 -0.018789370746306471 -0.0099532499779734981 0 -0.018813478324410857 -0.010015667403563827 0 -0.018830472501705837 -0.0098982855111265679 0 -0.018813478324410857 -0.010015667403563827 0 -0.018797957631193688 -0.0099849524504636231 0 -0.018884438590598442 -0.010100552718541147 0 -0.01875847404227415 -0.010056373274912562 0 -0.018813478324410857 -0.010015667403563827 0 -0.018884438590598442 -0.010100552718541147 0 -0.018797957631193688 -0.0099849524504636231 0 -0.018830472501705837 -0.0098982855111265679 0 -0.018789978863939238 -0.0098662936610478449 0 -0.018813478324410857 -0.010015667403563827 0 -0.018797957631193688 -0.0099849524504636231 0 -0.018830472501705837 -0.0098982855111265679 0 -0.018744820582465994 -0.01036446056337127 0 -0.018711233589554108 -0.010133213579617056 0 -0.018439537646785773 -0.010676741218788999 0 -0.018744820582465994 -0.01036446056337127 0 -0.01905348588445812 -0.010668095879904214 0 -0.018439537646785773 -0.010676741218788999 0 -0.018744820582465994 -0.01036446056337127 0 -0.018884438590598442 -0.010100552718541147 0 -0.018711233589554108 -0.010133213579617056 0 -0.018797957631193688 -0.0099849524504636231 0 -0.018884438590598442 -0.010100552718541147 0 -0.018711233589554108 -0.010133213579617056 0 -0.018671361426724549 -0.010016831342523257 0 -0.01969014225234339 -0.010240783680532415 0 -0.018744820582465994 -0.01036446056337127 0 -0.018884438590598442 -0.010100552718541147 0 -0.01905348588445812 -0.010668095879904214 0 -0.018884438590598442 -0.010100552718541147 0 -0.01905348588445812 -0.010668095879904214 0 -0.019406505335857749 -0.010368431556661587 0 -0.01905348588445812 -0.010668095879904214 0 -0.019447993794100782 -0.01063595386059683 0 -0.019406505335857749 -0.010368431556661587 0 -0.019447993794100782 -0.01063595386059683 0 -0.019406505335857749 -0.010368431556661587 0 -0.019804765854101954 -0.010606288609557629 0 -0.01875847404227415 -0.010056373274912562 0 -0.018884438590598442 -0.010100552718541147 0 -0.018712610370224873 -0.0099335524735485892 0 -0.01875847404227415 -0.010056373274912562 0 -0.018712610370224873 -0.0099335524735485892 0 -0.018580720501522818 -0.01006442508045691 0 -0.018712610370224873 -0.0099335524735485892 0 -0.018580720501522818 -0.01006442508045691 0 -0.018384650156995582 -0.0098815004871589326 0 -0.0082318543291980996 -0.012405097371327219 0 -0.0049561400536019149 -0.013789125200920127 0 -0.01969014225234339 -0.010240783680532415 0 -0.015123148772262632 -0.011713879986469701 0 -0.018712610370224873 -0.0099335524735485892 0 -0.018384650156995582 -0.0098815004871589326 0 -0.018429535096206415 -0.009845547615011177 0 -0.015123148772262632 -0.011713879986469701 0 -0.005257336455704204 -0.014005448961771395 0 -0.0069929594276761002 -0.012657146303387339 0 -0.0063953281124252788 -0.013144882027862672 0 -0.0073992725336944325 -0.013647701476717171 0 -0.0049561400536019149 -0.013789125200920127 0 -0.015123148772262632 -0.011713879986469701 0 -0.017896027878016509 -0.012175230469730002 0 -0.018025320519573607 -0.011908965104522665 0 -0.018104601424097588 -0.01217877580646793 0 -0.019447993794100782 -0.01063595386059683 0 -0.019804765854101954 -0.010606288609557629 0 -0.019491590304869515 -0.010905160044250446 0 -0.017831089544887612 -0.012357989984535342 0 -0.017896027878016509 -0.012175230469730002 0 -0.018104601424097588 -0.01217877580646793 0 -0.015123148772262632 -0.011713879986469701 0 -0.019328772752464501 -0.011260543577385457 0 -0.017831089544887612 -0.012357989984535342 0 -0.017896027878016509 -0.012175230469730002 0 -0.01773789313212008 -0.012313689949003882 0 -0.017896027878016509 -0.012175230469730002 0 -0.018025320519573607 -0.011908965104522665 0 -0.017673114285056517 -0.012012827851556735 0 -0.018025320519573607 -0.011908965104522665 0 -0.018104601424097588 -0.01217877580646793 0 -0.018348383734993246 -0.011992773864969648 0 -0.018025320519573607 -0.011908965104522665 0 -0.018348383734993246 -0.011992773864969648 0 -0.018365587424741141 -0.011760928790397942 0 -0.01905348588445812 -0.010668095879904214 0 -0.019447993794100782 -0.01063595386059683 0 -0.019491590304869515 -0.010905160044250446 0 -0.019328772752464501 -0.011260543577385457 0 -0.018624160604410005 -0.011698835436830519 0 -0.01905348588445812 -0.010668095879904214 0 -0.019120360973774661 -0.011274163375850514 0 -0.018739850684057677 -0.01110431789450015 0 -0.01905348588445812 -0.010668095879904214 0 -0.019491590304869515 -0.010905160044250446 0 -0.019120360973774661 -0.011274163375850514 0 -0.018624160604410005 -0.011698835436830519 0 -0.018653497263427177 -0.011648896576052272 0 -0.019120360973774661 -0.011274163375850514 0 -0.018739850684057677 -0.01110431789450015 0 -0.018602922136382215 -0.011668558061805554 0 -0.018348383734993246 -0.011992773864969648 0 -0.018602922136382215 -0.011668558061805554 0 -0.018365587424741141 -0.011760928790397942 0 -0.018739850684057677 -0.01110431789450015 0 -0.018602922136382215 -0.011668558061805554 0 -0.018446857367383839 -0.011514716439487581 0 -0.018739850684057677 -0.01110431789450015 0 -0.018446857367383839 -0.011514716439487581 0 -0.018439537646785773 -0.010676741218788999 0 -0.01905348588445812 -0.010668095879904214 0 -0.018739850684057677 -0.01110431789450015 0 -0.018439537646785773 -0.010676741218788999 0 0.0040569021703462677 -0.015593450168511576 0 0.0037296032294738077 -0.015734829845173093 0 0.0035561063528677297 -0.015525855663265109 0 0.0046528654659589181 -0.014237925741686303 0 0.006803973650790056 -0.012497601019088193 0 0.0050280544809121639 -0.015477719375844842 0 0.0053663764876058749 -0.013814141358383117 0 0.0051046595358184036 -0.015419682855287152 0 0.0040569021703462677 -0.015593450168511576 0 0.004096500716619004 -0.015845343867446193 0 0.0050280544809121639 -0.015477719375844842 0 0.0036340037253924989 -0.015848032863990325 0 0.004096500716619004 -0.015845343867446193 0 0.0037296032294738077 -0.015734829845173093 0 0.0040569021703462677 -0.015593450168511576 0 0.004096500716619004 -0.015845343867446193 0 0.0037296032294738077 -0.015734829845173093 0 0.0034671237451866493 -0.01578908898705509 0 0.0037296032294738077 -0.015734829845173093 0 0.0032664704974728368 -0.015555157228649967 0 0.0037296032294738077 -0.015734829845173093 0 0.0032664704974728368 -0.015555157228649967 0 0.0035561063528677297 -0.015525855663265109 0 0.0031118232535031023 -0.015758529474047378 0 0.0034671237451866493 -0.01578908898705509 0 0.0032664704974728368 -0.015555157228649967 0 0.0025888552379041661 -0.015603370179519611 0 0.0027980371150660515 -0.015153588309172919 0 0.0032664704974728368 -0.015555157228649967 0 0.0031118232535031023 -0.015758529474047378 0 0.0025888552379041661 -0.015603370179519611 0 0.0032664704974728368 -0.015555157228649967 0 -0.0049561400536019149 -0.013789125200920127 0 0.0055246655573238908 -0.016925725277127601 0 0.0031380594243240389 -0.015490190989470432 0 0.0032664704974728368 -0.015555157228649967 0 0.0032838844157832927 -0.015483295342167582 0 0.0032838844157832927 -0.015483295342167582 0 0.0031528848262821906 -0.015433613019627363 0 0.0033758759282110384 -0.015367588097340321 0 0.0031380594243240389 -0.015490190989470432 0 0.0032838844157832927 -0.015483295342167582 0 0.0031528848262821906 -0.015433613019627363 0 -0.0049561400536019149 -0.013789125200920127 0 -0.005257336455704204 -0.014005448961771395 0 0.0032664704974728368 -0.015555157228649967 0 0.0032838844157832927 -0.015483295342167582 0 0.0035561063528677297 -0.015525855663265109 0 0.0032838844157832927 -0.015483295342167582 0 0.0035561063528677297 -0.015525855663265109 0 0.0033758759282110384 -0.015367588097340321 0 0.0035561063528677297 -0.015525855663265109 0 0.0033758759282110384 -0.015367588097340321 0 0.0036039241390583205 -0.015356251492472557 0 0.0027513918040587872 -0.015794464671287461 0 0.0025100355673980039 -0.014964337315021075 0 0.0031336710756470392 -0.015006440582650795 0 0.0027513918040587872 -0.015794464671287461 0 0.0036039241390583205 -0.015356251492472557 0 0.0031336710756470392 -0.015006440582650795 0 0.0039199892487429919 -0.015020280974915604 0 0.0032358677158624439 -0.015514159155031555 0 -0.005257336455704204 -0.014005448961771395 0 -0.0079156042185043601 -0.013672011052345421 0 -0.017896027878016509 -0.012175230469730002 0 -0.01773789313212008 -0.012313689949003882 0 -0.017673114285056517 -0.012012827851556735 0 0.0018557709616721766 -0.016176581153637674 0 0.0027513918040587872 -0.015794464671287461 0 0.0025100355673980039 -0.014964337315021075 0 -0.005257336455704204 -0.014005448961771395 0 0.0039199892487429919 -0.015020280974915604 0 -0.018025320519573607 -0.011908965104522665 0 -0.017673114285056517 -0.012012827851556735 0 -0.017810302214276836 -0.011845483008985464 0 0.0036039241390583205 -0.015356251492472557 0 0.0031336710756470392 -0.015006440582650795 0 0.0038338777268782207 -0.014955557684696195 0 0.0025100355673980039 -0.014964337315021075 0 0.0031336710756470392 -0.015006440582650795 0 0.0031011825633834563 -0.014500199778111384 0 0.0031336710756470392 -0.015006440582650795 0 0.0038338777268782207 -0.014955557684696195 0 0.0031011825633834563 -0.014500199778111384 0 0.0036039241390583205 -0.015356251492472557 0 0.0038338777268782207 -0.014955557684696195 0 0.0043240462762743513 -0.015330096112139747 0 0.0038338777268782207 -0.014955557684696195 0 0.0043240462762743513 -0.015330096112139747 0 0.0044692334725486759 -0.014970631680066444 0 0.0040569021703462677 -0.015593450168511576 0 0.0036039241390583205 -0.015356251492472557 0 0.0043240462762743513 -0.015330096112139747 0 0.0040569021703462677 -0.015593450168511576 0 0.0035561063528677297 -0.015525855663265109 0 0.0036039241390583205 -0.015356251492472557 0 0.0043240462762743513 -0.015330096112139747 0 0.0050280544809121639 -0.015477719375844842 0 0.0047629785317967448 -0.015368128565169569 0 0.0049133772675077278 -0.015627315197409328 0 0.0050280544809121639 -0.015477719375844842 0 0.0047629785317967448 -0.015368128565169569 0 0.0040569021703462677 -0.015593450168511576 0 0.0043240462762743513 -0.015330096112139747 0 0.0050280544809121639 -0.015477719375844842 0 0.0047629785317967448 -0.015368128565169569 0 0.0044692334725486759 -0.014970631680066444 0 0.0048065595344224683 -0.015013039888568664 0 0.0043240462762743513 -0.015330096112139747 0 0.0047629785317967448 -0.015368128565169569 0 0.0044692334725486759 -0.014970631680066444 0 0.0048065595344224683 -0.015013039888568664 0 0.0044704942288304218 -0.014771883204976282 0 0.0050169233006018034 -0.014555253088004944 0 0.0044164187340723932 -0.014796165268699205 0 0.0038702788787694118 -0.014819851955099545 0 0.0044692334725486759 -0.014970631680066444 0 0.0048065595344224683 -0.015013039888568664 0 0.0044704942288304218 -0.014771883204976282 0 0.0037648116577833519 -0.015952262748136686 0 0.0042692254993732023 -0.014872201258943193 0 0.0048235937015163027 -0.015483431381174799 0 0.0038702788787694118 -0.014819851955099545 0 0.0049367307224760697 -0.015053636574278426 0 0.0037648116577833519 -0.015952262748136686 0 0.0042692254993732023 -0.014872201258943193 0 0.0036082054554330044 -0.014424844804839538 0 0.0038702788787694118 -0.014819851955099545 0 0.003789824170145339 -0.01463195663272924 0 0.0028788873345263369 -0.014342584453311723 0 0.0028724643423570537 -0.014411477274258346 0 0.002986202284265496 -0.014369427296291874 0 0.0028788873345263369 -0.014342584453311723 0 0.0028724643423570537 -0.014411477274258346 0 0.0027849182607814706 -0.01446909571731155 0 0.0028724643423570537 -0.014411477274258346 0 0.002986202284265496 -0.014369427296291874 0 0.0028303128778241916 -0.014447597436798664 0 0.0038338777268782207 -0.014955557684696195 0 0.0043984445943108883 -0.014060125980474259 0 0.0031011825633834563 -0.014500199778111384 0 0.0038702788787694118 -0.014819851955099545 0 0.0030664871854810226 -0.014357376984704026 0 0.0028788873345263369 -0.014342584453311723 0 0.0031011825633834563 -0.014500199778111384 0 0.002986202284265496 -0.014369427296291874 0 0.0038338777268782207 -0.014955557684696195 0 0.0044692334725486759 -0.014970631680066444 0 0.0043984445943108883 -0.014060125980474259 0 0.0025100355673980039 -0.014964337315021075 0 0.0031011825633834563 -0.014500199778111384 0 0.0029067271684975666 -0.014303756131669523 0 0.0031011825633834563 -0.014500199778111384 0 0.0029067271684975666 -0.014303756131669523 0 0.002986202284265496 -0.014369427296291874 0 -0.017673114285056517 -0.012012827851556735 0 -0.017666657322380829 -0.01178025284283315 0 -0.017810302214276836 -0.011845483008985464 0 -0.0079156042185043601 -0.013672011052345421 0 -0.007370736110093817 -0.01296313357375399 0 -0.017666657322380829 -0.01178025284283315 0 -0.017810302214276836 -0.011845483008985464 0 -0.017918067926124152 -0.011720936975977057 0 -0.017666657322380829 -0.01178025284283315 0 -0.017793185760274676 -0.011662113784667421 0 -0.017918067926124152 -0.011720936975977057 0 0.0046080938563185401 -0.014964439091799259 0 -0.007215016768426819 -0.013193180014839451 0 -0.007370736110093817 -0.01296313357375399 0 -0.007215016768426819 -0.013193180014839451 0 -0.017666657322380829 -0.01178025284283315 0 -0.017793185760274676 -0.011662113784667421 0 -0.017707251837032697 -0.011646822143308786 0 0.0029067271684975666 -0.014303756131669523 0 0.002986202284265496 -0.014369427296291874 0 0.0027961922210636672 -0.014198988838166771 0 -0.017793185760274676 -0.011662113784667421 0 -0.017707251837032697 -0.011646822143308786 0 -0.017802326637829026 -0.011620677733777047 0 -0.017707251837032697 -0.011646822143308786 0 -0.017802326637829026 -0.011620677733777047 0 -0.017853577411128873 -0.011613959335301686 0 -0.007215016768426819 -0.013193180014839451 0 -0.018162695396658601 -0.011800598292504764 0 -0.017793185760274676 -0.011662113784667421 0 -0.017878677278486951 -0.011605737669288812 0 -0.017918067926124152 -0.011720936975977057 0 -0.017793185760274676 -0.011662113784667421 0 -0.017802326637829026 -0.011620677733777047 0 -0.017878677278486951 -0.011605737669288812 0 -0.017878677278486951 -0.011605737669288812 0 -0.017829880100297239 -0.011618247319059777 0 -0.017829570994253776 -0.011648597325425307 0 -0.017878677278486951 -0.011605737669288812 0 -0.017862877266554389 -0.011577301675773095 0 -0.017829570994253776 -0.011648597325425307 0 -0.017802326637829026 -0.011620677733777047 0 -0.017878677278486951 -0.011605737669288812 0 -0.017829880100297239 -0.011618247319059777 0 -0.017829880100297239 -0.011618247319059777 0 -0.017853577411128873 -0.011613959335301686 0 -0.017829570994253776 -0.011648597325425307 0 -0.017802326637829026 -0.011620677733777047 0 -0.017829880100297239 -0.011618247319059777 0 -0.017853577411128873 -0.011613959335301686 0 -0.017420689584593363 -0.012573382416473586 0 -0.017339228163462027 -0.012594483837123601 0 -0.017371956371800026 -0.012489818091859785 0 -0.0074479067856710003 -0.013910406391477278 0 -0.0022797650314267089 -0.013351657001338 0 0.0027401427570051652 -0.014480850261498548 0 0.0027849182607814706 -0.01446909571731155 0 0.0026633773395360297 -0.014487419711625366 0 0.003789824170145339 -0.01463195663272924 0 -0.0022797650314267089 -0.013351657001338 0 0.0040154323266810652 -0.013386926025646744 0 0.0042774421994839279 -0.014091010830699835 0 0.0036082054554330044 -0.014424844804839538 0 0.0040154323266810652 -0.013386926025646744 0 0.0036082054554330044 -0.014424844804839538 0 0.0033819129093766282 -0.012902300042471017 0 0.0040154323266810652 -0.013386926025646744 0 0.0042539524741391404 -0.012741508516620446 0 0.0047810378631801603 -0.013367720385721839 0 0.0040154323266810652 -0.013386926025646744 0 0.0042774421994839279 -0.014091010830699835 0 0.0047810378631801603 -0.013367720385721839 0 0.0042774421994839279 -0.014091010830699835 0 0.0042692254993732023 -0.014872201258943193 0 0.004886940961772248 -0.014403029099619999 0 0.0042774421994839279 -0.014091010830699835 0 0.0042692254993732023 -0.014872201258943193 0 0.0036082054554330044 -0.014424844804839538 0 0.0028724643423570537 -0.014411477274258346 0 0.0028303128778241916 -0.014447597436798664 0 0.0027849182607814706 -0.01446909571731155 0 -0.017235036395496766 -0.012665911136228052 0 -0.017420689584593363 -0.012573382416473586 0 -0.017339228163462027 -0.012594483837123601 0 -0.007215016768426819 -0.013193180014839451 0 -0.0074479067856710003 -0.013910406391477278 0 0.0028303128778241916 -0.014447597436798664 0 0.0027401427570051652 -0.014480850261498548 0 0.0027849182607814706 -0.01446909571731155 0 -0.018537917214318925 -0.011587802016567006 0 -0.018680117753856629 -0.011571197128365735 0 -0.018634094781710471 -0.011576514779229975 0 -0.018537917214318925 -0.011587802016567006 0 -0.018680117753856629 -0.011571197128365735 0 -0.018515974187600703 -0.011639167308026754 0 -0.018680117753856629 -0.011571197128365735 0 -0.018602922136382215 -0.011668558061805554 0 -0.018515974187600703 -0.011639167308026754 0 -0.018682278377554741 -0.011522193927226847 0 -0.018676643294010697 -0.011188642613578223 0 -0.018680117753856629 -0.011571197128365735 0 -0.018602922136382215 -0.011668558061805554 0 -0.018446857367383839 -0.011514716439487581 0 -0.018515974187600703 -0.011639167308026754 0 -0.018365587424741141 -0.011760928790397942 0 -0.018357914032314331 -0.011640444940127868 0 -0.018365587424741141 -0.011760928790397942 0 -0.018357914032314331 -0.011640444940127868 0 -0.018159019088101361 -0.01172523457101367 0 -0.018602922136382215 -0.011668558061805554 0 -0.018515974187600703 -0.011639167308026754 0 -0.018365587424741141 -0.011760928790397942 0 -0.018537917214318925 -0.011587802016567006 0 -0.018357914032314331 -0.011640444940127868 0 -0.018374604934834959 -0.01157727789029514 0 -0.018357914032314331 -0.011640444940127868 0 -0.01813333324430403 -0.011639444675787241 0 -0.018374604934834959 -0.01157727789029514 0 -0.018537917214318925 -0.011587802016567006 0 -0.018515974187600703 -0.011639167308026754 0 -0.018357914032314331 -0.011640444940127868 0 -0.018357914032314331 -0.011640444940127868 0 -0.01813333324430403 -0.011639444675787241 0 -0.018159019088101361 -0.01172523457101367 0 -0.018025320519573607 -0.011908965104522665 0 -0.018365587424741141 -0.011760928790397942 0 -0.018159019088101361 -0.01172523457101367 0 -0.018025320519573607 -0.011908965104522665 0 -0.017810302214276836 -0.011845483008985464 0 -0.017918067926124152 -0.011720936975977057 0 -0.018025320519573607 -0.011908965104522665 0 -0.018159019088101361 -0.01172523457101367 0 -0.017918067926124152 -0.011720936975977057 0 -0.01813333324430403 -0.011639444675787241 0 -0.018159019088101361 -0.01172523457101367 0 -0.017918067926124152 -0.011720936975977057 0 -0.017878677278486951 -0.011605737669288812 0 -0.01813333324430403 -0.011639444675787241 0 -0.018135877226551026 -0.011578864120384533 0 -0.017878677278486951 -0.011605737669288812 0 -0.01813333324430403 -0.011639444675787241 0 -0.017918067926124152 -0.011720936975977057 0 -0.017878677278486951 -0.011605737669288812 0 -0.018135877226551026 -0.011578864120384533 0 -0.017862877266554389 -0.011577301675773095 0 -0.01813333324430403 -0.011639444675787241 0 -0.018135877226551026 -0.011578864120384533 0 -0.018374604934834959 -0.01157727789029514 0 -0.018135877226551026 -0.011578864120384533 0 -0.018351982613174934 -0.011509371237278982 0 -0.018285799489696618 -0.011449094166617366 0 -0.018135877226551026 -0.011578864120384533 0 -0.018374604934834959 -0.01157727789029514 0 -0.018351982613174934 -0.011509371237278982 0 -0.018351982613174934 -0.011509371237278982 0 -0.018488255835768009 -0.011524980056187519 0 -0.018412904256262543 -0.011452831801849471 0 -0.018374604934834959 -0.01157727789029514 0 -0.018351982613174934 -0.011509371237278982 0 -0.018488255835768009 -0.011524980056187519 0 -0.018488255835768009 -0.011524980056187519 0 -0.018412904256262543 -0.011452831801849471 0 -0.018622473096011206 -0.011495643566638155 0 -0.018488255835768009 -0.011524980056187519 0 -0.018560229453452474 -0.011572762685380966 0 -0.018614942042510702 -0.011557774712505681 0 -0.018537917214318925 -0.011587802016567006 0 -0.018374604934834959 -0.01157727789029514 0 -0.018560229453452474 -0.011572762685380966 0 -0.018374604934834959 -0.01157727789029514 0 -0.018488255835768009 -0.011524980056187519 0 -0.018560229453452474 -0.011572762685380966 0 -0.018537917214318925 -0.011587802016567006 0 -0.018560229453452474 -0.011572762685380966 0 -0.018634094781710471 -0.011576514779229975 0 -0.018259571274316686 -0.011383698727165241 0 -0.018412904256262543 -0.011452831801849471 0 -0.018523047874862423 -0.011279016580598003 0 -0.018259571274316686 -0.011383698727165241 0 -0.018412904256262543 -0.011452831801849471 0 -0.018285799489696618 -0.011449094166617366 0 -0.018351982613174934 -0.011509371237278982 0 -0.018412904256262543 -0.011452831801849471 0 -0.018285799489696618 -0.011449094166617366 0 -0.018259571274316686 -0.011383698727165241 0 -0.018285799489696618 -0.011449094166617366 0 -0.018352838799686685 -0.011547627944572864 0 -0.018285799489696618 -0.011449094166617366 0 -0.018373417823561024 -0.011472313219138107 0 -0.017862877266554389 -0.011577301675773095 0 -0.018285799489696618 -0.011449094166617366 0 -0.018373417823561024 -0.011472313219138107 0 -0.018352838799686685 -0.011547627944572864 0 -0.018135877226551026 -0.011578864120384533 0 -0.018285799489696618 -0.011449094166617366 0 -0.017862877266554389 -0.011577301675773095 0 -0.017223977323897004 -0.011986247327055109 0 -0.017862877266554389 -0.011577301675773095 0 -0.017676798248275855 -0.011997839930036175 0 -0.017728797252412731 -0.012067817243432241 0 -0.017879887791893985 -0.011490814097941407 0 -0.017223977323897004 -0.011986247327055109 0 -0.017389270488220528 -0.012446458019096123 0 -0.017676798248275855 -0.011997839930036175 0 -0.017389270488220528 -0.012446458019096123 0 -0.017676798248275855 -0.011997839930036175 0 -0.017621192657527495 -0.01252145209612 0 -0.017389270488220528 -0.012446458019096123 0 -0.017485599501705629 -0.01278393806180681 0 -0.017621192657527495 -0.01252145209612 0 -0.017485599501705629 -0.01278393806180681 0 -0.017294415674583695 -0.012936731035509333 0 -0.017474193076247223 -0.013002815801521088 0 -0.017389270488220528 -0.012446458019096123 0 -0.017485599501705629 -0.01278393806180681 0 -0.017294415674583695 -0.012936731035509333 0 -0.017294415674583695 -0.012936731035509333 0 -0.016261072048690484 -0.012965156949434871 0 -0.017043718777415617 -0.014782507823711197 0 -0.017389270488220528 -0.012446458019096123 0 -0.017294415674583695 -0.012936731035509333 0 -0.016261072048690484 -0.012965156949434871 0 -0.017728797252412731 -0.012067817243432241 0 -0.017494454231894212 -0.011374744279109179 0 -0.018373417823561024 -0.011472313219138107 0 -0.018708189150437218 -0.012203849055435647 0 -0.018436425555202664 -0.01185584738995433 0 -0.018373417823561024 -0.011472313219138107 0 -0.018352838799686685 -0.011547627944572864 0 -0.018436425555202664 -0.01185584738995433 0 -0.017223977323897004 -0.011986247327055109 0 -0.017389270488220528 -0.012446458019096123 0 -0.016261072048690484 -0.012965156949434871 0 -0.018352838799686685 -0.011547627944572864 0 -0.018436425555202664 -0.01185584738995433 0 -0.01820817265096426 -0.011971960517926266 0 -0.018259571274316686 -0.011383698727165241 0 -0.018352838799686685 -0.011547627944572864 0 -0.01820817265096426 -0.011971960517926266 0 -0.018436425555202664 -0.01185584738995433 0 -0.018359346791878631 -0.012179640464087567 0 -0.01820817265096426 -0.011971960517926266 0 -0.018708189150437218 -0.012203849055435647 0 -0.018436425555202664 -0.01185584738995433 0 -0.018359346791878631 -0.012179640464087567 0 -0.018708189150437218 -0.012203849055435647 0 -0.018359346791878631 -0.012179640464087567 0 -0.018470236132209227 -0.012570892027434629 0 -0.018359346791878631 -0.012179640464087567 0 -0.018470236132209227 -0.012570892027434629 0 -0.018038051740124916 -0.012416650303405018 0 -0.018359346791878631 -0.012179640464087567 0 -0.01820817265096426 -0.011971960517926266 0 -0.018038051740124916 -0.012416650303405018 0 -0.018038051740124916 -0.012416650303405018 0 -0.017754290787940361 -0.01242096222849998 0 -0.017762929396070038 -0.011891569364969308 0 -0.01820817265096426 -0.011971960517926266 0 -0.018038051740124916 -0.012416650303405018 0 -0.017762929396070038 -0.011891569364969308 0 -0.018157382928873523 -0.011589878584563984 0 -0.018206999534298742 -0.010975191937889589 0 -0.018259571274316686 -0.011383698727165241 0 -0.018462417750682636 -0.011097881195900532 0 -0.018523047874862423 -0.011279016580598003 0 -0.018259571274316686 -0.011383698727165241 0 -0.01820817265096426 -0.011971960517926266 0 -0.017762929396070038 -0.011891569364969308 0 0.0036683901336792561 -0.011949173513349551 0 0.0034278999887985178 -0.012760502707148878 0 0.0030658663430915434 -0.011205293634007147 0 -0.017371956371800026 -0.012489818091859785 0 -0.017603581867090309 -0.012421681797913692 0 -0.017663821827938346 -0.01227778807701939 0 -0.0022797650314267089 -0.013351657001338 0 -0.0083581811321950718 -0.011592266997979429 0 0.0041389556667580929 -0.011394799067304413 0 0.0036683901336792561 -0.011949173513349551 0 0.0030658663430915434 -0.011205293634007147 0 0.0041389556667580929 -0.011394799067304413 0 0.0044692375522752794 -0.012033575971770677 0 0.0036683901336792561 -0.011949173513349551 0 0.0044692375522752794 -0.012033575971770677 0 0.0036683901336792561 -0.011949173513349551 0 0.0038797824831870425 -0.012441760961437221 0 0.0036683901336792561 -0.011949173513349551 0 0.0038797824831870425 -0.012441760961437221 0 0.0034278999887985178 -0.012760502707148878 0 0.0044692375522752794 -0.012033575971770677 0 0.0038797824831870425 -0.012441760961437221 0 0.0042539524741391404 -0.012741508516620446 0 0.0044692375522752794 -0.012033575971770677 0 0.0042539524741391404 -0.012741508516620446 0 0.0049284061446217926 -0.012615939297056785 0 0.0040154323266810652 -0.013386926025646744 0 0.0042539524741391404 -0.012741508516620446 0 0.0037898826084062651 -0.012849197209630127 0 0.0040154323266810652 -0.013386926025646744 0 0.0037898826084062651 -0.012849197209630127 0 0.0033819129093766282 -0.012902300042471017 0 0.0038797824831870425 -0.012441760961437221 0 0.0037898826084062651 -0.012849197209630127 0 0.0034278999887985178 -0.012760502707148878 0 0.0038797824831870425 -0.012441760961437221 0 0.0042539524741391404 -0.012741508516620446 0 0.0037898826084062651 -0.012849197209630127 0 -0.017420689584593363 -0.012573382416473586 0 -0.017371956371800026 -0.012489818091859785 0 -0.017603581867090309 -0.012421681797913692 0 0.0033695676642185343 -0.012917895115128836 0 0.0034278999887985178 -0.012760502707148878 0 0.0030658663430915434 -0.011205293634007147 0 0.0037898826084062651 -0.012849197209630127 0 0.0033819129093766282 -0.012902300042471017 0 0.0034278999887985178 -0.012760502707148878 0 -0.0022797650314267089 -0.013351657001338 0 -0.0016608887071802541 -0.012849499855377115 0 -0.017853577411128873 -0.011613959335301686 0 -0.017953320263132778 -0.011798029127910633 0 -0.017829570994253776 -0.011648597325425307 0 -0.017953320263132778 -0.011798029127910633 0 -0.017829570994253776 -0.011648597325425307 0 -0.017807079808309405 -0.011978256925985184 0 -0.018162695396658601 -0.011800598292504764 0 -0.017736596616311894 -0.012169140559371983 0 -0.017862877266554389 -0.011577301675773095 0 -0.017829570994253776 -0.011648597325425307 0 -0.017676798248275855 -0.011997839930036175 0 -0.017829570994253776 -0.011648597325425307 0 -0.017676798248275855 -0.011997839930036175 0 -0.017807079808309405 -0.011978256925985184 0 -0.017676798248275855 -0.011997839930036175 0 -0.017807079808309405 -0.011978256925985184 0 -0.017777900754165875 -0.012288504226656912 0 -0.017603581867090309 -0.012421681797913692 0 -0.017812903300406694 -0.012246046795535162 0 -0.017663821827938346 -0.01227778807701939 0 -0.017736596616311894 -0.012169140559371983 0 -0.017809039545168617 -0.012185085841705379 0 -0.017807079808309405 -0.011978256925985184 0 -0.017812903300406694 -0.012246046795535162 0 -0.017777900754165875 -0.012288504226656912 0 -0.017953320263132778 -0.011798029127910633 0 -0.017807079808309405 -0.011978256925985184 0 -0.017812903300406694 -0.012246046795535162 0 -0.017812903300406694 -0.012246046795535162 0 -0.017794262826264381 -0.012366977542126545 0 -0.017663821827938346 -0.01227778807701939 0 -0.017794262826264381 -0.012366977542126545 0 -0.017777900754165875 -0.012288504226656912 0 -0.017790536891275854 -0.01256577542428274 0 -0.017812903300406694 -0.012246046795535162 0 -0.017794262826264381 -0.012366977542126545 0 -0.017777900754165875 -0.012288504226656912 0 -0.017676798248275855 -0.011997839930036175 0 -0.017777900754165875 -0.012288504226656912 0 -0.017621192657527495 -0.01252145209612 0 -0.017777900754165875 -0.012288504226656912 0 -0.017621192657527495 -0.01252145209612 0 -0.017790536891275854 -0.01256577542428274 0 -0.017621192657527495 -0.01252145209612 0 -0.017790536891275854 -0.01256577542428274 0 -0.017635525164020106 -0.012808340346184175 0 -0.017485599501705629 -0.01278393806180681 0 -0.017621192657527495 -0.01252145209612 0 -0.017635525164020106 -0.012808340346184175 0 -0.017794262826264381 -0.012366977542126545 0 -0.017790536891275854 -0.01256577542428274 0 -0.017762654513989163 -0.012470185460131438 0 0.0027776152888032502 -0.0093144599780210415 0 0.0030658663430915434 -0.011205293634007147 0 0.003708379330700937 -0.010024534983122333 0 -0.0042370507349697812 -0.010680947801539456 0 0.0043225926121092861 -0.010691548757668892 0 -0.017794262826264381 -0.012366977542126545 0 -0.017762654513989163 -0.012470185460131438 0 -0.017663821827938346 -0.01227778807701939 0 -0.0042370507349697812 -0.010680947801539456 0 -0.0083581811321950718 -0.011592266997979429 0 0.0041389556667580929 -0.011394799067304413 0 0.003708379330700937 -0.010024534983122333 0 0.0045884501880593606 -0.010753629329767171 0 0.0041389556667580929 -0.011394799067304413 0 0.0030658663430915434 -0.011205293634007147 0 0.003708379330700937 -0.010024534983122333 0 0.0043225926121092861 -0.010691548757668892 0 0.0042872120515992842 -0.01051518387731455 0 0.0038418571300190209 -0.010170228662061902 0 0.0046503248382502079 -0.01013349180661902 0 0.0045884501880593606 -0.010753629329767171 0 0.0030591802014705589 -0.0095530942993602725 0 0.0038418571300190209 -0.010170228662061902 0 0.0046358152752155558 -0.0091953752467835888 0 0.0038418571300190209 -0.010170228662061902 0 0.0046503248382502079 -0.01013349180661902 0 0.0046358152752155558 -0.0091953752467835888 0 0.0062731054798310405 -0.0096944197266917789 0 0.0055460354237839762 -0.010402700779851519 0 0.0046358152752155558 -0.0091953752467835888 0 0.0066980824261779473 -0.010160720594132595 0 0.0074847827282863528 -0.0099404754362971623 0 0.0046503248382502079 -0.01013349180661902 0 0.0055460354237839762 -0.010402700779851519 0 0.0046358152752155558 -0.0091953752467835888 0 0.0062731054798310405 -0.0096944197266917789 0 0.0055460354237839762 -0.010402700779851519 0 0.0069255399412409572 -0.01093675659516135 0 0.0055460354237839762 -0.010402700779851519 0 0.0059961985473259921 -0.011310759679320156 0 0.0069255399412409572 -0.01093675659516135 0 0.0055460354237839762 -0.010402700779851519 0 0.0051394227829036632 -0.011253137523322417 0 0.0059961985473259921 -0.011310759679320156 0 0.0041389556667580929 -0.011394799067304413 0 0.0045884501880593606 -0.010753629329767171 0 0.0051394227829036632 -0.011253137523322417 0 0.0046503248382502079 -0.01013349180661902 0 0.0055460354237839762 -0.010402700779851519 0 0.0045884501880593606 -0.010753629329767171 0 0.0055460354237839762 -0.010402700779851519 0 0.0045884501880593606 -0.010753629329767171 0 0.0051394227829036632 -0.011253137523322417 0 0.0044692375522752794 -0.012033575971770677 0 0.0051394227829036632 -0.011253137523322417 0 0.0054690561934313247 -0.012019118880040647 0 0.0041389556667580929 -0.011394799067304413 0 0.0044692375522752794 -0.012033575971770677 0 0.0051394227829036632 -0.011253137523322417 0 0.0054690561934313247 -0.012019118880040647 0 0.0064353766507047553 -0.012109297571400007 0 0.0059961985473259921 -0.011310759679320156 0 0.0051394227829036632 -0.011253137523322417 0 0.0054690561934313247 -0.012019118880040647 0 0.0059961985473259921 -0.011310759679320156 0 0.0064353766507047553 -0.012109297571400007 0 0.0059961985473259921 -0.011310759679320156 0 0.0069255399412409572 -0.01093675659516135 0 0.0064353766507047553 -0.012109297571400007 0 0.0057127342944894325 -0.012843970018250491 0 0.0070390197128810872 -0.01323802748934476 0 0.0054690561934313247 -0.012019118880040647 0 0.0064353766507047553 -0.012109297571400007 0 0.0057127342944894325 -0.012843970018250491 0 0.0057127342944894325 -0.012843970018250491 0 0.0049284061446217926 -0.012615939297056785 0 0.0047810378631801603 -0.013367720385721839 0 0.0044692375522752794 -0.012033575971770677 0 0.0054690561934313247 -0.012019118880040647 0 0.0049284061446217926 -0.012615939297056785 0 0.0042539524741391404 -0.012741508516620446 0 0.0049284061446217926 -0.012615939297056785 0 0.0047810378631801603 -0.013367720385721839 0 0.0054690561934313247 -0.012019118880040647 0 0.0057127342944894325 -0.012843970018250491 0 0.0049284061446217926 -0.012615939297056785 0 0.0079934227536079434 -0.012727407327773398 0 0.0074000433032561696 -0.011921679409855548 0 0.0070390197128810872 -0.01323802748934476 0 0.0064353766507047553 -0.012109297571400007 0 0.0074000433032561696 -0.011921679409855548 0 0.0070390197128810872 -0.01323802748934476 0 0.0064353766507047553 -0.012109297571400007 0 0.0074000433032561696 -0.011921679409855548 0 0.0069255399412409572 -0.01093675659516135 0 0.0074000433032561696 -0.011921679409855548 0 0.0081107588938999688 -0.011095046367059125 0 0.0085742573329069417 -0.011881970907722601 0 0.0074000433032561696 -0.011921679409855548 0 0.0081107588938999688 -0.011095046367059125 0 0.0069255399412409572 -0.01093675659516135 0 0.0079934227536079434 -0.012727407327773398 0 0.0074000433032561696 -0.011921679409855548 0 0.0085742573329069417 -0.011881970907722601 0 0.0081107588938999688 -0.011095046367059125 0 0.0079211255906600445 -0.010316042454108457 0 0.0087482032203985635 -0.010553501696866583 0 0.0081107588938999688 -0.011095046367059125 0 0.0069255399412409572 -0.01093675659516135 0 0.0079211255906600445 -0.010316042454108457 0 0.0062731054798310405 -0.0096944197266917789 0 0.0069255399412409572 -0.01093675659516135 0 0.0079211255906600445 -0.010316042454108457 0 0.0075369914246978583 -0.010653817221329555 0 0.0079211255906600445 -0.010316042454108457 0 0.0075808542731623718 -0.010448036336033787 0 0.0066980824261779473 -0.010160720594132595 0 0.0079237660647593095 -0.01033105688761354 0 0.0079211255906600445 -0.010316042454108457 0 0.0086931654020793309 -0.0097965880890239204 0 0.0075808542731623718 -0.010448036336033787 0 0.0079211255906600445 -0.010316042454108457 0 0.0086931654020793309 -0.0097965880890239204 0 0.0087482032203985635 -0.010553501696866583 0 0.0086931654020793309 -0.0097965880890239204 0 0.0096081294480239617 -0.010510195218175587 0 0.0087482032203985635 -0.010553501696866583 0 0.0050161651922142293 -0.013762366107846633 0 0.0049107894150946033 -0.013943788131226612 0 0.0049329776790358612 -0.013968804859923063 0 0.0070531755874706416 -0.011886343220013255 0 0.0074817414425502621 -0.011869781172135135 0 0.0049107894150946033 -0.013943788131226612 0 0.0049411330644729221 -0.013997478690100713 0 0.0047540508604063019 -0.014045932677796783 0 0.0049411330644729221 -0.013997478690100713 0 0.0051546870708119455 -0.013856978262211658 0 0.0047540508604063019 -0.014045932677796783 0 0.0050161651922142293 -0.013762366107846633 0 0.0049411330644729221 -0.013997478690100713 0 0.0049947388443036516 -0.014203489160846497 0 0.0050161651922142293 -0.013762366107846633 0 0.0049107894150946033 -0.013943788131226612 0 0.0049411330644729221 -0.013997478690100713 0 0.0086931654020793309 -0.0097965880890239204 0 0.0096081294480239617 -0.010510195218175587 0 0.010932507244801472 -0.0099785492962099504 0 0.0096081294480239617 -0.010510195218175587 0 0.010932507244801472 -0.0099785492962099504 0 0.010589497872487806 -0.011243743399877278 0 0.0096081294480239617 -0.010510195218175587 0 0.0092219027703864063 -0.0111717286692986 0 0.010589497872487806 -0.011243743399877278 0 0.0096081294480239617 -0.010510195218175587 0 0.0087482032203985635 -0.010553501696866583 0 0.0092219027703864063 -0.0111717286692986 0 0.0081107588938999688 -0.011095046367059125 0 0.0087482032203985635 -0.010553501696866583 0 0.0092219027703864063 -0.0111717286692986 0 0.0068486290185013369 -0.014581289060028422 0 0.01547987088850508 -0.016631955230559624 0 0.0090276631194955818 -0.017060547533927158 0 0.010717032494381011 -0.015724964661723018 0 0.012452711599346966 -0.018203661065292389 0 0.010747252808044873 -0.015039123237350766 0 0.0095370197461770272 -0.013404385415525608 0 0.012464729194577277 -0.014376656795133776 0 0.005625117895022313 -0.014189507002367282 0 0.0051283632113949323 -0.014044578684299659 0 0.0049947388443036516 -0.014203489160846497 0 0.0080966696967560807 -0.014554808695129599 0 0.0068486290185013369 -0.014581289060028422 0 0.005625117895022313 -0.014189507002367282 0 0.0051546870708119455 -0.013856978262211658 0 0.0051283632113949323 -0.014044578684299659 0 0.0049411330644729221 -0.013997478690100713 0 0.0051546870708119455 -0.013856978262211658 0 0.0051283632113949323 -0.014044578684299659 0 0.0049411330644729221 -0.013997478690100713 0 0.0051283632113949323 -0.014044578684299659 0 0.0049947388443036516 -0.014203489160846497 0 0.010932507244801472 -0.0099785492962099504 0 0.011912811919433112 -0.01104755400637302 0 0.010589497872487806 -0.011243743399877278 0 0.005625117895022313 -0.014189507002367282 0 0.0049947388443036516 -0.014203489160846497 0 0.0061104911410892627 -0.014800148308531706 0 0.010932507244801472 -0.0099785492962099504 0 0.013373504646108978 -0.010740674232121153 0 0.011912811919433112 -0.01104755400637302 0 0.0074817414425502621 -0.011869781172135135 0 0.012039255071462725 -0.013786471079240583 0 0.010747252808044873 -0.015039123237350766 0 0.011948565003014043 -0.016651043801049401 0 0.012464729194577277 -0.014376656795133776 0 0.0080966696967560807 -0.014554808695129599 0 0.012039255071462725 -0.013786471079240583 0 0.013373504646108978 -0.010740674232121153 0 0.012790983738179364 -0.011339623992366906 0 0.011912811919433112 -0.01104755400637302 0 0.013683458731446432 -0.011284479128828968 0 0.014931934699734433 -0.013431549353001178 0 0.012790983738179364 -0.011339623992366906 0 0.013864117700822444 -0.012882548682392331 0 0.013536761683234857 -0.010966743409886955 0 0.013373504646108978 -0.010740674232121153 0 0.012790983738179364 -0.011339623992366906 0 0.013536761683234857 -0.010966743409886955 0 0.012790983738179364 -0.011339623992366906 0 0.011867427487119692 -0.011961037912177194 0 0.011912811919433112 -0.01104755400637302 0 0.011867427487119692 -0.011961037912177194 0 0.010589497872487806 -0.011243743399877278 0 0.010551855731408802 -0.012672963577922506 0 0.011867427487119692 -0.011961037912177194 0 0.011912811919433112 -0.01104755400637302 0 0.010589497872487806 -0.011243743399877278 0 0.011867427487119692 -0.011961037912177194 0 0.012163214557417104 -0.013204380073447946 0 0.010551855731408802 -0.012672963577922506 0 0.012163214557417104 -0.013204380073447946 0 0.010551855731408802 -0.012672963577922506 0 0.011266913713776852 -0.014323753255607951 0 0.011867427487119692 -0.011961037912177194 0 0.012163214557417104 -0.013204380073447946 0 0.013864117700822444 -0.012882548682392331 0 0.012790983738179364 -0.011339623992366906 0 0.011867427487119692 -0.011961037912177194 0 0.013864117700822444 -0.012882548682392331 0 0.0081107588938999688 -0.011095046367059125 0 0.0085742573329069417 -0.011881970907722601 0 0.0092219027703864063 -0.0111717286692986 0 0.0085742573329069417 -0.011881970907722601 0 0.0096602985320326015 -0.01190326817817324 0 0.0090243421676301054 -0.012735141413241502 0 0.0085742573329069417 -0.011881970907722601 0 0.0092219027703864063 -0.0111717286692986 0 0.0096602985320326015 -0.01190326817817324 0 0.010589497872487806 -0.011243743399877278 0 0.0096602985320326015 -0.01190326817817324 0 0.010551855731408802 -0.012672963577922506 0 0.0092219027703864063 -0.0111717286692986 0 0.010589497872487806 -0.011243743399877278 0 0.0096602985320326015 -0.01190326817817324 0 0.010551855731408802 -0.012672963577922506 0 0.0090243421676301054 -0.012735141413241502 0 0.0097250430798536316 -0.013726896113389096 0 0.0096602985320326015 -0.01190326817817324 0 0.010551855731408802 -0.012672963577922506 0 0.0090243421676301054 -0.012735141413241502 0 0.0079934227536079434 -0.012727407327773398 0 0.0085742573329069417 -0.011881970907722601 0 0.0090243421676301054 -0.012735141413241502 0 0.0079934227536079434 -0.012727407327773398 0 0.0090243421676301054 -0.012735141413241502 0 0.008319289373387875 -0.013899463568508673 0 0.0090243421676301054 -0.012735141413241502 0 0.008319289373387875 -0.013899463568508673 0 0.0097250430798536316 -0.013726896113389096 0 0.008319289373387875 -0.013899463568508673 0 0.0097250430798536316 -0.013726896113389096 0 0.0098013778861040859 -0.014980531766559205 0 0.0097250430798536316 -0.013726896113389096 0 0.0098013778861040859 -0.014980531766559205 0 0.011266913713776852 -0.014323753255607951 0 0.010551855731408802 -0.012672963577922506 0 0.0097250430798536316 -0.013726896113389096 0 0.011266913713776852 -0.014323753255607951 0 0.0098013778861040859 -0.014980531766559205 0 0.011417564386585012 -0.015907355673211294 0 0.010604158620038545 -0.016889518354813272 0 0.008319289373387875 -0.013899463568508673 0 0.0098013778861040859 -0.014980531766559205 0 0.0084379054106855245 -0.01504460472826237 0 0.013501616963002309 -0.014533732755189845 0 0.011266913713776852 -0.014323753255607951 0 0.012949667359985602 -0.015930937740729192 0 0.012163214557417104 -0.013204380073447946 0 0.013864117700822444 -0.012882548682392331 0 0.013501616963002309 -0.014533732755189845 0 0.012163214557417104 -0.013204380073447946 0 0.013501616963002309 -0.014533732755189845 0 0.011266913713776852 -0.014323753255607951 0 0.0098013778861040859 -0.014980531766559205 0 0.011266913713776852 -0.014323753255607951 0 0.011417564386585012 -0.015907355673211294 0 0.011266913713776852 -0.014323753255607951 0 0.011417564386585012 -0.015907355673211294 0 0.012949667359985602 -0.015930937740729192 0 0.011417564386585012 -0.015907355673211294 0 0.012949667359985602 -0.015930937740729192 0 0.01275146706664388 -0.01750410288387658 0 0.012949667359985602 -0.015930937740729192 0 0.013981991947588231 -0.017189022869570338 0 0.01275146706664388 -0.01750410288387658 0 0.012949667359985602 -0.015930937740729192 0 0.013981991947588231 -0.017189022869570338 0 0.015087516242081522 -0.016142696444730632 0 0.013501616963002309 -0.014533732755189845 0 0.012949667359985602 -0.015930937740729192 0 0.015087516242081522 -0.016142696444730632 0 0.013981991947588231 -0.017189022869570338 0 0.013816655361478985 -0.018642182863091203 0 0.01275146706664388 -0.01750410288387658 0 0.013981991947588231 -0.017189022869570338 0 0.013816655361478985 -0.018642182863091203 0 0.015495089520270221 -0.017730517021399623 0 0.01350700552584118 -0.017198656362962059 0 0.013292081554936929 -0.017506778151461743 0 0.011417564386585012 -0.015907355673211294 0 0.01275146706664388 -0.01750410288387658 0 0.010604158620038545 -0.016889518354813272 0 0.01350700552584118 -0.017198656362962059 0 0.010182771926486501 -0.015553535926456155 0 0.013532604259576347 -0.018275890257058405 0 0.01275146706664388 -0.01750410288387658 0 0.010604158620038545 -0.016889518354813272 0 0.011419008393916893 -0.014602685302976504 0 0.010914136624906657 -0.014927871990710544 0 0.010106231789339098 -0.014397335415085397 0 0.01128187405826314 -0.015368748293663199 0 0.010914136624906657 -0.014927871990710544 0 0.0099202671614878248 -0.015412951253103501 0 0.010914136624906657 -0.014927871990710544 0 0.010106231789339098 -0.014397335415085397 0 0.0099202671614878248 -0.015412951253103501 0 0.01128187405826314 -0.015368748293663199 0 0.010914136624906657 -0.014927871990710544 0 0.011452750275901431 -0.015038956886553597 0 0.011419008393916893 -0.014602685302976504 0 0.010914136624906657 -0.014927871990710544 0 0.011452750275901431 -0.015038956886553597 0 0.0084379054106855245 -0.01504460472826237 0 0.010106231789339098 -0.014397335415085397 0 0.0086344979606874771 -0.015281270217498125 0 0.0098013778861040859 -0.014980531766559205 0 0.0084379054106855245 -0.01504460472826237 0 0.010604158620038545 -0.016889518354813272 0 0.0087678412774367057 -0.015167341769176643 0 0.010182771926486501 -0.015553535926456155 0 0.010106231789339098 -0.014397335415085397 0 0.0099202671614878248 -0.015412951253103501 0 0.0086344979606874771 -0.015281270217498125 0 0.0076857323345441682 -0.01569567042138786 0 0.0086344979606874771 -0.015281270217498125 0 0.007212782628440279 -0.015013130696892129 0 0.0084379054106855245 -0.01504460472826237 0 0.0086344979606874771 -0.015281270217498125 0 0.007212782628440279 -0.015013130696892129 0 0.0084379054106855245 -0.01504460472826237 0 0.007212782628440279 -0.015013130696892129 0 0.0070076448226284163 -0.014349540425914352 0 0.007212782628440279 -0.015013130696892129 0 0.00610502640152801 -0.015092596795338462 0 0.0059560802665502366 -0.01433423370775656 0 0.007212782628440279 -0.015013130696892129 0 0.0059560802665502366 -0.01433423370775656 0 0.0070076448226284163 -0.014349540425914352 0 0.0066121074088760622 -0.015739527011219199 0 0.007212782628440279 -0.015013130696892129 0 0.00610502640152801 -0.015092596795338462 0 0.0066121074088760622 -0.015739527011219199 0 0.0076857323345441682 -0.01569567042138786 0 0.007212782628440279 -0.015013130696892129 0 0.00610502640152801 -0.015092596795338462 0 0.0053324753607384796 -0.015025498641621574 0 0.0059560802665502366 -0.01433423370775656 0 0.0055551309541067581 -0.01548253220036618 0 0.00610502640152801 -0.015092596795338462 0 0.0053324753607384796 -0.015025498641621574 0 0.0048065595344224683 -0.015013039888568664 0 0.0053324753607384796 -0.015025498641621574 0 0.0050169233006018034 -0.014555253088004944 0 0.0050331582427023212 -0.015377307643762677 0 0.0048065595344224683 -0.015013039888568664 0 0.0053324753607384796 -0.015025498641621574 0 0.0049367307224760697 -0.015053636574278426 0 0.0059393630313104061 -0.014663796300286474 0 0.0042692254993732023 -0.014872201258943193 0 0.0048235937015163027 -0.015483431381174799 0 0.004886940961772248 -0.014403029099619999 0 0.0053324753607384796 -0.015025498641621574 0 0.0050169233006018034 -0.014555253088004944 0 0.0059560802665502366 -0.01433423370775656 0 0.0048235937015163027 -0.015483431381174799 0 0.0059249035568237404 -0.014968048711547355 0 0.004886940961772248 -0.014403029099619999 0 0.0059249035568237404 -0.014968048711547355 0 0.004886940961772248 -0.014403029099619999 0 0.005913455769969829 -0.013857864574904405 0 0.0059249035568237404 -0.014968048711547355 0 0.005913455769969829 -0.013857864574904405 0 0.0070076448226284163 -0.014349540425914352 0 0.004886940961772248 -0.014403029099619999 0 0.0047810378631801603 -0.013367720385721839 0 0.005913455769969829 -0.013857864574904405 0 0.0042774421994839279 -0.014091010830699835 0 0.004886940961772248 -0.014403029099619999 0 0.0047810378631801603 -0.013367720385721839 0 0.0057127342944894325 -0.012843970018250491 0 0.0047810378631801603 -0.013367720385721839 0 0.005913455769969829 -0.013857864574904405 0 0.0057127342944894325 -0.012843970018250491 0 0.005913455769969829 -0.013857864574904405 0 0.0070390197128810872 -0.01323802748934476 0 0.005913455769969829 -0.013857864574904405 0 0.0070390197128810872 -0.01323802748934476 0 0.0070076448226284163 -0.014349540425914352 0 0.008319289373387875 -0.013899463568508673 0 0.0070390197128810872 -0.01323802748934476 0 0.0070076448226284163 -0.014349540425914352 0 0.0079934227536079434 -0.012727407327773398 0 0.008319289373387875 -0.013899463568508673 0 0.0070390197128810872 -0.01323802748934476 0 0.008319289373387875 -0.013899463568508673 0 0.0084379054106855245 -0.01504460472826237 0 0.0070076448226284163 -0.014349540425914352 0 0.0059393630313104061 -0.014663796300286474 0 0.006864148038564632 -0.014364664756010517 0 -0.035778325877273448 -0.0054713669778757102 0 -0.035669367790648061 -0.0056163194497252621 0 -0.035858041743919156 -0.0051858427190137456 0 -0.036703877973318942 -0.0073894162851748622 0 -0.035534244479280643 -0.0072368444511345569 0 -0.035235819882337552 -0.0063384062506195221 0 -0.036039366429065314 -0.0069728200858953458 0 -0.035281798378278696 -0.0061390707849038693 0 -0.035778325877273448 -0.0054713669778757102 0 -0.035669367790648061 -0.0056163194497252621 0 -0.035235819882337552 -0.0063384062506195221 0 -0.035534244479280643 -0.0072368444511345569 0 -0.034999949126481099 -0.0072182690610785635 0 -0.035235819882337552 -0.0063384062506195221 0 -0.035534244479280643 -0.0072368444511345569 0 -0.034999949126481099 -0.0072182690610785635 0 -0.035748111847941556 -0.0080079846978859288 0 -0.036405575433088311 -0.0074512276313724113 0 -0.035534244479280643 -0.0072368444511345569 0 -0.035748111847941556 -0.0080079846978859288 0 -0.036039366429065314 -0.0069728200858953458 0 -0.035837260739685212 -0.0072424669387581462 0 -0.035748111847941556 -0.0080079846978859288 0 -0.036350194927639481 -0.008856199029104405 0 -0.034999974021125743 -0.0091443427872364199 0 -0.034999949126481099 -0.0072182690610785635 0 -0.035748111847941556 -0.0080079846978859288 0 -0.034999974021125743 -0.0091443427872364199 0 -0.036405575433088311 -0.0074512276313724113 0 -0.037471436155091624 -0.0083160322398674359 0 -0.036350194927639481 -0.008856199029104405 0 -0.036405575433088311 -0.0074512276313724113 0 -0.035748111847941556 -0.0080079846978859288 0 -0.036350194927639481 -0.008856199029104405 0 -0.036039366429065314 -0.0069728200858953458 0 -0.036407240637455318 -0.0077252279765596737 0 -0.036042982787063714 -0.0074855405696480958 0 -0.035474268675206803 -0.0071229261883080002 0 -0.035368368786381076 -0.0074136903908435751 0 -0.035252278753307109 -0.007264456538817101 0 -0.035474268675206803 -0.0071229261883080002 0 -0.035368368786381076 -0.0074136903908435751 0 -0.035252278753307109 -0.007264456538817101 0 -0.035474268675206803 -0.0071229261883080002 0 -0.034916672444784427 -0.0067880071769714613 0 -0.035252278753307109 -0.007264456538817101 0 -0.034710139071185656 -0.0073315735017240799 0 -0.034916672444784427 -0.0067880071769714613 0 -0.035252278753307109 -0.007264456538817101 0 -0.035368368786381076 -0.0074136903908435751 0 -0.034677235436701474 -0.007300702161534587 0 -0.036407240637455318 -0.0077252279765596737 0 -0.03741871363494479 -0.0080300111502350172 0 -0.03532956741721599 -0.0072643246513995913 0 -0.034075559422843557 -0.0056779301032930584 0 -0.035963608099473805 -0.0049767297613659096 0 -0.035891612312157352 -0.0050939826859025305 0 -0.036050859480748237 -0.0050533172993808863 0 -0.035832066553571629 -0.0062881855401726271 0 -0.034075559422843557 -0.0056779301032930584 0 -0.035963608099473805 -0.0049767297613659096 0 -0.036012062559906154 -0.0049531340255162815 0 -0.036050859480748237 -0.0050533172993808863 0 -0.03241426711017048 -0.0037854167112047364 0 -0.032095559667209991 -0.0035991260189740157 0 -0.032199935248887562 -0.0032994509236993277 0 -0.035141214973513663 -0.0045176780620997271 0 -0.034075559422843557 -0.0056779301032930584 0 -0.035970859716678016 -0.0047405437635082877 0 -0.035963608099473805 -0.0049767297613659096 0 -0.035922321465457721 -0.0047655587873378187 0 -0.035963608099473805 -0.0049767297613659096 0 -0.03589538975627847 -0.0049830961928763419 0 -0.035922321465457721 -0.0047655587873378187 0 -0.035970859716678016 -0.0047405437635082877 0 -0.035963608099473805 -0.0049767297613659096 0 -0.03622024662120181 -0.0048697409978283512 0 -0.035970859716678016 -0.0047405437635082877 0 -0.03622024662120181 -0.0048697409978283512 0 -0.035912345473728208 -0.0044046037789961488 0 -0.035755543410016591 -0.0045643718522437324 0 -0.035141214973513663 -0.0045176780620997271 0 -0.035778325877273448 -0.0054713669778757102 0 -0.035891612312157352 -0.0050939826859025305 0 -0.035858041743919156 -0.0051858427190137456 0 -0.036039366429065314 -0.0069728200858953458 0 -0.035832066553571629 -0.0062881855401726271 0 -0.035963608099473805 -0.0049767297613659096 0 -0.035891612312157352 -0.0050939826859025305 0 -0.03589538975627847 -0.0049830961928763419 0 -0.035891612312157352 -0.0050939826859025305 0 -0.03589538975627847 -0.0049830961928763419 0 -0.035858041743919156 -0.0051858427190137456 0 -0.035919404505655783 -0.0049217142319684364 0 -0.036015560503730851 -0.0048050315981350592 0 -0.035858041743919156 -0.0051858427190137456 0 -0.03589538975627847 -0.0049830961928763419 0 -0.035919404505655783 -0.0049217142319684364 0 -0.035858041743919156 -0.0051858427190137456 0 -0.035919404505655783 -0.0049217142319684364 0 -0.035922321465457721 -0.0047655587873378187 0 -0.035975394330248663 -0.0044866702215890578 0 -0.03589538975627847 -0.0049830961928763419 0 -0.035919404505655783 -0.0049217142319684364 0 -0.035922321465457721 -0.0047655587873378187 0 -0.035919404505655783 -0.0049217142319684364 0 -0.036015560503730851 -0.0048050315981350592 0 -0.035975394330248663 -0.0044866702215890578 0 -0.035912345473728208 -0.0044046037789961488 0 -0.035826718120244294 -0.0039551470952032012 0 -0.036065129202413018 -0.0043133515211494439 0 -0.035141214973513663 -0.0045176780620997271 0 -0.035654424810927697 -0.0046683362913897191 0 -0.035906157185281062 -0.0045458666110919609 0 -0.035912345473728208 -0.0044046037789961488 0 -0.036065129202413018 -0.0043133515211494439 0 -0.035912345473728208 -0.0044046037789961488 0 -0.035922321465457721 -0.0047655587873378187 0 -0.035975394330248663 -0.0044866702215890578 0 -0.035970859716678016 -0.0047405437635082877 0 -0.035912345473728208 -0.0044046037789961488 0 -0.035922321465457721 -0.0047655587873378187 0 -0.035912345473728208 -0.0044046037789961488 0 -0.035975394330248663 -0.0044866702215890578 0 -0.035826718120244294 -0.0039551470952032012 0 -0.035308319048667471 -0.0030166650867474369 0 -0.035733674208137146 -0.0035065680120625045 0 -0.034337413125996225 -0.0013614340369055562 0 -0.035178908715393802 -0.0016082308635540301 0 -0.035681457533773817 -0.0034877178555731319 0 -0.035826718120244294 -0.0039551470952032012 0 -0.03608878782038933 -0.0046675005497416643 0 -0.035681457533773817 -0.0034877178555731319 0 -0.035975394330248663 -0.0044866702215890578 0 -0.035826718120244294 -0.0039551470952032012 0 -0.03608878782038933 -0.0046675005497416643 0 -0.036015560503730851 -0.0048050315981350592 0 -0.03608878782038933 -0.0046675005497416643 0 -0.036038307681540059 -0.0046510757935705202 0 -0.03608878782038933 -0.0046675005497416643 0 -0.036038307681540059 -0.0046510757935705202 0 -0.036181925736127975 -0.0040787836924838922 0 -0.036015560503730851 -0.0048050315981350592 0 -0.035975394330248663 -0.0044866702215890578 0 -0.03608878782038933 -0.0046675005497416643 0 -0.036038307681540059 -0.0046510757935705202 0 -0.035810923338282369 -0.0051467330170442416 0 -0.035592283967431776 -0.0045581384515220157 0 -0.036015560503730851 -0.0048050315981350592 0 -0.036038307681540059 -0.0046510757935705202 0 -0.035810923338282369 -0.0051467330170442416 0 -0.036015560503730851 -0.0048050315981350592 0 -0.035810923338282369 -0.0051467330170442416 0 -0.035858041743919156 -0.0051858427190137456 0 -0.035810923338282369 -0.0051467330170442416 0 -0.035669367790648061 -0.0056163194497252621 0 -0.035858041743919156 -0.0051858427190137456 0 -0.035235819882337552 -0.0063384062506195221 0 -0.035485839959924367 -0.0055970660337366753 0 -0.034999931883961957 -0.0052929017400455275 0 -0.034999949126481099 -0.0072182690610785635 0 -0.035235819882337552 -0.0063384062506195221 0 -0.034999931883961957 -0.0052929017400455275 0 -0.035669367790648061 -0.0056163194497252621 0 -0.035235819882337552 -0.0063384062506195221 0 -0.035485839959924367 -0.0055970660337366753 0 -0.035810923338282369 -0.0051467330170442416 0 -0.035669367790648061 -0.0056163194497252621 0 -0.035485839959924367 -0.0055970660337366753 0 -0.035810923338282369 -0.0051467330170442416 0 -0.035485839959924367 -0.0055970660337366753 0 -0.035592283967431776 -0.0045581384515220157 0 -0.035592283967431776 -0.0045581384515220157 0 -0.034999931883961957 -0.0052929017400455275 0 -0.034999534673184528 -0.0033674722069205287 0 -0.035485839959924367 -0.0055970660337366753 0 -0.035592283967431776 -0.0045581384515220157 0 -0.034999931883961957 -0.0052929017400455275 0 -0.035592283967431776 -0.0045581384515220157 0 -0.034999534673184528 -0.0033674722069205287 0 -0.036181925736127975 -0.0040787836924838922 0 -0.036038307681540059 -0.0046510757935705202 0 -0.035592283967431776 -0.0045581384515220157 0 -0.036181925736127975 -0.0040787836924838922 0 -0.034666496927028216 -0.00077011917296144268 0 -0.03493195174688829 -0.0011623692779398889 0 -0.034686155239160792 -0.00055011408047119425 0 -0.03493195174688829 -0.0011623692779398889 0 -0.034967900072670949 -0.00050141743614646019 0 -0.034686155239160792 -0.00055011408047119425 0 -0.034666496927028216 -0.00077011917296144268 0 -0.03493195174688829 -0.0011623692779398889 0 -0.035178106768319985 -0.0024189289574601688 0 -0.0353310281594304 -0.0024567683297231444 0 -0.035121819287302659 -0.0023310494201221883 0 -0.034999534673184528 -0.0033674722069205287 0 -0.036181925736127975 -0.0040787836924838922 0 -0.035178106768319985 -0.0024189289574601688 0 -0.034999534673184528 -0.0033674722069205287 0 -0.035178106768319985 -0.0024189289574601688 0 -0.034999285260014466 -0.0014411437092567714 0 -0.03493195174688829 -0.0011623692779398889 0 -0.035178106768319985 -0.0024189289574601688 0 -0.035093779630323493 -0.0012237223621654237 0 -0.035178106768319985 -0.0024189289574601688 0 -0.034999285260014466 -0.0014411437092567714 0 -0.035093779630323493 -0.0012237223621654237 0 -0.034999285260014466 -0.0014411437092567714 0 -0.035093779630323493 -0.0012237223621654237 0 -0.035122019981778614 -0.00033780651302287875 0 -0.03493195174688829 -0.0011623692779398889 0 -0.035093779630323493 -0.0012237223621654237 0 -0.034967900072670949 -0.00050141743614646019 0 -0.034967900072670949 -0.00050141743614646019 0 -0.035122019981778614 -0.00033780651302287875 0 -0.0350226274676304 0.00026574091523092825 0 -0.035093779630323493 -0.0012237223621654237 0 -0.034967900072670949 -0.00050141743614646019 0 -0.035122019981778614 -0.00033780651302287875 0 -0.035155344406085962 0.0007457560294321532 0 -0.035122019981778614 -0.00033780651302287875 0 -0.0350226274676304 0.00026574091523092825 0 -0.034999304434964094 0.00048270472297097717 0 -0.035155344406085962 0.0007457560294321532 0 -0.035122019981778614 -0.00033780651302287875 0 -0.034999304434964094 0.00048270472297097717 0 -0.034999285260014466 -0.0014411437092567714 0 -0.035122019981778614 -0.00033780651302287875 0 -0.034673385939447451 0.0016160374234922201 0 -0.034925656761268138 0.0010043464425114024 0 -0.034817944862175071 0.00093956695876262644 0 -0.034925656761268138 0.0010043464425114024 0 -0.034857724670514609 0.00028547262400000758 0 -0.034817944862175071 0.00093956695876262644 0 -0.034925656761268138 0.0010043464425114024 0 -0.0350226274676304 0.00026574091523092825 0 -0.034857724670514609 0.00028547262400000758 0 -0.035155344406085962 0.0007457560294321532 0 -0.034925656761268138 0.0010043464425114024 0 -0.0350226274676304 0.00026574091523092825 0 -0.034967900072670949 -0.00050141743614646019 0 -0.0350226274676304 0.00026574091523092825 0 -0.034857724670514609 0.00028547262400000758 0 -0.034967900072670949 -0.00050141743614646019 0 -0.034857724670514609 0.00028547262400000758 0 -0.034686155239160792 -0.00055011408047119425 0 -0.034857724670514609 0.00028547262400000758 0 -0.034788684825683848 -1.3191181174913843e-05 0 -0.034817944862175071 0.00093956695876262644 0 -0.034788684825683848 -1.3191181174913843e-05 0 -0.034567104758149558 -0.00069606867542976625 0 -0.035109234596316354 -0.00042045357495806986 0 -0.034857724670514609 0.00028547262400000758 0 -0.034788684825683848 -1.3191181174913843e-05 0 -0.034686155239160792 -0.00055011408047119425 0 -0.034788684825683848 -1.3191181174913843e-05 0 -0.034686155239160792 -0.00055011408047119425 0 -0.034567104758149558 -0.00069606867542976625 0 -0.035308319048667471 -0.0030166650867474369 0 -0.0353310281594304 -0.0024567683297231444 0 -0.034666496927028216 -0.00077011917296144268 0 -0.034686155239160792 -0.00055011408047119425 0 -0.034567104758149558 -0.00069606867542976625 0 -0.034337413125996225 -0.0013614340369055562 0 -0.034666496927028216 -0.00077011917296144268 0 -0.034567104758149558 -0.00069606867542976625 0 -0.034567104758149558 -0.00069606867542976625 0 -0.035109234596316354 -0.00042045357495806986 0 -0.035178908715393802 -0.0016082308635540301 0 -0.034337413125996225 -0.0013614340369055562 0 -0.034567104758149558 -0.00069606867542976625 0 -0.035178908715393802 -0.0016082308635540301 0 -0.035109234596316354 -0.00042045357495806986 0 -0.036274267020125171 -0.0019494290166185767 0 -0.035178908715393802 -0.0016082308635540301 0 -0.035109234596316354 -0.00042045357495806986 0 -0.035852544242540307 -0.00019619036320153455 0 -0.036274267020125171 -0.0019494290166185767 0 -0.034361006238828727 0.0017733951900751419 0 -0.034136977487334949 0.0018004384974452529 0 -0.034251168915778903 0.0018226490557149441 0 -0.035035271906213257 0.00063879751003684487 0 -0.03534527238735042 0.00019913701566615989 0 -0.035852544242540307 -0.00019619036320153455 0 -0.035026906713175307 0.00047214511822175171 0 -0.034696257410286403 0.0013375959044136577 0 -0.035035271906213257 0.00063879751003684487 0 -0.034799827280772938 0.0011699123219567971 0 -0.034361006238828727 0.0017733951900751419 0 -0.034696257410286403 0.0013375959044136577 0 -0.034099674807481113 0.0017561329672069245 0 -0.035109234596316354 -0.00042045357495806986 0 -0.035852544242540307 -0.00019619036320153455 0 -0.035026906713175307 0.00047214511822175171 0 -0.034788684825683848 -1.3191181174913843e-05 0 -0.035109234596316354 -0.00042045357495806986 0 -0.035026906713175307 0.00047214511822175171 0 -0.034788684825683848 -1.3191181174913843e-05 0 -0.035026906713175307 0.00047214511822175171 0 -0.034817944862175071 0.00093956695876262644 0 -0.035026906713175307 0.00047214511822175171 0 -0.034817944862175071 0.00093956695876262644 0 -0.034696257410286403 0.0013375959044136577 0 -0.034817944862175071 0.00093956695876262644 0 -0.034696257410286403 0.0013375959044136577 0 -0.034459876857671407 0.0016003893254331284 0 -0.034696257410286403 0.0013375959044136577 0 -0.034459876857671407 0.0016003893254331284 0 -0.034025895708180556 0.0018975916251275057 0 -0.034038315149362189 0.0020376606723454915 0 -0.034459876857671407 0.0016003893254331284 0 -0.034025895708180556 0.0018975916251275057 0 -0.034673385939447451 0.0016160374234922201 0 -0.034817944862175071 0.00093956695876262644 0 -0.034459876857671407 0.0016003893254331284 0 -0.033427332141860028 0.0022739708895861618 0 -0.034025895708180556 0.0018975916251275057 0 -0.033668558884637045 0.0021745224392670372 0 -0.034696257410286403 0.0013375959044136577 0 -0.034025895708180556 0.0018975916251275057 0 -0.03402496943663455 0.0017718080313958869 0 -0.03402496943663455 0.0017718080313958869 0 -0.033668558884637045 0.0021745224392670372 0 -0.033874364118643217 0.0018593574788208767 0 -0.034025895708180556 0.0018975916251275057 0 -0.03402496943663455 0.0017718080313958869 0 -0.033668558884637045 0.0021745224392670372 0 -0.033874364118643217 0.0018593574788208767 0 -0.034099674807481113 0.0017561329672069245 0 -0.0339089600374387 0.001707507456847227 0 -0.033874364118643217 0.0018593574788208767 0 -0.0339089600374387 0.001707507456847227 0 -0.033996580297118828 0.0018730240616524208 0 -0.03402496943663455 0.0017718080313958869 0 -0.033874364118643217 0.0018593574788208767 0 -0.034099674807481113 0.0017561329672069245 0 -0.034696257410286403 0.0013375959044136577 0 -0.03402496943663455 0.0017718080313958869 0 -0.034099674807481113 0.0017561329672069245 0 -0.034361006238828727 0.0017733951900751419 0 -0.034099674807481113 0.0017561329672069245 0 -0.034136977487334949 0.0018004384974452529 0 -0.034099674807481113 0.0017561329672069245 0 -0.034136977487334949 0.0018004384974452529 0 -0.0339089600374387 0.001707507456847227 0 -0.0339089600374387 0.001707507456847227 0 -0.033975971225982435 0.0017966479875334935 0 -0.033850907519075289 0.0014580923625376549 0 -0.034136977487334949 0.0018004384974452529 0 -0.0339089600374387 0.001707507456847227 0 -0.033975971225982435 0.0017966479875334935 0 -0.032058146523533233 0.00061660008825535682 0 -0.032737648382375154 -0.00029029742463960648 0 -0.033319072089027651 0.00034662483796051556 0 -0.032737648382375154 -0.00029029742463960648 0 -0.032011940278697491 -0.00087007029131211833 0 -0.033222271104191306 -0.0013719508635129849 0 -0.032058146523533233 0.00061660008825535682 0 -0.032737648382375154 -0.00029029742463960648 0 -0.032011940278697491 -0.00087007029131211833 0 -0.032058146523533233 0.00061660008825535682 0 -0.032011940278697491 -0.00087007029131211833 0 -0.030630774441159189 -0.00014927186012465957 0 -0.032011940278697491 -0.00087007029131211833 0 -0.030630774441159189 -0.00014927186012465957 0 -0.030868854690196693 -0.0015100209750396176 0 -0.03304754645777485 0.0011817685012396951 0 -0.032379435976370559 0.0010388473800687767 0 -0.034136977487334949 0.0018004384974452529 0 -0.033975971225982435 0.0017966479875334935 0 -0.034160386085969961 0.001866289480959507 0 -0.034136977487334949 0.0018004384974452529 0 -0.034160386085969961 0.001866289480959507 0 -0.034251168915778903 0.0018226490557149441 0 -0.036274267020125171 -0.0019494290166185767 0 -0.035178908715393802 -0.0016082308635540301 0 -0.035681457533773817 -0.0034877178555731319 0 -0.034251168915778903 0.0018226490557149441 0 -0.034221557015264734 0.0018344715748416032 0 -0.034220221816263496 0.0018370918616481711 0 -0.036274267020125171 -0.0019494290166185767 0 -0.035681457533773817 -0.0034877178555731319 0 -0.035861614544069519 -0.0037245176850824726 0 -0.03534527238735042 0.00019913701566615989 0 -0.033645543541496244 -0.0021773049918497244 0 -0.035906157185281062 -0.0045458666110919609 0 -0.03641544124191011 -0.0043485024623533325 0 -0.036065129202413018 -0.0043133515211494439 0 -0.036747725477716438 -0.0042855334441735506 0 -0.033645543541496244 -0.0021773049918497244 0 -0.035826718120244294 -0.0039551470952032012 0 -0.035681457533773817 -0.0034877178555731319 0 -0.035861614544069519 -0.0037245176850824726 0 -0.036440031542043637 -0.0042952467249049234 0 -0.03641544124191011 -0.0043485024623533325 0 -0.036065129202413018 -0.0043133515211494439 0 -0.031663360111605698 -0.0039250827046530745 0 -0.031727498260093065 -0.0038950197275084055 0 -0.031645626180730739 -0.0035437359862628623 0 -0.033469488918270764 -0.0015989366133538664 0 -0.033810775047532618 -0.0017388977937351699 0 -0.033377785452992012 -0.0019416013173061738 0 -0.033645543541496244 -0.0021773049918497244 0 -0.032970807414082148 -0.0026924112342064459 0 -0.032497368134716369 -0.0018716418982026193 0 -0.032970807414082148 -0.0026924112342064459 0 -0.033645543541496244 -0.0021773049918497244 0 -0.032497368134716369 -0.0018716418982026193 0 -0.035826718120244294 -0.0039551470952032012 0 -0.036440031542043637 -0.0042952467249049234 0 -0.036065129202413018 -0.0043133515211494439 0 -0.032379435976370559 0.0010388473800687767 0 -0.032497368134716369 -0.0018716418982026193 0 -0.034160386085969961 0.001866289480959507 0 -0.034251168915778903 0.0018226490557149441 0 -0.034220221816263496 0.0018370918616481711 0 -0.030630774441159189 -0.00014927186012465957 0 -0.029278499952086652 -0.00081954368737723006 0 -0.030868854690196693 -0.0015100209750396176 0 -0.031663360111605698 -0.0039250827046530745 0 -0.03131805142335814 -0.0035076486266730242 0 -0.030873041758700426 -0.0036006781387037854 0 -0.032497368134716369 -0.0018716418982026193 0 -0.030584869043428727 -0.0025066326796882293 0 -0.03131805142335814 -0.0035076486266730242 0 -0.031855932025946686 -0.0032145484905623718 0 -0.030962818428727463 -0.0032465680324286223 0 -0.031663360111605698 -0.0039250827046530745 0 -0.03131805142335814 -0.0035076486266730242 0 -0.031645626180730739 -0.0035437359862628623 0 -0.03241426711017048 -0.0037854167112047364 0 -0.031741408392210554 -0.0041101558426948565 0 -0.032095559667209991 -0.0035991260189740157 0 -0.031741408392210554 -0.0041101558426948565 0 -0.032095559667209991 -0.0035991260189740157 0 -0.031915208677168488 -0.0032654892494246796 0 -0.032970807414082148 -0.0026924112342064459 0 -0.03168328751735295 -0.0038710649622275837 0 -0.031727498260093065 -0.0038950197275084055 0 -0.031645626180730739 -0.0035437359862628623 0 -0.031915208677168488 -0.0032654892494246796 0 -0.035141214973513663 -0.0045176780620997271 0 -0.032970807414082148 -0.0026924112342064459 0 -0.031645626180730739 -0.0035437359862628623 0 -0.031915208677168488 -0.0032654892494246796 0 -0.031855932025946686 -0.0032145484905623718 0 -0.03131805142335814 -0.0035076486266730242 0 -0.031645626180730739 -0.0035437359862628623 0 -0.031855932025946686 -0.0032145484905623718 0 -0.032095559667209991 -0.0035991260189740157 0 -0.031915208677168488 -0.0032654892494246796 0 -0.031984995290568058 -0.0032225806848632894 0 -0.032095559667209991 -0.0035991260189740157 0 -0.032199935248887562 -0.0032994509236993277 0 -0.032027055993792283 -0.0032830208861124388 0 -0.031214070507484867 -0.0036882130999931731 0 -0.030578693883790201 -0.0046514769596491048 0 -0.026774774150638132 -0.0043491651304881926 0 -0.027482735261515293 -0.0050836139680153344 0 -0.02712670296597192 -0.0060611441986921782 0 -0.031561557508672428 -0.0051345529451514828 0 -0.031753602871535919 -0.0051583228955429947 0 -0.031960234353525574 -0.0062486269359403107 0 -0.034710139071185656 -0.0073315735017240799 0 -0.034394584085574768 -0.006615968434713476 0 -0.034916672444784427 -0.0067880071769714613 0 -0.030578693883790201 -0.0046514769596491048 0 -0.031155461823023561 -0.0064751729786226547 0 -0.034075559422843557 -0.0056779301032930584 0 -0.031155461823023561 -0.0064751729786226547 0 -0.034075559422843557 -0.0056779301032930584 0 -0.030578693883790201 -0.0046514769596491048 0 -0.031915208677168488 -0.0032654892494246796 0 -0.031984995290568058 -0.0032225806848632894 0 -0.031855932025946686 -0.0032145484905623718 0 -0.030578693883790201 -0.0046514769596491048 0 -0.0290787395602909 -0.0042695416815130586 0 -0.026774774150638132 -0.0043491651304881926 0 -0.026984927113386459 -0.0043760675848668468 0 -0.027482735261515293 -0.0050836139680153344 0 -0.0290787395602909 -0.0042695416815130586 0 -0.02984596821161669 -0.0037385419045608721 0 -0.027078677709758046 -0.0044224902145924656 0 -0.02815873659730873 -0.0044981164421293149 0 -0.028740685017925559 -0.0042494226098511237 0 -0.026984927113386459 -0.0043760675848668468 0 -0.027482735261515293 -0.0050836139680153344 0 -0.02815873659730873 -0.0044981164421293149 0 -0.0290787395602909 -0.0042695416815130586 0 -0.027370906804179571 -0.0044105917770044523 0 -0.02815873659730873 -0.0044981164421293149 0 -0.028642238662833896 -0.0049820105190894765 0 -0.028740685017925559 -0.0042494226098511237 0 -0.027482735261515293 -0.0050836139680153344 0 -0.02815873659730873 -0.0044981164421293149 0 -0.028134355293567913 -0.0052985158681052424 0 -0.02815873659730873 -0.0044981164421293149 0 -0.028134355293567913 -0.0052985158681052424 0 -0.028642238662833896 -0.0049820105190894765 0 -0.028740685017925559 -0.0042494226098511237 0 -0.02936798146037314 -0.0052047524503032565 0 -0.030598582267340305 -0.0039960910693467508 0 -0.028642238662833896 -0.0049820105190894765 0 -0.02936798146037314 -0.0052047524503032565 0 -0.028619434414923952 -0.0058792395683877532 0 -0.028642238662833896 -0.0049820105190894765 0 -0.028740685017925559 -0.0042494226098511237 0 -0.02936798146037314 -0.0052047524503032565 0 -0.02936798146037314 -0.0052047524503032565 0 -0.030598582267340305 -0.0039960910693467508 0 -0.030408255207868447 -0.0056570842142131383 0 -0.030598582267340305 -0.0039960910693467508 0 -0.031241650193217074 -0.0054334612786148349 0 -0.030408255207868447 -0.0056570842142131383 0 -0.032011940278697491 -0.00087007029131211833 0 -0.03254975519865997 -0.0022713799656781477 0 -0.030868854690196693 -0.0015100209750396176 0 -0.032011940278697491 -0.00087007029131211833 0 -0.03254975519865997 -0.0022713799656781477 0 -0.033222271104191306 -0.0013719508635129849 0 -0.030836017566145152 -0.0032490424013934148 0 -0.030584869043428727 -0.0025066326796882293 0 -0.030962818428727463 -0.0032465680324286223 0 -0.030126912812552226 -0.0032869955794584365 0 -0.030873041758700426 -0.0036006781387037854 0 -0.02984596821161669 -0.0037385419045608721 0 -0.030836017566145152 -0.0032490424013934148 0 -0.03131805142335814 -0.0035076486266730242 0 -0.030962818428727463 -0.0032465680324286223 0 -0.030873041758700426 -0.0036006781387037854 0 -0.03339408261778725 -0.0025799057017532674 0 -0.035588073127141157 -0.0025912409426645517 0 -0.032514109137043577 -0.0029192661936524177 0 -0.034163352672932586 -0.0037796591518442042 0 -0.035761966512173775 -0.0026101072886221548 0 -0.034121241338727959 -0.0022954165426938714 0 -0.034848746868174997 -0.0014426544553746393 0 -0.035761966512173775 -0.0026101072886221548 0 -0.034121241338727959 -0.0022954165426938714 0 -0.034848746868174997 -0.0014426544553746393 0 -0.034078570599695351 -0.001347248484152298 0 -0.03254975519865997 -0.0022713799656781477 0 -0.034121241338727959 -0.0022954165426938714 0 -0.033222271104191306 -0.0013719508635129849 0 -0.030836017566145152 -0.0032490424013934148 0 -0.03339408261778725 -0.0025799057017532674 0 -0.034121241338727959 -0.0022954165426938714 0 -0.034078570599695351 -0.001347248484152298 0 -0.033222271104191306 -0.0013719508635129849 0 -0.02924116267869498 -0.003095184487073699 0 -0.032514109137043577 -0.0029192661936524177 0 -0.032334121897595061 -0.004387747182056775 0 -0.030598582267340305 -0.0039960910693467508 0 -0.031977962331162735 -0.00488324837507289 0 -0.031241650193217074 -0.0054334612786148349 0 -0.030598582267340305 -0.0039960910693467508 0 -0.031977962331162735 -0.00488324837507289 0 -0.032334121897595061 -0.004387747182056775 0 -0.030836017566145152 -0.0032490424013934148 0 -0.031873402181018341 -0.0043262645299344772 0 -0.031977962331162735 -0.00488324837507289 0 -0.033235844725601149 -0.0048373144419984531 0 -0.032334121897595061 -0.004387747182056775 0 -0.031977962331162735 -0.00488324837507289 0 -0.033235844725601149 -0.0048373144419984531 0 -0.033729313402614695 -0.0066087912059490123 0 -0.032514109137043577 -0.0029192661936524177 0 -0.032334121897595061 -0.004387747182056775 0 -0.03306553556960902 -0.0039916675248403213 0 -0.032514109137043577 -0.0029192661936524177 0 -0.03306553556960902 -0.0039916675248403213 0 -0.034163352672932586 -0.0037796591518442042 0 -0.033235844725601149 -0.0048373144419984531 0 -0.032334121897595061 -0.004387747182056775 0 -0.03306553556960902 -0.0039916675248403213 0 -0.033235844725601149 -0.0048373144419984531 0 -0.03306553556960902 -0.0039916675248403213 0 -0.034163352672932586 -0.0037796591518442042 0 -0.033235844725601149 -0.0048373144419984531 0 -0.034163352672932586 -0.0037796591518442042 0 -0.03418634223165596 -0.0055960523568242592 0 -0.034163352672932586 -0.0037796591518442042 0 -0.035761966512173775 -0.0026101072886221548 0 -0.036034550405916063 -0.0058040297472460771 0 -0.034163352672932586 -0.0037796591518442042 0 -0.036034550405916063 -0.0058040297472460771 0 -0.03418634223165596 -0.0055960523568242592 0 -0.037116415235197806 -0.0024352427140673046 0 -0.035761966512173775 -0.0026101072886221548 0 -0.036034550405916063 -0.0058040297472460771 0 -0.026438661011462899 -0.0049654726239317468 0 -0.027592652107259183 -0.0084333867542962116 0 -0.018386662819660702 -0.010739452857513224 0 -0.018431704283680812 -0.01067932519934218 0 -0.018424603133829886 -0.010795759478194378 0 -0.019642017982774387 -0.01011126921175152 0 -0.026438661011462899 -0.0049654726239317468 0 -0.018265234659824447 -0.010548836357074019 0 -0.018354718350940366 -0.010193174533424431 0 -0.018375684182103152 -0.010561091370634849 0 -0.018386662819660702 -0.010739452857513224 0 -0.018265234659824447 -0.010548836357074019 0 -0.018375684182103152 -0.010561091370634849 0 -0.026438661011462899 -0.0049654726239317468 0 -0.034487805036950009 0.0023547152772879767 0 -0.037116415235197806 -0.0024352427140673046 0 -0.035761966512173775 -0.0026101072886221548 0 -0.035676641287154184 -0.00023367523734475827 0 -0.034848746868174997 -0.0014426544553746393 0 -0.035761966512173775 -0.0026101072886221548 0 -0.035676641287154184 -0.00023367523734475827 0 -0.026438661011462899 -0.0049654726239317468 0 -0.024492558213936717 -0.0032984306978259604 0 -0.031439078289783984 0.0035884212361014575 0 -0.031599057024236737 0.0036400277437699208 0 -0.031360953409362388 0.0035797111785231613 0 -0.031360953409362388 0.0035797111785231613 0 -0.031468230498447325 0.0035233972625937234 0 -0.0312791071943734 0.0033836984487276168 0 -0.031599057024236737 0.0036400277437699208 0 -0.031360953409362388 0.0035797111785231613 0 -0.031468230498447325 0.0035233972625937234 0 -0.031599057024236737 0.0036400277437699208 0 -0.031468230498447325 0.0035233972625937234 0 -0.031660796128845557 0.0034829713364261383 0 -0.031599057024236737 0.0036400277437699208 0 -0.032025507746808103 0.0035664031372492594 0 -0.031660796128845557 0.0034829713364261383 0 -0.034487805036950009 0.0023547152772879767 0 -0.033215672148469995 0.0023756433499712648 0 -0.035676641287154184 -0.00023367523734475827 0 -0.034181198325229777 0.00046088738539811207 0 -0.034523348540006465 0.0014399559451925591 0 -0.034181198325229777 0.00046088738539811207 0 -0.033850907519075289 0.0014580923625376549 0 -0.034523348540006465 0.0014399559451925591 0 -0.035676641287154184 -0.00023367523734475827 0 -0.034181198325229777 0.00046088738539811207 0 -0.034475563699110055 -0.0006329150454618751 0 -0.034181198325229777 0.00046088738539811207 0 -0.034475563699110055 -0.0006329150454618751 0 -0.033659129479080216 -0.00049158099280376133 0 -0.034848746868174997 -0.0014426544553746393 0 -0.034078570599695351 -0.001347248484152298 0 -0.034475563699110055 -0.0006329150454618751 0 -0.034078570599695351 -0.001347248484152298 0 -0.034475563699110055 -0.0006329150454618751 0 -0.033659129479080216 -0.00049158099280376133 0 -0.034848746868174997 -0.0014426544553746393 0 -0.035676641287154184 -0.00023367523734475827 0 -0.034475563699110055 -0.0006329150454618751 0 -0.032737648382375154 -0.00029029742463960648 0 -0.033222271104191306 -0.0013719508635129849 0 -0.033659129479080216 -0.00049158099280376133 0 -0.034078570599695351 -0.001347248484152298 0 -0.033222271104191306 -0.0013719508635129849 0 -0.033659129479080216 -0.00049158099280376133 0 -0.034181198325229777 0.00046088738539811207 0 -0.033659129479080216 -0.00049158099280376133 0 -0.033319072089027651 0.00034662483796051556 0 -0.032737648382375154 -0.00029029742463960648 0 -0.033659129479080216 -0.00049158099280376133 0 -0.033319072089027651 0.00034662483796051556 0 -0.032058146523533233 0.00061660008825535682 0 -0.033319072089027651 0.00034662483796051556 0 -0.033850907519075289 0.0014580923625376549 0 -0.03304754645777485 0.0011817685012396951 0 -0.033791247615103985 0.00146862143936738 0 -0.034181198325229777 0.00046088738539811207 0 -0.033319072089027651 0.00034662483796051556 0 -0.033850907519075289 0.0014580923625376549 0 -0.033850907519075289 0.0014580923625376549 0 -0.034523348540006465 0.0014399559451925591 0 -0.033996580297118828 0.0018730240616524208 0 -0.0339089600374387 0.001707507456847227 0 -0.033850907519075289 0.0014580923625376549 0 -0.033996580297118828 0.0018730240616524208 0 -0.033215672148469995 0.0023756433499712648 0 -0.033401241397506755 0.0025291416599441505 0 -0.032025507746808103 0.0035664031372492594 0 -0.03213437374957364 0.0032877780595809009 0 -0.031879990006144221 0.003407117907520641 0 -0.032025507746808103 0.0035664031372492594 0 -0.03213437374957364 0.0032877780595809009 0 -0.032755277350812545 0.0032370342441082845 0 -0.03213437374957364 0.0032877780595809009 0 -0.032755277350812545 0.0032370342441082845 0 -0.032206958558967297 0.0027560267619936639 0 -0.033668558884637045 0.0021745224392670372 0 -0.032755277350812545 0.0032370342441082845 0 -0.032891474498429718 0.0025755370002764886 0 -0.033668558884637045 0.0021745224392670372 0 -0.033874364118643217 0.0018593574788208767 0 -0.033996580297118828 0.0018730240616524208 0 -0.033650190361454661 0.0021832019804533579 0 -0.033401241397506755 0.0025291416599441505 0 -0.033668558884637045 0.0021745224392670372 0 -0.032891474498429718 0.0025755370002764886 0 -0.033041363798093859 0.0022445683823452381 0 -0.032891474498429718 0.0025755370002764886 0 -0.032206958558967297 0.0027560267619936639 0 -0.033041363798093859 0.0022445683823452381 0 -0.032755277350812545 0.0032370342441082845 0 -0.032891474498429718 0.0025755370002764886 0 -0.032206958558967297 0.0027560267619936639 0 -0.032206958558967297 0.0027560267619936639 0 -0.033041363798093859 0.0022445683823452381 0 -0.031731834093684762 0.0024273998399151047 0 -0.031953346375559195 0.0017904769025862313 0 -0.033041363798093859 0.0022445683823452381 0 -0.031731834093684762 0.0024273998399151047 0 -0.033427332141860028 0.0022739708895861618 0 -0.033668558884637045 0.0021745224392670372 0 -0.033041363798093859 0.0022445683823452381 0 -0.031296998117330922 0.0021448043597378941 0 -0.031731834093684762 0.0024273998399151047 0 -0.031199822313449987 0.0028003666414884404 0 -0.030606886166607575 0.0021646805372972757 0 -0.031296998117330922 0.0021448043597378941 0 -0.031199822313449987 0.0028003666414884404 0 -0.031953346375559195 0.0017904769025862313 0 -0.031296998117330922 0.0021448043597378941 0 -0.031731834093684762 0.0024273998399151047 0 -0.032206958558967297 0.0027560267619936639 0 -0.031731834093684762 0.0024273998399151047 0 -0.031199822313449987 0.0028003666414884404 0 -0.032206958558967297 0.0027560267619936639 0 -0.031199822313449987 0.0028003666414884404 0 -0.031680769735148204 0.0032058644339272163 0 -0.031242896090141196 0.003171525817058879 0 -0.031680769735148204 0.0032058644339272163 0 -0.03145631092100936 0.0033416867992399108 0 -0.031199822313449987 0.0028003666414884404 0 -0.031242896090141196 0.003171525817058879 0 -0.031680769735148204 0.0032058644339272163 0 -0.03213437374957364 0.0032877780595809009 0 -0.032206958558967297 0.0027560267619936639 0 -0.031680769735148204 0.0032058644339272163 0 -0.03213437374957364 0.0032877780595809009 0 -0.031680769735148204 0.0032058644339272163 0 -0.031879990006144221 0.003407117907520641 0 -0.032025507746808103 0.0035664031372492594 0 -0.031879990006144221 0.003407117907520641 0 -0.031660796128845557 0.0034829713364261383 0 -0.031680769735148204 0.0032058644339272163 0 -0.031660796128845557 0.0034829713364261383 0 -0.03145631092100936 0.0033416867992399108 0 -0.031680769735148204 0.0032058644339272163 0 -0.031879990006144221 0.003407117907520641 0 -0.031660796128845557 0.0034829713364261383 0 -0.031242896090141196 0.003171525817058879 0 -0.03145631092100936 0.0033416867992399108 0 -0.0312791071943734 0.0033836984487276168 0 -0.031468230498447325 0.0035233972625937234 0 -0.03145631092100936 0.0033416867992399108 0 -0.0312791071943734 0.0033836984487276168 0 -0.031468230498447325 0.0035233972625937234 0 -0.031660796128845557 0.0034829713364261383 0 -0.03145631092100936 0.0033416867992399108 0 -0.032802596910003298 0.0042803068288401946 0 -0.025734743698330158 -0.0022715465480738451 0 -0.031360953409362388 0.0035797111785231613 0 -0.0312791071943734 0.0033836984487276168 0 -0.031048686237903512 0.0032509210220814815 0 -0.031242896090141196 0.003171525817058879 0 -0.0312791071943734 0.0033836984487276168 0 -0.031031374518145062 0.003262457525831557 0 -0.018476168845440111 -0.0099171553630981995 0 -0.01861702629017719 -0.010027448227378909 0 -0.01851542059923425 -0.010120486166168816 0 -0.018476168845440111 -0.0099171553630981995 0 -0.018612142418109209 -0.0098448427568448762 0 -0.01861702629017719 -0.010027448227378909 0 -0.025734743698330158 -0.0022715465480738451 0 -0.020256129157848031 -0.0075478449616259644 0 -0.025285066081070985 -0.002291982004352574 0 -0.025164836923929013 -0.0023702307530564346 0 -0.025252566763813603 -0.0023575271774815749 0 -0.031199822313449987 0.0028003666414884404 0 -0.031242896090141196 0.003171525817058879 0 -0.030896891645586316 0.0030064858703442638 0 -0.031242896090141196 0.003171525817058879 0 -0.031031374518145062 0.003262457525831557 0 -0.030896891645586316 0.0030064858703442638 0 -0.025734743698330158 -0.0022715465480738451 0 -0.0281786307946871 0.00065130167520082848 0 -0.031199822313449987 0.0028003666414884404 0 -0.030896891645586316 0.0030064858703442638 0 -0.03079605497964738 0.0027749358013541606 0 -0.031817263430961813 0.0032241240249232463 0 -0.028768172706917491 0.0012293110662177462 0 -0.031199822313449987 0.0028003666414884404 0 -0.029839699933764164 0.0029246716836383315 0 -0.030227744242873684 0.0025502379695449416 0 -0.025164836923929013 -0.0023702307530564346 0 -0.025252566763813603 -0.0023575271774815749 0 -0.025228743656867305 -0.0024195987422502628 0 -0.0281786307946871 0.00065130167520082848 0 -0.028768172706917491 0.0012293110662177462 0 -0.02973896706332849 0.0026129983555003298 0 -0.029740643852686224 0.0026052104922140943 0 -0.029642065514248594 0.0022834769911641356 0 -0.028768172706917491 0.0012293110662177462 0 -0.029331397006060751 0.002373358597845219 0 -0.029839699933764164 0.0029246716836383315 0 -0.029740643852686224 0.0026052104922140943 0 -0.030227744242873684 0.0025502379695449416 0 -0.029806316279726554 0.0023620952854054092 0 -0.029740643852686224 0.0026052104922140943 0 -0.030227744242873684 0.0025502379695449416 0 -0.029806316279726554 0.0023620952854054092 0 -0.029740643852686224 0.0026052104922140943 0 -0.029571977654255625 0.0024130235799726795 0 -0.030606886166607575 0.0021646805372972757 0 -0.031199822313449987 0.0028003666414884404 0 -0.030227744242873684 0.0025502379695449416 0 -0.030606886166607575 0.0021646805372972757 0 -0.029806316279726554 0.0023620952854054092 0 -0.030227744242873684 0.0025502379695449416 0 -0.029945170755223106 0.0021939273854406187 0 -0.029747831431384496 0.0023800147856110872 0 -0.029642065514248594 0.0022834769911641356 0 -0.031324629727508657 0.0031649672197954482 0 -0.025429092562439769 -0.0024718310558949743 0 -0.03010957222807302 0.0026149455654986753 0 -0.029945170755223106 0.0021939273854406187 0 -0.029747831431384496 0.0023800147856110872 0 -0.029668040631407662 0.0025956463477321084 0 -0.029747831431384496 0.0023800147856110872 0 -0.029571977654255625 0.0024130235799726795 0 -0.029740643852686224 0.0026052104922140943 0 -0.029571977654255625 0.0024130235799726795 0 -0.029642065514248594 0.0022834769911641356 0 -0.029747831431384496 0.0023800147856110872 0 -0.029571977654255625 0.0024130235799726795 0 -0.029642065514248594 0.0022834769911641356 0 -0.028768172706917491 0.0012293110662177462 0 -0.025429092562439769 -0.0024718310558949743 0 -0.025164836923929013 -0.0023702307530564346 0 -0.025228743656867305 -0.0024195987422502628 0 -0.02507376475665201 -0.0024345790159635014 0 -0.020256129157848031 -0.0075478449616259644 0 -0.025429092562439769 -0.0024718310558949743 0 -0.030514394160737968 0.0018059624385961838 0 -0.029945170755223106 0.0021939273854406187 0 -0.029400289734973585 0.0017660202824794791 0 -0.018789978863939238 -0.0098662936610478449 0 -0.01875011326074183 -0.0097457395490352632 0 -0.018716299982135632 -0.0099336121222724661 0 -0.018797957631193688 -0.0099849524504636231 0 -0.018789978863939238 -0.0098662936610478449 0 -0.018716299982135632 -0.0099336121222724661 0 -0.018612142418109209 -0.0098448427568448762 0 -0.01875011326074183 -0.0097457395490352632 0 -0.018716299982135632 -0.0099336121222724661 0 -0.018612142418109209 -0.0098448427568448762 0 -0.018716299982135632 -0.0099336121222724661 0 -0.01861702629017719 -0.010027448227378909 0 -0.018716299982135632 -0.0099336121222724661 0 -0.01861702629017719 -0.010027448227378909 0 -0.018711233589554108 -0.010133213579617056 0 -0.018797957631193688 -0.0099849524504636231 0 -0.018716299982135632 -0.0099336121222724661 0 -0.018711233589554108 -0.010133213579617056 0 -0.018695154182132939 -0.010180766162251267 0 -0.018660879936664442 -0.010584615878626281 0 -0.018711233589554108 -0.010133213579617056 0 -0.01886067202585438 -0.010460139049328316 0 -0.018656001365764618 -0.010460520121996849 0 -0.018612642849463776 -0.010231620979032097 0 -0.018522295976244368 -0.010361559450266076 0 -0.018656001365764618 -0.010460520121996849 0 -0.018711233589554108 -0.010133213579617056 0 -0.018612642849463776 -0.010231620979032097 0 -0.018656001365764618 -0.010460520121996849 0 -0.01861702629017719 -0.010027448227378909 0 -0.018711233589554108 -0.010133213579617056 0 -0.018612642849463776 -0.010231620979032097 0 -0.018612642849463776 -0.010231620979032097 0 -0.01851542059923425 -0.010120486166168816 0 -0.018522295976244368 -0.010361559450266076 0 -0.01861702629017719 -0.010027448227378909 0 -0.018612642849463776 -0.010231620979032097 0 -0.01851542059923425 -0.010120486166168816 0 -0.018354718350940366 -0.010193174533424431 0 -0.018476168845440111 -0.0099171553630981995 0 -0.01851542059923425 -0.010120486166168816 0 -0.024492558213936717 -0.0032984306978259604 0 -0.025734743698330158 -0.0022715465480738451 0 -0.018354718350940366 -0.010193174533424431 0 -0.01851542059923425 -0.010120486166168816 0 -0.018522295976244368 -0.010361559450266076 0 -0.018354718350940366 -0.010193174533424431 0 -0.018522295976244368 -0.010361559450266076 0 -0.018442400559514974 -0.010527405960518205 0 -0.018522295976244368 -0.010361559450266076 0 -0.018534950891934958 -0.010660242286301086 0 -0.018442400559514974 -0.010527405960518205 0 -0.018534950891934958 -0.010660242286301086 0 -0.018442400559514974 -0.010527405960518205 0 -0.018430762925027853 -0.010726698493260571 0 -0.018522295976244368 -0.010361559450266076 0 -0.018534950891934958 -0.010660242286301086 0 -0.018656001365764618 -0.010460520121996849 0 -0.018354718350940366 -0.010193174533424431 0 -0.018442400559514974 -0.010527405960518205 0 -0.018375684182103152 -0.010561091370634849 0 -0.018442400559514974 -0.010527405960518205 0 -0.018375684182103152 -0.010561091370634849 0 -0.018430762925027853 -0.010726698493260571 0 -0.018386662819660702 -0.010739452857513224 0 -0.018430762925027853 -0.010726698493260571 0 -0.018424793742118525 -0.010884702322295563 0 -0.018386662819660702 -0.010739452857513224 0 -0.018375684182103152 -0.010561091370634849 0 -0.018430762925027853 -0.010726698493260571 0 -0.018534950891934958 -0.010660242286301086 0 -0.018430762925027853 -0.010726698493260571 0 -0.018498854583281075 -0.010894338644800055 0 -0.018430762925027853 -0.010726698493260571 0 -0.018498854583281075 -0.010894338644800055 0 -0.018424793742118525 -0.010884702322295563 0 -0.018680534745869708 -0.010756789564255027 0 -0.018712636929020709 -0.010960834398715258 0 -0.018581790431263408 -0.011042093780940185 0 -0.018534950891934958 -0.010660242286301086 0 -0.018498854583281075 -0.010894338644800055 0 -0.018680534745869708 -0.010756789564255027 0 -0.018498854583281075 -0.010894338644800055 0 -0.018680534745869708 -0.010756789564255027 0 -0.018581790431263408 -0.011042093780940185 0 -0.018680534745869708 -0.010756789564255027 0 -0.018712636929020709 -0.010960834398715258 0 -0.01891406063760322 -0.010893469658299432 0 -0.018680534745869708 -0.010756789564255027 0 -0.01891406063760322 -0.010893469658299432 0 -0.01886067202585438 -0.010460139049328316 0 -0.018680534745869708 -0.010756789564255027 0 -0.01886067202585438 -0.010460139049328316 0 -0.018656001365764618 -0.010460520121996849 0 -0.018676643294010697 -0.011188642613578223 0 -0.018660879936664442 -0.010584615878626281 0 -0.018534950891934958 -0.010660242286301086 0 -0.018680534745869708 -0.010756789564255027 0 -0.018656001365764618 -0.010460520121996849 0 -0.018654153268044333 -0.01152863830777223 0 -0.018882295332617181 -0.011804684722184869 0 -0.018672567125789366 -0.01160024205199389 0 -0.018654153268044333 -0.01152863830777223 0 -0.018584001709405752 -0.011228783942011242 0 -0.018462277563303816 -0.011114045886859523 0 -0.018575365059769724 -0.011522406952916104 0 -0.018964906223958709 -0.011438202094280654 0 -0.018634094781710471 -0.011576514779229975 0 -0.018654153268044333 -0.01152863830777223 0 -0.018672567125789366 -0.01160024205199389 0 -0.018680117753856629 -0.011571197128365735 0 -0.018634094781710471 -0.011576514779229975 0 -0.018654153268044333 -0.01152863830777223 0 -0.018680117753856629 -0.011571197128365735 0 -0.018654153268044333 -0.01152863830777223 0 -0.018675055272963152 -0.011221355464343531 0 -0.018654153268044333 -0.01152863830777223 0 -0.018675055272963152 -0.011221355464343531 0 -0.018584001709405752 -0.011228783942011242 0 -0.018680117753856629 -0.011571197128365735 0 -0.01891406063760322 -0.010893469658299432 0 -0.018675055272963152 -0.011221355464343531 0 -0.018712636929020709 -0.010960834398715258 0 -0.01891406063760322 -0.010893469658299432 0 -0.018675055272963152 -0.011221355464343531 0 -0.018712636929020709 -0.010960834398715258 0 -0.018675055272963152 -0.011221355464343531 0 -0.018581790431263408 -0.011042093780940185 0 -0.018581790431263408 -0.011042093780940185 0 -0.018584001709405752 -0.011228783942011242 0 -0.018462277563303816 -0.011114045886859523 0 -0.018498854583281075 -0.010894338644800055 0 -0.018581790431263408 -0.011042093780940185 0 -0.018462277563303816 -0.011114045886859523 0 -0.018675055272963152 -0.011221355464343531 0 -0.018581790431263408 -0.011042093780940185 0 -0.018584001709405752 -0.011228783942011242 0 -0.018498854583281075 -0.010894338644800055 0 -0.018424793742118525 -0.010884702322295563 0 -0.018462277563303816 -0.011114045886859523 0 -0.018424793742118525 -0.010884702322295563 0 -0.018409406689243648 -0.010901761169255163 0 -0.018408520210195664 -0.010846554641702226 0 -0.018386662819660702 -0.010739452857513224 0 -0.018424793742118525 -0.010884702322295563 0 -0.018408520210195664 -0.010846554641702226 0 -0.018882295332617181 -0.011804684722184869 0 -0.019057984577516136 -0.01168577699073098 0 -0.019281440062039721 -0.011910019699424262 0 -0.018964906223958709 -0.011438202094280654 0 -0.017731764539741408 -0.011574006436259592 0 -0.018424793742118525 -0.010884702322295563 0 -0.018462277563303816 -0.011114045886859523 0 -0.018409406689243648 -0.010901761169255163 0 -0.018882295332617181 -0.011804684722184869 0 -0.019057984577516136 -0.01168577699073098 0 -0.018783833242178489 -0.011580542417247527 0 -0.019057984577516136 -0.01168577699073098 0 -0.019335589690266525 -0.011570931677760443 0 -0.019281440062039721 -0.011910019699424262 0 -0.019057984577516136 -0.01168577699073098 0 -0.019036226007416637 -0.011512781027890254 0 -0.019335589690266525 -0.011570931677760443 0 -0.019036226007416637 -0.011512781027890254 0 -0.019196693248021781 -0.01137078410570953 0 -0.019335589690266525 -0.011570931677760443 0 -0.019057984577516136 -0.01168577699073098 0 -0.019036226007416637 -0.011512781027890254 0 -0.018783833242178489 -0.011580542417247527 0 -0.019036226007416637 -0.011512781027890254 0 -0.018783833242178489 -0.011580542417247527 0 -0.018807175751545072 -0.011443589303439994 0 -0.018783833242178489 -0.011580542417247527 0 -0.018622473096011206 -0.011495643566638155 0 -0.018807175751545072 -0.011443589303439994 0 -0.018783833242178489 -0.011580542417247527 0 -0.018672567125789366 -0.01160024205199389 0 -0.018614942042510702 -0.011557774712505681 0 -0.018882295332617181 -0.011804684722184869 0 -0.018783833242178489 -0.011580542417247527 0 -0.018672567125789366 -0.01160024205199389 0 -0.018560229453452474 -0.011572762685380966 0 -0.018634094781710471 -0.011576514779229975 0 -0.018672567125789366 -0.01160024205199389 0 -0.018560229453452474 -0.011572762685380966 0 -0.018672567125789366 -0.01160024205199389 0 -0.018614942042510702 -0.011557774712505681 0 -0.018488255835768009 -0.011524980056187519 0 -0.018614942042510702 -0.011557774712505681 0 -0.018622473096011206 -0.011495643566638155 0 -0.018783833242178489 -0.011580542417247527 0 -0.018614942042510702 -0.011557774712505681 0 -0.018622473096011206 -0.011495643566638155 0 -0.018412904256262543 -0.011452831801849471 0 -0.018622473096011206 -0.011495643566638155 0 -0.018637608871843389 -0.011376164186916555 0 -0.018622473096011206 -0.011495643566638155 0 -0.018637608871843389 -0.011376164186916555 0 -0.018807175751545072 -0.011443589303439994 0 -0.018807175751545072 -0.011443589303439994 0 -0.018793986450159363 -0.01130121260406847 0 -0.018986738239922956 -0.011325180387451608 0 -0.018637608871843389 -0.011376164186916555 0 -0.018807175751545072 -0.011443589303439994 0 -0.018793986450159363 -0.01130121260406847 0 -0.018637608871843389 -0.011376164186916555 0 -0.018793986450159363 -0.01130121260406847 0 -0.018703499901750506 -0.01119524361628137 0 -0.018412904256262543 -0.011452831801849471 0 -0.018637608871843389 -0.011376164186916555 0 -0.018523047874862423 -0.011279016580598003 0 -0.018637608871843389 -0.011376164186916555 0 -0.018523047874862423 -0.011279016580598003 0 -0.018703499901750506 -0.01119524361628137 0 -0.018462417750682636 -0.011097881195900532 0 -0.018523047874862423 -0.011279016580598003 0 -0.018621305717319233 -0.01108561463069993 0 -0.018523047874862423 -0.011279016580598003 0 -0.018621305717319233 -0.01108561463069993 0 -0.018703499901750506 -0.01119524361628137 0 -0.018793986450159363 -0.01130121260406847 0 -0.018703499901750506 -0.01119524361628137 0 -0.018874250386961056 -0.011094484931293539 0 -0.018703499901750506 -0.01119524361628137 0 -0.018730626189426804 -0.011011633633155203 0 -0.018874250386961056 -0.011094484931293539 0 -0.018621305717319233 -0.01108561463069993 0 -0.018703499901750506 -0.01119524361628137 0 -0.018730626189426804 -0.011011633633155203 0 -0.019510316856653762 -0.016730629414206537 0 -0.017347264896945169 -0.015272221654302118 0 -0.017992426580352303 -0.018761299527197454 0 -0.018902924986096536 -0.013756291930831437 0 -0.020274712640448018 -0.014396764842949359 0 -0.019510316856653762 -0.016730629414206537 0 -0.021697902791851797 -0.018183965574010291 0 -0.019775819120200971 -0.018837593781654133 0 -0.018902924986096536 -0.013756291930831437 0 -0.018875316005746996 -0.014926695116321042 0 -0.018621305717319233 -0.01108561463069993 0 -0.018730626189426804 -0.011011633633155203 0 -0.018596787582169285 -0.010939060842132616 0 -0.017754290787940361 -0.01242096222849998 0 -0.017762929396070038 -0.011891569364969308 0 -0.017399114141902039 -0.012547746806899046 0 -0.018462417750682636 -0.011097881195900532 0 -0.018621305717319233 -0.01108561463069993 0 -0.018596787582169285 -0.010939060842132616 0 -0.018206999534298742 -0.010975191937889589 0 -0.018875316005746996 -0.014926695116321042 0 -0.025142680984981413 -0.018885948611424778 0 -0.025084031579110707 -0.018484743229349176 0 -0.024940781287775795 -0.018840559878535851 0 -0.025142680984981413 -0.018885948611424778 0 -0.024940781287775795 -0.018840559878535851 0 -0.024992724326861348 -0.019102353919234351 0 -0.025142680984981413 -0.018885948611424778 0 -0.025328575375001352 -0.018697432268411633 0 -0.02538314542715487 -0.019031740744452273 0 -0.020274712640448018 -0.014396764842949359 0 -0.021864659390954447 -0.018881651157366383 0 -0.019025244816624615 -0.011151036688205156 0 -0.019180689151484791 -0.011202264503620784 0 -0.018986738239922956 -0.011325180387451608 0 -0.025142680984981413 -0.018885948611424778 0 -0.025328575375001352 -0.018697432268411633 0 -0.025084031579110707 -0.018484743229349176 0 -0.020274712640448018 -0.014396764842949359 0 -0.018507769013135 -0.0098665707622591654 0 -0.020274712640448018 -0.014396764842949359 0 -0.022637105118231467 -0.015056995721144644 0 -0.019180689151484791 -0.011202264503620784 0 -0.019196693248021781 -0.01137078410570953 0 -0.019467923044778516 -0.011281812008903623 0 -0.019180689151484791 -0.011202264503620784 0 -0.018986738239922956 -0.011325180387451608 0 -0.019196693248021781 -0.01137078410570953 0 -0.018793986450159363 -0.01130121260406847 0 -0.018874250386961056 -0.011094484931293539 0 -0.018986738239922956 -0.011325180387451608 0 -0.019036226007416637 -0.011512781027890254 0 -0.018807175751545072 -0.011443589303439994 0 -0.018986738239922956 -0.011325180387451608 0 -0.019036226007416637 -0.011512781027890254 0 -0.018986738239922956 -0.011325180387451608 0 -0.019196693248021781 -0.01137078410570953 0 -0.019196693248021781 -0.01137078410570953 0 -0.019467923044778516 -0.011281812008903623 0 -0.019335589690266525 -0.011570931677760443 0 -0.019467923044778516 -0.011281812008903623 0 -0.019605548442554892 -0.011511383732993534 0 -0.019335589690266525 -0.011570931677760443 0 -0.019467923044778516 -0.011281812008903623 0 -0.019797460101812683 -0.011418118297012681 0 -0.019605548442554892 -0.011511383732993534 0 -0.021394589616574058 -0.014570626374301275 0 -0.025707814330145389 -0.014205518544787172 0 -0.024458517468470251 -0.018300206278950612 0 -0.024781514194857808 -0.018178696525566442 0 -0.024841260900500754 -0.018545306159516037 0 -0.024458517468470251 -0.018300206278950612 0 -0.024781514194857808 -0.018178696525566442 0 -0.024367503578105385 -0.017826565748060724 0 -0.022637105118231467 -0.015056995721144644 0 -0.021394589616574058 -0.014570626374301275 0 -0.025084031579110707 -0.018484743229349176 0 -0.024781514194857808 -0.018178696525566442 0 -0.024841260900500754 -0.018545306159516037 0 -0.025084031579110707 -0.018484743229349176 0 -0.024841260900500754 -0.018545306159516037 0 -0.024940781287775795 -0.018840559878535851 0 -0.024841260900500754 -0.018545306159516037 0 -0.024602175051164531 -0.018695069574165189 0 -0.024940781287775795 -0.018840559878535851 0 -0.024458517468470251 -0.018300206278950612 0 -0.024841260900500754 -0.018545306159516037 0 -0.024602175051164531 -0.018695069574165189 0 -0.024863115444773359 -0.019247511733622772 0 -0.024804577959630876 -0.018693046778509942 0 -0.024602175051164531 -0.018695069574165189 0 -0.024940781287775795 -0.018840559878535851 0 -0.024814685483175863 -0.019028233897131947 0 -0.024804577959630876 -0.018693046778509942 0 -0.024830780388698636 -0.019043939388357044 0 -0.025064714278180498 -0.019026778798762859 0 -0.024972757488065774 -0.019073639551229718 0 -0.024814685483175863 -0.019028233897131947 0 -0.024940781287775795 -0.018840559878535851 0 -0.024896993404414109 -0.019026197320871619 0 -0.024814685483175863 -0.019028233897131947 0 -0.025019920348290068 -0.019130477813406939 0 -0.025352081095746808 -0.019397460244705685 0 -0.025406784169266162 -0.019169297965112696 0 -0.025028604976171969 -0.019136822929087919 0 -0.025071214073435787 -0.019113723681538044 0 -0.025019920348290068 -0.019130477813406939 0 -0.025406784169266162 -0.019169297965112696 0 -0.025270761496565639 -0.018989173001318731 0 -0.025019920348290068 -0.019130477813406939 0 -0.024972757488065774 -0.019073639551229718 0 -0.024936312716857211 -0.019025672119337048 0 -0.025064714278180498 -0.019026778798762859 0 -0.024972757488065774 -0.019073639551229718 0 -0.025013212538316339 -0.018985780804289854 0 -0.025019920348290068 -0.019130477813406939 0 -0.024972757488065774 -0.019073639551229718 0 -0.025013212538316339 -0.018985780804289854 0 -0.025175572856540623 -0.018763877616504807 0 -0.025064714278180498 -0.019026778798762859 0 -0.025013212538316339 -0.018985780804289854 0 -0.025019920348290068 -0.019130477813406939 0 -0.025013212538316339 -0.018985780804289854 0 -0.02481044599042672 -0.018936242061620492 0 -0.025013212538316339 -0.018985780804289854 0 -0.024965076809716397 -0.018764228952334649 0 -0.02481044599042672 -0.018936242061620492 0 -0.024965076809716397 -0.018764228952334649 0 -0.024881137238946499 -0.018503960112888775 0 -0.024651511189346231 -0.018667771649703093 0 -0.025175572856540623 -0.018763877616504807 0 -0.025013212538316339 -0.018985780804289854 0 -0.024965076809716397 -0.018764228952334649 0 -0.025175572856540623 -0.018763877616504807 0 -0.024965076809716397 -0.018764228952334649 0 -0.025175243791609597 -0.018436437265589901 0 -0.024863115444773359 -0.019247511733622772 0 -0.025707814330145389 -0.014205518544787172 0 -0.025175243791609597 -0.018436437265589901 0 -0.024881137238946499 -0.018503960112888775 0 -0.024889481607440235 -0.018179454161754025 0 -0.024965076809716397 -0.018764228952334649 0 -0.025175243791609597 -0.018436437265589901 0 -0.024881137238946499 -0.018503960112888775 0 -0.025707814330145389 -0.014205518544787172 0 -0.029166228758816113 -0.012495433342741885 0 -0.031045056093953648 -0.0087984165662441192 0 -0.030800713396051626 -0.008928384144385423 0 -0.031863746850123394 -0.0092226586548092952 0 -0.031045056093953648 -0.0087984165662441192 0 -0.031504912346569831 -0.0084514812817301152 0 -0.031863746850123394 -0.0092226586548092952 0 -0.030645271101852226 -0.011169273856980879 0 -0.029166228758816113 -0.012495433342741885 0 -0.031045056093953648 -0.0087984165662441192 0 -0.030805393261094417 -0.0089361200355093668 0 -0.030705969133286371 -0.008315196328500165 0 -0.031045056093953648 -0.0087984165662441192 0 -0.030705969133286371 -0.008315196328500165 0 -0.031099791262916784 -0.0083796818302198026 0 -0.031504912346569831 -0.0084514812817301152 0 -0.031138803175044315 -0.0079519294369011142 0 -0.031776858063967531 -0.0074537926415305126 0 -0.031504912346569831 -0.0084514812817301152 0 -0.031099791262916784 -0.0083796818302198026 0 -0.031138803175044315 -0.0079519294369011142 0 -0.031045056093953648 -0.0087984165662441192 0 -0.031504912346569831 -0.0084514812817301152 0 -0.031099791262916784 -0.0083796818302198026 0 -0.030705969133286371 -0.008315196328500165 0 -0.031138803175044315 -0.0079519294369011142 0 -0.030480190122412487 -0.0073554655564034765 0 -0.030705969133286371 -0.008315196328500165 0 -0.031099791262916784 -0.0083796818302198026 0 -0.031138803175044315 -0.0079519294369011142 0 -0.02708597704141015 -0.0098028805800060414 0 -0.024074033340599561 -0.010126031607628498 0 -0.031504912346569831 -0.0084514812817301152 0 -0.031992695339699125 -0.0089275983348507358 0 -0.031776858063967531 -0.0074537926415305126 0 -0.027626172981892894 -0.0090240806674845141 0 -0.027361628479589947 -0.0097094340439726444 0 -0.027770420475655106 -0.0096989177408107093 0 -0.02708597704141015 -0.0098028805800060414 0 -0.031790658481510498 -0.0084163670486425059 0 -0.025707814330145389 -0.014205518544787172 0 -0.02708597704141015 -0.0098028805800060414 0 -0.019797460101812683 -0.011418118297012681 0 -0.019847844874898907 -0.011596414471892285 0 -0.019605548442554892 -0.011511383732993534 0 -0.032105960325155301 -0.0098862040782105014 0 -0.0319604015411201 -0.0089524883488142082 0 -0.031863746850123394 -0.0092226586548092952 0 -0.032105960325155301 -0.0098862040782105014 0 -0.030800713396051626 -0.008928384144385423 0 -0.031863746850123394 -0.0092226586548092952 0 -0.02708597704141015 -0.0098028805800060414 0 -0.028516138095516692 -0.0087782453282665047 0 -0.031504912346569831 -0.0084514812817301152 0 -0.031992695339699125 -0.0089275983348507358 0 -0.031863746850123394 -0.0092226586548092952 0 -0.019847844874898907 -0.011596414471892285 0 -0.019605548442554892 -0.011511383732993534 0 -0.019582789194868905 -0.011705713148292924 0 -0.019605548442554892 -0.011511383732993534 0 -0.019335589690266525 -0.011570931677760443 0 -0.019582789194868905 -0.011705713148292924 0 -0.019335589690266525 -0.011570931677760443 0 -0.019582789194868905 -0.011705713148292924 0 -0.019281440062039721 -0.011910019699424262 0 -0.019847844874898907 -0.011596414471892285 0 -0.019582789194868905 -0.011705713148292924 0 -0.019718873412263426 -0.011922469607307171 0 -0.019582789194868905 -0.011705713148292924 0 -0.019718873412263426 -0.011922469607307171 0 -0.019281440062039721 -0.011910019699424262 0 -0.024074033340599561 -0.010126031607628498 0 -0.017731764539741408 -0.011574006436259592 0 -0.018475268035866032 -0.010829688748839659 0 -0.018409406689243648 -0.010901761169255163 0 -0.018408520210195664 -0.010846554641702226 0 -0.018386662819660702 -0.010739452857513224 0 -0.018408520210195664 -0.010846554641702226 0 -0.018424603133829886 -0.010795759478194378 0 -0.018475268035866032 -0.010829688748839659 0 -0.018408520210195664 -0.010846554641702226 0 -0.018424603133829886 -0.010795759478194378 0 -0.034717530953440767 -0.0091111054906666527 0 -0.036034550405916063 -0.0058040297472460771 0 -0.033729313402614695 -0.0066087912059490123 0 -0.024074033340599561 -0.010126031607628498 0 -0.027592652107259183 -0.0084333867542962116 0 -0.036034550405916063 -0.0058040297472460771 0 -0.03418634223165596 -0.0055960523568242592 0 -0.033729313402614695 -0.0066087912059490123 0 -0.031977962331162735 -0.00488324837507289 0 -0.033729313402614695 -0.0066087912059490123 0 -0.032671739033418773 -0.0091220502137394788 0 -0.033235844725601149 -0.0048373144419984531 0 -0.03418634223165596 -0.0055960523568242592 0 -0.033729313402614695 -0.0066087912059490123 0 -0.03221221239705313 -0.0049704147330796476 0 -0.031790658481510498 -0.0084163670486425059 0 -0.031977962331162735 -0.00488324837507289 0 -0.031380196302865919 -0.0061680724914476666 0 -0.032436331615202325 -0.0073585141009549319 0 -0.031977962331162735 -0.00488324837507289 0 -0.031241650193217074 -0.0054334612786148349 0 -0.031380196302865919 -0.0061680724914476666 0 -0.031241650193217074 -0.0054334612786148349 0 -0.031380196302865919 -0.0061680724914476666 0 -0.030408255207868447 -0.0056570842142131383 0 -0.031380196302865919 -0.0061680724914476666 0 -0.032436331615202325 -0.0073585141009549319 0 -0.030480190122412487 -0.0073554655564034765 0 -0.031790658481510498 -0.0084163670486425059 0 -0.030709850247582937 -0.0071889267529548799 0 -0.031138803175044315 -0.0079519294369011142 0 -0.031776858063967531 -0.0074537926415305126 0 -0.030480190122412487 -0.0073554655564034765 0 -0.034717530953440767 -0.0091111054906666527 0 -0.033729313402614695 -0.0066087912059490123 0 -0.032671739033418773 -0.0091220502137394788 0 -0.024074033340599561 -0.010126031607628498 0 -0.031790658481510498 -0.0084163670486425059 0 -0.029475969957726174 -0.0066072996109790569 0 -0.028619434414923952 -0.0058792395683877532 0 -0.028502456112102299 -0.0073803827482426193 0 -0.029475969957726174 -0.0066072996109790569 0 -0.028502456112102299 -0.0073803827482426193 0 -0.029740067894048421 -0.0082399845519045816 0 -0.029475969957726174 -0.0066072996109790569 0 -0.030480190122412487 -0.0073554655564034765 0 -0.029740067894048421 -0.0082399845519045816 0 -0.031380196302865919 -0.0061680724914476666 0 -0.030480190122412487 -0.0073554655564034765 0 -0.030408255207868447 -0.0056570842142131383 0 -0.029475969957726174 -0.0066072996109790569 0 -0.030480190122412487 -0.0073554655564034765 0 -0.030408255207868447 -0.0056570842142131383 0 -0.02936798146037314 -0.0052047524503032565 0 -0.029475969957726174 -0.0066072996109790569 0 -0.030408255207868447 -0.0056570842142131383 0 -0.02936798146037314 -0.0052047524503032565 0 -0.029475969957726174 -0.0066072996109790569 0 -0.028619434414923952 -0.0058792395683877532 0 -0.028134355293567913 -0.0052985158681052424 0 -0.028642238662833896 -0.0049820105190894765 0 -0.028619434414923952 -0.0058792395683877532 0 -0.028134355293567913 -0.0052985158681052424 0 -0.028619434414923952 -0.0058792395683877532 0 -0.027859458969902894 -0.0060343380500231247 0 -0.028619434414923952 -0.0058792395683877532 0 -0.027859458969902894 -0.0060343380500231247 0 -0.028502456112102299 -0.0073803827482426193 0 -0.027482735261515293 -0.0050836139680153344 0 -0.028134355293567913 -0.0052985158681052424 0 -0.027859458969902894 -0.0060343380500231247 0 -0.032011087315393746 -0.0099036096189466082 0 -0.03741871363494479 -0.0080300111502350172 0 -0.034394584085574768 -0.006615968434713476 0 -0.034308633787971103 -0.0064350283085521489 0 -0.034916672444784427 -0.0067880071769714613 0 -0.039495119199485271 -0.0099339678058329873 0 -0.038456798322197228 -0.010293386094062544 0 -0.038469204191788411 -0.0091344034734223249 0 -0.027482735261515293 -0.0050836139680153344 0 -0.027859458969902894 -0.0060343380500231247 0 -0.02712670296597192 -0.0060611441986921782 0 -0.027859458969902894 -0.0060343380500231247 0 -0.02712670296597192 -0.0060611441986921782 0 -0.027300841504597995 -0.006525170899249387 0 -0.031155461823023561 -0.0064751729786226547 0 -0.032011087315393746 -0.0099036096189466082 0 -0.039495119199485271 -0.0099339678058329873 0 -0.039733987843015996 -0.011574998881637833 0 -0.038958269675174913 -0.011038806230883482 0 -0.032011087315393746 -0.0099036096189466082 0 -0.035472671968433511 -0.011954476180866177 0 -0.039495119199485271 -0.0099339678058329873 0 -0.038958269675174913 -0.011038806230883482 0 -0.038456798322197228 -0.010293386094062544 0 -0.032011087315393746 -0.0099036096189466082 0 -0.028456329877408926 -0.0094618557597716257 0 -0.029215792344542364 -0.011803054615692189 0 -0.029704259895974028 -0.01217477465638229 0 -0.029440999545632521 -0.012465780781662415 0 -0.032011087315393746 -0.0099036096189466082 0 -0.029355983667960342 -0.012713707147293914 0 -0.027859458969902894 -0.0060343380500231247 0 -0.027300841504597995 -0.006525170899249387 0 -0.028502456112102299 -0.0073803827482426193 0 -0.029440999545632521 -0.012465780781662415 0 -0.029643224105905815 -0.012674140446388277 0 -0.029733659319584882 -0.013059051172940485 0 -0.029521103983374375 -0.012636561211630528 0 -0.029640982688847958 -0.012455008882071626 0 -0.029733659319584882 -0.013059051172940485 0 -0.029503207040840095 -0.011773036636816919 0 -0.029521103983374375 -0.012636561211630528 0 -0.029640982688847958 -0.012455008882071626 0 -0.029704259895974028 -0.01217477465638229 0 -0.029440999545632521 -0.012465780781662415 0 -0.029735120296062394 -0.012475535916510832 0 -0.029440999545632521 -0.012465780781662415 0 -0.029643224105905815 -0.012674140446388277 0 -0.029735120296062394 -0.012475535916510832 0 -0.039733987843015996 -0.011574998881637833 0 -0.038958269675174913 -0.011038806230883482 0 -0.038914393426612084 -0.012086361049767224 0 -0.039540950589519959 -0.012524322572110436 0 -0.038914393426612084 -0.012086361049767224 0 -0.03912700665243353 -0.013031329012736495 0 -0.039733987843015996 -0.011574998881637833 0 -0.039540950589519959 -0.012524322572110436 0 -0.038914393426612084 -0.012086361049767224 0 -0.038914393426612084 -0.012086361049767224 0 -0.03912700665243353 -0.013031329012736495 0 -0.038487559573613148 -0.01282102367056351 0 -0.039733987843015996 -0.011574998881637833 0 -0.039540950589519959 -0.012524322572110436 0 -0.040004573966748155 -0.013283481474300717 0 -0.029355983667960342 -0.012713707147293914 0 -0.029738139074677827 -0.012924756412155753 0 -0.035472671968433511 -0.011954476180866177 0 -0.031215881636292842 -0.015383925134312221 0 -0.029521103983374375 -0.012636561211630528 0 -0.029733659319584882 -0.013059051172940485 0 -0.029583461538590691 -0.013410733375250491 0 -0.029643224105905815 -0.012674140446388277 0 -0.029733659319584882 -0.013059051172940485 0 -0.029744486971482711 -0.013014615102845135 0 -0.029643224105905815 -0.012674140446388277 0 -0.029744486971482711 -0.013014615102845135 0 -0.029813767065976337 -0.012842610244552216 0 -0.029971746789596323 -0.012840579463497556 0 -0.030140306830531878 -0.012539000423715132 0 -0.030190488729389814 -0.013019780692972499 0 -0.029744486971482711 -0.013014615102845135 0 -0.029903428197675129 -0.013001266044537874 0 -0.029853576014017526 -0.013204323453090245 0 -0.029733659319584882 -0.013059051172940485 0 -0.029744486971482711 -0.013014615102845135 0 -0.029905126391640828 -0.013252055700132688 0 -0.028466432612660832 -0.013865946370918206 0 -0.02727372525617467 -0.01641375334097574 0 -0.029903428197675129 -0.013001266044537874 0 -0.029971746789596323 -0.012840579463497556 0 -0.030190488729389814 -0.013019780692972499 0 -0.029903428197675129 -0.013001266044537874 0 -0.030190488729389814 -0.013019780692972499 0 -0.029853576014017526 -0.013204323453090245 0 -0.027081748584208337 -0.015802857559252956 0 -0.02727372525617467 -0.01641375334097574 0 -0.029744486971482711 -0.013014615102845135 0 -0.029903428197675129 -0.013001266044537874 0 -0.029813767065976337 -0.012842610244552216 0 -0.029903428197675129 -0.013001266044537874 0 -0.029971746789596323 -0.012840579463497556 0 -0.029813767065976337 -0.012842610244552216 0 -0.029971746789596323 -0.012840579463497556 0 -0.029813767065976337 -0.012842610244552216 0 -0.029844274762792722 -0.01266606431361714 0 -0.029643224105905815 -0.012674140446388277 0 -0.029813767065976337 -0.012842610244552216 0 -0.029844274762792722 -0.01266606431361714 0 -0.029844274762792722 -0.01266606431361714 0 -0.029735120296062394 -0.012475535916510832 0 -0.030140306830531878 -0.012539000423715132 0 -0.029704259895974028 -0.01217477465638229 0 -0.029735120296062394 -0.012475535916510832 0 -0.030140306830531878 -0.012539000423715132 0 -0.028456329877408926 -0.0094618557597716257 0 -0.030179678459568909 -0.010382798301143734 0 -0.029643224105905815 -0.012674140446388277 0 -0.029844274762792722 -0.01266606431361714 0 -0.029735120296062394 -0.012475535916510832 0 -0.029971746789596323 -0.012840579463497556 0 -0.029844274762792722 -0.01266606431361714 0 -0.030140306830531878 -0.012539000423715132 0 -0.030805393261094417 -0.0089361200355093668 0 -0.030705969133286371 -0.008315196328500165 0 -0.029740067894048421 -0.0082399845519045816 0 -0.029166228758816113 -0.012495433342741885 0 -0.030179678459568909 -0.010382798301143734 0 -0.030705969133286371 -0.008315196328500165 0 -0.030480190122412487 -0.0073554655564034765 0 -0.029740067894048421 -0.0082399845519045816 0 -0.029166228758816113 -0.012495433342741885 0 -0.027081748584208337 -0.015802857559252956 0 -0.030526058169025597 -0.012832283429383712 0 -0.030140306830531878 -0.012539000423715132 0 -0.030190488729389814 -0.013019780692972499 0 -0.024881137238946499 -0.018503960112888775 0 -0.024889481607440235 -0.018179454161754025 0 -0.024691969857561332 -0.018292704896743481 0 -0.024881137238946499 -0.018503960112888775 0 -0.024691969857561332 -0.018292704896743481 0 -0.024651511189346231 -0.018667771649703093 0 -0.02727372525617467 -0.01641375334097574 0 -0.02498943561149148 -0.01934908124107225 0 -0.025665575758126898 -0.01952926223571385 0 -0.025650980505067891 -0.019475991937234573 0 -0.025539758082060712 -0.019477395634913363 0 -0.024691969857561332 -0.018292704896743481 0 -0.024503831228230088 -0.018393273985240481 0 -0.024651511189346231 -0.018667771649703093 0 -0.025665575758126898 -0.01952926223571385 0 -0.025650980505067891 -0.019475991937234573 0 -0.025736998188302069 -0.019493717276765153 0 -0.025650980505067891 -0.019475991937234573 0 -0.025539758082060712 -0.019477395634913363 0 -0.025584545114844447 -0.019402228397390475 0 -0.025650980505067891 -0.019475991937234573 0 -0.025584545114844447 -0.019402228397390475 0 -0.025696621874285189 -0.019424108379733566 0 -0.024965076809716397 -0.018764228952334649 0 -0.024651511189346231 -0.018667771649703093 0 -0.02481044599042672 -0.018936242061620492 0 -0.02498943561149148 -0.01934908124107225 0 -0.025071214073435787 -0.019113723681538044 0 -0.025539758082060712 -0.019477395634913363 0 -0.025352081095746808 -0.019397460244705685 0 -0.025584545114844447 -0.019402228397390475 0 -0.025352081095746808 -0.019397460244705685 0 -0.025508826309265736 -0.01931810429732261 0 -0.025584545114844447 -0.019402228397390475 0 -0.025584545114844447 -0.019402228397390475 0 -0.025671430357799854 -0.019304466339443823 0 -0.025696621874285189 -0.019424108379733566 0 -0.025508826309265736 -0.01931810429732261 0 -0.025584545114844447 -0.019402228397390475 0 -0.025671430357799854 -0.019304466339443823 0 -0.026573137908858322 -0.019684441085442501 0 -0.026329308801374244 -0.019099593833981406 0 -0.025406784169266162 -0.019169297965112696 0 -0.025508826309265736 -0.01931810429732261 0 -0.025671430357799854 -0.019304466339443823 0 -0.025406784169266162 -0.019169297965112696 0 -0.027548127842541962 -0.018858692935780214 0 -0.024957595001724064 -0.019342243294829066 0 -0.026640378073850057 -0.01999700655750072 0 -0.026573137908858322 -0.019684441085442501 0 -0.025406784169266162 -0.019169297965112696 0 -0.027548127842541962 -0.018858692935780214 0 -0.027328190594405603 -0.019456848474256806 0 -0.026660766739647731 -0.020044544449108099 0 -0.026573137908858322 -0.019684441085442501 0 -0.02689534506900592 -0.019705812306340248 0 -0.026573137908858322 -0.019684441085442501 0 -0.026329308801374244 -0.019099593833981406 0 -0.02689534506900592 -0.019705812306340248 0 -0.025352081095746808 -0.019397460244705685 0 -0.025508826309265736 -0.01931810429732261 0 -0.025406784169266162 -0.019169297965112696 0 -0.034166049561274281 -0.018936491545012393 0 -0.035150467385954759 -0.019420802864632589 0 -0.030869677406876479 -0.020685064785744247 0 -0.030915117098814754 -0.020766857705981752 0 -0.03088226740834963 -0.020813856200332301 0 -0.037508344636896812 -0.017106871026137331 0 -0.037108843705845905 -0.01727894471089363 0 -0.037456949267674435 -0.017630371012413867 0 -0.030869677406876479 -0.020685064785744247 0 -0.030935947353661633 -0.020707101085365099 0 -0.030973409369907699 -0.020654286438546735 0 -0.030869677406876479 -0.020685064785744247 0 -0.030935947353661633 -0.020707101085365099 0 -0.030915117098814754 -0.020766857705981752 0 -0.027900874733682166 -0.020684854733470818 0 -0.029783925409956374 -0.021057729610519584 0 -0.026329308801374244 -0.019099593833981406 0 -0.02689534506900592 -0.019705812306340248 0 -0.027437831304242859 -0.019693481504283798 0 -0.029768502283252177 -0.022370598645804329 0 -0.030648426300908974 -0.022894117050194333 0 -0.030197116599942422 -0.022169581173603299 0 -0.030935947353661633 -0.020707101085365099 0 -0.030915117098814754 -0.020766857705981752 0 -0.030981803580758183 -0.020701300919383502 0 -0.02689534506900592 -0.019705812306340248 0 -0.02707405690347019 -0.019899980636108143 0 -0.027437831304242859 -0.019693481504283798 0 -0.026660766739647731 -0.020044544449108099 0 -0.02689534506900592 -0.019705812306340248 0 -0.02707405690347019 -0.019899980636108143 0 -0.030935947353661633 -0.020707101085365099 0 -0.030981803580758183 -0.020701300919383502 0 -0.030973409369907699 -0.020654286438546735 0 -0.02707405690347019 -0.019899980636108143 0 -0.027437831304242859 -0.019693481504283798 0 -0.027301499696800458 -0.020156331316451677 0 -0.029783925409956374 -0.021057729610519584 0 -0.030005089746208531 -0.021107534617474819 0 -0.031020998058306298 -0.020686940227844532 0 -0.030973409369907699 -0.020654286438546735 0 -0.030994445334537331 -0.020356340553573739 0 -0.027548127842541962 -0.018858692935780214 0 -0.028350559387343516 -0.018663813904581137 0 -0.031062982492314754 -0.017808089406008067 0 -0.030618475250918452 -0.017509356824137547 0 -0.030972822154644614 -0.017239747274062366 0 -0.029783925409956374 -0.021057729610519584 0 -0.030858951664364684 -0.018725608502974372 0 -0.027437831304242859 -0.019693481504283798 0 -0.027301499696800458 -0.020156331316451677 0 -0.0276241354597733 -0.020610078288370123 0 -0.026660766739647731 -0.020044544449108099 0 -0.02707405690347019 -0.019899980636108143 0 -0.027301499696800458 -0.020156331316451677 0 -0.026660766739647731 -0.020044544449108099 0 -0.027301499696800458 -0.020156331316451677 0 -0.0276241354597733 -0.020610078288370123 0 -0.027548127842541962 -0.018858692935780214 0 -0.030858951664364684 -0.018725608502974372 0 -0.034166049561274281 -0.018936491545012393 0 -0.034148560734733983 -0.018034309378899677 0 -0.037551576866596964 -0.016580292390047744 0 -0.037137629058646038 -0.016300897341365857 0 -0.037044473505714971 -0.01684668756348278 0 -0.030869677406876479 -0.020685064785744247 0 -0.030994445334537331 -0.020356340553573739 0 -0.030899976045783793 -0.02028719199833625 0 -0.030858951664364684 -0.018725608502974372 0 -0.034148560734733983 -0.018034309378899677 0 -0.037508344636896812 -0.017106871026137331 0 -0.037551576866596964 -0.016580292390047744 0 -0.037044473505714971 -0.01684668756348278 0 -0.030869677406876479 -0.020685064785744247 0 -0.030973409369907699 -0.020654286438546735 0 -0.030994445334537331 -0.020356340553573739 0 -0.033754340737874082 -0.018431753680082461 0 -0.033152317844420999 -0.018055201959679645 0 -0.033377475881750697 -0.015993409155551874 0 -0.038811515271233561 -0.013475209486462733 0 -0.039427243117654796 -0.013531774447559762 0 -0.038503472618353032 -0.014018407793419905 0 -0.03597083084478632 -0.016231993882817403 0 -0.035974373159405507 -0.016249621280779999 0 -0.036179802210635735 -0.016148540016223557 0 -0.034148560734733983 -0.018034309378899677 0 -0.037787089338021718 -0.015162548628165321 0 -0.035983894089456958 -0.016046583214673827 0 -0.03597083084478632 -0.016231993882817403 0 -0.036179802210635735 -0.016148540016223557 0 -0.034148560734733983 -0.018034309378899677 0 -0.035283461737195487 -0.015617182177108561 0 -0.036433876314665527 -0.014995427734715487 0 -0.037787089338021718 -0.015162548628165321 0 -0.030858951664364684 -0.018725608502974372 0 -0.035283461737195487 -0.015617182177108561 0 -0.028350559387343516 -0.018663813904581137 0 -0.031215881636292842 -0.015383925134312221 0 -0.030618475250918452 -0.017509356824137547 0 -0.030538013608961176 -0.016879806651506731 0 -0.030972822154644614 -0.017239747274062366 0 -0.025650980505067891 -0.019475991937234573 0 -0.025696621874285189 -0.019424108379733566 0 -0.025736998188302069 -0.019493717276765153 0 -0.030538013608961176 -0.016879806651506731 0 -0.030972822154644614 -0.017239747274062366 0 -0.030872560270110507 -0.016649422868467424 0 -0.039540950589519959 -0.012524322572110436 0 -0.040004573966748155 -0.013283481474300717 0 -0.039327966528826711 -0.013638405966715663 0 -0.030538013608961176 -0.016879806651506731 0 -0.030872560270110507 -0.016649422868467424 0 -0.030531741909954235 -0.016829681782638339 0 -0.031215881636292842 -0.015383925134312221 0 -0.036433876314665527 -0.014995427734715487 0 -0.02727372525617467 -0.01641375334097574 0 -0.031215881636292842 -0.015383925134312221 0 -0.029733659319584882 -0.013059051172940485 0 -0.029905126391640828 -0.013252055700132688 0 -0.029583461538590691 -0.013410733375250491 0 -0.039540950589519959 -0.012524322572110436 0 -0.039427243117654796 -0.013531774447559762 0 -0.03912700665243353 -0.013031329012736495 0 -0.039671012801410728 -0.012047954137129287 0 -0.036433876314665527 -0.014995427734715487 0 -0.038811515271233561 -0.013475209486462733 0 -0.039196378572780063 -0.01338061465631773 0 -0.03912700665243353 -0.013031329012736495 0 -0.039196378572780063 -0.01338061465631773 0 -0.039427243117654796 -0.013531774447559762 0 -0.03912700665243353 -0.013031329012736495 0 -0.038811515271233561 -0.013475209486462733 0 -0.039196378572780063 -0.01338061465631773 0 -0.039427243117654796 -0.013531774447559762 0 -0.035283461737195487 -0.015617182177108561 0 -0.036433876314665527 -0.014995427734715487 0 -0.038811515271233561 -0.013475209486462733 0 -0.03912700665243353 -0.013031329012736495 0 -0.038487559573613148 -0.01282102367056351 0 -0.038487559573613148 -0.01282102367056351 0 -0.038336497547360647 -0.013314457944256806 0 -0.037590503364306478 -0.012744253108358227 0 -0.038336497547360647 -0.013314457944256806 0 -0.037590503364306478 -0.012744253108358227 0 -0.038011006231334563 -0.013718071418131578 0 -0.038811515271233561 -0.013475209486462733 0 -0.038487559573613148 -0.01282102367056351 0 -0.038336497547360647 -0.013314457944256806 0 -0.037590503364306478 -0.012744253108358227 0 -0.037162417007934122 -0.013458646806111878 0 -0.038011006231334563 -0.013718071418131578 0 -0.037590503364306478 -0.012744253108358227 0 -0.037162417007934122 -0.013458646806111878 0 -0.036541700699559011 -0.01269365107150751 0 -0.037435423193836095 -0.014027238079609528 0 -0.038525899617331612 -0.01404179385192526 0 -0.037212834373373534 -0.01472912354939645 0 -0.037435423193836095 -0.014027238079609528 0 -0.037212834373373534 -0.01472912354939645 0 -0.036200627318665551 -0.014047343872857094 0 -0.037162417007934122 -0.013458646806111878 0 -0.037435423193836095 -0.014027238079609528 0 -0.038011006231334563 -0.013718071418131578 0 -0.037787089338021718 -0.015162548628165321 0 -0.036869383255770889 -0.0156459533892606 0 -0.037435423193836095 -0.014027238079609528 0 -0.038525899617331612 -0.01404179385192526 0 -0.038011006231334563 -0.013718071418131578 0 -0.038811515271233561 -0.013475209486462733 0 -0.038336497547360647 -0.013314457944256806 0 -0.038503472618353032 -0.014018407793419905 0 -0.038336497547360647 -0.013314457944256806 0 -0.038503472618353032 -0.014018407793419905 0 -0.038011006231334563 -0.013718071418131578 0 -0.037787089338021718 -0.015162548628165321 0 -0.037883980397402088 -0.014215789711290784 0 -0.037137629058646038 -0.016300897341365857 0 -0.037044473505714971 -0.01684668756348278 0 -0.036499746201479964 -0.01659080756276313 0 -0.037044473505714971 -0.01684668756348278 0 -0.036499746201479964 -0.01659080756276313 0 -0.036672269422767252 -0.01717918782443802 0 -0.036499746201479964 -0.01659080756276313 0 -0.036672269422767252 -0.01717918782443802 0 -0.036198577656424744 -0.01715914343016315 0 -0.036672269422767252 -0.01717918782443802 0 -0.037108843705845905 -0.01727894471089363 0 -0.036825390087804874 -0.017638289954231889 0 -0.037044473505714971 -0.01684668756348278 0 -0.036672269422767252 -0.01717918782443802 0 -0.037108843705845905 -0.01727894471089363 0 -0.037508344636896812 -0.017106871026137331 0 -0.037044473505714971 -0.01684668756348278 0 -0.037108843705845905 -0.01727894471089363 0 -0.034999753294958851 -0.016846195737776386 0 -0.035641773194309785 -0.01711994452523324 0 -0.035000193076666568 -0.018005750821116093 0 -0.035632662858584775 -0.017023795603113092 0 -0.035763790095486116 -0.016239017092204936 0 -0.034999753294958851 -0.016846195737776386 0 -0.035641773194309785 -0.01711994452523324 0 -0.035773531854403982 -0.016549446843471042 0 -0.035000232719744492 -0.016845271220285257 0 -0.035763790095486116 -0.016239017092204936 0 -0.036672269422767252 -0.01717918782443802 0 -0.036198577656424744 -0.01715914343016315 0 -0.03615564174807883 -0.017725219584284566 0 -0.035641773194309785 -0.01711994452523324 0 -0.036198577656424744 -0.01715914343016315 0 -0.03615564174807883 -0.017725219584284566 0 -0.035641773194309785 -0.01711994452523324 0 -0.036198577656424744 -0.01715914343016315 0 -0.035746315929255076 -0.016868091945576938 0 -0.036499746201479964 -0.01659080756276313 0 -0.036198577656424744 -0.01715914343016315 0 -0.035746315929255076 -0.016868091945576938 0 -0.036869383255770889 -0.0156459533892606 0 -0.035763790095486116 -0.016239017092204936 0 -0.037212834373373534 -0.01472912354939645 0 -0.035876111231217762 -0.015427244483898379 0 -0.036200627318665551 -0.014047343872857094 0 -0.035763790095486116 -0.016239017092204936 0 -0.036262499259875229 -0.014322908600799619 0 -0.035909118564199059 -0.016375489638670384 0 -0.034999993811492436 -0.014920069320153625 0 -0.036283383370727104 -0.014733973306828695 0 -0.034999997489328846 -0.016845401679013276 0 -0.035909118564199059 -0.016375489638670384 0 -0.034999993811492436 -0.014920069320153625 0 -0.034999993811492436 -0.014920069320153625 0 -0.036283383370727104 -0.014733973306828695 0 -0.035740789765710393 -0.013877106964328279 0 -0.037162417007934122 -0.013458646806111878 0 -0.037435423193836095 -0.014027238079609528 0 -0.036200627318665551 -0.014047343872857094 0 -0.036262499259875229 -0.014322908600799619 0 -0.036580377091744852 -0.012882927450301654 0 -0.036283383370727104 -0.014733973306828695 0 -0.035740789765710393 -0.013877106964328279 0 -0.036630021892667786 -0.01307100944834713 0 -0.037162417007934122 -0.013458646806111878 0 -0.036200627318665551 -0.014047343872857094 0 -0.036541700699559011 -0.01269365107150751 0 -0.034999993811492436 -0.014920069320153625 0 -0.035740789765710393 -0.013877106964328279 0 -0.034999950735921499 -0.012994693952091145 0 -0.035740789765710393 -0.013877106964328279 0 -0.034999950735921499 -0.012994693952091145 0 -0.036630021892667786 -0.01307100944834713 0 -0.034999950735921499 -0.012994693952091145 0 -0.035873327477728874 -0.011952213527285283 0 -0.036630021892667786 -0.01307100944834713 0 -0.035873327477728874 -0.011952213527285283 0 -0.034999950749984167 -0.011069306079296874 0 -0.036125068465760642 -0.010348199606604618 0 -0.034999950735921499 -0.012994693952091145 0 -0.035873327477728874 -0.011952213527285283 0 -0.034999950749984167 -0.011069306079296874 0 -0.035873327477728874 -0.011952213527285283 0 -0.036891028072158522 -0.011376204318862762 0 -0.036125068465760642 -0.010348199606604618 0 -0.035873327477728874 -0.011952213527285283 0 -0.036891028072158522 -0.011376204318862762 0 -0.036630021892667786 -0.01307100944834713 0 -0.03687666697738632 -0.011481271933683378 0 -0.036580377091744852 -0.012882927450301654 0 -0.037590503364306478 -0.012744253108358227 0 -0.036891028072158522 -0.011376204318862762 0 -0.036541700699559011 -0.01269365107150751 0 -0.037590503364306478 -0.012744253108358227 0 -0.036891028072158522 -0.011376204318862762 0 -0.038025316107080091 -0.012073765720076903 0 -0.038914393426612084 -0.012086361049767224 0 -0.038025316107080091 -0.012073765720076903 0 -0.038253053789742655 -0.011355751392330301 0 -0.038487559573613148 -0.01282102367056351 0 -0.037590503364306478 -0.012744253108358227 0 -0.038025316107080091 -0.012073765720076903 0 -0.038914393426612084 -0.012086361049767224 0 -0.038487559573613148 -0.01282102367056351 0 -0.038025316107080091 -0.012073765720076903 0 -0.038958269675174913 -0.011038806230883482 0 -0.038914393426612084 -0.012086361049767224 0 -0.038253053789742655 -0.011355751392330301 0 -0.038958269675174913 -0.011038806230883482 0 -0.038253053789742655 -0.011355751392330301 0 -0.038456798322197228 -0.010293386094062544 0 -0.036891028072158522 -0.011376204318862762 0 -0.038025316107080091 -0.012073765720076903 0 -0.038253053789742655 -0.011355751392330301 0 -0.036891028072158522 -0.011376204318862762 0 -0.038253053789742655 -0.011355751392330301 0 -0.037719344834252558 -0.010727115200906722 0 -0.036891028072158522 -0.011376204318862762 0 -0.037719344834252558 -0.010727115200906722 0 -0.037259688496033755 -0.0098703437983962278 0 -0.037719344834252558 -0.010727115200906722 0 -0.038456798322197228 -0.010293386094062544 0 -0.037259688496033755 -0.0098703437983962278 0 -0.038253053789742655 -0.011355751392330301 0 -0.037719344834252558 -0.010727115200906722 0 -0.038456798322197228 -0.010293386094062544 0 -0.038456798322197228 -0.010293386094062544 0 -0.038469204191788411 -0.0091344034734223249 0 -0.037259688496033755 -0.0098703437983962278 0 -0.037471436155091624 -0.0083160322398674359 0 -0.038469204191788411 -0.0091344034734223249 0 -0.037259688496033755 -0.0098703437983962278 0 -0.037471436155091624 -0.0083160322398674359 0 -0.037259688496033755 -0.0098703437983962278 0 -0.036350194927639481 -0.008856199029104405 0 -0.037259688496033755 -0.0098703437983962278 0 -0.036350194927639481 -0.008856199029104405 0 -0.036125068465760642 -0.010348199606604618 0 -0.036350194927639481 -0.008856199029104405 0 -0.034999974021125743 -0.0091443427872364199 0 -0.036125068465760642 -0.010348199606604618 0 -0.034999950749984167 -0.011069306079296874 0 -0.034999974021125743 -0.0091443427872364199 0 -0.036125068465760642 -0.010348199606604618 0 -0.036891028072158522 -0.011376204318862762 0 -0.037259688496033755 -0.0098703437983962278 0 -0.036125068465760642 -0.010348199606604618 0 -0.036521069536644628 -0.02415938708943478 0 -0.036057593940366381 -0.025189502789143843 0 -0.035935011461231341 -0.023793906457472893 0 -0.037070301430707081 -0.024521622390388537 0 -0.036039820132662131 -0.025255427108123438 0 -0.037184857515354781 -0.025740544788498541 0 -0.036744082359909259 -0.024286261705433472 0 -0.036076564726334817 -0.025213159403528498 0 -0.037107837866465522 -0.024419275161669168 0 -0.036521069536644628 -0.02415938708943478 0 -0.036057593940366381 -0.025189502789143843 0 -0.034999974175448791 -0.024290716882259901 0 -0.036057593940366381 -0.025189502789143843 0 -0.035935011461231341 -0.023793906457472893 0 -0.034999974175448791 -0.024290716882259901 0 -0.036057593940366381 -0.025189502789143843 0 -0.034999999442605609 -0.025970071944243001 0 -0.036039820132662131 -0.025255427108123438 0 -0.034999999689382263 -0.025970227496603937 0 -0.036338310292947734 -0.026266845023023729 0 -0.036076564726334817 -0.025213159403528498 0 -0.03500024466613115 -0.025969913711302407 0 -0.036039820132662131 -0.025255427108123438 0 -0.037184857515354781 -0.025740544788498541 0 -0.036338310292947734 -0.026266845023023729 0 -0.036218164199803983 -0.024486798859336738 0 -0.036448589830967368 -0.024099424926873277 0 -0.03624723734707018 -0.023723654360309536 0 -0.03602914026698803 -0.024132116267852364 0 -0.036218164199803983 -0.024486798859336738 0 -0.036218986343491563 -0.025021217920602485 0 -0.03602914026698803 -0.024132116267852364 0 -0.036218164199803983 -0.024486798859336738 0 -0.03623977712301174 -0.023736588356481517 0 -0.036407936394994365 -0.026130503806208395 0 -0.035419917307949911 -0.026601252198166656 0 -0.03704709591474678 -0.028928815153674563 0 -0.036055665145935098 -0.024278940502308617 0 -0.035068982892032231 -0.031760160639364682 0 -0.035184502638458966 -0.02379871360737721 0 -0.036407936394994365 -0.026130503806208395 0 -0.035419917307949911 -0.026601252198166656 0 -0.036223228992352377 -0.024390268332226683 0 -0.036251913536823423 -0.023724059015421104 0 -0.036218164199803983 -0.024486798859336738 0 -0.036721159402317884 -0.024215669649600705 0 -0.036218986343491563 -0.025021217920602485 0 -0.036721159402317884 -0.024215669649600705 0 -0.037495752752171131 -0.024375883401105962 0 -0.036218986343491563 -0.025021217920602485 0 -0.036218164199803983 -0.024486798859336738 0 -0.036448589830967368 -0.024099424926873277 0 -0.036721159402317884 -0.024215669649600705 0 -0.036448589830967368 -0.024099424926873277 0 -0.036721159402317884 -0.024215669649600705 0 -0.036645047749167922 -0.02375719759866023 0 -0.036747272542723704 -0.023382487047067916 0 -0.03624723734707018 -0.023723654360309536 0 -0.036256598675504452 -0.022992127764780913 0 -0.036721159402317884 -0.024215669649600705 0 -0.036645047749167922 -0.02375719759866023 0 -0.037233931839192443 -0.023669911131741193 0 -0.036645047749167922 -0.02375719759866023 0 -0.036747272542723704 -0.023382487047067916 0 -0.037233931839192443 -0.023669911131741193 0 -0.036448589830967368 -0.024099424926873277 0 -0.036645047749167922 -0.02375719759866023 0 -0.03624723734707018 -0.023723654360309536 0 -0.036645047749167922 -0.02375719759866023 0 -0.036747272542723704 -0.023382487047067916 0 -0.03624723734707018 -0.023723654360309536 0 -0.036747272542723704 -0.023382487047067916 0 -0.037206073786027596 -0.022997498684820122 0 -0.037233931839192443 -0.023669911131741193 0 -0.03623977712301174 -0.023736588356481517 0 -0.03585238434226215 -0.023310905867334607 0 -0.036262034267613159 -0.023021082079774099 0 -0.036251913536823423 -0.023724059015421104 0 -0.036558123377806395 -0.023164996056725635 0 -0.035184502638458966 -0.02379871360737721 0 -0.036407936394994365 -0.026130503806208395 0 -0.035782228385413603 -0.023373301989462549 0 -0.036744082359909259 -0.024286261705433472 0 -0.036286636968486989 -0.026052841116366215 0 -0.03602914026698803 -0.024132116267852364 0 -0.03623977712301174 -0.023736588356481517 0 -0.03585238434226215 -0.023310905867334607 0 -0.036055665145935098 -0.024278940502308617 0 -0.036639669736430056 -0.023849179828885146 0 -0.036744082359909259 -0.024286261705433472 0 -0.036639669736430056 -0.023849179828885146 0 -0.037039577602572801 -0.024230919399382208 0 -0.037273726477205983 -0.024064285315701397 0 -0.036924484385946435 -0.022891269815041321 0 -0.036639669736430056 -0.023849179828885146 0 -0.037104530328835442 -0.022980091754086305 0 -0.03725781661752442 -0.023999749834190197 0 -0.037777820592082283 -0.02363121265097632 0 -0.036980125024633083 -0.022783925221979997 0 -0.036639669736430056 -0.023849179828885146 0 -0.036558123377806395 -0.023164996056725635 0 -0.036747272542723704 -0.023382487047067916 0 -0.036755195090504095 -0.022620218509018949 0 -0.037206073786027596 -0.022997498684820122 0 -0.03611611014901063 -0.023091932330851456 0 -0.036755195090504095 -0.022620218509018949 0 -0.036702748884992649 -0.022030910037148476 0 -0.036747272542723704 -0.023382487047067916 0 -0.036256598675504452 -0.022992127764780913 0 -0.036755195090504095 -0.022620218509018949 0 -0.036558123377806395 -0.023164996056725635 0 -0.036648732178000694 -0.0227825491990374 0 -0.036755195090504095 -0.022620218509018949 0 -0.037251611556764208 -0.022248116523671455 0 -0.037206073786027596 -0.022997498684820122 0 -0.03611611014901063 -0.023091932330851456 0 -0.036702748884992649 -0.022030910037148476 0 -0.036140572194085202 -0.02156908186997411 0 -0.036702748884992649 -0.022030910037148476 0 -0.036140572194085202 -0.02156908186997411 0 -0.037360878322571747 -0.02135780920598904 0 -0.037090120949063679 -0.021812798002246791 0 -0.037088000717926013 -0.021382179902360052 0 -0.036755195090504095 -0.022620218509018949 0 -0.036702748884992649 -0.022030910037148476 0 -0.037251611556764208 -0.022248116523671455 0 -0.036702748884992649 -0.022030910037148476 0 -0.037360878322571747 -0.02135780920598904 0 -0.037251611556764208 -0.022248116523671455 0 -0.037777820592082283 -0.02363121265097632 0 -0.037835426348825793 -0.022194629470810086 0 -0.036980125024633083 -0.022783925221979997 0 -0.037835426348825793 -0.022194629470810086 0 -0.036511535303884249 -0.022395468024502239 0 -0.036980125024633083 -0.022783925221979997 0 -0.036558123377806395 -0.023164996056725635 0 -0.037090120949063679 -0.021812798002246791 0 -0.037216051396161069 -0.021669038708476366 0 -0.036174413120239182 -0.022019482110462677 0 -0.036539394910399127 -0.021116568440839215 0 -0.037090120949063679 -0.021812798002246791 0 -0.036397263260343954 -0.022224682735933518 0 -0.036511535303884249 -0.022395468024502239 0 -0.036656236968837123 -0.022832600687747982 0 -0.036253532655670315 -0.023040721160015796 0 -0.036656236968837123 -0.022832600687747982 0 -0.036595681754194608 -0.023056391300375335 0 -0.036253532655670315 -0.023040721160015796 0 -0.036511535303884249 -0.022395468024502239 0 -0.036656236968837123 -0.022832600687747982 0 -0.036980125024633083 -0.022783925221979997 0 -0.036656236968837123 -0.022832600687747982 0 -0.036924484385946435 -0.022891269815041321 0 -0.036595681754194608 -0.023056391300375335 0 -0.036656236968837123 -0.022832600687747982 0 -0.036980125024633083 -0.022783925221979997 0 -0.036924484385946435 -0.022891269815041321 0 -0.037107837866465522 -0.024419275161669168 0 -0.036924484385946435 -0.022891269815041321 0 -0.036607949542353829 -0.023548889871223215 0 -0.037273726477205983 -0.024064285315701397 0 -0.036980125024633083 -0.022783925221979997 0 -0.036924484385946435 -0.022891269815041321 0 -0.036924484385946435 -0.022891269815041321 0 -0.036595681754194608 -0.023056391300375335 0 -0.036607949542353829 -0.023548889871223215 0 -0.036744082359909259 -0.024286261705433472 0 -0.036989340506266344 -0.023018775725768863 0 -0.036595681754194608 -0.023056391300375335 0 -0.036253532655670315 -0.023040721160015796 0 -0.036607949542353829 -0.023548889871223215 0 -0.036253532655670315 -0.023040721160015796 0 -0.036607949542353829 -0.023548889871223215 0 -0.035935011461231341 -0.023793906457472893 0 -0.036521069536644628 -0.02415938708943478 0 -0.036607949542353829 -0.023548889871223215 0 -0.035935011461231341 -0.023793906457472893 0 -0.037107837866465522 -0.024419275161669168 0 -0.036521069536644628 -0.02415938708943478 0 -0.036607949542353829 -0.023548889871223215 0 -0.036253532655670315 -0.023040721160015796 0 -0.035935011461231341 -0.023793906457472893 0 -0.035000012960528959 -0.022611477684403605 0 -0.034999974175448791 -0.024290716882259901 0 -0.035935011461231341 -0.023793906457472893 0 -0.035000012960528959 -0.022611477684403605 0 -0.036174413120239182 -0.022019482110462677 0 -0.034999941463180022 -0.02261081143465914 0 -0.035826908467023535 -0.021245178926593423 0 -0.036511535303884249 -0.022395468024502239 0 -0.036253532655670315 -0.023040721160015796 0 -0.035000012960528959 -0.022611477684403605 0 -0.036397263260343954 -0.022224682735933518 0 -0.035000121320683149 -0.022611302970123617 0 -0.034999846739886153 -0.021076419054772786 0 -0.035826908467023535 -0.021245178926593423 0 -0.036070149318791066 -0.020296044016339561 0 -0.034999941463180022 -0.02261081143465914 0 -0.034999846739886153 -0.021076419054772786 0 -0.035826908467023535 -0.021245178926593423 0 -0.036174413120239182 -0.022019482110462677 0 -0.035826908467023535 -0.021245178926593423 0 -0.036539394910399127 -0.021116568440839215 0 -0.035826908467023535 -0.021245178926593423 0 -0.036539394910399127 -0.021116568440839215 0 -0.036070149318791066 -0.020296044016339561 0 -0.034999846739886153 -0.021076419054772786 0 -0.036070149318791066 -0.020296044016339561 0 -0.034999860215357025 -0.019541514530145847 0 -0.034999860215357025 -0.019541514530145847 0 -0.035851733830091895 -0.01925678827774073 0 -0.034999951443180639 -0.018007363515616895 0 -0.036070149318791066 -0.020296044016339561 0 -0.034999860215357025 -0.019541514530145847 0 -0.035851733830091895 -0.01925678827774073 0 -0.035851733830091895 -0.01925678827774073 0 -0.036217465796245948 -0.018568324300601367 0 -0.036632456519279391 -0.019474016282120782 0 -0.036070149318791066 -0.020296044016339561 0 -0.035851733830091895 -0.01925678827774073 0 -0.036632456519279391 -0.019474016282120782 0 -0.036020929319767608 -0.01815330165470308 0 -0.035000265069257498 -0.018006554312823757 0 -0.035641773194309785 -0.01711994452523324 0 -0.03615564174807883 -0.017725219584284566 0 -0.035000193076666568 -0.018005750821116093 0 -0.035851733830091895 -0.01925678827774073 0 -0.036217465796245948 -0.018568324300601367 0 -0.034999951443180639 -0.018007363515616895 0 -0.037508791006333163 -0.018144678358527202 0 -0.035150467385954759 -0.019420802864632589 0 -0.037133009306099737 -0.018868689461993302 0 -0.037944183511156242 -0.018976287568245074 0 -0.037860006027623232 -0.019013294343716888 0 -0.037133009306099737 -0.018868689461993302 0 -0.037617299792899218 -0.01929150168818081 0 -0.037860006027623232 -0.019013294343716888 0 -0.037108843705845905 -0.01727894471089363 0 -0.036825390087804874 -0.017638289954231889 0 -0.037456949267674435 -0.017630371012413867 0 -0.036020929319767608 -0.01815330165470308 0 -0.037508791006333163 -0.018144678358527202 0 -0.036217465796245948 -0.018568324300601367 0 -0.037133009306099737 -0.018868689461993302 0 -0.036632456519279391 -0.019474016282120782 0 -0.036672269422767252 -0.01717918782443802 0 -0.03615564174807883 -0.017725219584284566 0 -0.036825390087804874 -0.017638289954231889 0 -0.036632456519279391 -0.019474016282120782 0 -0.037269790007266934 -0.019589935067520058 0 -0.037040474029427596 -0.020382231290941886 0 -0.037133009306099737 -0.018868689461993302 0 -0.036632456519279391 -0.019474016282120782 0 -0.037269790007266934 -0.019589935067520058 0 -0.037133009306099737 -0.018868689461993302 0 -0.037269790007266934 -0.019589935067520058 0 -0.037617299792899218 -0.01929150168818081 0 -0.037269790007266934 -0.019589935067520058 0 -0.037617299792899218 -0.01929150168818081 0 -0.037603424875078208 -0.019590849507312814 0 -0.037269790007266934 -0.019589935067520058 0 -0.037603424875078208 -0.019590849507312814 0 -0.037670979608386002 -0.02003094420085845 0 -0.037269790007266934 -0.019589935067520058 0 -0.037040474029427596 -0.020382231290941886 0 -0.037670979608386002 -0.02003094420085845 0 -0.037040474029427596 -0.020382231290941886 0 -0.037610947840281579 -0.020700347458370589 0 -0.037670979608386002 -0.02003094420085845 0 -0.036070149318791066 -0.020296044016339561 0 -0.036632456519279391 -0.019474016282120782 0 -0.037040474029427596 -0.020382231290941886 0 -0.036539394910399127 -0.021116568440839215 0 -0.036070149318791066 -0.020296044016339561 0 -0.037040474029427596 -0.020382231290941886 0 -0.037216051396161069 -0.021669038708476366 0 -0.036539394910399127 -0.021116568440839215 0 -0.037040474029427596 -0.020382231290941886 0 -0.037090120949063679 -0.021812798002246791 0 -0.037027988556138994 -0.020363138813099126 0 -0.036826888151120972 -0.021396415740047203 0 -0.037040474029427596 -0.020382231290941886 0 -0.037360878322571747 -0.02135780920598904 0 -0.037040474029427596 -0.020382231290941886 0 -0.037360878322571747 -0.02135780920598904 0 -0.037610947840281579 -0.020700347458370589 0 -0.037610947840281579 -0.020700347458370589 0 -0.038151976086067629 -0.020335707260180538 0 -0.038316506727205685 -0.02159008993026322 0 -0.037360878322571747 -0.02135780920598904 0 -0.037610947840281579 -0.020700347458370589 0 -0.038316506727205685 -0.02159008993026322 0 -0.034400664152002713 -0.020402557591456094 0 -0.034373830345795206 -0.019826054846407259 0 -0.030374978035810039 -0.020273667785242783 0 -0.030949722673644632 -0.020241338735502303 0 -0.030688705029118721 -0.019001481564381438 0 -0.030374978035810039 -0.020273667785242783 0 -0.02989102135564391 -0.019779703804650828 0 -0.030688705029118721 -0.019001481564381438 0 -0.030374978035810039 -0.020273667785242783 0 -0.030949722673644632 -0.020241338735502303 0 -0.030847336453000647 -0.020599531536104398 0 -0.037610947840281579 -0.020700347458370589 0 -0.038151976086067629 -0.020335707260180538 0 -0.037670979608386002 -0.02003094420085845 0 -0.038151976086067629 -0.020335707260180538 0 -0.037918166825824391 -0.019439196241349828 0 -0.037950083191718831 -0.019236491924550694 0 -0.037603424875078208 -0.019590849507312814 0 -0.037670979608386002 -0.02003094420085845 0 -0.037918166825824391 -0.019439196241349828 0 -0.034400664152002713 -0.020402557591456094 0 -0.035951888183858624 -0.019663350403857874 0 -0.038151976086067629 -0.020335707260180538 0 -0.037670979608386002 -0.02003094420085845 0 -0.037918166825824391 -0.019439196241349828 0 -0.030949722673644632 -0.020241338735502303 0 -0.030847336453000647 -0.020599531536104398 0 -0.031031667593978789 -0.020794010374306136 0 -0.037617299792899218 -0.01929150168818081 0 -0.037918166825824391 -0.019439196241349828 0 -0.037932706071549041 -0.019251134750855315 0 -0.037617299792899218 -0.01929150168818081 0 -0.037603424875078208 -0.019590849507312814 0 -0.037918166825824391 -0.019439196241349828 0 -0.03634617688625319 -0.019438270014733736 0 -0.035951888183858624 -0.019663350403857874 0 -0.030847336453000647 -0.020599531536104398 0 -0.031031667593978789 -0.020794010374306136 0 -0.030898265543934787 -0.020778694374729106 0 -0.030364078180275235 -0.02022720832300778 0 -0.030773056283273141 -0.021399129110192681 0 -0.030374978035810039 -0.020273667785242783 0 -0.030847336453000647 -0.020599531536104398 0 -0.030814132873285081 -0.02082936791786336 0 -0.030374978035810039 -0.020273667785242783 0 -0.030483144360353556 -0.021678236465212192 0 -0.030108658921783455 -0.021167953428206761 0 -0.030483144360353556 -0.021678236465212192 0 -0.029873828144217018 -0.021719010811793393 0 -0.030108658921783455 -0.021167953428206761 0 -0.030847336453000647 -0.020599531536104398 0 -0.030814132873285081 -0.02082936791786336 0 -0.030898265543934787 -0.020778694374729106 0 -0.030814132873285081 -0.02082936791786336 0 -0.030896534395182477 -0.020810413041269259 0 -0.030898265543934787 -0.020778694374729106 0 -0.030648426300908974 -0.022894117050194333 0 -0.030483144360353556 -0.021678236465212192 0 -0.030197116599942422 -0.022169581173603299 0 -0.030915117098814754 -0.020766857705981752 0 -0.030981803580758183 -0.020701300919383502 0 -0.030814132873285081 -0.02082936791786336 0 -0.029783925409956374 -0.021057729610519584 0 -0.030773056283273141 -0.021399129110192681 0 -0.030483144360353556 -0.021678236465212192 0 -0.030197116599942422 -0.022169581173603299 0 -0.029873828144217018 -0.021719010811793393 0 -0.030915117098814754 -0.020766857705981752 0 -0.030814132873285081 -0.02082936791786336 0 -0.030896534395182477 -0.020810413041269259 0 -0.030915117098814754 -0.020766857705981752 0 -0.030896534395182477 -0.020810413041269259 0 -0.03088226740834963 -0.020813856200332301 0 -0.031477032714452111 -0.019960402171858158 0 -0.035150467385954759 -0.019420802864632589 0 -0.036592214548173255 -0.019456398401251303 0 -0.035951888183858624 -0.019663350403857874 0 -0.037944183511156242 -0.018976287568245074 0 -0.037860006027623232 -0.019013294343716888 0 -0.037900874127458475 -0.019218056980743418 0 -0.037617299792899218 -0.01929150168818081 0 -0.037860006027623232 -0.019013294343716888 0 -0.037932706071549041 -0.019251134750855315 0 -0.03099712608101517 -0.020838957933732714 0 -0.031031667593978789 -0.020794010374306136 0 -0.030898265543934787 -0.020778694374729106 0 -0.030896534395182477 -0.020810413041269259 0 -0.03099712608101517 -0.020838957933732714 0 -0.030898265543934787 -0.020778694374729106 0 -0.035150467385954759 -0.019420802864632589 0 -0.035951888183858624 -0.019663350403857874 0 -0.026329308801374244 -0.019099593833981406 0 -0.025406784169266162 -0.019169297965112696 0 -0.025426856878943638 -0.018783309663488575 0 -0.027288943712351663 -0.020658600764038363 0 -0.029425433855659076 -0.021849857386203413 0 -0.02878224386986954 -0.021834852776696528 0 -0.029302086267051521 -0.021999329705831256 0 -0.029445272592296862 -0.02159175854088306 0 -0.025406784169266162 -0.019169297965112696 0 -0.025426856878943638 -0.018783309663488575 0 -0.025270761496565639 -0.018989173001318731 0 -0.027900874733682166 -0.020684854733470818 0 -0.027288943712351663 -0.020658600764038363 0 -0.029768502283252177 -0.022370598645804329 0 -0.028779935802582871 -0.021821001808235947 0 -0.029302086267051521 -0.021999329705831256 0 -0.029768502283252177 -0.022370598645804329 0 -0.029302086267051521 -0.021999329705831256 0 -0.029873828144217018 -0.021719010811793393 0 -0.029768502283252177 -0.022370598645804329 0 -0.030197116599942422 -0.022169581173603299 0 -0.029873828144217018 -0.021719010811793393 0 -0.029302086267051521 -0.021999329705831256 0 -0.029873828144217018 -0.021719010811793393 0 -0.029445272592296862 -0.02159175854088306 0 -0.029445272592296862 -0.02159175854088306 0 -0.029671694051930778 -0.021127737575543724 0 -0.029105729862441591 -0.021303695604223745 0 -0.029873828144217018 -0.021719010811793393 0 -0.029445272592296862 -0.02159175854088306 0 -0.029671694051930778 -0.021127737575543724 0 -0.029873828144217018 -0.021719010811793393 0 -0.030108658921783455 -0.021167953428206761 0 -0.029671694051930778 -0.021127737575543724 0 -0.030108658921783455 -0.021167953428206761 0 -0.029946676200841099 -0.020754433489133989 0 -0.029671694051930778 -0.021127737575543724 0 -0.029946676200841099 -0.020754433489133989 0 -0.029671694051930778 -0.021127737575543724 0 -0.029641008380324945 -0.020436348803095982 0 -0.029671694051930778 -0.021127737575543724 0 -0.029278150506912078 -0.020830621100346461 0 -0.029105729862441591 -0.021303695604223745 0 -0.029671694051930778 -0.021127737575543724 0 -0.029278150506912078 -0.020830621100346461 0 -0.029641008380324945 -0.020436348803095982 0 -0.029278150506912078 -0.020830621100346461 0 -0.029105729862441591 -0.021303695604223745 0 -0.028813588672763565 -0.020955253170941209 0 -0.02878224386986954 -0.021834852776696528 0 -0.029445272592296862 -0.02159175854088306 0 -0.029105729862441591 -0.021303695604223745 0 -0.029105729862441591 -0.021303695604223745 0 -0.028600570288865389 -0.02132273625013896 0 -0.028813588672763565 -0.020955253170941209 0 -0.02878224386986954 -0.021834852776696528 0 -0.029105729862441591 -0.021303695604223745 0 -0.028600570288865389 -0.02132273625013896 0 -0.028600570288865389 -0.02132273625013896 0 -0.028813588672763565 -0.020955253170941209 0 -0.028361243324182064 -0.021028415121311664 0 -0.028813588672763565 -0.020955253170941209 0 -0.028436328165808204 -0.020628418490469591 0 -0.028361243324182064 -0.021028415121311664 0 -0.028436328165808204 -0.020628418490469591 0 -0.028966477691394769 -0.02047734103546053 0 -0.028519602064367943 -0.020086761709372573 0 -0.028813588672763565 -0.020955253170941209 0 -0.028436328165808204 -0.020628418490469591 0 -0.028966477691394769 -0.02047734103546053 0 -0.029278150506912078 -0.020830621100346461 0 -0.028813588672763565 -0.020955253170941209 0 -0.028966477691394769 -0.02047734103546053 0 -0.028966477691394769 -0.02047734103546053 0 -0.02919839124062322 -0.019924996085202696 0 -0.029641008380324945 -0.020436348803095982 0 -0.028966477691394769 -0.02047734103546053 0 -0.02919839124062322 -0.019924996085202696 0 -0.028519602064367943 -0.020086761709372573 0 -0.030374978035810039 -0.020273667785242783 0 -0.030108658921783455 -0.021167953428206761 0 -0.029946676200841099 -0.020754433489133989 0 -0.030374978035810039 -0.020273667785242783 0 -0.029946676200841099 -0.020754433489133989 0 -0.029641008380324945 -0.020436348803095982 0 -0.029278150506912078 -0.020830621100346461 0 -0.028966477691394769 -0.02047734103546053 0 -0.029641008380324945 -0.020436348803095982 0 -0.02919839124062322 -0.019924996085202696 0 -0.029641008380324945 -0.020436348803095982 0 -0.02989102135564391 -0.019779703804650828 0 -0.030374978035810039 -0.020273667785242783 0 -0.029641008380324945 -0.020436348803095982 0 -0.02989102135564391 -0.019779703804650828 0 -0.02989102135564391 -0.019779703804650828 0 -0.029500969942936873 -0.019320029074388696 0 -0.030688705029118721 -0.019001481564381438 0 -0.02919839124062322 -0.019924996085202696 0 -0.02989102135564391 -0.019779703804650828 0 -0.029500969942936873 -0.019320029074388696 0 -0.02919839124062322 -0.019924996085202696 0 -0.028519602064367943 -0.020086761709372573 0 -0.028632042399096169 -0.019363651552199535 0 -0.02919839124062322 -0.019924996085202696 0 -0.029500969942936873 -0.019320029074388696 0 -0.028632042399096169 -0.019363651552199535 0 -0.029500969942936873 -0.019320029074388696 0 -0.028632042399096169 -0.019363651552199535 0 -0.02901330638640285 -0.018248443493052203 0 -0.034111740709965387 -0.029718046029252425 0 -0.032338677128593986 -0.02507253331166474 0 -0.036248465022836684 -0.025840224159852723 0 -0.034111740709965387 -0.029718046029252425 0 -0.032338677128593986 -0.02507253331166474 0 -0.030467617774339876 -0.028454015612342971 0 -0.034111740709965387 -0.029718046029252425 0 -0.038901655874051769 -0.027346484301896411 0 -0.036248465022836684 -0.025840224159852723 0 -0.031369336742161462 -0.024073446413218642 0 -0.035017307745452891 -0.022446410148271298 0 -0.02901330638640285 -0.018248443493052203 0 -0.030688705029118721 -0.019001481564381438 0 -0.030342471450154552 -0.017692230337437474 0 -0.029500969942936873 -0.019320029074388696 0 -0.02901330638640285 -0.018248443493052203 0 -0.030688705029118721 -0.019001481564381438 0 -0.038316506727205685 -0.02159008993026322 0 -0.037738403664248923 -0.022097437572231295 0 -0.037951067941796549 -0.022797184031847533 0 -0.034373830345795206 -0.019826054846407259 0 -0.035017307745452891 -0.022446410148271298 0 -0.037360878322571747 -0.02135780920598904 0 -0.038316506727205685 -0.02159008993026322 0 -0.037738403664248923 -0.022097437572231295 0 -0.037738403664248923 -0.022097437572231295 0 -0.037251611556764208 -0.022248116523671455 0 -0.037585927363719678 -0.022652339914802498 0 -0.037360878322571747 -0.02135780920598904 0 -0.037738403664248923 -0.022097437572231295 0 -0.037251611556764208 -0.022248116523671455 0 -0.037251611556764208 -0.022248116523671455 0 -0.037585927363719678 -0.022652339914802498 0 -0.037206073786027596 -0.022997498684820122 0 -0.037738403664248923 -0.022097437572231295 0 -0.037585927363719678 -0.022652339914802498 0 -0.037951067941796549 -0.022797184031847533 0 -0.037585927363719678 -0.022652339914802498 0 -0.037951067941796549 -0.022797184031847533 0 -0.037660865129859944 -0.023252516494936926 0 -0.037585927363719678 -0.022652339914802498 0 -0.037206073786027596 -0.022997498684820122 0 -0.037660865129859944 -0.023252516494936926 0 -0.038316506727205685 -0.02159008993026322 0 -0.037951067941796549 -0.022797184031847533 0 -0.03839465496175249 -0.023096223484567475 0 -0.037951067941796549 -0.022797184031847533 0 -0.037929871056901772 -0.023193620098998349 0 -0.037660865129859944 -0.023252516494936926 0 -0.037951067941796549 -0.022797184031847533 0 -0.037929871056901772 -0.023193620098998349 0 -0.03814867095196231 -0.023223406111195749 0 -0.037929871056901772 -0.023193620098998349 0 -0.03814867095196231 -0.023223406111195749 0 -0.038049168358870837 -0.023396427885790709 0 -0.03814867095196231 -0.023223406111195749 0 -0.038265701119744366 -0.023179724894295112 0 -0.038049168358870837 -0.023396427885790709 0 -0.037951067941796549 -0.022797184031847533 0 -0.03814867095196231 -0.023223406111195749 0 -0.03839465496175249 -0.023096223484567475 0 -0.03620934827378975 -0.022215085984914097 0 -0.035017307745452891 -0.022446410148271298 0 -0.038265701119744366 -0.023179724894295112 0 -0.037981262626457846 -0.02365651173213118 0 -0.037922233441585199 -0.023986502540554153 0 -0.035017307745452891 -0.022446410148271298 0 -0.038426397841954424 -0.025252944529583758 0 -0.038265701119744366 -0.023179724894295112 0 -0.037981262626457846 -0.02365651173213118 0 -0.038049168358870837 -0.023396427885790709 0 -0.037981262626457846 -0.02365651173213118 0 -0.038049168358870837 -0.023396427885790709 0 -0.037911621970240929 -0.023469243442404249 0 -0.037929871056901772 -0.023193620098998349 0 -0.037911621970240929 -0.023469243442404249 0 -0.037660865129859944 -0.023252516494936926 0 -0.037929871056901772 -0.023193620098998349 0 -0.038049168358870837 -0.023396427885790709 0 -0.037911621970240929 -0.023469243442404249 0 -0.037911621970240929 -0.023469243442404249 0 -0.037851525907399139 -0.023753801134598702 0 -0.037660865129859944 -0.023252516494936926 0 -0.037981262626457846 -0.02365651173213118 0 -0.037911621970240929 -0.023469243442404249 0 -0.037851525907399139 -0.023753801134598702 0 -0.037981262626457846 -0.02365651173213118 0 -0.037851525907399139 -0.023753801134598702 0 -0.037922233441585199 -0.023986502540554153 0 -0.037851525907399139 -0.023753801134598702 0 -0.037888244782988516 -0.023541819938759947 0 -0.037922233441585199 -0.023986502540554153 0 -0.037851525907399139 -0.023753801134598702 0 -0.037660865129859944 -0.023252516494936926 0 -0.037233931839192443 -0.023669911131741193 0 -0.037206073786027596 -0.022997498684820122 0 -0.037660865129859944 -0.023252516494936926 0 -0.037233931839192443 -0.023669911131741193 0 -0.037851525907399139 -0.023753801134598702 0 -0.037233931839192443 -0.023669911131741193 0 -0.037495752752171131 -0.024375883401105962 0 -0.036721159402317884 -0.024215669649600705 0 -0.037233931839192443 -0.023669911131741193 0 -0.037495752752171131 -0.024375883401105962 0 -0.037851525907399139 -0.023753801134598702 0 -0.037495752752171131 -0.024375883401105962 0 -0.037888244782988516 -0.023541819938759947 0 -0.034461953556020886 -0.032498384139131656 0 -0.033216099626087424 -0.032249975436529354 0 -0.031311081951468138 -0.040526371980373337 0 -0.028678995799940807 -0.040879959421085015 0 -0.029206186053820971 -0.038656775859796939 0 -0.028678995799940807 -0.040879959421085015 0 -0.026273698524061119 -0.041538592607971679 0 -0.026869618669115174 -0.039266318354492569 0 -0.033216099626087424 -0.032249975436529354 0 -0.029258660588500449 -0.033304791019410314 0 -0.037888244782988516 -0.023541819938759947 0 -0.032338677128593986 -0.02507253331166474 0 -0.036248465022836684 -0.025840224159852723 0 -0.038901655874051769 -0.027346484301896411 0 -0.036248465022836684 -0.025840224159852723 0 -0.037922233441585199 -0.023986502540554153 0 -0.037888244782988516 -0.023541819938759947 0 -0.036248465022836684 -0.025840224159852723 0 -0.037922233441585199 -0.023986502540554153 0 -0.026273698524061119 -0.041538592607971679 0 -0.023508139652881743 -0.039231456336917769 0 -0.026869618669115174 -0.039266318354492569 0 -0.026273698524061119 -0.041538592607971679 0 -0.023508139652881743 -0.039231456336917769 0 -0.02330540270554906 -0.042478463499618195 0 -0.029258660588500449 -0.033304791019410314 0 -0.025353639103673498 -0.03497284237685104 0 -0.023508139652881743 -0.039231456336917769 0 -0.020801690210598169 -0.039048620687896357 0 -0.021240836752932615 -0.040751067399334595 0 -0.023508139652881743 -0.039231456336917769 0 -0.020801690210598169 -0.039048620687896357 0 -0.021577011166118189 -0.03802201586894962 0 -0.01945644618765309 -0.039045564177232289 0 -0.018788329872667157 -0.038145052820742723 0 -0.019745536345450926 -0.038375425783288182 0 -0.020801690210598169 -0.039048620687896357 0 -0.01945644618765309 -0.039045564177232289 0 -0.019745536345450926 -0.038375425783288182 0 -0.020801690210598169 -0.039048620687896357 0 -0.01945644618765309 -0.039045564177232289 0 -0.019944399322027927 -0.039951856452855546 0 -0.020801690210598169 -0.039048620687896357 0 -0.019944399322027927 -0.039951856452855546 0 -0.021240836752932615 -0.040751067399334595 0 -0.01945644618765309 -0.039045564177232289 0 -0.019132983841134078 -0.039888414242066524 0 -0.018333015166168028 -0.038887574022594164 0 -0.01945644618765309 -0.039045564177232289 0 -0.019944399322027927 -0.039951856452855546 0 -0.019132983841134078 -0.039888414242066524 0 -0.019944399322027927 -0.039951856452855546 0 -0.019132983841134078 -0.039888414242066524 0 -0.019622151689901175 -0.040793271872933655 0 -0.01526178641202308 -0.034177055992681511 0 -0.015993212201915991 -0.035513932357360521 0 -0.016235817553120962 -0.036228962438977469 0 -0.020109569906178928 -0.041851827421337202 0 -0.020066361573326245 -0.043614545725954308 0 -0.018426083109896314 -0.040889046488250785 0 -0.019622151689901175 -0.040793271872933655 0 -0.020109569906178928 -0.041851827421337202 0 -0.018426083109896314 -0.040889046488250785 0 -0.019132983841134078 -0.039888414242066524 0 -0.019622151689901175 -0.040793271872933655 0 -0.018426083109896314 -0.040889046488250785 0 -0.019622151689901175 -0.040793271872933655 0 -0.020109569906178928 -0.041851827421337202 0 -0.021240836752932615 -0.040751067399334595 0 -0.019944399322027927 -0.039951856452855546 0 -0.019622151689901175 -0.040793271872933655 0 -0.021240836752932615 -0.040751067399334595 0 -0.020109569906178928 -0.041851827421337202 0 -0.021240836752932615 -0.040751067399334595 0 -0.02330540270554906 -0.042478463499618195 0 -0.023508139652881743 -0.039231456336917769 0 -0.021240836752932615 -0.040751067399334595 0 -0.02330540270554906 -0.042478463499618195 0 -0.021372996614790394 -0.029162109717856013 0 -0.02582568929172013 -0.030495180904740064 0 -0.026799231849843865 -0.027116078608929027 0 -0.020109569906178928 -0.041851827421337202 0 -0.020066361573326245 -0.043614545725954308 0 -0.02330540270554906 -0.042478463499618195 0 -0.019155751362350044 -0.034906675269413892 0 -0.025353639103673498 -0.03497284237685104 0 -0.019155751362350044 -0.034906675269413892 0 -0.017338229532174305 -0.039260695930580972 0 -0.01526178641202308 -0.034177055992681511 0 -0.016292134166282966 -0.034345723686316665 0 -0.015993212201915991 -0.035513932357360521 0 -0.01526178641202308 -0.034177055992681511 0 -0.016490310324384128 -0.033663859441975308 0 -0.016292134166282966 -0.034345723686316665 0 -0.019155751362350044 -0.034906675269413892 0 -0.015656060727924598 -0.034199227231412874 0 -0.016048853235818349 -0.03380633050982499 0 -0.015807755518786278 -0.033266347409611402 0 -0.016320596619328269 -0.033045383730113342 0 -0.016048853235818349 -0.03380633050982499 0 -0.016320596619328269 -0.033045383730113342 0 -0.016490310324384128 -0.033663859441975308 0 -0.019155751362350044 -0.034906675269413892 0 -0.019436359483370972 -0.032327388056273068 0 -0.021372996614790394 -0.029162109717856013 0 -0.022859738348404615 -0.031765207550961218 0 -0.02582568929172013 -0.030495180904740064 0 -0.022859738348404615 -0.031765207550961218 0 -0.02582568929172013 -0.030495180904740064 0 -0.024328935924515606 -0.034374316772433189 0 -0.02582568929172013 -0.030495180904740064 0 -0.029202488170545417 -0.032072854215813254 0 -0.024328935924515606 -0.034374316772433189 0 -0.02582568929172013 -0.030495180904740064 0 -0.030467617774339876 -0.028454015612342971 0 -0.029202488170545417 -0.032072854215813254 0 -0.02582568929172013 -0.030495180904740064 0 -0.026799231849843865 -0.027116078608929027 0 -0.030467617774339876 -0.028454015612342971 0 -0.032338677128593986 -0.02507253331166474 0 -0.026799231849843865 -0.027116078608929027 0 -0.030467617774339876 -0.028454015612342971 0 -0.028632042399096169 -0.019363651552199535 0 -0.02901330638640285 -0.018248443493052203 0 -0.027578452120596869 -0.01880184527448301 0 -0.031369336742161462 -0.024073446413218642 0 -0.02884366693444234 -0.025079454871851724 0 -0.034111740709965387 -0.029718046029252425 0 -0.030467617774339876 -0.028454015612342971 0 -0.029202488170545417 -0.032072854215813254 0 -0.028632042399096169 -0.019363651552199535 0 -0.027578452120596869 -0.01880184527448301 0 -0.027922302627309079 -0.019701674085691245 0 -0.027578452120596869 -0.01880184527448301 0 -0.027922302627309079 -0.019701674085691245 0 -0.027154093015450728 -0.019732196587673313 0 -0.028519602064367943 -0.020086761709372573 0 -0.028632042399096169 -0.019363651552199535 0 -0.027922302627309079 -0.019701674085691245 0 -0.02884366693444234 -0.025079454871851724 0 -0.023409027516570695 -0.028899551565672376 0 -0.027578452120596869 -0.01880184527448301 0 -0.027154093015450728 -0.019732196587673313 0 -0.026037286982223903 -0.019414939162554722 0 -0.027154093015450728 -0.019732196587673313 0 -0.026495829044700884 -0.019898398184759362 0 -0.026037286982223903 -0.019414939162554722 0 -0.02684907500412961 -0.02019372293870365 0 -0.026471880314735217 -0.020544064285875852 0 -0.026495829044700884 -0.019898398184759362 0 -0.027154093015450728 -0.019732196587673313 0 -0.02684907500412961 -0.02019372293870365 0 -0.026495829044700884 -0.019898398184759362 0 -0.027154093015450728 -0.019732196587673313 0 -0.02726364516575502 -0.020598196945970634 0 -0.027901390945801765 -0.020378294755673119 0 -0.027154093015450728 -0.019732196587673313 0 -0.02684907500412961 -0.02019372293870365 0 -0.02726364516575502 -0.020598196945970634 0 -0.02684907500412961 -0.02019372293870365 0 -0.02726364516575502 -0.020598196945970634 0 -0.026471880314735217 -0.020544064285875852 0 -0.028519602064367943 -0.020086761709372573 0 -0.027922302627309079 -0.019701674085691245 0 -0.027901390945801765 -0.020378294755673119 0 -0.027922302627309079 -0.019701674085691245 0 -0.027154093015450728 -0.019732196587673313 0 -0.027901390945801765 -0.020378294755673119 0 -0.02726364516575502 -0.020598196945970634 0 -0.027712709231362105 -0.020759512682284938 0 -0.027901390945801765 -0.020378294755673119 0 -0.027712709231362105 -0.020759512682284938 0 -0.027901390945801765 -0.020378294755673119 0 -0.028012374672248319 -0.020827915332446816 0 -0.028436328165808204 -0.020628418490469591 0 -0.028519602064367943 -0.020086761709372573 0 -0.027901390945801765 -0.020378294755673119 0 -0.028436328165808204 -0.020628418490469591 0 -0.027901390945801765 -0.020378294755673119 0 -0.028012374672248319 -0.020827915332446816 0 -0.028012374672248319 -0.020827915332446816 0 -0.028361243324182064 -0.021028415121311664 0 -0.02766933971613553 -0.02123815246369205 0 -0.027288943712351663 -0.020658600764038363 0 -0.027100887567808506 -0.020817039168889596 0 -0.026855029022592965 -0.020556223165203863 0 -0.026294331921727639 -0.020213124892781868 0 -0.02616274329879226 -0.020284851517374455 0 -0.02878224386986954 -0.021834852776696528 0 -0.028600570288865389 -0.02132273625013896 0 -0.02766933971613553 -0.02123815246369205 0 -0.027288943712351663 -0.020658600764038363 0 -0.025300015087855378 -0.019445649314093705 0 -0.028600570288865389 -0.02132273625013896 0 -0.028361243324182064 -0.021028415121311664 0 -0.02766933971613553 -0.02123815246369205 0 -0.028436328165808204 -0.020628418490469591 0 -0.028012374672248319 -0.020827915332446816 0 -0.028361243324182064 -0.021028415121311664 0 -0.027712709231362105 -0.020759512682284938 0 -0.028012374672248319 -0.020827915332446816 0 -0.02766933971613553 -0.02123815246369205 0 -0.02726364516575502 -0.020598196945970634 0 -0.027712709231362105 -0.020759512682284938 0 -0.02766933971613553 -0.02123815246369205 0 -0.024940328817825541 -0.018925275689482039 0 -0.024846666552354776 -0.019051990499715944 0 -0.024803780887818455 -0.019202645434979064 0 -0.02616274329879226 -0.020284851517374455 0 -0.025564270173470079 -0.020039134799649139 0 -0.025789740535556844 -0.019916695527915557 0 -0.02726364516575502 -0.020598196945970634 0 -0.02766933971613553 -0.02123815246369205 0 -0.026471880314735217 -0.020544064285875852 0 -0.025300015087855378 -0.019445649314093705 0 -0.025273551727097408 -0.019653179360365702 0 -0.027100887567808506 -0.020817039168889596 0 -0.026106814697132663 -0.020191680188884176 0 -0.026294331921727639 -0.020213124892781868 0 -0.02616274329879226 -0.020284851517374455 0 -0.025789740535556844 -0.019916695527915557 0 -0.024940328817825541 -0.018925275689482039 0 -0.024936312716857211 -0.019025672119337048 0 -0.024846666552354776 -0.019051990499715944 0 -0.024972757488065774 -0.019073639551229718 0 -0.024936312716857211 -0.019025672119337048 0 -0.024814685483175863 -0.019028233897131947 0 -0.024940328817825541 -0.018925275689482039 0 -0.024936312716857211 -0.019025672119337048 0 -0.025101200606585265 -0.01897249824731868 0 -0.025426856878943638 -0.018783309663488575 0 -0.024940328817825541 -0.018925275689482039 0 -0.025101200606585265 -0.01897249824731868 0 -0.025019920348290068 -0.019130477813406939 0 -0.024936312716857211 -0.019025672119337048 0 -0.025101200606585265 -0.01897249824731868 0 -0.025019920348290068 -0.019130477813406939 0 -0.025270761496565639 -0.018989173001318731 0 -0.025101200606585265 -0.01897249824731868 0 -0.025426856878943638 -0.018783309663488575 0 -0.025270761496565639 -0.018989173001318731 0 -0.025101200606585265 -0.01897249824731868 0 -0.024940781287775795 -0.018840559878535851 0 -0.024896993404414109 -0.019026197320871619 0 -0.024992724326861348 -0.019102353919234351 0 -0.024896993404414109 -0.019026197320871619 0 -0.024858305409062111 -0.019115414566273962 0 -0.024992724326861348 -0.019102353919234351 0 -0.024896993404414109 -0.019026197320871619 0 -0.024814685483175863 -0.019028233897131947 0 -0.024858305409062111 -0.019115414566273962 0 -0.024936312716857211 -0.019025672119337048 0 -0.024814685483175863 -0.019028233897131947 0 -0.024846666552354776 -0.019051990499715944 0 -0.024814685483175863 -0.019028233897131947 0 -0.024846666552354776 -0.019051990499715944 0 -0.024858305409062111 -0.019115414566273962 0 -0.024846666552354776 -0.019051990499715944 0 -0.024803780887818455 -0.019202645434979064 0 -0.024858305409062111 -0.019115414566273962 0 -0.024803780887818455 -0.019202645434979064 0 -0.024858305409062111 -0.019115414566273962 0 -0.024945149793670456 -0.019268023983343669 0 -0.024858305409062111 -0.019115414566273962 0 -0.024945149793670456 -0.019268023983343669 0 -0.024992724326861348 -0.019102353919234351 0 -0.025273551727097408 -0.019653179360365702 0 -0.025060580982486005 -0.019610124988121702 0 -0.024803780887818455 -0.019202645434979064 0 -0.024945149793670456 -0.019268023983343669 0 -0.025057164161249607 -0.019616503568493395 0 -0.025564270173470079 -0.020039134799649139 0 -0.025078488433216691 -0.019683813516142901 0 -0.025057164161249607 -0.019616503568493395 0 -0.025564270173470079 -0.020039134799649139 0 -0.025078488433216691 -0.019683813516142901 0 -0.025405904924341305 -0.019640540018225735 0 -0.025564270173470079 -0.020039134799649139 0 -0.025789740535556844 -0.019916695527915557 0 -0.025405904924341305 -0.019640540018225735 0 -0.026106814697132663 -0.020191680188884176 0 -0.025468373483877059 -0.019714003707219305 0 -0.026471880314735217 -0.020544064285875852 0 -0.026495829044700884 -0.019898398184759362 0 -0.025405904924341305 -0.019640540018225735 0 -0.026495829044700884 -0.019898398184759362 0 -0.026037286982223903 -0.019414939162554722 0 -0.025405904924341305 -0.019640540018225735 0 -0.019436359483370972 -0.032327388056273068 0 -0.023409027516570695 -0.028899551565672376 0 -0.025078488433216691 -0.019683813516142901 0 -0.026037286982223903 -0.019414939162554722 0 -0.025405904924341305 -0.019640540018225735 0 -0.015807755518786278 -0.033266347409611402 0 -0.015578141327616674 -0.032739641237451475 0 -0.016320596619328269 -0.033045383730113342 0 -0.020346189058483125 -0.025854285773397385 0 -0.023409027516570695 -0.028899551565672376 0 -0.016316103636584593 -0.032358174215092302 0 -0.015578141327616674 -0.032739641237451475 0 -0.016320596619328269 -0.033045383730113342 0 -0.016316103636584593 -0.032358174215092302 0 -0.016894891221389704 -0.032790926796091677 0 -0.017239183060605973 -0.032491510799875112 0 -0.016316103636584593 -0.032358174215092302 0 -0.016320596619328269 -0.033045383730113342 0 -0.016894891221389704 -0.032790926796091677 0 -0.016320596619328269 -0.033045383730113342 0 -0.016894891221389704 -0.032790926796091677 0 -0.017057891574385996 -0.033235048516967541 0 -0.016894891221389704 -0.032790926796091677 0 -0.017439854221566926 -0.03278673249569497 0 -0.017057891574385996 -0.033235048516967541 0 -0.016894891221389704 -0.032790926796091677 0 -0.017439854221566926 -0.03278673249569497 0 -0.017239183060605973 -0.032491510799875112 0 -0.017439854221566926 -0.03278673249569497 0 -0.017239183060605973 -0.032491510799875112 0 -0.017622447500425759 -0.032465532840342662 0 -0.017067822874076509 -0.0320054634974807 0 -0.017922299014774264 -0.03191411346862013 0 -0.017622447500425759 -0.032465532840342662 0 -0.017239183060605973 -0.032491510799875112 0 -0.017067822874076509 -0.0320054634974807 0 -0.017622447500425759 -0.032465532840342662 0 -0.017067822874076509 -0.0320054634974807 0 -0.017872918725398885 -0.03157051067005439 0 -0.017922299014774264 -0.03191411346862013 0 -0.016316103636584593 -0.032358174215092302 0 -0.017239183060605973 -0.032491510799875112 0 -0.017067822874076509 -0.0320054634974807 0 -0.025078488433216691 -0.019683813516142901 0 -0.025123764515337176 -0.01953118516611102 0 -0.025057164161249607 -0.019616503568493395 0 -0.020346189058483125 -0.025854285773397385 0 -0.021311329682707762 -0.025872962967171988 0 -0.025123764515337176 -0.01953118516611102 0 -0.025057164161249607 -0.019616503568493395 0 -0.025086542190729134 -0.019325648539690418 0 -0.024945149793670456 -0.019268023983343669 0 -0.025057164161249607 -0.019616503568493395 0 -0.025086542190729134 -0.019325648539690418 0 -0.024945149793670456 -0.019268023983343669 0 -0.025086542190729134 -0.019325648539690418 0 -0.024992724326861348 -0.019102353919234351 0 -0.025236623717240652 -0.019313196970454655 0 -0.02538314542715487 -0.019031740744452273 0 -0.025422138481627891 -0.019382677656486543 0 -0.021311329682707762 -0.025872962967171988 0 -0.020329337049331164 -0.023880932676091579 0 -0.025123764515337176 -0.01953118516611102 0 -0.025236623717240652 -0.019313196970454655 0 -0.025422138481627891 -0.019382677656486543 0 -0.025123764515337176 -0.01953118516611102 0 -0.025086542190729134 -0.019325648539690418 0 -0.025236623717240652 -0.019313196970454655 0 -0.025086542190729134 -0.019325648539690418 0 -0.025236623717240652 -0.019313196970454655 0 -0.025167502758046557 -0.01913393681845749 0 -0.025236623717240652 -0.019313196970454655 0 -0.025167502758046557 -0.01913393681845749 0 -0.02538314542715487 -0.019031740744452273 0 -0.025142680984981413 -0.018885948611424778 0 -0.025167502758046557 -0.01913393681845749 0 -0.02538314542715487 -0.019031740744452273 0 -0.025086542190729134 -0.019325648539690418 0 -0.025167502758046557 -0.01913393681845749 0 -0.024992724326861348 -0.019102353919234351 0 -0.025142680984981413 -0.018885948611424778 0 -0.025167502758046557 -0.01913393681845749 0 -0.024992724326861348 -0.019102353919234351 0 -0.017877947814885827 -0.018899523523626095 0 -0.015988390411116622 -0.022578319387033054 0 -0.020247157268568555 -0.020479611765497313 0 -0.021697902791851797 -0.018183965574010291 0 -0.019775819120200971 -0.018837593781654133 0 -0.01990502158208492 -0.021692961088260833 0 -0.018875316005746996 -0.014926695116321042 0 -0.017573640167312745 -0.026338196359460893 0 -0.018875316005746996 -0.014926695116321042 0 -0.017829607253540453 -0.019766701033193269 0 -0.021864659390954447 -0.018881651157366383 0 -0.020329337049331164 -0.023880932676091579 0 -0.019775819120200971 -0.018837593781654133 0 -0.017992426580352303 -0.018761299527197454 0 -0.01990502158208492 -0.021692961088260833 0 -0.019510316856653762 -0.016730629414206537 0 -0.019775819120200971 -0.018837593781654133 0 -0.017992426580352303 -0.018761299527197454 0 -0.017992426580352303 -0.018761299527197454 0 -0.01990502158208492 -0.021692961088260833 0 -0.018661820819570317 -0.022301507351321612 0 -0.020329337049331164 -0.023880932676091579 0 -0.018304484413109664 -0.030867615838323474 0 -0.017549698768363584 -0.032730259958052114 0 -0.017640476522667734 -0.032616868081741218 0 -0.017552987332993014 -0.032636855414569142 0 -0.019360137480170413 -0.026095037204969515 0 -0.01817293256792326 -0.02667467337971894 0 -0.018420266357358092 -0.027935508864220075 0 -0.017573640167312745 -0.026338196359460893 0 -0.018304484413109664 -0.030867615838323474 0 -0.017573640167312745 -0.026338196359460893 0 -0.020329337049331164 -0.023880932676091579 0 -0.017549698768363584 -0.032730259958052114 0 -0.017415208881027763 -0.032695920328260401 0 -0.017552987332993014 -0.032636855414569142 0 -0.017573640167312745 -0.026338196359460893 0 -0.017829607253540453 -0.019766701033193269 0 -0.017549698768363584 -0.032730259958052114 0 -0.017415208881027763 -0.032695920328260401 0 -0.017198434887438298 -0.032720827203101002 0 -0.017415208881027763 -0.032695920328260401 0 -0.017408747189501556 -0.032657454210307232 0 -0.017280051491157144 -0.032705420553567253 0 -0.017415208881027763 -0.032695920328260401 0 -0.017408747189501556 -0.032657454210307232 0 -0.017494907807519135 -0.032630910289585112 0 -0.018036651254936635 -0.033275550816171375 0 -0.017794244006194091 -0.033146577659379499 0 -0.017408747189501556 -0.032657454210307232 0 -0.017280051491157144 -0.032705420553567253 0 -0.017347241447690578 -0.03266346295952792 0 -0.017421678805806109 -0.032587240860945201 0 -0.017657974739750028 -0.032548772362567452 0 -0.01721625850611222 -0.032585785440832918 0 -0.017420774290654611 -0.032621904506895991 0 -0.017347241447690578 -0.03266346295952792 0 -0.017358107923822093 -0.032622626523233306 0 -0.017420774290654611 -0.032621904506895991 0 -0.017408747189501556 -0.032657454210307232 0 -0.017347241447690578 -0.03266346295952792 0 -0.017420774290654611 -0.032621904506895991 0 -0.0174462487929706 -0.032630454039292198 0 -0.017408747189501556 -0.032657454210307232 0 -0.0174462487929706 -0.032630454039292198 0 -0.017408747189501556 -0.032657454210307232 0 -0.017494907807519135 -0.032630910289585112 0 -0.0174462487929706 -0.032630454039292198 0 -0.017487592906941976 -0.032616281892695366 0 -0.017470073765369767 -0.032612636921663066 0 -0.017420774290654611 -0.032621904506895991 0 -0.0174462487929706 -0.032630454039292198 0 -0.017470073765369767 -0.032612636921663066 0 -0.017415208881027763 -0.032695920328260401 0 -0.017494907807519135 -0.032630910289585112 0 -0.017552987332993014 -0.032636855414569142 0 -0.017560141186622032 -0.032609000010096229 0 -0.017494907807519135 -0.032630910289585112 0 -0.017552987332993014 -0.032636855414569142 0 -0.017560141186622032 -0.032609000010096229 0 -0.017548722892761479 -0.032600697460468273 0 -0.017494907807519135 -0.032630910289585112 0 -0.017560141186622032 -0.032609000010096229 0 -0.017548722892761479 -0.032600697460468273 0 -0.017580965962486664 -0.032584944543707361 0 -0.017548722892761479 -0.032600697460468273 0 -0.017494907807519135 -0.032630910289585112 0 -0.017525284700529189 -0.032603328669166994 0 -0.0174462487929706 -0.032630454039292198 0 -0.017494907807519135 -0.032630910289585112 0 -0.017487592906941976 -0.032616281892695366 0 -0.017494907807519135 -0.032630910289585112 0 -0.017487592906941976 -0.032616281892695366 0 -0.017525284700529189 -0.032603328669166994 0 -0.017487592906941976 -0.032616281892695366 0 -0.01750280909208279 -0.032603720149696626 0 -0.017525284700529189 -0.032603328669166994 0 -0.01750280909208279 -0.032603720149696626 0 -0.017525284700529189 -0.032603328669166994 0 -0.017536413813713906 -0.032590974654304175 0 -0.017525284700529189 -0.032603328669166994 0 -0.017536413813713906 -0.032590974654304175 0 -0.017574822255899184 -0.032580573908384147 0 -0.01750280909208279 -0.032603720149696626 0 -0.017536413813713906 -0.032590974654304175 0 -0.017491601106734353 -0.032594004444821731 0 -0.017548722892761479 -0.032600697460468273 0 -0.017574822255899184 -0.032580573908384147 0 -0.017580965962486664 -0.032584944543707361 0 -0.017548722892761479 -0.032600697460468273 0 -0.017525284700529189 -0.032603328669166994 0 -0.017574822255899184 -0.032580573908384147 0 -0.017574822255899184 -0.032580573908384147 0 -0.01757513006623929 -0.032575061626513434 0 -0.01763464873990216 -0.032569320070301847 0 -0.017574822255899184 -0.032580573908384147 0 -0.017608848930571047 -0.032567550592669692 0 -0.01763464873990216 -0.032569320070301847 0 -0.017536413813713906 -0.032590974654304175 0 -0.017574822255899184 -0.032580573908384147 0 -0.01757513006623929 -0.032575061626513434 0 -0.017536413813713906 -0.032590974654304175 0 -0.01757513006623929 -0.032575061626513434 0 -0.017491601106734353 -0.032594004444821731 0 -0.01757513006623929 -0.032575061626513434 0 -0.017421678805806109 -0.032587240860945201 0 -0.017491601106734353 -0.032594004444821731 0 -0.017420774290654611 -0.032621904506895991 0 -0.017421678805806109 -0.032587240860945201 0 -0.017491601106734353 -0.032594004444821731 0 -0.017420774290654611 -0.032621904506895991 0 -0.017421678805806109 -0.032587240860945201 0 -0.017358107923822093 -0.032622626523233306 0 -0.017420774290654611 -0.032621904506895991 0 -0.017470073765369767 -0.032612636921663066 0 -0.017491601106734353 -0.032594004444821731 0 -0.01750280909208279 -0.032603720149696626 0 -0.017470073765369767 -0.032612636921663066 0 -0.017491601106734353 -0.032594004444821731 0 -0.017487592906941976 -0.032616281892695366 0 -0.01750280909208279 -0.032603720149696626 0 -0.017470073765369767 -0.032612636921663066 0 -0.017640476522667734 -0.032616868081741218 0 -0.01760980705920372 -0.032583348991179206 0 -0.017620430396203819 -0.032546532994873457 0 -0.01760980705920372 -0.032583348991179206 0 -0.017587008704310448 -0.032596984772599473 0 -0.01760729620108098 -0.032566768713683351 0 -0.01760980705920372 -0.032583348991179206 0 -0.017606195675685343 -0.032607463742625728 0 -0.017587008704310448 -0.032596984772599473 0 -0.017640476522667734 -0.032616868081741218 0 -0.01760980705920372 -0.032583348991179206 0 -0.017606195675685343 -0.032607463742625728 0 -0.017640476522667734 -0.032616868081741218 0 -0.017606195675685343 -0.032607463742625728 0 -0.017552987332993014 -0.032636855414569142 0 -0.017560141186622032 -0.032609000010096229 0 -0.017552987332993014 -0.032636855414569142 0 -0.017587008704310448 -0.032596984772599473 0 -0.017606195675685343 -0.032607463742625728 0 -0.017552987332993014 -0.032636855414569142 0 -0.017587008704310448 -0.032596984772599473 0 -0.017587008704310448 -0.032596984772599473 0 -0.017580965962486664 -0.032584944543707361 0 -0.01760729620108098 -0.032566768713683351 0 -0.017560141186622032 -0.032609000010096229 0 -0.017587008704310448 -0.032596984772599473 0 -0.017580965962486664 -0.032584944543707361 0 -0.017574822255899184 -0.032580573908384147 0 -0.017580965962486664 -0.032584944543707361 0 -0.017608848930571047 -0.032567550592669692 0 -0.017580965962486664 -0.032584944543707361 0 -0.017608848930571047 -0.032567550592669692 0 -0.01760729620108098 -0.032566768713683351 0 -0.017608848930571047 -0.032567550592669692 0 -0.017635022029878336 -0.032553296827317113 0 -0.01760729620108098 -0.032566768713683351 0 -0.017608848930571047 -0.032567550592669692 0 -0.017635022029878336 -0.032553296827317113 0 -0.01763464873990216 -0.032569320070301847 0 -0.017635022029878336 -0.032553296827317113 0 -0.01760729620108098 -0.032566768713683351 0 -0.017620430396203819 -0.032546532994873457 0 -0.01760980705920372 -0.032583348991179206 0 -0.01760729620108098 -0.032566768713683351 0 -0.017620430396203819 -0.032546532994873457 0 -0.017640476522667734 -0.032616868081741218 0 -0.017620430396203819 -0.032546532994873457 0 -0.017622447500425759 -0.032465532840342662 0 -0.017635022029878336 -0.032553296827317113 0 -0.017620430396203819 -0.032546532994873457 0 -0.017622447500425759 -0.032465532840342662 0 -0.018304484413109664 -0.030867615838323474 0 -0.017467418408012012 -0.032732946089550567 0 -0.017658310335159424 -0.032653688599737191 0 -0.017657974739750028 -0.032548772362567452 0 -0.017714180657624205 -0.033091670768915137 0 -0.018036651254936635 -0.033275550816171375 0 -0.017638204884778168 -0.033867286897589624 0 -0.017635022029878336 -0.032553296827317113 0 -0.017622447500425759 -0.032465532840342662 0 -0.017658310335159424 -0.032653688599737191 0 -0.017439854221566926 -0.03278673249569497 0 -0.017622447500425759 -0.032465532840342662 0 -0.017658310335159424 -0.032653688599737191 0 -0.017658310335159424 -0.032653688599737191 0 -0.01763464873990216 -0.032569320070301847 0 -0.017657974739750028 -0.032548772362567452 0 -0.017635022029878336 -0.032553296827317113 0 -0.017658310335159424 -0.032653688599737191 0 -0.01763464873990216 -0.032569320070301847 0 -0.017439854221566926 -0.03278673249569497 0 -0.017658310335159424 -0.032653688599737191 0 -0.017714180657624205 -0.033091670768915137 0 -0.018338879015465239 -0.03401605898656794 0 -0.018611695976251289 -0.034359685625010086 0 -0.017625079459456589 -0.034597535687485768 0 -0.018338879015465239 -0.03401605898656794 0 -0.018611695976251289 -0.034359685625010086 0 -0.019004845086292847 -0.033449302602083945 0 -0.01757513006623929 -0.032575061626513434 0 -0.017421678805806109 -0.032587240860945201 0 -0.017657974739750028 -0.032548772362567452 0 -0.01757513006623929 -0.032575061626513434 0 -0.01763464873990216 -0.032569320070301847 0 -0.017657974739750028 -0.032548772362567452 0 -0.017551575116553846 -0.034178482213860849 0 -0.017239144700532449 -0.035107537844184009 0 -0.016462735445936398 -0.033972363731445895 0 -0.016262921036713583 -0.034899234071327973 0 -0.016655968552747157 -0.034500321300346304 0 -0.018611695976251289 -0.034359685625010086 0 -0.018198201771014784 -0.035325703279132231 0 -0.017625079459456589 -0.034597535687485768 0 -0.016262921036713583 -0.034899234071327973 0 -0.01696493036089337 -0.034876749398107962 0 -0.016655968552747157 -0.034500321300346304 0 -0.016262921036713583 -0.034899234071327973 0 -0.016658055858060135 -0.035698847103105377 0 -0.01696493036089337 -0.034876749398107962 0 -0.018198201771014784 -0.035325703279132231 0 -0.017625079459456589 -0.034597535687485768 0 -0.017381262172563593 -0.035616668005344479 0 -0.017714180657624205 -0.033091670768915137 0 -0.017057891574385996 -0.033235048516967541 0 -0.017254916261770704 -0.034002767248235567 0 -0.017638204884778168 -0.033867286897589624 0 -0.017010518494229271 -0.034623502902851759 0 -0.017439854221566926 -0.03278673249569497 0 -0.017714180657624205 -0.033091670768915137 0 -0.017057891574385996 -0.033235048516967541 0 -0.016320596619328269 -0.033045383730113342 0 -0.017057891574385996 -0.033235048516967541 0 -0.016490310324384128 -0.033663859441975308 0 -0.017057891574385996 -0.033235048516967541 0 -0.016490310324384128 -0.033663859441975308 0 -0.017254916261770704 -0.034002767248235567 0 -0.016292134166282966 -0.034345723686316665 0 -0.017254916261770704 -0.034002767248235567 0 -0.015993212201915991 -0.035513932357360521 0 -0.016892677178205393 -0.03519256157527325 0 -0.015993212201915991 -0.035513932357360521 0 -0.016724436990517545 -0.035709638928360952 0 -0.017010518494229271 -0.034623502902851759 0 -0.016044633801193597 -0.035467592289113545 0 -0.016490310324384128 -0.033663859441975308 0 -0.016292134166282966 -0.034345723686316665 0 -0.017254916261770704 -0.034002767248235567 0 -0.017625079459456589 -0.034597535687485768 0 -0.017381262172563593 -0.035616668005344479 0 -0.016892677178205393 -0.03519256157527325 0 -0.017381262172563593 -0.035616668005344479 0 -0.016892677178205393 -0.03519256157527325 0 -0.016724436990517545 -0.035709638928360952 0 -0.017107228744616901 -0.036081654578006842 0 -0.016977174198987539 -0.036529069706958697 0 -0.017689153660444237 -0.036432740695051868 0 -0.017381262172563593 -0.035616668005344479 0 -0.017107228744616901 -0.036081654578006842 0 -0.017689153660444237 -0.036432740695051868 0 -0.017381262172563593 -0.035616668005344479 0 -0.017107228744616901 -0.036081654578006842 0 -0.016724436990517545 -0.035709638928360952 0 -0.017107228744616901 -0.036081654578006842 0 -0.016724436990517545 -0.035709638928360952 0 -0.016698832847800195 -0.036090471642588204 0 -0.017107228744616901 -0.036081654578006842 0 -0.016698832847800195 -0.036090471642588204 0 -0.016977174198987539 -0.036529069706958697 0 -0.015993212201915991 -0.035513932357360521 0 -0.016422668358630196 -0.035930038779767484 0 -0.016235817553120962 -0.036228962438977469 0 -0.015993212201915991 -0.035513932357360521 0 -0.016422668358630196 -0.035930038779767484 0 -0.016724436990517545 -0.035709638928360952 0 -0.016422668358630196 -0.035930038779767484 0 -0.016724436990517545 -0.035709638928360952 0 -0.016698832847800195 -0.036090471642588204 0 -0.016698832847800195 -0.036090471642588204 0 -0.016235817553120962 -0.036228962438977469 0 -0.016977174198987539 -0.036529069706958697 0 -0.016422668358630196 -0.035930038779767484 0 -0.016698832847800195 -0.036090471642588204 0 -0.016235817553120962 -0.036228962438977469 0 -0.018426083109896314 -0.040889046488250785 0 -0.018333015166168028 -0.038887574022594164 0 -0.017107349957957915 -0.037324188616283241 0 -0.016235817553120962 -0.036228962438977469 0 -0.016977174198987539 -0.036529069706958697 0 -0.017107349957957915 -0.037324188616283241 0 -0.017338229532174305 -0.039260695930580972 0 -0.01702741803695421 -0.037165730049608971 0 -0.019132983841134078 -0.039888414242066524 0 -0.018426083109896314 -0.040889046488250785 0 -0.018333015166168028 -0.038887574022594164 0 -0.018333015166168028 -0.038887574022594164 0 -0.017107349957957915 -0.037324188616283241 0 -0.018111363283080054 -0.037898573794413769 0 -0.01945644618765309 -0.039045564177232289 0 -0.018333015166168028 -0.038887574022594164 0 -0.018788329872667157 -0.038145052820742723 0 -0.018333015166168028 -0.038887574022594164 0 -0.018788329872667157 -0.038145052820742723 0 -0.018111363283080054 -0.037898573794413769 0 -0.016977174198987539 -0.036529069706958697 0 -0.017137250777852924 -0.036817164374689827 0 -0.017107349957957915 -0.037324188616283241 0 -0.017137250777852924 -0.036817164374689827 0 -0.017689153660444237 -0.036432740695051868 0 -0.016858317901017352 -0.036898687495846863 0 -0.016977174198987539 -0.036529069706958697 0 -0.017137250777852924 -0.036817164374689827 0 -0.017689153660444237 -0.036432740695051868 0 -0.016987021093968744 -0.036132764902542351 0 -0.016873993539035157 -0.036767432580240171 0 -0.016233985078511089 -0.035920398352120332 0 -0.016540842346930769 -0.036430011519472325 0 -0.016858317901017352 -0.036898687495846863 0 -0.016658055858060135 -0.035698847103105377 0 -0.016233985078511089 -0.035920398352120332 0 -0.016540842346930769 -0.036430011519472325 0 -0.016658055858060135 -0.035698847103105377 0 -0.016540842346930769 -0.036430011519472325 0 -0.016807986164760133 -0.036319195183878057 0 -0.016262921036713583 -0.034899234071327973 0 -0.016658055858060135 -0.035698847103105377 0 -0.016233985078511089 -0.035920398352120332 0 -0.018198201771014784 -0.035325703279132231 0 -0.017381262172563593 -0.035616668005344479 0 -0.017689153660444237 -0.036432740695051868 0 -0.017239144700532449 -0.035107537844184009 0 -0.016987021093968744 -0.036132764902542351 0 -0.016738486087617174 -0.03596904248021255 0 -0.01693483826724446 -0.035714178359384403 0 -0.016492925173412304 -0.036451478977126056 0 -0.016658342701961343 -0.036542894622858479 0 -0.016945878509750739 -0.036245870612603565 0 -0.016492925173412304 -0.036451478977126056 0 -0.016945878509750739 -0.036245870612603565 0 -0.016942339515921626 -0.035695535745418797 0 -0.016930231677161251 -0.035548178468651062 0 -0.016981216321024065 -0.035690808036766268 0 -0.017072413323348839 -0.035662714571287321 0 -0.016492925173412304 -0.036451478977126056 0 -0.016540842346930769 -0.036430011519472325 0 -0.016807986164760133 -0.036319195183878057 0 -0.016738486087617174 -0.03596904248021255 0 -0.01690246672201496 -0.035798101640452662 0 -0.016930231677161251 -0.035548178468651062 0 -0.017122421496078098 -0.035474730000622866 0 -0.017006866431051933 -0.035307050822267719 0 -0.016492925173412304 -0.036451478977126056 0 -0.016658342701961343 -0.036542894622858479 0 -0.016540842346930769 -0.036430011519472325 0 -0.016658342701961343 -0.036542894622858479 0 -0.016540842346930769 -0.036430011519472325 0 -0.016858317901017352 -0.036898687495846863 0 -0.016858317901017352 -0.036898687495846863 0 -0.017501404958798178 -0.036550272121620028 0 -0.016945878509750739 -0.036245870612603565 0 -0.016658342701961343 -0.036542894622858479 0 -0.016858317901017352 -0.036898687495846863 0 -0.016945878509750739 -0.036245870612603565 0 -0.017137250777852924 -0.036817164374689827 0 -0.016858317901017352 -0.036898687495846863 0 -0.017107349957957915 -0.037324188616283241 0 -0.016858317901017352 -0.036898687495846863 0 -0.017107349957957915 -0.037324188616283241 0 -0.017501404958798178 -0.036550272121620028 0 -0.018788329872667157 -0.038145052820742723 0 -0.018212684433326177 -0.037298531332697844 0 -0.019315761933278958 -0.037503245683696278 0 -0.018788329872667157 -0.038145052820742723 0 -0.018111363283080054 -0.037898573794413769 0 -0.018212684433326177 -0.037298531332697844 0 -0.017107349957957915 -0.037324188616283241 0 -0.018111363283080054 -0.037898573794413769 0 -0.018212684433326177 -0.037298531332697844 0 -0.017107349957957915 -0.037324188616283241 0 -0.018212684433326177 -0.037298531332697844 0 -0.017501404958798178 -0.036550272121620028 0 -0.018212684433326177 -0.037298531332697844 0 -0.018906903466339425 -0.036582604225430075 0 -0.019315761933278958 -0.037503245683696278 0 -0.018212684433326177 -0.037298531332697844 0 -0.017501404958798178 -0.036550272121620028 0 -0.018906903466339425 -0.036582604225430075 0 -0.017501404958798178 -0.036550272121620028 0 -0.018303930323335448 -0.035917087084411277 0 -0.018906903466339425 -0.036582604225430075 0 -0.017501404958798178 -0.036550272121620028 0 -0.01756681104925455 -0.035703007669406928 0 -0.018303930323335448 -0.035917087084411277 0 -0.018303930323335448 -0.035917087084411277 0 -0.019009593081087572 -0.03570723367521618 0 -0.018906903466339425 -0.036582604225430075 0 -0.01756681104925455 -0.035703007669406928 0 -0.018303930323335448 -0.035917087084411277 0 -0.01854247073312236 -0.035283137137317309 0 -0.018303930323335448 -0.035917087084411277 0 -0.01854247073312236 -0.035283137137317309 0 -0.019009593081087572 -0.03570723367521618 0 -0.01756681104925455 -0.035703007669406928 0 -0.016945878509750739 -0.036245870612603565 0 -0.016942339515921626 -0.035695535745418797 0 -0.017501404958798178 -0.036550272121620028 0 -0.01756681104925455 -0.035703007669406928 0 -0.016945878509750739 -0.036245870612603565 0 -0.01756681104925455 -0.035703007669406928 0 -0.016942339515921626 -0.035695535745418797 0 -0.016973817585459267 -0.035613999000675911 0 -0.017531338191359547 -0.035672624286409334 0 -0.017159947733230183 -0.034951359851748992 0 -0.016942339515921626 -0.035695535745418797 0 -0.016973817585459267 -0.035613999000675911 0 -0.016965058031026662 -0.035685842193201124 0 -0.018222845832269071 -0.034655609430901277 0 -0.0181600188988983 -0.033780113505584526 0 -0.01933929161627634 -0.034830034338754742 0 -0.01756681104925455 -0.035703007669406928 0 -0.018222845832269071 -0.034655609430901277 0 -0.017223521465413127 -0.034102805924637408 0 -0.01854247073312236 -0.035283137137317309 0 -0.018222845832269071 -0.034655609430901277 0 -0.01933929161627634 -0.034830034338754742 0 -0.01756681104925455 -0.035703007669406928 0 -0.01854247073312236 -0.035283137137317309 0 -0.018222845832269071 -0.034655609430901277 0 -0.018222845832269071 -0.034655609430901277 0 -0.0181600188988983 -0.033780113505584526 0 -0.017223521465413127 -0.034102805924637408 0 -0.019214606973239384 -0.034276654222949961 0 -0.019956825792217872 -0.035060374559974836 0 -0.020185835405263423 -0.034640018476865743 0 -0.020231221470703106 -0.034431069427608187 0 -0.020398005098278629 -0.034659169068542356 0 -0.017223521465413127 -0.034102805924637408 0 -0.017054899648305734 -0.033242094169586914 0 -0.017432302241970617 -0.033546838770443982 0 -0.0181600188988983 -0.033780113505584526 0 -0.017223521465413127 -0.034102805924637408 0 -0.017432302241970617 -0.033546838770443982 0 -0.017159947733230183 -0.034951359851748992 0 -0.016885861190960565 -0.034409954457046116 0 -0.016973817585459267 -0.035613999000675911 0 -0.017001105890092554 -0.035744027438865109 0 -0.016940676410994351 -0.035868119214126706 0 -0.016973817585459267 -0.035613999000675911 0 -0.017001105890092554 -0.035744027438865109 0 -0.016965058031026662 -0.035685842193201124 0 -0.017001105890092554 -0.035744027438865109 0 -0.016965058031026662 -0.035685842193201124 0 -0.016981216321024065 -0.035690808036766268 0 -0.016930231677161251 -0.035548178468651062 0 -0.016942339515921626 -0.035695535745418797 0 -0.016981216321024065 -0.035690808036766268 0 -0.016942339515921626 -0.035695535745418797 0 -0.016965058031026662 -0.035685842193201124 0 -0.016981216321024065 -0.035690808036766268 0 -0.016981216321024065 -0.035690808036766268 0 -0.017060905439468685 -0.035775727288456315 0 -0.017072413323348839 -0.035662714571287321 0 -0.017001105890092554 -0.035744027438865109 0 -0.017060905439468685 -0.035775727288456315 0 -0.01707448879016079 -0.035832739887297599 0 -0.017001105890092554 -0.035744027438865109 0 -0.016981216321024065 -0.035690808036766268 0 -0.017060905439468685 -0.035775727288456315 0 -0.017001105890092554 -0.035744027438865109 0 -0.01707448879016079 -0.035832739887297599 0 -0.017050250578790144 -0.035863646948887794 0 -0.017060905439468685 -0.035775727288456315 0 -0.01707448879016079 -0.035832739887297599 0 -0.017113521607159926 -0.03588526240365314 0 -0.01834987762145995 -0.035590629544527415 0 -0.021010074058450057 -0.034999431896791201 0 -0.016433577999990782 -0.035000143803608642 0 -0.01707448879016079 -0.035832739887297599 0 -0.017155061059072385 -0.035936676841441952 0 -0.017113521607159926 -0.03588526240365314 0 -0.01707448879016079 -0.035832739887297599 0 -0.017155061059072385 -0.035936676841441952 0 -0.017050250578790144 -0.035863646948887794 0 -0.017155061059072385 -0.035936676841441952 0 -0.017050250578790144 -0.035863646948887794 0 -0.017082727169810921 -0.035977535060768596 0 -0.017001105890092554 -0.035744027438865109 0 -0.017050250578790144 -0.035863646948887794 0 -0.016940676410994351 -0.035868119214126706 0 -0.017050250578790144 -0.035863646948887794 0 -0.016940676410994351 -0.035868119214126706 0 -0.017082727169810921 -0.035977535060768596 0 -0.016940676410994351 -0.035868119214126706 0 -0.017082727169810921 -0.035977535060768596 0 -0.017048069298962951 -0.036177290222339488 0 -0.017054899648305734 -0.033242094169586914 0 -0.016876581943287682 -0.032769704209407884 0 -0.017071597297680801 -0.032726382278110262 0 -0.016885861190960565 -0.034409954457046116 0 -0.017710316245999017 -0.035106726509307386 0 -0.017155061059072385 -0.035936676841441952 0 -0.017369601559034355 -0.036126244244028466 0 -0.017161554552777538 -0.036007383520279178 0 -0.017710316245999017 -0.035106726509307386 0 -0.017344222616376831 -0.036130793004895502 0 -0.017082727169810921 -0.035977535060768596 0 -0.017048069298962951 -0.036177290222339488 0 -0.017369601559034355 -0.036126244244028466 0 -0.017155061059072385 -0.035936676841441952 0 -0.017082727169810921 -0.035977535060768596 0 -0.017369601559034355 -0.036126244244028466 0 -0.017369601559034355 -0.036126244244028466 0 -0.018156020684302346 -0.035781900277529914 0 -0.017292836126014413 -0.035710925312067286 0 -0.018156020684302346 -0.035781900277529914 0 -0.01834987762145995 -0.035590629544527415 0 -0.017292836126014413 -0.035710925312067286 0 -0.018247316002043157 -0.036170853596069676 0 -0.017369601559034355 -0.036126244244028466 0 -0.018156020684302346 -0.035781900277529914 0 -0.018621590159282886 -0.034902124101260736 0 -0.01858253782574415 -0.036198342451512024 0 -0.017710316245999017 -0.035106726509307386 0 -0.018245371302907293 -0.036073830900747693 0 -0.018156020684302346 -0.035781900277529914 0 -0.018310746172019499 -0.035968127015071176 0 -0.01834987762145995 -0.035590629544527415 0 -0.019384219403144626 -0.037044405974240101 0 -0.01946510280539588 -0.036311232730282181 0 -0.01834987762145995 -0.035590629544527415 0 -0.01820520013289377 -0.035969605769848145 0 -0.018156020684302346 -0.035781900277529914 0 -0.018310746172019499 -0.035968127015071176 0 -0.017710316245999017 -0.035106726509307386 0 -0.018621590159282886 -0.034902124101260736 0 -0.01946510280539588 -0.036311232730282181 0 -0.01834987762145995 -0.035590629544527415 0 -0.019713918989521961 -0.035875020485345931 0 -0.01834987762145995 -0.035590629544527415 0 -0.021010074058450057 -0.034999431896791201 0 -0.019713918989521961 -0.035875020485345931 0 -0.021010074058450057 -0.034999431896791201 0 -0.020560202837070884 -0.03566229834293818 0 -0.022238828012476806 -0.035636786285820718 0 -0.021010074058450057 -0.034999431896791201 0 -0.019713918989521961 -0.035875020485345931 0 -0.020560202837070884 -0.03566229834293818 0 -0.019713918989521961 -0.035875020485345931 0 -0.020560202837070884 -0.03566229834293818 0 -0.020158337416143663 -0.036435791880272447 0 -0.020560202837070884 -0.03566229834293818 0 -0.020158337416143663 -0.036435791880272447 0 -0.021080213749080628 -0.036736881999381278 0 -0.018621590159282886 -0.034902124101260736 0 -0.021360598504909699 -0.035803422246881086 0 -0.019384219403144626 -0.037044405974240101 0 -0.020158337416143663 -0.036435791880272447 0 -0.021080213749080628 -0.036736881999381278 0 -0.019787052456786469 -0.034061059374285919 0 -0.020143961259055477 -0.034002889739399321 0 -0.019989654427246355 -0.034135718366293394 0 -0.01946510280539588 -0.036311232730282181 0 -0.019713918989521961 -0.035875020485345931 0 -0.020158337416143663 -0.036435791880272447 0 -0.019384219403144626 -0.037044405974240101 0 -0.01946510280539588 -0.036311232730282181 0 -0.020158337416143663 -0.036435791880272447 0 -0.020560202837070884 -0.03566229834293818 0 -0.021158982896349831 -0.036842425271898849 0 -0.022238828012476806 -0.035636786285820718 0 -0.020740368739582498 -0.036018931321061529 0 -0.021360598504909699 -0.035803422246881086 0 -0.020143961259055477 -0.034002889739399321 0 -0.020117630255714558 -0.034219905437068751 0 -0.020284152072755243 -0.03426020255400123 0 -0.021360598504909699 -0.035803422246881086 0 -0.021970829652272768 -0.035376097629893258 0 -0.020143961259055477 -0.034002889739399321 0 -0.020117630255714558 -0.034219905437068751 0 -0.019989654427246355 -0.034135718366293394 0 -0.019787052456786469 -0.034061059374285919 0 -0.019989654427246355 -0.034135718366293394 0 -0.019989406885996045 -0.034325043348278114 0 -0.018621590159282886 -0.034902124101260736 0 -0.018609111085683687 -0.033466229137247137 0 -0.017054899648305734 -0.033242094169586914 0 -0.017071597297680801 -0.032726382278110262 0 -0.017426104739309438 -0.033125088643714128 0 -0.020117630255714558 -0.034219905437068751 0 -0.019989654427246355 -0.034135718366293394 0 -0.019989406885996045 -0.034325043348278114 0 -0.0181600188988983 -0.033780113505584526 0 -0.017426104739309438 -0.033125088643714128 0 -0.017432302241970617 -0.033546838770443982 0 -0.017054899648305734 -0.033242094169586914 0 -0.017426104739309438 -0.033125088643714128 0 -0.017432302241970617 -0.033546838770443982 0 -0.019214606973239384 -0.034276654222949961 0 -0.018609111085683687 -0.033466229137247137 0 -0.020185835405263423 -0.034640018476865743 0 -0.019989406885996045 -0.034325043348278114 0 -0.020231221470703106 -0.034431069427608187 0 -0.020284152072755243 -0.03426020255400123 0 -0.020231221470703106 -0.034431069427608187 0 -0.02044761607352959 -0.034518282405693199 0 -0.020117630255714558 -0.034219905437068751 0 -0.020284152072755243 -0.03426020255400123 0 -0.020231221470703106 -0.034431069427608187 0 -0.020117630255714558 -0.034219905437068751 0 -0.019989406885996045 -0.034325043348278114 0 -0.020231221470703106 -0.034431069427608187 0 -0.021970829652272768 -0.035376097629893258 0 -0.021869724554437028 -0.035205250125874353 0 -0.023552258529118471 -0.036451805714494148 0 -0.023939294655982747 -0.036720009000873903 0 -0.023833461719209009 -0.036956919674408228 0 -0.023552258529118471 -0.036451805714494148 0 -0.023939294655982747 -0.036720009000873903 0 -0.024086462584418829 -0.036553483435254157 0 -0.020284152072755243 -0.03426020255400123 0 -0.02044761607352959 -0.034518282405693199 0 -0.020476292368352494 -0.03453893378458938 0 -0.020231221470703106 -0.034431069427608187 0 -0.02044761607352959 -0.034518282405693199 0 -0.020398005098278629 -0.034659169068542356 0 -0.0216979002687459 -0.03506929180294615 0 -0.021869724554437028 -0.035205250125874353 0 -0.024066941002935258 -0.036898294163441606 0 -0.023939294655982747 -0.036720009000873903 0 -0.02424894901088798 -0.036838711132192892 0 -0.024066941002935258 -0.036898294163441606 0 -0.023939294655982747 -0.036720009000873903 0 -0.023833461719209009 -0.036956919674408228 0 -0.023939294655982747 -0.036720009000873903 0 -0.02424894901088798 -0.036838711132192892 0 -0.024086462584418829 -0.036553483435254157 0 -0.024764628503166596 -0.036780849224986388 0 -0.024086462584418829 -0.036553483435254157 0 -0.024760706493399488 -0.036463803022341958 0 -0.024764628503166596 -0.036780849224986388 0 -0.02424894901088798 -0.036838711132192892 0 -0.024650410302671368 -0.037080989430448297 0 -0.024066941002935258 -0.036898294163441606 0 -0.02424894901088798 -0.036838711132192892 0 -0.024304080514030057 -0.037061474385281401 0 -0.024764628503166596 -0.036780849224986388 0 -0.02424894901088798 -0.036838711132192892 0 -0.024086462584418829 -0.036553483435254157 0 -0.024086462584418829 -0.036553483435254157 0 -0.023545483837491124 -0.036132272840570627 0 -0.024760706493399488 -0.036463803022341958 0 -0.023552258529118471 -0.036451805714494148 0 -0.024086462584418829 -0.036553483435254157 0 -0.023545483837491124 -0.036132272840570627 0 -0.021010074058450057 -0.034999431896791201 0 -0.022238828012476806 -0.035636786285820718 0 -0.024451608885866834 -0.034999856174926305 0 -0.023545483837491124 -0.036132272840570627 0 -0.022238828012476806 -0.035636786285820718 0 -0.024451608885866834 -0.034999856174926305 0 -0.023404685658485424 -0.036247305914941227 0 -0.023552258529118471 -0.036451805714494148 0 -0.023545483837491124 -0.036132272840570627 0 -0.021158982896349831 -0.036842425271898849 0 -0.023545483837491124 -0.036132272840570627 0 -0.022238828012476806 -0.035636786285820718 0 -0.021360598504909699 -0.035803422246881086 0 -0.02384706819824739 -0.036341168665641542 0 -0.023545483837491124 -0.036132272840570627 0 -0.024959801891334194 -0.036060297723276721 0 -0.024760706493399488 -0.036463803022341958 0 -0.024451608885866834 -0.034999856174926305 0 -0.024959801891334194 -0.036060297723276721 0 -0.026460047726266724 -0.036081266294342627 0 -0.023545483837491124 -0.036132272840570627 0 -0.024451608885866834 -0.034999856174926305 0 -0.024959801891334194 -0.036060297723276721 0 -0.024959801891334194 -0.036060297723276721 0 -0.025516069418122518 -0.036465058886635406 0 -0.026460047726266724 -0.036081266294342627 0 -0.024959801891334194 -0.036060297723276721 0 -0.025516069418122518 -0.036465058886635406 0 -0.024760706493399488 -0.036463803022341958 0 -0.024764628503166596 -0.036780849224986388 0 -0.024760706493399488 -0.036463803022341958 0 -0.025535077660490207 -0.036656187472176034 0 -0.025516069418122518 -0.036465058886635406 0 -0.024760706493399488 -0.036463803022341958 0 -0.025535077660490207 -0.036656187472176034 0 -0.025516069418122518 -0.036465058886635406 0 -0.025535077660490207 -0.036656187472176034 0 -0.02629527801175386 -0.036400097325078734 0 -0.025516069418122518 -0.036465058886635406 0 -0.02629527801175386 -0.036400097325078734 0 -0.027254733353845376 -0.035399371690242799 0 -0.026130208751035205 -0.03702537350451271 0 -0.025678087377162737 -0.037549419650316627 0 -0.025241955391380192 -0.037108756489460056 0 -0.025535077660490207 -0.036656187472176034 0 -0.026130208751035205 -0.03702537350451271 0 -0.025241955391380192 -0.037108756489460056 0 -0.025535077660490207 -0.036656187472176034 0 -0.02629527801175386 -0.036400097325078734 0 -0.026130208751035205 -0.03702537350451271 0 -0.025678087377162737 -0.037549419650316627 0 -0.025801085327012065 -0.03832409600057312 0 -0.026595098700207473 -0.037778977551163655 0 -0.026130208751035205 -0.03702537350451271 0 -0.025678087377162737 -0.037549419650316627 0 -0.026595098700207473 -0.037778977551163655 0 -0.025678087377162737 -0.037549419650316627 0 -0.025241955391380192 -0.037108756489460056 0 -0.02472181870392871 -0.037560642577643598 0 -0.025678087377162737 -0.037549419650316627 0 -0.02472181870392871 -0.037560642577643598 0 -0.025801085327012065 -0.03832409600057312 0 -0.023895670262500054 -0.036573525085730613 0 -0.025186262848524456 -0.037666670862803647 0 -0.025241955391380192 -0.037108756489460056 0 -0.024650410302671368 -0.037080989430448297 0 -0.02472181870392871 -0.037560642577643598 0 -0.024764628503166596 -0.036780849224986388 0 -0.025535077660490207 -0.036656187472176034 0 -0.025241955391380192 -0.037108756489460056 0 -0.024764628503166596 -0.036780849224986388 0 -0.025241955391380192 -0.037108756489460056 0 -0.024650410302671368 -0.037080989430448297 0 -0.021213294977265051 -0.034016703425526824 0 -0.022804846956535185 -0.035442293946019963 0 -0.021982445553456863 -0.035601859851506462 0 -0.021869724554437028 -0.035205250125874353 0 -0.023895670262500054 -0.036573525085730613 0 -0.024304080514030057 -0.037061474385281401 0 -0.023833461719209009 -0.036956919674408228 0 -0.02472181870392871 -0.037560642577643598 0 -0.024650410302671368 -0.037080989430448297 0 -0.024304080514030057 -0.037061474385281401 0 -0.02472181870392871 -0.037560642577643598 0 -0.02424894901088798 -0.036838711132192892 0 -0.024650410302671368 -0.037080989430448297 0 -0.024304080514030057 -0.037061474385281401 0 -0.020185835405263423 -0.034640018476865743 0 -0.020398005098278629 -0.034659169068542356 0 -0.020461928767351541 -0.035198034817637738 0 -0.021869724554437028 -0.035205250125874353 0 -0.021304591938638619 -0.035130326127443302 0 -0.02047703829261838 -0.03452990568390446 0 -0.020555460590901659 -0.03485408657952789 0 -0.020935698890297991 -0.035081325178447309 0 -0.020398005098278629 -0.034659169068542356 0 -0.020555460590901659 -0.03485408657952789 0 -0.020461928767351541 -0.035198034817637738 0 -0.020398005098278629 -0.034659169068542356 0 -0.02047703829261838 -0.03452990568390446 0 -0.020555460590901659 -0.03485408657952789 0 -0.02044761607352959 -0.034518282405693199 0 -0.020398005098278629 -0.034659169068542356 0 -0.02047703829261838 -0.03452990568390446 0 -0.024066941002935258 -0.036898294163441606 0 -0.024304080514030057 -0.037061474385281401 0 -0.023833461719209009 -0.036956919674408228 0 -0.020461928767351541 -0.035198034817637738 0 -0.020935698890297991 -0.035081325178447309 0 -0.021179224801756283 -0.036371685532729299 0 -0.020555460590901659 -0.03485408657952789 0 -0.020461928767351541 -0.035198034817637738 0 -0.020935698890297991 -0.035081325178447309 0 -0.01854247073312236 -0.035283137137317309 0 -0.01933929161627634 -0.034830034338754742 0 -0.019009593081087572 -0.03570723367521618 0 -0.022804846956535185 -0.035442293946019963 0 -0.021982445553456863 -0.035601859851506462 0 -0.022757032750195302 -0.037374270575575269 0 -0.020935698890297991 -0.035081325178447309 0 -0.021179224801756283 -0.036371685532729299 0 -0.021850090005774831 -0.036357036438349144 0 -0.021304591938638619 -0.035130326127443302 0 -0.02236861706382828 -0.036997238406651325 0 -0.021179224801756283 -0.036371685532729299 0 -0.021850090005774831 -0.036357036438349144 0 -0.020997448252712925 -0.037101597978705998 0 -0.021179224801756283 -0.036371685532729299 0 -0.020479991433626284 -0.036657114429045831 0 -0.020997448252712925 -0.037101597978705998 0 -0.01933929161627634 -0.034830034338754742 0 -0.021179224801756283 -0.036371685532729299 0 -0.019849234039980054 -0.03616956584779632 0 -0.01933929161627634 -0.034830034338754742 0 -0.019009593081087572 -0.03570723367521618 0 -0.019849234039980054 -0.03616956584779632 0 -0.019956825792217872 -0.035060374559974836 0 -0.02107949514866898 -0.036326868537994286 0 -0.021179224801756283 -0.036371685532729299 0 -0.019849234039980054 -0.03616956584779632 0 -0.020479991433626284 -0.036657114429045831 0 -0.019849234039980054 -0.03616956584779632 0 -0.020479991433626284 -0.036657114429045831 0 -0.020053374155354829 -0.037068549025250738 0 -0.019849234039980054 -0.03616956584779632 0 -0.018906903466339425 -0.036582604225430075 0 -0.020053374155354829 -0.037068549025250738 0 -0.019009593081087572 -0.03570723367521618 0 -0.019849234039980054 -0.03616956584779632 0 -0.018906903466339425 -0.036582604225430075 0 -0.018906903466339425 -0.036582604225430075 0 -0.020053374155354829 -0.037068549025250738 0 -0.019315761933278958 -0.037503245683696278 0 -0.020053374155354829 -0.037068549025250738 0 -0.020508446285155732 -0.037985431265651654 0 -0.019315761933278958 -0.037503245683696278 0 -0.020479991433626284 -0.036657114429045831 0 -0.020053374155354829 -0.037068549025250738 0 -0.020997448252712925 -0.037101597978705998 0 -0.020053374155354829 -0.037068549025250738 0 -0.020508446285155732 -0.037985431265651654 0 -0.020997448252712925 -0.037101597978705998 0 -0.020801690210598169 -0.039048620687896357 0 -0.020508446285155732 -0.037985431265651654 0 -0.019745536345450926 -0.038375425783288182 0 -0.020508446285155732 -0.037985431265651654 0 -0.019315761933278958 -0.037503245683696278 0 -0.019745536345450926 -0.038375425783288182 0 -0.018788329872667157 -0.038145052820742723 0 -0.019315761933278958 -0.037503245683696278 0 -0.019745536345450926 -0.038375425783288182 0 -0.023508139652881743 -0.039231456336917769 0 -0.021850090005774831 -0.036357036438349144 0 -0.021577011166118189 -0.03802201586894962 0 -0.021850090005774831 -0.036357036438349144 0 -0.020997448252712925 -0.037101597978705998 0 -0.021577011166118189 -0.03802201586894962 0 -0.020801690210598169 -0.039048620687896357 0 -0.020508446285155732 -0.037985431265651654 0 -0.021577011166118189 -0.03802201586894962 0 -0.020508446285155732 -0.037985431265651654 0 -0.020997448252712925 -0.037101597978705998 0 -0.021577011166118189 -0.03802201586894962 0 -0.023411179868117294 -0.039061734700037598 0 -0.02236861706382828 -0.036997238406651325 0 -0.023508139652881743 -0.039231456336917769 0 -0.022757032750195302 -0.037374270575575269 0 -0.024050600291165024 -0.038092694250448617 0 -0.023508139652881743 -0.039231456336917769 0 -0.024050600291165024 -0.038092694250448617 0 -0.026869618669115174 -0.039266318354492569 0 -0.024050600291165024 -0.038092694250448617 0 -0.02460647750561654 -0.0369863674786199 0 -0.026869618669115174 -0.039266318354492569 0 -0.025186262848524456 -0.037666670862803647 0 -0.026797812449980026 -0.039184276191875964 0 -0.025801085327012065 -0.03832409600057312 0 -0.026869618669115174 -0.039266318354492569 0 -0.026595098700207473 -0.037778977551163655 0 -0.022804846956535185 -0.035442293946019963 0 -0.022757032750195302 -0.037374270575575269 0 -0.02460647750561654 -0.0369863674786199 0 -0.022757032750195302 -0.037374270575575269 0 -0.024050600291165024 -0.038092694250448617 0 -0.02460647750561654 -0.0369863674786199 0 -0.027733398796136694 -0.03782527444717506 0 -0.026869618669115174 -0.039266318354492569 0 -0.029206186053820971 -0.038656775859796939 0 -0.027733398796136694 -0.03782527444717506 0 -0.029206186053820971 -0.038656775859796939 0 -0.028742217217648098 -0.037026943452832931 0 -0.027733398796136694 -0.03782527444717506 0 -0.026869618669115174 -0.039266318354492569 0 -0.026595098700207473 -0.037778977551163655 0 -0.028678995799940807 -0.040879959421085015 0 -0.026869618669115174 -0.039266318354492569 0 -0.029206186053820971 -0.038656775859796939 0 -0.031311081951468138 -0.040526371980373337 0 -0.032156619207900708 -0.038493124816083454 0 -0.029206186053820971 -0.038656775859796939 0 -0.032156619207900708 -0.038493124816083454 0 -0.03241505875852041 -0.036758672990332718 0 -0.030166968182374767 -0.036614991090858723 0 -0.032156619207900708 -0.038493124816083454 0 -0.029206186053820971 -0.038656775859796939 0 -0.030166968182374767 -0.036614991090858723 0 -0.029206186053820971 -0.038656775859796939 0 -0.028742217217648098 -0.037026943452832931 0 -0.030166968182374767 -0.036614991090858723 0 -0.028742217217648098 -0.037026943452832931 0 -0.030166968182374767 -0.036614991090858723 0 -0.028861657748242054 -0.03619819394963595 0 -0.030166968182374767 -0.036614991090858723 0 -0.032054297652473702 -0.032454689590385673 0 -0.032808145475933699 -0.034987590226210639 0 -0.03241505875852041 -0.036758672990332718 0 -0.030166968182374767 -0.036614991090858723 0 -0.032808145475933699 -0.034987590226210639 0 -0.030192792562475344 -0.036482874204846555 0 -0.031195469097880894 -0.034172675344819069 0 -0.030166968182374767 -0.036614991090858723 0 -0.030134962813056193 -0.036133030755766724 0 -0.028861657748242054 -0.03619819394963595 0 -0.028742217217648098 -0.037026943452832931 0 -0.028861657748242054 -0.03619819394963595 0 -0.027410096395360448 -0.036708241009824255 0 -0.027733398796136694 -0.03782527444717506 0 -0.028742217217648098 -0.037026943452832931 0 -0.027410096395360448 -0.036708241009824255 0 -0.027733398796136694 -0.03782527444717506 0 -0.026595098700207473 -0.037778977551163655 0 -0.027410096395360448 -0.036708241009824255 0 -0.026130208751035205 -0.03702537350451271 0 -0.026595098700207473 -0.037778977551163655 0 -0.027410096395360448 -0.036708241009824255 0 -0.02629527801175386 -0.036400097325078734 0 -0.026130208751035205 -0.03702537350451271 0 -0.027410096395360448 -0.036708241009824255 0 -0.02629527801175386 -0.036400097325078734 0 -0.027410096395360448 -0.036708241009824255 0 -0.027254733353845376 -0.035399371690242799 0 -0.024451608885866834 -0.034999856174926305 0 -0.026460047726266724 -0.036081266294342627 0 -0.028998140604527694 -0.034998336642496485 0 -0.028861657748242054 -0.03619819394963595 0 -0.027410096395360448 -0.036708241009824255 0 -0.027254733353845376 -0.035399371690242799 0 -0.028861657748242054 -0.03619819394963595 0 -0.027254733353845376 -0.035399371690242799 0 -0.029101067628975706 -0.035142843465535839 0 -0.027074545277817375 -0.037402116827800425 0 -0.028324530500431471 -0.036536744626305212 0 -0.029040733744871382 -0.037942183678130507 0 -0.027291261067511684 -0.03639681891287818 0 -0.028761421152017207 -0.036829331722478362 0 -0.025516069418122518 -0.036465058886635406 0 -0.027074545277817375 -0.037402116827800425 0 -0.026460047726266724 -0.036081266294342627 0 -0.027074545277817375 -0.037402116827800425 0 -0.026460047726266724 -0.036081266294342627 0 -0.028324530500431471 -0.036536744626305212 0 -0.025686893351469915 -0.036445227504122997 0 -0.027291261067511684 -0.03639681891287818 0 -0.026460047726266724 -0.036081266294342627 0 -0.028324530500431471 -0.036536744626305212 0 -0.028998140604527694 -0.034998336642496485 0 -0.028998140604527694 -0.034998336642496485 0 -0.030272908834403606 -0.036495020853567241 0 -0.032783721973848705 -0.035058748587750224 0 -0.028324530500431471 -0.036536744626305212 0 -0.028998140604527694 -0.034998336642496485 0 -0.030272908834403606 -0.036495020853567241 0 -0.030272908834403606 -0.036495020853567241 0 -0.029040733744871382 -0.037942183678130507 0 -0.031293896973667329 -0.038257232423096595 0 -0.028324530500431471 -0.036536744626305212 0 -0.030272908834403606 -0.036495020853567241 0 -0.029040733744871382 -0.037942183678130507 0 -0.030134962813056193 -0.036133030755766724 0 -0.028861657748242054 -0.03619819394963595 0 -0.029101067628975706 -0.035142843465535839 0 -0.031195469097880894 -0.034172675344819069 0 -0.032525200216921367 -0.034188373557242351 0 -0.028761421152017207 -0.036829331722478362 0 -0.032525200216921367 -0.034188373557242351 0 -0.030134962813056193 -0.036133030755766724 0 -0.029101067628975706 -0.035142843465535839 0 -0.0305505264209293 -0.035192315702271507 0 -0.032054297652473702 -0.032454689590385673 0 -0.034175183504373492 -0.030118122285220494 0 -0.034675709592350612 -0.031474721881283446 0 -0.034175183504373492 -0.030118122285220494 0 -0.035324141404407365 -0.031051778312173147 0 -0.034675709592350612 -0.031474721881283446 0 -0.028998140604527694 -0.034998336642496485 0 -0.032783721973848705 -0.035058748587750224 0 -0.03500087386496073 -0.034997547364337758 0 -0.032525200216921367 -0.034188373557242351 0 -0.035166858233250831 -0.031832965276938741 0 -0.034655757176600098 -0.032540974481589539 0 -0.034293973236627182 -0.033260802339217063 0 -0.034969730565181587 -0.03181140310595798 0 -0.035166858233250831 -0.031832965276938741 0 -0.034759965772423351 -0.031786051855995742 0 -0.035324141404407365 -0.031051778312173147 0 -0.034969730565181587 -0.03181140310595798 0 -0.035402455456175867 -0.030954671679278678 0 -0.035324141404407365 -0.031051778312173147 0 -0.035402455456175867 -0.030954671679278678 0 -0.034675709592350612 -0.031474721881283446 0 -0.034655757176600098 -0.032540974481589539 0 -0.034293973236627182 -0.033260802339217063 0 -0.03478020659514186 -0.03352099131608078 0 -0.032525200216921367 -0.034188373557242351 0 -0.033268237185226569 -0.035271309134444602 0 -0.030272908834403606 -0.036495020853567241 0 -0.031293896973667329 -0.038257232423096595 0 -0.032033092753441843 -0.036842859116743357 0 -0.035256732851816096 -0.032687177389324328 0 -0.034655757176600098 -0.032540974481589539 0 -0.03478020659514186 -0.03352099131608078 0 -0.033268237185226569 -0.035271309134444602 0 -0.033036245036644485 -0.034984035578556824 0 -0.030272908834403606 -0.036495020853567241 0 -0.032033092753441843 -0.036842859116743357 0 -0.032783721973848705 -0.035058748587750224 0 -0.034293973236627182 -0.033260802339217063 0 -0.03478020659514186 -0.03352099131608078 0 -0.032783721973848705 -0.035058748587750224 0 -0.034293973236627182 -0.033260802339217063 0 -0.032783721973848705 -0.035058748587750224 0 -0.034423883643185486 -0.033564327110857599 0 -0.03500087386496073 -0.034997547364337758 0 -0.034423883643185486 -0.033564327110857599 0 -0.034996886539102587 -0.031989117070904023 0 -0.032783721973848705 -0.035058748587750224 0 -0.03500087386496073 -0.034997547364337758 0 -0.034423883643185486 -0.033564327110857599 0 -0.034293973236627182 -0.033260802339217063 0 -0.034423883643185486 -0.033564327110857599 0 -0.034969730565181587 -0.03181140310595798 0 -0.034423883643185486 -0.033564327110857599 0 -0.034996886539102587 -0.031989117070904023 0 -0.034969730565181587 -0.03181140310595798 0 -0.034996886539102587 -0.031989117070904023 0 -0.034969730565181587 -0.03181140310595798 0 -0.035181804342963384 -0.030309139146945979 0 -0.034996886539102587 -0.031989117070904023 0 -0.035181804342963384 -0.030309139146945979 0 -0.034999245679911861 -0.027858347445300559 0 -0.035181804342963384 -0.030309139146945979 0 -0.035349976817685126 -0.029362810303379217 0 -0.034999245679911861 -0.027858347445300559 0 -0.035349976817685126 -0.029362810303379217 0 -0.035669967293573926 -0.030202122074474858 0 -0.035498571091874737 -0.029032257557838646 0 -0.035181804342963384 -0.030309139146945979 0 -0.035349976817685126 -0.029362810303379217 0 -0.035359687127161678 -0.030512348066565588 0 -0.035349976817685126 -0.029362810303379217 0 -0.035359687127161678 -0.030512348066565588 0 -0.035669967293573926 -0.030202122074474858 0 -0.034969730565181587 -0.03181140310595798 0 -0.035181804342963384 -0.030309139146945979 0 -0.035359687127161678 -0.030512348066565588 0 -0.035359687127161678 -0.030512348066565588 0 -0.035402455456175867 -0.030954671679278678 0 -0.035669967293573926 -0.030202122074474858 0 -0.034969730565181587 -0.03181140310595798 0 -0.035359687127161678 -0.030512348066565588 0 -0.035402455456175867 -0.030954671679278678 0 -0.034599227563175544 -0.03111567065137728 0 -0.035067099806228991 -0.034153326528041004 0 -0.032054297652473702 -0.032454689590385673 0 -0.034675709592350612 -0.031474721881283446 0 -0.032808145475933699 -0.034987590226210639 0 -0.035402455456175867 -0.030954671679278678 0 -0.034675709592350612 -0.031474721881283446 0 -0.035674230625159717 -0.030305454638408259 0 -0.034675709592350612 -0.031474721881283446 0 -0.032808145475933699 -0.034987590226210639 0 -0.034360746201435755 -0.036663015499567991 0 -0.03241505875852041 -0.036758672990332718 0 -0.032808145475933699 -0.034987590226210639 0 -0.034360746201435755 -0.036663015499567991 0 -0.035402455456175867 -0.030954671679278678 0 -0.035674230625159717 -0.030305454638408259 0 -0.035669967293573926 -0.030202122074474858 0 -0.035669967293573926 -0.030202122074474858 0 -0.036072125161350832 -0.028132067268039376 0 -0.035498571091874737 -0.029032257557838646 0 -0.035674230625159717 -0.030305454638408259 0 -0.035669967293573926 -0.030202122074474858 0 -0.035723129359274769 -0.030390269333584036 0 -0.035674230625159717 -0.030305454638408259 0 -0.035723129359274769 -0.030390269333584036 0 -0.035686790821590431 -0.030411559138969018 0 -0.035067099806228991 -0.034153326528041004 0 -0.035068982892032231 -0.031760160639364682 0 -0.035601460560871614 -0.0303489806624428 0 -0.036291277464519392 -0.028747470473849197 0 -0.032156619207900708 -0.038493124816083454 0 -0.03241505875852041 -0.036758672990332718 0 -0.034360746201435755 -0.036663015499567991 0 -0.032156619207900708 -0.038493124816083454 0 -0.034360746201435755 -0.036663015499567991 0 -0.034544772873575616 -0.039727972630094754 0 -0.031311081951468138 -0.040526371980373337 0 -0.032156619207900708 -0.038493124816083454 0 -0.034544772873575616 -0.039727972630094754 0 -0.034461953556020886 -0.032498384139131656 0 -0.035068982892032231 -0.031760160639364682 0 -0.036286636968486989 -0.026052841116366215 0 -0.036291277464519392 -0.028747470473849197 0 -0.035419917307949911 -0.026601252198166656 0 -0.03566878124258354 -0.029439481636909334 0 -0.03704709591474678 -0.028928815153674563 0 -0.036291277464519392 -0.028747470473849197 0 -0.035068982892032231 -0.031760160639364682 0 -0.037184857515354781 -0.025740544788498541 0 -0.037300082911885538 -0.026972816580458588 0 -0.036338310292947734 -0.026266845023023729 0 -0.036291277464519392 -0.028747470473849197 0 -0.035779737428737642 -0.027828864723976266 0 -0.037300082911885538 -0.026972816580458588 0 -0.036338310292947734 -0.026266845023023729 0 -0.036158095477904065 -0.027404301971218584 0 -0.034999999689382263 -0.025970227496603937 0 -0.034999966748618369 -0.027854980213749964 0 -0.036158095477904065 -0.027404301971218584 0 -0.034999999689382263 -0.025970227496603937 0 -0.036338310292947734 -0.026266845023023729 0 -0.036158095477904065 -0.027404301971218584 0 -0.035349976817685126 -0.029362810303379217 0 -0.034999245679911861 -0.027858347445300559 0 -0.035204101334018731 -0.028466634537530833 0 -0.034999947140050995 -0.027855297453306643 0 -0.035779737428737642 -0.027828864723976266 0 -0.036072125161350832 -0.028132067268039376 0 -0.035204101334018731 -0.028466634537530833 0 -0.035498571091874737 -0.029032257557838646 0 -0.035349976817685126 -0.029362810303379217 0 -0.035204101334018731 -0.028466634537530833 0 -0.035498571091874737 -0.029032257557838646 0 0.0055333577611240093 -0.018411026810331917 0 0.0055906555847571827 -0.018632951037778657 0 0.0054398659833993276 -0.018777489374773845 0 0.0055333577611240093 -0.018411026810331917 0 0.0053428547331125691 -0.018222823583397604 0 0.0054398659833993276 -0.018777489374773845 0 0.0053428547331125691 -0.018222823583397604 0 0.0054398659833993276 -0.018777489374773845 0 0.0050224024628274643 -0.018733488358747979 0 0.0053428547331125691 -0.018222823583397604 0 0.0051453983772385206 -0.017577503732063723 0 0.0055950878769492297 -0.018155085518049258 0 0.0055333577611240093 -0.018411026810331917 0 0.005623496703849931 -0.018421936075935251 0 0.0055950878769492297 -0.018155085518049258 0 0.0055333577611240093 -0.018411026810331917 0 0.0053428547331125691 -0.018222823583397604 0 0.0055950878769492297 -0.018155085518049258 0 0.005697229412466631 -0.018425127439833173 0 0.0055950878769492297 -0.018155085518049258 0 0.0057354673161247628 -0.018375539088939137 0 0.005623496703849931 -0.018421936075935251 0 0.005697229412466631 -0.018425127439833173 0 0.0055950878769492297 -0.018155085518049258 0 0.005697229412466631 -0.018425127439833173 0 0.0056874431168719057 -0.018504342067055885 0 0.0057354673161247628 -0.018375539088939137 0 0.0056874431168719057 -0.018504342067055885 0 0.0057354673161247628 -0.018375539088939137 0 0.0056931113388698513 -0.018561584943436259 0 0.005697229412466631 -0.018425127439833173 0 0.0056874431168719057 -0.018504342067055885 0 0.0056739228611474906 -0.01852668927795496 0 0.0049434875281217476 -0.018899649415518686 0 0.0029880904356525198 -0.022681929952325899 0 0.0056874431168719057 -0.018504342067055885 0 0.0056739228611474906 -0.01852668927795496 0 0.005640874713752071 -0.018598781576696644 0 0.0029880904356525198 -0.022681929952325899 0 0.00093916067521597577 -0.021361053421708215 0 0.0056874431168719057 -0.018504342067055885 0 0.005640874713752071 -0.018598781576696644 0 0.0056931113388698513 -0.018561584943436259 0 0.0056739228611474906 -0.01852668927795496 0 0.0055906555847571827 -0.018632951037778657 0 0.0056111761799336772 -0.018816331180026652 0 0.0055333577611240093 -0.018411026810331917 0 0.005623496703849931 -0.018421936075935251 0 0.0055906555847571827 -0.018632951037778657 0 0.005623496703849931 -0.018421936075935251 0 0.0056739228611474906 -0.01852668927795496 0 0.0055906555847571827 -0.018632951037778657 0 0.005623496703849931 -0.018421936075935251 0 0.005697229412466631 -0.018425127439833173 0 0.0056739228611474906 -0.01852668927795496 0 -0.00028954691892635228 -0.028616519917129185 0 -0.00012647138902088301 -0.028508022966789316 0 0.0019526711796179425 -0.029153704785427483 0 0.0055906555847571827 -0.018632951037778657 0 0.0056111761799336772 -0.018816331180026652 0 0.0054398659833993276 -0.018777489374773845 0 0.00123353577267951 -0.02871484901719161 0 0.00066995357162785945 -0.02857521438892429 0 0.0013695581362098946 -0.028622709691705286 0 0.0019757952426518147 -0.028364685715435479 0 -0.001940823290335375 -0.032866594888130783 0 0.0019757952426518147 -0.028364685715435479 0 0.0011650681451281818 -0.028332674728341205 0 0.0056739228611474906 -0.01852668927795496 0 0.0056111761799336772 -0.018816331180026652 0 0.005751930161918919 -0.018697608511773104 0 0.00066995357162785945 -0.02857521438892429 0 0.0013695581362098946 -0.028622709691705286 0 -0.0007528746694720615 -0.0279784308263837 0 -0.001940823290335375 -0.032866594888130783 0 -0.0043797230970150595 -0.034588610910843601 0 0.0029880904356525198 -0.022681929952325899 0 -0.0015280980019392694 -0.026511496371326802 0 0.0019757952426518147 -0.028364685715435479 0 0.0029880904356525198 -0.022681929952325899 0 0.0012361400398596962 -0.028703066477071743 0 0.00066995357162785945 -0.02857521438892429 0 -0.0001078367560331519 -0.029574419982609488 0 0.00066995357162785945 -0.02857521438892429 0 -0.0001078367560331519 -0.029574419982609488 0 -0.00039170307780461331 -0.028279646902463887 0 -0.0001078367560331519 -0.029574419982609488 0 -0.00039170307780461331 -0.028279646902463887 0 -0.0011895369161262601 -0.028563069191757717 0 0.00066995357162785945 -0.02857521438892429 0 -0.00039170307780461331 -0.028279646902463887 0 -0.0007528746694720615 -0.0279784308263837 0 -0.00039170307780461331 -0.028279646902463887 0 -0.00075751392590974246 -0.027966539532727732 0 -0.0011895369161262601 -0.028563069191757717 0 -0.0066913672860446022 -0.042125611898253069 0 -0.0080296899026972221 -0.041775829120894135 0 -0.0075480004643544646 -0.041041843766366895 0 -0.0038996835576145597 -0.032757037394237139 0 -0.0043797230970150595 -0.034588610910843601 0 -0.0066913672860446022 -0.042125611898253069 0 -0.005627697417247713 -0.041444198244257033 0 -0.006702595412804992 -0.040801459276996549 0 -0.0066913672860446022 -0.042125611898253069 0 -0.006702595412804992 -0.040801459276996549 0 -0.0075480004643544646 -0.041041843766366895 0 -0.001940823290335375 -0.032866594888130783 0 -0.0038692179687545044 -0.039266679868199289 0 -0.005627697417247713 -0.041444198244257033 0 -0.0054295967838270988 -0.041289516263517838 0 -0.006702595412804992 -0.040801459276996549 0 -0.00052451405537071573 -0.03501279738254183 0 -0.00098333608059821237 -0.035361951124927377 0 -0.00093193201649146629 -0.034888477303434577 0 -0.001940823290335375 -0.032866594888130783 0 0.0020922690257479835 -0.027460557455169638 0 0.0019757952426518147 -0.028364685715435479 0 0.0020922690257479835 -0.027460557455169638 0 0.0020922690257479835 -0.027460557455169638 0 0.0034273474691999544 -0.023042881358591682 0 0.0020922690257479835 -0.027460557455169638 0 -5.9697050453647392e-05 -0.031499834825260337 0 -0.00093193201649146629 -0.034888477303434577 0 -0.0012643120847925769 -0.035188971430812524 0 -0.0013582138530441486 -0.03479530346250774 0 0.0016195530627559943 -0.027741282002969207 0 0.0015512466708143087 -0.027813620723824525 0 0.0015518081791600531 -0.027817879648337252 0 -0.00098333608059821237 -0.035361951124927377 0 -0.0012643120847925769 -0.035188971430812524 0 -0.0014301960899163505 -0.03568496474567974 0 -0.00098333608059821237 -0.035361951124927377 0 -0.00093193201649146629 -0.034888477303434577 0 -0.0012643120847925769 -0.035188971430812524 0 -0.005627697417247713 -0.041444198244257033 0 -0.0054295967838270988 -0.041289516263517838 0 -0.0044986170420835137 -0.04080781051480635 0 -0.0012643120847925769 -0.035188971430812524 0 -0.0016078838405531282 -0.035212127044356972 0 -0.0014301960899163505 -0.03568496474567974 0 -0.0016078838405531282 -0.035212127044356972 0 -0.0017868196917257557 -0.035610762866515079 0 -0.0014301960899163505 -0.03568496474567974 0 -0.0016078838405531282 -0.035212127044356972 0 -0.0020752626864300964 -0.035243199838795834 0 -0.0017868196917257557 -0.035610762866515079 0 -0.0016078838405531282 -0.035212127044356972 0 -0.0020752626864300964 -0.035243199838795834 0 -0.0017778763911529003 -0.034695653594775534 0 -0.0020752626864300964 -0.035243199838795834 0 -0.0021878344583916914 -0.034593232809956791 0 -0.0017778763911529003 -0.034695653594775534 0 -0.0012643120847925769 -0.035188971430812524 0 -0.0016078838405531282 -0.035212127044356972 0 -0.0013582138530441486 -0.03479530346250774 0 -0.0016078838405531282 -0.035212127044356972 0 -0.0013582138530441486 -0.03479530346250774 0 -0.0017778763911529003 -0.034695653594775534 0 0.0023240978646353592 -0.035790352718470232 0 0.0020078892150645032 -0.035848755765637001 0 0.0020339708299826524 -0.03656254429270004 0 0.0014333893349628988 -0.035652663117008626 0 0.0018403540611003134 -0.036708085966236995 0 3.4191571483043808e-05 -0.036238768684275897 0 0.00054980004312842425 -0.035504339157986717 0 0.0015919561529019826 -0.036739722724057566 0 3.4191571483043808e-05 -0.036238768684275897 0 0.0010308051166368201 -0.037544643165937829 0 0.00048918195063881354 -0.038350435093525766 0 -0.0012657448019868806 -0.035947354906060033 0 0.0003854816886060118 -0.034586757831695736 0 3.4191571483043808e-05 -0.036238768684275897 0 0.0015919561529019826 -0.036739722724057566 0 0.0010308051166368201 -0.037544643165937829 0 0.0018403540611003134 -0.036708085966236995 0 0.0027251873549158628 -0.03802060865684876 0 0.0015919561529019826 -0.036739722724057566 0 0.0016927550577163616 -0.038028303315988644 0 0.0027586523868903235 -0.03812618932894888 0 0.0015919561529019826 -0.036739722724057566 0 0.0010308051166368201 -0.037544643165937829 0 0.0016927550577163616 -0.038028303315988644 0 0.0016927550577163616 -0.038028303315988644 0 0.0019948149117019892 -0.039273389503796427 0 0.0027586523868903235 -0.03812618932894888 0 0.0016927550577163616 -0.038028303315988644 0 0.0011104362993272041 -0.038535596497654603 0 0.0019948149117019892 -0.039273389503796427 0 0.0010308051166368201 -0.037544643165937829 0 0.0016927550577163616 -0.038028303315988644 0 0.0011104362993272041 -0.038535596497654603 0 0.0019892442994295821 -0.028091168546692732 0 0.0019701722511528447 -0.028019894675980379 0 0.0016779770078241254 -0.027947185208407031 0 0.0011104362993272041 -0.038535596497654603 0 0.00051722011462036765 -0.03869463104366027 0 0.00042545941908099711 -0.038317582865542522 0 0.0013368926771365661 -0.036745250153859259 0 0.0003854816886060118 -0.034586757831695736 0 0.0025618867141414181 -0.027446014242581973 0 0.0003854816886060118 -0.034586757831695736 0 0.0010308051166368201 -0.037544643165937829 0 0.0011104362993272041 -0.038535596497654603 0 0.00048918195063881354 -0.038350435093525766 0 0.0032774480289686487 -0.0184377596920609 0 0.0030282418096782802 -0.017559404142331446 0 0.0040217988625085941 -0.017889303647271787 0 0.0025618867141414181 -0.027446014242581973 0 0.0040968625078472596 -0.020674277920622184 0 0.0011104362993272041 -0.038535596497654603 0 0.00051722011462036765 -0.03869463104366027 0 0.0019948149117019892 -0.039273389503796427 0 0.0058035751720941523 -0.026514226368385338 0 0.0055495951722564279 -0.025296480411261549 0 0.0044517300655431335 -0.026085112060682751 0 0.0025618867141414181 -0.027446014242581973 0 0.0033502367594401656 -0.033069238384807596 0 0.0055495951722564279 -0.025296480411261549 0 0.0044517300655431335 -0.026085112060682751 0 0.0041778283318085942 -0.024868154435291733 0 0.0015518081791600531 -0.027817879648337252 0 0.0016779770078241254 -0.027947185208407031 0 0.0016693201994133055 -0.027912599123341382 0 0.0015512466708143087 -0.027813620723824525 0 0.0015518081791600531 -0.027817879648337252 0 0.0016693201994133055 -0.027912599123341382 0 0.0053428547331125691 -0.018222823583397604 0 0.0050224024628274643 -0.018733488358747979 0 0.00432626526366488 -0.018636534690425272 0 0.0034273474691999544 -0.023042881358591682 0 0.0028333842857053227 -0.022986797620862955 0 -5.9697050453647392e-05 -0.031499834825260337 0 -0.00022557799409903456 -0.031079544635635781 0 0.0025618867141414181 -0.027446014242581973 0 0.0028333842857053227 -0.022986797620862955 0 0.0003854816886060118 -0.034586757831695736 0 -0.00022557799409903456 -0.031079544635635781 0 0.0019701722511528447 -0.028019894675980379 0 0.0016779770078241254 -0.027947185208407031 0 0.0016693201994133055 -0.027912599123341382 0 0.00432626526366488 -0.018636534690425272 0 0.0040217988625085941 -0.017889303647271787 0 0.0051453983772385206 -0.017577503732063723 0 0.0032774480289686487 -0.0184377596920609 0 0.00432626526366488 -0.018636534690425272 0 0.0040217988625085941 -0.017889303647271787 0 0.0053428547331125691 -0.018222823583397604 0 0.00432626526366488 -0.018636534690425272 0 0.0051453983772385206 -0.017577503732063723 0 0.0051453983772385206 -0.017577503732063723 0 0.0043194743188188691 -0.01724608374094673 0 0.004386234990518708 -0.016449171046989151 0 0.0040217988625085941 -0.017889303647271787 0 0.0043194743188188691 -0.01724608374094673 0 0.0035210062360273272 -0.016859560320746442 0 0.0043194743188188691 -0.01724608374094673 0 0.004386234990518708 -0.016449171046989151 0 0.0035210062360273272 -0.016859560320746442 0 0.0040217988625085941 -0.017889303647271787 0 0.0051453983772385206 -0.017577503732063723 0 0.0043194743188188691 -0.01724608374094673 0 0.004386234990518708 -0.016449171046989151 0 0.0035210062360273272 -0.016859560320746442 0 0.0035085482402206687 -0.016078786352565089 0 0.004386234990518708 -0.016449171046989151 0 0.0035085482402206687 -0.016078786352565089 0 0.0044734773609358359 -0.015372163318405118 0 0.0051453983772385206 -0.017577503732063723 0 0.004386234990518708 -0.016449171046989151 0 0.0053480547872170265 -0.015496292372227324 0 0.004386234990518708 -0.016449171046989151 0 0.0053480547872170265 -0.015496292372227324 0 0.0044734773609358359 -0.015372163318405118 0 0.0055495951722564279 -0.025296480411261549 0 0.0052834115320388141 -0.024054856984941898 0 0.0041778283318085942 -0.024868154435291733 0 0.0095488602512953137 -0.022731370237859684 0 0.0075054728115367649 -0.023202387332662791 0 0.0078890593086312043 -0.02393086559195625 0 0.0054280614423382811 -0.020398378763568911 0 0.0063295191438057907 -0.024189696961937891 0 0.0030282418096782802 -0.017559404142331446 0 0.0035210062360273272 -0.016859560320746442 0 0.0028007170599517318 -0.016636185483638512 0 0.0030282418096782802 -0.017559404142331446 0 0.0040217988625085941 -0.017889303647271787 0 0.0035210062360273272 -0.016859560320746442 0 0.0040968625078472596 -0.020674277920622184 0 0.0054280614423382811 -0.020398378763568911 0 0.0035210062360273272 -0.016859560320746442 0 0.0029265741830901276 -0.016538747536675918 0 0.0028007170599517318 -0.016636185483638512 0 0.0035210062360273272 -0.016859560320746442 0 0.0035085482402206687 -0.016078786352565089 0 0.0032628185228605121 -0.016407114539179351 0 0.0035085482402206687 -0.016078786352565089 0 0.0027524990239410851 -0.015638978214627522 0 0.0036493233202948062 -0.015405938851917145 0 0.0035085482402206687 -0.016078786352565089 0 0.0030590832503345372 -0.016168473873808254 0 0.0029014533805068075 -0.015817686512187509 0 0.0025971509026712831 -0.015561885976399263 0 0.0062081467586381925 -0.017352968736152243 0 0.0035210062360273272 -0.016859560320746442 0 0.0032628185228605121 -0.016407114539179351 0 0.0029265741830901276 -0.016538747536675918 0 0.0030590832503345372 -0.016168473873808254 0 0.0032628185228605121 -0.016407114539179351 0 0.0029265741830901276 -0.016538747536675918 0 0.0035085482402206687 -0.016078786352565089 0 0.0030590832503345372 -0.016168473873808254 0 0.0032628185228605121 -0.016407114539179351 0 0.0081953280885226545 -0.019781354385604716 0 0.010320383705078632 -0.022612663872464852 0 0.0095488602512953137 -0.022731370237859684 0 0.009248359730611326 -0.021434517970706807 0 0.0075054728115367649 -0.023202387332662791 0 0.012221685611163139 -0.023009564388219449 0 0.012560097452224963 -0.023206786610938546 0 0.012778081471068466 -0.023040332658534481 0 0.0054280614423382811 -0.020398378763568911 0 0.0081953280885226545 -0.019781354385604716 0 0.0030590832503345372 -0.016168473873808254 0 0.0029265741830901276 -0.016538747536675918 0 0.0026950852687890759 -0.016018214942624634 0 0.0029265741830901276 -0.016538747536675918 0 0.0028105682341331827 -0.01662594230327151 0 0.0026950852687890759 -0.016018214942624634 0 0.0052519974028858111 -0.020106514856684327 0 0.0054280614423382811 -0.020398378763568911 0 0.0030590832503345372 -0.016168473873808254 0 0.0026950852687890759 -0.016018214942624634 0 0.0029014533805068075 -0.015817686512187509 0 0.0083269404969308087 -0.01849490722593768 0 0.008394102954947729 -0.018762891132473921 0 0.0081708557289626588 -0.018642829135680456 0 0.0081953280885226545 -0.019781354385604716 0 0.0062081467586381925 -0.017352968736152243 0 0.0081953280885226545 -0.019781354385604716 0 0.0096609478449723729 -0.019871109777817711 0 0.0097784971615837712 -0.01700666547072871 0 0.0092793262860215806 -0.016187566868804775 0 0.011296530416282289 -0.017260404320861403 0 0.0096609478449723729 -0.019871109777817711 0 0.012824023820075569 -0.020539828829981857 0 0.012270656851946034 -0.02319536382016206 0 0.012714944602136031 -0.023418975250669785 0 0.012560097452224963 -0.023206786610938546 0 0.010092730985030952 -0.0175188422608674 0 0.0097784971615837712 -0.01700666547072871 0 0.011296530416282289 -0.017260404320861403 0 0.010092730985030952 -0.0175188422608674 0 0.0097784971615837712 -0.01700666547072871 0 0.0090978824073646609 -0.017240816084315207 0 0.012221685611163139 -0.023009564388219449 0 0.012270656851946034 -0.02319536382016206 0 0.012560097452224963 -0.023206786610938546 0 0.0092793262860215806 -0.016187566868804775 0 0.0089049804611982964 -0.016604979559045482 0 0.0092707699213388089 -0.016784112236948891 0 0.0097784971615837712 -0.01700666547072871 0 0.0092793262860215806 -0.016187566868804775 0 0.0092707699213388089 -0.016784112236948891 0 0.0096609478449723729 -0.019871109777817711 0 0.0062081467586381925 -0.017352968736152243 0 0.0092793262860215806 -0.016187566868804775 0 0.0085816839907069571 -0.015820447994993003 0 0.0089049804611982964 -0.016604979559045482 0 0.0089049804611982964 -0.016604979559045482 0 0.0090978824073646609 -0.017240816084315207 0 0.0080657864597562679 -0.017366688723171802 0 0.0089049804611982964 -0.016604979559045482 0 0.0092707699213388089 -0.016784112236948891 0 0.0090978824073646609 -0.017240816084315207 0 0.0097784971615837712 -0.01700666547072871 0 0.0092707699213388089 -0.016784112236948891 0 0.0090978824073646609 -0.017240816084315207 0 0.0062081467586381925 -0.017352968736152243 0 0.0046717546162128145 -0.015458958653578523 0 0.0085816839907069571 -0.015820447994993003 0 0.0080657864597562679 -0.017366688723171802 0 0.0064872425764193765 -0.017831315472993645 0 0.0027524990239410851 -0.015638978214627522 0 0.0036493233202948062 -0.015405938851917145 0 0.0038573346522662163 -0.014549297928223461 0 0.0085816839907069571 -0.015820447994993003 0 0.0089049804611982964 -0.016604979559045482 0 0.0080657864597562679 -0.017366688723171802 0 0.0037953178346541681 -0.013810430088133405 0 0.0040372455673946366 -0.013942912437074134 0 0.0047540508604063019 -0.014045932677796783 0 0.0080657864597562679 -0.017366688723171802 0 0.0074435832034135388 -0.019153240992639042 0 0.0064872425764193765 -0.017831315472993645 0 0.0067887496887017763 -0.015946786192177549 0 0.0046717546162128145 -0.015458958653578523 0 0.0040372455673946366 -0.013942912437074134 0 0.00394498328621178 -0.013980411875142998 0 0.0042816933453266402 -0.014450818077417386 0 0.0037953178346541681 -0.013810430088133405 0 0.0040372455673946366 -0.013942912437074134 0 0.0039395667600869294 -0.013984794267339788 0 0.0063864400718439285 -0.01593393193945853 0 0.0067887496887017763 -0.015946786192177549 0 0.0090276631194955818 -0.017060547533927158 0 0.0086172941330114605 -0.016496756297311423 0 0.010717032494381011 -0.015724964661723018 0 0.0067887496887017763 -0.015946786192177549 0 0.0099989761618826216 -0.017104570582566741 0 0.0068486290185013369 -0.014581289060028422 0 0.0067887496887017763 -0.015946786192177549 0 0.0080657864597562679 -0.017366688723171802 0 0.0074435832034135388 -0.019153240992639042 0 0.0093288739717384793 -0.018472385540846355 0 0.0090978824073646609 -0.017240816084315207 0 0.0080657864597562679 -0.017366688723171802 0 0.0093288739717384793 -0.018472385540846355 0 0.010092730985030952 -0.0175188422608674 0 0.0090978824073646609 -0.017240816084315207 0 0.0093288739717384793 -0.018472385540846355 0 0.0099989761618826216 -0.017104570582566741 0 0.013324432513223997 -0.01797206324659311 0 0.010092730985030952 -0.0175188422608674 0 0.0093288739717384793 -0.018472385540846355 0 0.011238527163120751 -0.017785494002848463 0 0.0053480547872170265 -0.015496292372227324 0 0.0048944198224498466 -0.014726002742203379 0 0.0044734773609358359 -0.015372163318405118 0 0.0053480547872170265 -0.015496292372227324 0 0.0048944198224498466 -0.014726002742203379 0 0.0055760807103249436 -0.014487845441471201 0 0.0048944198224498466 -0.014726002742203379 0 0.0044734773609358359 -0.015372163318405118 0 0.0041442618068339336 -0.014511663004335703 0 0.0035085482402206687 -0.016078786352565089 0 0.0036493233202948062 -0.015405938851917145 0 0.0044734773609358359 -0.015372163318405118 0 0.0042333656706212315 -0.014975899205839967 0 0.0046717546162128145 -0.015458958653578523 0 0.0036493233202948062 -0.015405938851917145 0 0.0044734773609358359 -0.015372163318405118 0 0.0038573346522662163 -0.014549297928223461 0 0.0048944198224498466 -0.014726002742203379 0 0.004703868754133313 -0.014345229954781906 0 0.0041442618068339336 -0.014511663004335703 0 0.004703868754133313 -0.014345229954781906 0 0.0047540508604063019 -0.014045932677796783 0 0.0050716304518622843 -0.014204565612097781 0 0.0068486290185013369 -0.014581289060028422 0 0.0038481511434559452 -0.01371915292584047 0 0.004703868754133313 -0.014345229954781906 0 0.0045184802319787939 -0.014210614756245498 0 0.0047540508604063019 -0.014045932677796783 0 0.0040372455673946366 -0.013942912437074134 0 0.0042816933453266402 -0.014450818077417386 0 0.0045184802319787939 -0.014210614756245498 0 0.004703868754133313 -0.014345229954781906 0 0.0041442618068339336 -0.014511663004335703 0 0.0045184802319787939 -0.014210614756245498 0 0.0046717546162128145 -0.015458958653578523 0 0.0047770684379212381 -0.01474205268555288 0 0.0040372455673946366 -0.013942912437074134 0 0.0045184802319787939 -0.014210614756245498 0 0.0047540508604063019 -0.014045932677796783 0 0.0049107894150946033 -0.013943788131226612 0 0.0047540508604063019 -0.014045932677796783 0 0.0049329776790358612 -0.013968804859923063 0 0.0047540508604063019 -0.014045932677796783 0 0.0049329776790358612 -0.013968804859923063 0 0.0050716304518622843 -0.014204565612097781 0 0.0050161651922142293 -0.013762366107846633 0 0.0049329776790358612 -0.013968804859923063 0 0.0050716304518622843 -0.014204565612097781 0 0.0050161651922142293 -0.013762366107846633 0 0.0050716304518622843 -0.014204565612097781 0 0.0055760807103249436 -0.014487845441471201 0 0.0048944198224498466 -0.014726002742203379 0 0.004703868754133313 -0.014345229954781906 0 0.0050716304518622843 -0.014204565612097781 0 0.0048944198224498466 -0.014726002742203379 0 0.0050716304518622843 -0.014204565612097781 0 0.0055760807103249436 -0.014487845441471201 0 0.0070531755874706416 -0.011886343220013255 0 0.0071372139646704016 -0.012295842296386021 0 0.0050161651922142293 -0.013762366107846633 0 0.0055760807103249436 -0.014487845441471201 0 0.0066319252114619498 -0.014117447621581443 0 0.0075369914246978583 -0.010653817221329555 0 0.0075808542731623718 -0.010448036336033787 0 0.0075902208886646175 -0.010976524893015828 0 0.0064642350322957429 -0.014989028513992003 0 0.0072653411118170788 -0.015769835861279138 0 0.0074777028024059465 -0.01436998920224135 0 0.0066319252114619498 -0.014117447621581443 0 0.0064642350322957429 -0.014989028513992003 0 0.0074777028024059465 -0.01436998920224135 0 0.0066319252114619498 -0.014117447621581443 0 0.0074777028024059465 -0.01436998920224135 0 0.0079536468269837055 -0.014168739125474783 0 0.0071372139646704016 -0.012295842296386021 0 0.0078598862563841951 -0.012956542909180578 0 0.0053480547872170265 -0.015496292372227324 0 0.0055760807103249436 -0.014487845441471201 0 0.0064642350322957429 -0.014989028513992003 0 0.0055760807103249436 -0.014487845441471201 0 0.0066319252114619498 -0.014117447621581443 0 0.0064642350322957429 -0.014989028513992003 0 0.0051453983772385206 -0.017577503732063723 0 0.0053480547872170265 -0.015496292372227324 0 0.0063157354776696905 -0.016219112029206197 0 0.0053480547872170265 -0.015496292372227324 0 0.0064642350322957429 -0.014989028513992003 0 0.0063157354776696905 -0.016219112029206197 0 0.0064642350322957429 -0.014989028513992003 0 0.0063157354776696905 -0.016219112029206197 0 0.0072653411118170788 -0.015769835861279138 0 0.0063157354776696905 -0.016219112029206197 0 0.0072653411118170788 -0.015769835861279138 0 0.0072468874921589842 -0.017524043210855562 0 0.0051453983772385206 -0.017577503732063723 0 0.0063157354776696905 -0.016219112029206197 0 0.0072468874921589842 -0.017524043210855562 0 0.0050872226695264583 -0.017619593189577239 0 0.0065770830003136702 -0.017805548800984394 0 0.0082818616768593582 -0.014746361672894809 0 0.008034325309692128 -0.014099050937850384 0 0.0085497455971243093 -0.014270228963502194 0 0.0067505299855775283 -0.018108335863252473 0 0.0083816153849620555 -0.014840603694798161 0 0.0065770830003136702 -0.017805548800984394 0 0.0067505299855775283 -0.018108335863252473 0 0.0072653411118170788 -0.015769835861279138 0 0.0072468874921589842 -0.017524043210855562 0 0.0085058663281894122 -0.016081678092666567 0 0.0072468874921589842 -0.017524043210855562 0 0.0093513341671712606 -0.017562491750007535 0 0.0085058663281894122 -0.016081678092666567 0 0.0083816153849620555 -0.014840603694798161 0 0.0075378830745050163 -0.014429452832599544 0 0.0072653411118170788 -0.015769835861279138 0 0.0085058663281894122 -0.016081678092666567 0 0.0074777028024059465 -0.01436998920224135 0 0.0082785962431981362 -0.013907731175846002 0 0.0079536468269837055 -0.014168739125474783 0 0.008732260345519138 -0.013437336103109642 0 0.008034325309692128 -0.014099050937850384 0 0.0082785962431981362 -0.013907731175846002 0 0.0085497455971243093 -0.014270228963502194 0 0.008034325309692128 -0.014099050937850384 0 0.0082785962431981362 -0.013907731175846002 0 0.0079536468269837055 -0.014168739125474783 0 0.008324128796507381 -0.011882197556494441 0 0.0075629526729199545 -0.011687018922745901 0 0.008732260345519138 -0.013437336103109642 0 0.008324128796507381 -0.011882197556494441 0 0.0075629526729199545 -0.011687018922745901 0 0.0078286251450812375 -0.011189256897066423 0 0.0078598862563841951 -0.012956542909180578 0 0.0087615889814370487 -0.013454837105688911 0 0.008034325309692128 -0.014099050937850384 0 0.0074777028024059465 -0.01436998920224135 0 0.0079536468269837055 -0.014168739125474783 0 0.0075808542731623718 -0.010448036336033787 0 0.0075629526729199545 -0.011687018922745901 0 0.0075902208886646175 -0.010976524893015828 0 0.0075629526729199545 -0.011687018922745901 0 0.0075902208886646175 -0.010976524893015828 0 0.0078286251450812375 -0.011189256897066423 0 0.0075369914246978583 -0.010653817221329555 0 0.0075902208886646175 -0.010976524893015828 0 0.0078286251450812375 -0.011189256897066423 0 0.0075369914246978583 -0.010653817221329555 0 0.0078286251450812375 -0.011189256897066423 0 0.0083575815778659749 -0.011016497192188713 0 0.008324128796507381 -0.011882197556494441 0 0.0078286251450812375 -0.011189256897066423 0 0.0083575815778659749 -0.011016497192188713 0 0.0074847827282863528 -0.0099404754362971623 0 0.0017535470132713372 -0.012278224823651148 0 0.008324128796507381 -0.011882197556494441 0 0.0083575815778659749 -0.011016497192188713 0 0.0091658685386232387 -0.012248954248355263 0 0.0083575815778659749 -0.011016497192188713 0 0.0091658685386232387 -0.012248954248355263 0 0.010023674187692087 -0.011640273175058299 0 0.008324128796507381 -0.011882197556494441 0 0.0091658685386232387 -0.012248954248355263 0 0.008732260345519138 -0.013437336103109642 0 0.0091658685386232387 -0.012248954248355263 0 0.008732260345519138 -0.013437336103109642 0 0.0093833838382874693 -0.013155398059822984 0 0.0091658685386232387 -0.012248954248355263 0 0.010158025694493698 -0.012799459969604694 0 0.010023674187692087 -0.011640273175058299 0 -0.0029548465073840815 -0.014953640581644686 0 -0.0030529379271209524 -0.013854133842402199 0 -0.0024890390762369367 -0.014038916461341746 0 -0.0019174791564727368 -0.016304366221909981 0 0.0017535470132713372 -0.012278224823651148 0 0.0091658685386232387 -0.012248954248355263 0 0.010158025694493698 -0.012799459969604694 0 0.0093833838382874693 -0.013155398059822984 0 -0.0019174791564727368 -0.016304366221909981 0 -0.010086984331790264 -0.014977868759236266 0 0.0030591802014705589 -0.0095530942993602725 0 0.0046358152752155558 -0.0091953752467835888 0 0.0029803510926303986 -0.0087256916190987174 0 0.0017535470132713372 -0.012278224823651148 0 -0.010086984331790264 -0.014977868759236266 0 -0.0061951212718382954 -0.012241397295527378 0 -0.0066448456230770265 -0.012571499341862271 0 -0.0070104853634292879 -0.012002528285401761 0 -0.0060725428997419782 -0.013508427230828022 0 -0.0066448456230770265 -0.012571499341862271 0 -0.0073019531983788376 -0.012531598435376811 0 -0.0042370507349697812 -0.010680947801539456 0 0.0017535470132713372 -0.012278224823651148 0 -0.0060725428997419782 -0.013508427230828022 0 -0.0061951212718382954 -0.012241397295527378 0 -0.0066448456230770265 -0.012571499341862271 0 -0.013085649360080458 -0.014860574406349769 0 -0.01334373169493927 -0.015332501938561772 0 -0.01440125878976343 -0.014468974179390585 0 -0.017790536891275854 -0.01256577542428274 0 -0.017982350160134136 -0.012986218956631115 0 -0.017635525164020106 -0.012808340346184175 0 -0.017790536891275854 -0.01256577542428274 0 -0.017762654513989163 -0.012470185460131438 0 -0.017755157918888567 -0.012514632428455047 0 -0.0042370507349697812 -0.010680947801539456 0 -0.01475927075885705 -0.013176997484951236 0 -0.017926699004194219 -0.012920778679752217 0 -0.01475927075885705 -0.013176997484951236 0 -0.01475927075885705 -0.013176997484951236 0 -0.015142738535370874 -0.015272743747194686 0 -0.010086984331790264 -0.014977868759236266 0 -0.01475927075885705 -0.013176997484951236 0 -0.0066448456230770265 -0.012571499341862271 0 -0.0070104853634292879 -0.012002528285401761 0 -0.0073019531983788376 -0.012531598435376811 0 -0.017982350160134136 -0.012986218956631115 0 -0.017635525164020106 -0.012808340346184175 0 -0.017650061082145181 -0.013074133545930424 0 -0.017982350160134136 -0.012986218956631115 0 -0.017650061082145181 -0.013074133545930424 0 -0.017705559728161895 -0.013227202423627885 0 -0.017485599501705629 -0.01278393806180681 0 -0.017635525164020106 -0.012808340346184175 0 -0.017474193076247223 -0.013002815801521088 0 -0.017635525164020106 -0.012808340346184175 0 -0.017650061082145181 -0.013074133545930424 0 -0.017474193076247223 -0.013002815801521088 0 -0.017650061082145181 -0.013074133545930424 0 -0.017501225321263008 -0.013159164268217314 0 -0.017474193076247223 -0.013002815801521088 0 -0.017501225321263008 -0.013159164268217314 0 -0.017633899253099026 -0.013244488573262209 0 -0.017419971297855542 -0.013456143422880569 0 -0.017633899253099026 -0.013244488573262209 0 -0.017693217573742301 -0.01322626568530857 0 -0.017419971297855542 -0.013456143422880569 0 -0.015142738535370874 -0.015272743747194686 0 -0.015700742477055375 -0.017248460986638892 0 -0.012354043261004888 -0.019329281905201431 0 -0.012243909669385314 -0.019803408220302066 0 -0.011717268989235205 -0.019889958472716445 0 -0.017650061082145181 -0.013074133545930424 0 -0.017501225321263008 -0.013159164268217314 0 -0.017633899253099026 -0.013244488573262209 0 -0.017650061082145181 -0.013074133545930424 0 -0.017633899253099026 -0.013244488573262209 0 -0.017705559728161895 -0.013227202423627885 0 -0.016263919884167411 -0.014765471419721961 0 -0.015142738535370874 -0.015272743747194686 0 -0.012354043261004888 -0.019329281905201431 0 -0.012243909669385314 -0.019803408220302066 0 -0.012483081546335558 -0.019682698789730141 0 -0.010086984331790264 -0.014977868759236266 0 -0.015142738535370874 -0.015272743747194686 0 -0.012967277828752975 -0.0191087600594229 0 -0.012354043261004888 -0.019329281905201431 0 -0.012760373963311099 -0.019562046271163699 0 -0.013255958667048925 -0.019670062127747467 0 -0.012967277828752975 -0.0191087600594229 0 -0.012760373963311099 -0.019562046271163699 0 -0.012354043261004888 -0.019329281905201431 0 -0.012483081546335558 -0.019682698789730141 0 -0.012760373963311099 -0.019562046271163699 0 -0.012483081546335558 -0.019682698789730141 0 -0.012760373963311099 -0.019562046271163699 0 -0.012575537866434635 -0.020040898723225075 0 -0.013255958667048925 -0.019670062127747467 0 -0.012760373963311099 -0.019562046271163699 0 -0.01290833111222088 -0.020130307275341063 0 -0.012760373963311099 -0.019562046271163699 0 -0.01290833111222088 -0.020130307275341063 0 -0.012575537866434635 -0.020040898723225075 0 -0.01290833111222088 -0.020130307275341063 0 -0.012575537866434635 -0.020040898723225075 0 -0.012710871830764714 -0.020430387703008146 0 -0.012575537866434635 -0.020040898723225075 0 -0.012710871830764714 -0.020430387703008146 0 -0.012420141604454531 -0.020510235003861645 0 -0.01290833111222088 -0.020130307275341063 0 -0.012710871830764714 -0.020430387703008146 0 -0.012907173659982141 -0.020581750556781752 0 -0.01290833111222088 -0.020130307275341063 0 -0.012907173659982141 -0.020581750556781752 0 -0.013207731197644455 -0.020455363746596334 0 -0.012243909669385314 -0.019803408220302066 0 -0.012177856582596867 -0.020161930127419042 0 -0.011717268989235205 -0.019889958472716445 0 -0.012243909669385314 -0.019803408220302066 0 -0.012575537866434635 -0.020040898723225075 0 -0.012177856582596867 -0.020161930127419042 0 -0.012243909669385314 -0.019803408220302066 0 -0.012483081546335558 -0.019682698789730141 0 -0.012575537866434635 -0.020040898723225075 0 -0.012575537866434635 -0.020040898723225075 0 -0.012177856582596867 -0.020161930127419042 0 -0.012420141604454531 -0.020510235003861645 0 -0.012177856582596867 -0.020161930127419042 0 -0.012420141604454531 -0.020510235003861645 0 -0.011901978761670259 -0.020573884377255713 0 -0.012177856582596867 -0.020161930127419042 0 -0.011901978761670259 -0.020573884377255713 0 -0.011717268989235205 -0.019889958472716445 0 -0.016869181707793571 -0.026256228927117004 0 -0.018065130957452477 -0.034628019283601423 0 -0.012420141604454531 -0.020510235003861645 0 -0.011901978761670259 -0.020573884377255713 0 -0.012692559504391153 -0.021145910264678828 0 -0.016869181707793571 -0.026256228927117004 0 -0.015560376550656339 -0.026479700589531814 0 -0.016658826788686514 -0.030202757853132998 0 -0.018631156532975125 -0.03158530972235165 0 -0.017420568910641906 -0.032675890781515317 0 -0.012909444414622365 -0.020912936148213025 0 -0.013207731197644455 -0.020455363746596334 0 -0.013113502210808672 -0.021227710217187359 0 -0.012907173659982141 -0.020581750556781752 0 -0.012909444414622365 -0.020912936148213025 0 -0.013207731197644455 -0.020455363746596334 0 -0.012907173659982141 -0.020581750556781752 0 -0.012703351915946143 -0.02083510302440179 0 -0.012909444414622365 -0.020912936148213025 0 -0.012710871830764714 -0.020430387703008146 0 -0.012420141604454531 -0.020510235003861645 0 -0.012703351915946143 -0.02083510302440179 0 -0.012420141604454531 -0.020510235003861645 0 -0.012703351915946143 -0.02083510302440179 0 -0.012692559504391153 -0.021145910264678828 0 -0.012710871830764714 -0.020430387703008146 0 -0.012907173659982141 -0.020581750556781752 0 -0.012703351915946143 -0.02083510302440179 0 -0.012703351915946143 -0.02083510302440179 0 -0.012669829826087246 -0.021139270883394911 0 -0.012909444414622365 -0.020912936148213025 0 -0.014702623766059238 -0.021886525749612827 0 -0.015560376550656339 -0.026479700589531814 0 -0.012669829826087246 -0.021139270883394911 0 -0.012909444414622365 -0.020912936148213025 0 -0.012877687502241801 -0.021236955161642229 0 -0.012909444414622365 -0.020912936148213025 0 -0.013113502210808672 -0.021227710217187359 0 -0.012877687502241801 -0.021236955161642229 0 -0.0014218791374076172 -0.01734843045253686 0 -0.0013064056794218268 -0.017562781753792701 0 -0.0010455342549656826 -0.017153926056400336 0 -0.0014218791374076172 -0.01734843045253686 0 -0.0010455342549656826 -0.017153926056400336 0 -0.0016422688973532721 -0.017149950339174439 0 -0.0014218791374076172 -0.01734843045253686 0 -0.0015707980683364027 -0.017560611877553329 0 -0.0016422688973532721 -0.017149950339174439 0 -0.0074144831071832002 -0.019157073384807689 0 -0.0074477214418849696 -0.02029513357419797 0 -0.0014218791374076172 -0.01734843045253686 0 -0.0015707980683364027 -0.017560611877553329 0 -0.0013064056794218268 -0.017562781753792701 0 0.0085497455971243093 -0.014270228963502194 0 0.0094396075286038404 -0.014049410081113288 0 0.0088669029841892538 -0.014867422542612523 0 0.0047796475903160874 -0.014869801171822064 0 0.0029946461329580223 -0.018282854112903296 0 0.0082818616768593582 -0.014746361672894809 0 0.0085497455971243093 -0.014270228963502194 0 0.0088669029841892538 -0.014867422542612523 0 0.0085497455971243093 -0.014270228963502194 0 0.008732260345519138 -0.013437336103109642 0 0.0094396075286038404 -0.014049410081113288 0 0.0082785962431981362 -0.013907731175846002 0 0.0085497455971243093 -0.014270228963502194 0 0.008732260345519138 -0.013437336103109642 0 0.008732260345519138 -0.013437336103109642 0 0.0093833838382874693 -0.013155398059822984 0 0.0094396075286038404 -0.014049410081113288 0 0.010158025694493698 -0.012799459969604694 0 0.0093833838382874693 -0.013155398059822984 0 0.0094396075286038404 -0.014049410081113288 0 -0.0015346042517543998 -0.017913439524809813 0 -0.0015707980683364027 -0.017560611877553329 0 -0.0013064056794218268 -0.017562781753792701 0 -0.0019174791564727368 -0.016304366221909981 0 -0.0074144831071832002 -0.019157073384807689 0 -0.0019174791564727368 -0.016304366221909981 0 0.0047796475903160874 -0.014869801171822064 0 -0.013255958667048925 -0.019670062127747467 0 -0.01290833111222088 -0.020130307275341063 0 -0.013207731197644455 -0.020455363746596334 0 -0.017280051491157144 -0.032705420553567253 0 -0.017166946188454432 -0.032691283255965771 0 -0.017198434887438298 -0.032720827203101002 0 -0.017829607253540453 -0.019766701033193269 0 -0.017527095921794231 -0.021307378786250226 0 -0.017166946188454432 -0.032691283255965771 0 -0.017198434887438298 -0.032720827203101002 0 -0.017157459674696618 -0.03261293918852818 0 -0.017415208881027763 -0.032695920328260401 0 -0.017280051491157144 -0.032705420553567253 0 -0.017198434887438298 -0.032720827203101002 0 -0.017280051491157144 -0.032705420553567253 0 -0.017200272462224126 -0.032724035412849982 0 -0.017166946188454432 -0.032691283255965771 0 -0.017280051491157144 -0.032705420553567253 0 -0.017200272462224126 -0.032724035412849982 0 -0.017262661721050353 -0.032701472711746497 0 -0.017200272462224126 -0.032724035412849982 0 -0.017144888997859223 -0.032720666776671264 0 -0.017125544576694844 -0.032761201178299997 0 -0.017144888997859223 -0.032720666776671264 0 -0.017124135094843628 -0.032793560657597899 0 -0.017125544576694844 -0.032761201178299997 0 -0.017200272462224126 -0.032724035412849982 0 -0.017144888997859223 -0.032720666776671264 0 -0.017166946188454432 -0.032691283255965771 0 -0.017754290787940361 -0.01242096222849998 0 -0.017399114141902039 -0.012547746806899046 0 -0.017809614615307095 -0.012814214363515897 0 -0.018038051740124916 -0.012416650303405018 0 -0.017754290787940361 -0.01242096222849998 0 -0.017809614615307095 -0.012814214363515897 0 -0.018470236132209227 -0.012570892027434629 0 -0.017095124377007186 -0.013511136692282658 0 -0.018190994884109659 -0.014206838714925845 0 -0.018708189150437218 -0.012203849055435647 0 -0.018470236132209227 -0.012570892027434629 0 -0.018190994884109659 -0.014206838714925845 0 -0.018828146288695502 -0.011001505440926535 0 -0.017829607253540453 -0.019766701033193269 0 -0.017494454231894212 -0.011374744279109179 0 -0.017527095921794231 -0.021307378786250226 0 -0.016261072048690484 -0.012965156949434871 0 -0.014692415351175266 -0.016125265325440785 0 -0.016209929809871411 -0.015699256372657597 0 -0.018470236132209227 -0.012570892027434629 0 -0.018038051740124916 -0.012416650303405018 0 -0.017809614615307095 -0.012814214363515897 0 -0.017193493789707789 -0.032554004150977735 0 -0.017725069869697335 -0.032979486206975703 0 -0.017342473097570674 -0.032987654255486096 0 -0.017166946188454432 -0.032691283255965771 0 -0.017157459674696618 -0.03261293918852818 0 -0.017173691642685826 -0.032621157337353428 0 -0.017527095921794231 -0.021307378786250226 0 -0.016921986523076814 -0.023303127284195344 0 -0.017173691642685826 -0.032621157337353428 0 -0.017165397804438879 -0.032725428490826929 0 -0.017219244659635233 -0.032820805240122521 0 -0.017144888997859223 -0.032720666776671264 0 -0.017166946188454432 -0.032691283255965771 0 -0.017173691642685826 -0.032621157337353428 0 -0.017193493789707789 -0.032554004150977735 0 -0.017173691642685826 -0.032621157337353428 0 -0.017219244659635233 -0.032820805240122521 0 -0.017144888997859223 -0.032720666776671264 0 -0.017173691642685826 -0.032621157337353428 0 -0.017165397804438879 -0.032725428490826929 0 -0.017144888997859223 -0.032720666776671264 0 -0.017165397804438879 -0.032725428490826929 0 -0.017124135094843628 -0.032793560657597899 0 -0.017165397804438879 -0.032725428490826929 0 -0.017219244659635233 -0.032820805240122521 0 -0.017124135094843628 -0.032793560657597899 0 -0.017193493789707789 -0.032554004150977735 0 -0.017219244659635233 -0.032820805240122521 0 -0.017342473097570674 -0.032987654255486096 0 -0.014692415351175266 -0.016125265325440785 0 -0.016209929809871411 -0.015699256372657597 0 -0.017115171222941764 -0.017892121318057331 0 -0.017527095921794231 -0.021307378786250226 0 -0.017682166680023745 -0.025916173772714223 0 -0.01720133695694559 -0.016326346994379466 0 -0.016209929809871411 -0.015699256372657597 0 -0.017115171222941764 -0.017892121318057331 0 -0.01720133695694559 -0.016326346994379466 0 -0.016209929809871411 -0.015699256372657597 0 -0.017043718777415617 -0.014782507823711197 0 -0.016261072048690484 -0.012965156949434871 0 -0.016209929809871411 -0.015699256372657597 0 -0.017043718777415617 -0.014782507823711197 0 -0.017294415674583695 -0.012936731035509333 0 -0.017043718777415617 -0.014782507823711197 0 -0.018701992026455595 -0.016120573655017158 0 -0.01746641930580194 -0.013036097430926043 0 -0.017645294889904586 -0.014722809378578826 0 -0.017294415674583695 -0.012936731035509333 0 -0.017474193076247223 -0.013002815801521088 0 -0.017377056854272478 -0.013229002352924416 0 -0.017501225321263008 -0.013159164268217314 0 -0.017474193076247223 -0.013002815801521088 0 -0.017377056854272478 -0.013229002352924416 0 -0.017501225321263008 -0.013159164268217314 0 -0.017377056854272478 -0.013229002352924416 0 -0.017419971297855542 -0.013456143422880569 0 -0.018701992026455595 -0.016120573655017158 0 -0.019179730776723712 -0.017661352081436751 0 -0.017115171222941764 -0.017892121318057331 0 -0.01720133695694559 -0.016326346994379466 0 -0.017043718777415617 -0.014782507823711197 0 -0.018701992026455595 -0.016120573655017158 0 -0.01720133695694559 -0.016326346994379466 0 -0.018701992026455595 -0.016120573655017158 0 -0.017115171222941764 -0.017892121318057331 0 -0.017645294889904586 -0.014722809378578826 0 -0.015700742477055375 -0.017248460986638892 0 -0.018199750499964609 -0.033461290652861554 0 -0.0177698398114743 -0.03365181850082475 0 -0.017725069869697335 -0.032979486206975703 0 -0.016869181707793571 -0.026256228927117004 0 -0.017682166680023745 -0.025916173772714223 0 -0.019765506616603312 -0.019806154747980365 0 -0.019179730776723712 -0.017661352081436751 0 -0.017115171222941764 -0.017892121318057331 0 -0.016869181707793571 -0.026256228927117004 0 -0.015700742477055375 -0.017248460986638892 0 -0.018199750499964609 -0.033461290652861554 0 -0.0177698398114743 -0.03365181850082475 0 -0.017935754517925156 -0.034002091914717376 0 -0.018199750499964609 -0.033461290652861554 0 -0.017935754517925156 -0.034002091914717376 0 -0.018206031880757603 -0.034169895419928521 0 -0.0177698398114743 -0.03365181850082475 0 -0.017400793613243874 -0.033873675426863974 0 -0.017669437813086677 -0.034181697397650604 0 -0.0177698398114743 -0.03365181850082475 0 -0.017469453634902269 -0.033375950540303317 0 -0.017400793613243874 -0.033873675426863974 0 -0.0177698398114743 -0.03365181850082475 0 -0.017469453634902269 -0.033375950540303317 0 -0.017725069869697335 -0.032979486206975703 0 -0.017469453634902269 -0.033375950540303317 0 -0.017725069869697335 -0.032979486206975703 0 -0.017342473097570674 -0.032987654255486096 0 -0.017219244659635233 -0.032820805240122521 0 -0.017342473097570674 -0.032987654255486096 0 -0.017159662875405799 -0.032972587599844304 0 -0.017342473097570674 -0.032987654255486096 0 -0.017159662875405799 -0.032972587599844304 0 -0.017252948101266687 -0.033211966559594255 0 -0.017219244659635233 -0.032820805240122521 0 -0.017124135094843628 -0.032793560657597899 0 -0.017159662875405799 -0.032972587599844304 0 -0.017124135094843628 -0.032793560657597899 0 -0.017159662875405799 -0.032972587599844304 0 -0.017048209260453948 -0.032817775702058447 0 -0.017252948101266687 -0.033211966559594255 0 -0.017210406383862776 -0.033513110135286205 0 -0.017047196057250691 -0.033229327035753653 0 -0.017159662875405799 -0.032972587599844304 0 -0.017252948101266687 -0.033211966559594255 0 -0.017047196057250691 -0.033229327035753653 0 -0.017469453634902269 -0.033375950540303317 0 -0.017342473097570674 -0.032987654255486096 0 -0.017252948101266687 -0.033211966559594255 0 -0.017469453634902269 -0.033375950540303317 0 -0.017400793613243874 -0.033873675426863974 0 -0.017210406383862776 -0.033513110135286205 0 -0.017469453634902269 -0.033375950540303317 0 -0.017252948101266687 -0.033211966559594255 0 -0.017210406383862776 -0.033513110135286205 0 -0.017400793613243874 -0.033873675426863974 0 -0.017210406383862776 -0.033513110135286205 0 -0.017033748056251415 -0.033781874389570025 0 -0.017210406383862776 -0.033513110135286205 0 -0.016979932545827553 -0.033503441911039919 0 -0.017033748056251415 -0.033781874389570025 0 -0.017210406383862776 -0.033513110135286205 0 -0.016979932545827553 -0.033503441911039919 0 -0.017047196057250691 -0.033229327035753653 0 -0.017551575116553846 -0.034178482213860849 0 -0.017794244006194091 -0.033146577659379499 0 -0.016979932545827553 -0.033503441911039919 0 -0.016842623311693318 -0.033330124722034345 0 -0.017047196057250691 -0.033229327035753653 0 -0.016462735445936398 -0.033972363731445895 0 -0.016762110669142592 -0.033593605571630325 0 -0.016767667555760472 -0.033059290795721535 0 -0.016979932545827553 -0.033503441911039919 0 -0.017033748056251415 -0.033781874389570025 0 -0.016762110669142592 -0.033593605571630325 0 -0.016979932545827553 -0.033503441911039919 0 -0.016762110669142592 -0.033593605571630325 0 -0.016842623311693318 -0.033330124722034345 0 -0.017033748056251415 -0.033781874389570025 0 -0.016762110669142592 -0.033593605571630325 0 -0.016785071596872352 -0.033960766109062408 0 -0.016462735445936398 -0.033972363731445895 0 -0.016762110669142592 -0.033593605571630325 0 -0.016785071596872352 -0.033960766109062408 0 -0.017421678805806109 -0.032587240860945201 0 -0.017300394746267957 -0.032598198496260986 0 -0.01721625850611222 -0.032585785440832918 0 -0.017421678805806109 -0.032587240860945201 0 -0.017300394746267957 -0.032598198496260986 0 -0.017358107923822093 -0.032622626523233306 0 -0.017300394746267957 -0.032598198496260986 0 -0.01721625850611222 -0.032585785440832918 0 -0.017242892994510674 -0.032641945433655832 0 -0.016762110669142592 -0.033593605571630325 0 -0.016842623311693318 -0.033330124722034345 0 -0.016767667555760472 -0.033059290795721535 0 -0.016842623311693318 -0.033330124722034345 0 -0.017047196057250691 -0.033229327035753653 0 -0.016919046421693677 -0.033172756998670366 0 -0.017047196057250691 -0.033229327035753653 0 -0.017001543114369428 -0.033052681090375492 0 -0.016919046421693677 -0.033172756998670366 0 -0.017159662875405799 -0.032972587599844304 0 -0.017047196057250691 -0.033229327035753653 0 -0.017001543114369428 -0.033052681090375492 0 -0.016842623311693318 -0.033330124722034345 0 -0.016919046421693677 -0.033172756998670366 0 -0.016767667555760472 -0.033059290795721535 0 -0.017001543114369428 -0.033052681090375492 0 -0.016919046421693677 -0.033172756998670366 0 -0.016767667555760472 -0.033059290795721535 0 -0.017001543114369428 -0.033052681090375492 0 -0.016767667555760472 -0.033059290795721535 0 -0.017048209260453948 -0.032817775702058447 0 -0.017208552870030959 -0.03254799900182815 0 -0.017182464082412648 -0.032658097684361731 0 -0.017048209260453948 -0.032817775702058447 0 -0.017794244006194091 -0.033146577659379499 0 -0.017778196654075765 -0.033105134187976309 0 -0.017794244006194091 -0.033146577659379499 0 -0.017444505230483753 -0.033144114173290926 0 -0.017182464082412648 -0.032658097684361731 0 -0.017048209260453948 -0.032817775702058447 0 -0.017139287415271567 -0.032748850395090158 0 -0.017182464082412648 -0.032658097684361731 0 -0.017139287415271567 -0.032748850395090158 0 -0.01720604145846448 -0.032721482821242188 0 -0.017159662875405799 -0.032972587599844304 0 -0.017001543114369428 -0.033052681090375492 0 -0.017048209260453948 -0.032817775702058447 0 -0.017124135094843628 -0.032793560657597899 0 -0.017048209260453948 -0.032817775702058447 0 -0.017125544576694844 -0.032761201178299997 0 -0.017200272462224126 -0.032724035412849982 0 -0.017125544576694844 -0.032761201178299997 0 -0.01720604145846448 -0.032721482821242188 0 -0.017139287415271567 -0.032748850395090158 0 -0.017125544576694844 -0.032761201178299997 0 -0.01720604145846448 -0.032721482821242188 0 -0.017048209260453948 -0.032817775702058447 0 -0.017139287415271567 -0.032748850395090158 0 -0.017125544576694844 -0.032761201178299997 0 -0.017200272462224126 -0.032724035412849982 0 -0.017262661721050353 -0.032701472711746497 0 -0.01720604145846448 -0.032721482821242188 0 -0.017280051491157144 -0.032705420553567253 0 -0.017262661721050353 -0.032701472711746497 0 -0.017347241447690578 -0.03266346295952792 0 -0.017262661721050353 -0.032701472711746497 0 -0.01720604145846448 -0.032721482821242188 0 -0.017288701605170972 -0.032652470916796995 0 -0.017262661721050353 -0.032701472711746497 0 -0.017347241447690578 -0.03266346295952792 0 -0.017288701605170972 -0.032652470916796995 0 -0.017347241447690578 -0.03266346295952792 0 -0.017358107923822093 -0.032622626523233306 0 -0.017288701605170972 -0.032652470916796995 0 -0.017300394746267957 -0.032598198496260986 0 -0.017358107923822093 -0.032622626523233306 0 -0.017288701605170972 -0.032652470916796995 0 -0.017300394746267957 -0.032598198496260986 0 -0.017242892994510674 -0.032641945433655832 0 -0.017288701605170972 -0.032652470916796995 0 -0.01721625850611222 -0.032585785440832918 0 -0.017182464082412648 -0.032658097684361731 0 -0.017242892994510674 -0.032641945433655832 0 -0.01720604145846448 -0.032721482821242188 0 -0.017242892994510674 -0.032641945433655832 0 -0.017288701605170972 -0.032652470916796995 0 -0.017182464082412648 -0.032658097684361731 0 -0.01720604145846448 -0.032721482821242188 0 -0.017242892994510674 -0.032641945433655832 0 -0.01696493036089337 -0.034876749398107962 0 -0.016655968552747157 -0.034500321300346304 0 -0.017006465519221223 -0.034193709642873639 0 -0.016462735445936398 -0.033972363731445895 0 -0.016655968552747157 -0.034500321300346304 0 -0.016785071596872352 -0.033960766109062408 0 -0.016655968552747157 -0.034500321300346304 0 -0.016785071596872352 -0.033960766109062408 0 -0.017006465519221223 -0.034193709642873639 0 -0.017033748056251415 -0.033781874389570025 0 -0.016785071596872352 -0.033960766109062408 0 -0.017006465519221223 -0.034193709642873639 0 -0.01696493036089337 -0.034876749398107962 0 -0.017006465519221223 -0.034193709642873639 0 -0.017326034774298643 -0.034369461839135432 0 -0.017400793613243874 -0.033873675426863974 0 -0.017033748056251415 -0.033781874389570025 0 -0.017006465519221223 -0.034193709642873639 0 -0.017400793613243874 -0.033873675426863974 0 -0.017006465519221223 -0.034193709642873639 0 -0.017326034774298643 -0.034369461839135432 0 -0.01696493036089337 -0.034876749398107962 0 -0.017326034774298643 -0.034369461839135432 0 -0.017514610841110358 -0.034712022186015323 0 -0.017514610841110358 -0.034712022186015323 0 -0.017669437813086677 -0.034181697397650604 0 -0.017853128686787147 -0.034374807948289482 0 -0.017326034774298643 -0.034369461839135432 0 -0.017514610841110358 -0.034712022186015323 0 -0.017669437813086677 -0.034181697397650604 0 -0.017400793613243874 -0.033873675426863974 0 -0.017326034774298643 -0.034369461839135432 0 -0.017669437813086677 -0.034181697397650604 0 -0.0177698398114743 -0.03365181850082475 0 -0.017669437813086677 -0.034181697397650604 0 -0.017935754517925156 -0.034002091914717376 0 -0.017669437813086677 -0.034181697397650604 0 -0.017935754517925156 -0.034002091914717376 0 -0.017853128686787147 -0.034374807948289482 0 -0.017935754517925156 -0.034002091914717376 0 -0.017853128686787147 -0.034374807948289482 0 -0.018206031880757603 -0.034169895419928521 0 -0.017514610841110358 -0.034712022186015323 0 -0.017853128686787147 -0.034374807948289482 0 -0.01778159211107349 -0.034698890543825037 0 -0.017853128686787147 -0.034374807948289482 0 -0.01778159211107349 -0.034698890543825037 0 -0.017998092049822553 -0.034459020629017637 0 -0.01778159211107349 -0.034698890543825037 0 -0.017998092049822553 -0.034459020629017637 0 -0.017943772900273592 -0.034657046272703343 0 -0.01778159211107349 -0.034698890543825037 0 -0.017811729706086524 -0.034940561949394877 0 -0.017943772900273592 -0.034657046272703343 0 -0.01778159211107349 -0.034698890543825037 0 -0.017621966753281537 -0.034926083831797058 0 -0.017811729706086524 -0.034940561949394877 0 -0.017811729706086524 -0.034940561949394877 0 -0.017673327544662457 -0.035102404731535308 0 -0.017831795514090438 -0.035149189576981286 0 -0.017673327544662457 -0.035102404731535308 0 -0.017831795514090438 -0.035149189576981286 0 -0.01770827728027841 -0.035236909094966171 0 -0.017621966753281537 -0.034926083831797058 0 -0.017811729706086524 -0.034940561949394877 0 -0.017673327544662457 -0.035102404731535308 0 -0.017621966753281537 -0.034926083831797058 0 -0.017673327544662457 -0.035102404731535308 0 -0.017441692225255146 -0.035071079354502953 0 -0.017673327544662457 -0.035102404731535308 0 -0.017441692225255146 -0.035071079354502953 0 -0.017555801569396179 -0.035301309437247866 0 -0.017514610841110358 -0.034712022186015323 0 -0.017621966753281537 -0.034926083831797058 0 -0.017441692225255146 -0.035071079354502953 0 -0.017514610841110358 -0.034712022186015323 0 -0.01778159211107349 -0.034698890543825037 0 -0.017621966753281537 -0.034926083831797058 0 -0.01696493036089337 -0.034876749398107962 0 -0.017514610841110358 -0.034712022186015323 0 -0.017238694094104376 -0.035584032997983336 0 -0.017514610841110358 -0.034712022186015323 0 -0.017441692225255146 -0.035071079354502953 0 -0.017189657100493017 -0.034997479370418402 0 -0.017496026578529434 -0.034784369854316773 0 -0.01720527026648843 -0.035291068648363601 0 -0.017441692225255146 -0.035071079354502953 0 -0.017189657100493017 -0.034997479370418402 0 -0.017213819682385716 -0.035254082076494518 0 -0.01720527026648843 -0.035291068648363601 0 -0.01690246672201496 -0.035798101640452662 0 -0.017189657100493017 -0.034997479370418402 0 -0.017006866431051933 -0.035307050822267719 0 -0.017213819682385716 -0.035254082076494518 0 -0.016658055858060135 -0.035698847103105377 0 -0.017238694094104376 -0.035584032997983336 0 -0.016807986164760133 -0.036319195183878057 0 -0.016658055858060135 -0.035698847103105377 0 -0.01696493036089337 -0.034876749398107962 0 -0.017238694094104376 -0.035584032997983336 0 -0.0033824920429739438 -0.026104316078903889 0 -0.0021295160826932729 -0.026455264325278952 0 -0.0044020056500589056 -0.027901146078491566 0 -0.0033824920429739438 -0.026104316078903889 0 -0.0044020056500589056 -0.027901146078491566 0 -0.0045943145841389728 -0.025419544004430458 0 -0.00072868681874926531 -0.025558157648374675 0 -0.0023915655764310622 -0.026015083952102891 0 -0.0020935135068594918 -0.026446901516009501 0 -0.0033824920429739438 -0.026104316078903889 0 -0.0023915655764310622 -0.026015083952102891 0 -0.0021295160826932729 -0.026455264325278952 0 0.00062414062528147257 -0.023517006397660481 0 0.00093916067521597577 -0.021361053421708215 0 0.0040770532396187604 -0.022499205457902564 0 0.00084632317113749649 -0.017143133651402694 0 0.0010658905195110578 -0.021150510916644012 0 0.00084632317113749649 -0.017143133651402694 0 0.0010658905195110578 -0.021150510916644012 0 -0.0051437175414589843 -0.021064564446295873 0 0.0010658905195110578 -0.021150510916644012 0 0.00037775125141572972 -0.022433573574276916 0 -0.0051437175414589843 -0.021064564446295873 0 0.0067505299855775283 -0.018108335863252473 0 0.00093916067521597577 -0.021361053421708215 0 0.0040770532396187604 -0.022499205457902564 0 0.0010658905195110578 -0.021150510916644012 0 0.00040058552428968872 -0.022396865463214222 0 0.0067505299855775283 -0.018108335863252473 0 0.0029946461329580223 -0.018282854112903296 0 0.0015760502610466685 -0.020727691979064506 0 0.0029946461329580223 -0.018282854112903296 0 0.0029946461329580223 -0.018282854112903296 0 -0.0074477214418849696 -0.02029513357419797 0 0.00037775125141572972 -0.022433573574276916 0 -0.0050297477375445621 -0.022312529830050307 0 -0.0051437175414589843 -0.021064564446295873 0 0.00093916067521597577 -0.021361053421708215 0 -0.0089032936433500239 -0.025469625749853803 0 -0.0074477214418849696 -0.02029513357419797 0 -0.0089032936433500239 -0.025469625749853803 0 -0.017532871993149967 -0.027839877797357027 0 -0.018778729344547503 -0.028670035974453036 0 -0.017410263985846847 -0.030532533501721779 0 -0.012669829826087246 -0.021139270883394911 0 -0.01303527618648547 -0.021428427862554014 0 -0.012877687502241801 -0.021236955161642229 0 -0.0074477214418849696 -0.02029513357419797 0 -0.011090837035069334 -0.020468043075459456 0 -0.015560376550656339 -0.026479700589531814 0 -0.018105331169992515 -0.032800573707613773 0 -0.015560376550656339 -0.026479700589531814 0 -0.0089032936433500239 -0.025469625749853803 0 -0.013044153680111283 -0.021244651551580181 0 -0.01303527618648547 -0.021428427862554014 0 -0.012877687502241801 -0.021236955161642229 0 -0.018631156532975125 -0.03158530972235165 0 -0.017420568910641906 -0.032675890781515317 0 -0.01836862737104332 -0.033800476865693006 0 -0.018206031880757603 -0.034169895419928521 0 -0.017998092049822553 -0.034459020629017637 0 -0.01814190670447632 -0.034473306557414804 0 -0.017853128686787147 -0.034374807948289482 0 -0.018206031880757603 -0.034169895419928521 0 -0.017998092049822553 -0.034459020629017637 0 -0.017420568910641906 -0.032675890781515317 0 -0.01836862737104332 -0.033800476865693006 0 -0.01814190670447632 -0.034473306557414804 0 -0.018065130957452477 -0.034628019283601423 0 -0.017989975437603382 -0.033898122632099015 0 -0.018778729344547503 -0.028670035974453036 0 -0.017410263985846847 -0.030532533501721779 0 -0.018578905918043481 -0.031779840744546747 0 -0.0089032936433500239 -0.025469625749853803 0 -0.012177895796402114 -0.029035677414261517 0 -0.018105331169992515 -0.032800573707613773 0 -0.017770727776844231 -0.033877430594686418 0 -0.017410263985846847 -0.030532533501721779 0 -0.018578905918043481 -0.031779840744546747 0 -0.017439024049522914 -0.033054101279330825 0 -0.01836862737104332 -0.033800476865693006 0 -0.018118709739820892 -0.035071408493575706 0 -0.01814190670447632 -0.034473306557414804 0 -0.017811729706086524 -0.034940561949394877 0 -0.018118709739820892 -0.035071408493575706 0 -0.017943772900273592 -0.034657046272703343 0 -0.017998092049822553 -0.034459020629017637 0 -0.017943772900273592 -0.034657046272703343 0 -0.01814190670447632 -0.034473306557414804 0 -0.018118709739820892 -0.035071408493575706 0 -0.017943772900273592 -0.034657046272703343 0 -0.01814190670447632 -0.034473306557414804 0 -0.017811729706086524 -0.034940561949394877 0 -0.018118709739820892 -0.035071408493575706 0 -0.017831795514090438 -0.035149189576981286 0 -0.018118709739820892 -0.035071408493575706 0 -0.017831795514090438 -0.035149189576981286 0 -0.017745512957520554 -0.035153789849559837 0 -0.017770727776844231 -0.033877430594686418 0 -0.017742745321209584 -0.035099221926231619 0 -0.018578905918043481 -0.031779840744546747 0 -0.017439024049522914 -0.033054101279330825 0 -0.018427730946486764 -0.034495851162608941 0 -0.017439024049522914 -0.033054101279330825 0 -0.018427730946486764 -0.034495851162608941 0 -0.017745512957520554 -0.035153789849559837 0 -0.012177895796402114 -0.029035677414261517 0 -0.0096781607918692749 -0.029394243141852312 0 -0.0092736912647033241 -0.031900434876995211 0 -0.0079186911668361216 -0.032301313856743688 0 -0.0086573133062097501 -0.03159679351344933 0 -0.0048389896686753696 -0.023025780124800079 0 -0.0033840048567047839 -0.024751289866359785 0 -0.0029503181593611458 -0.02355780903345947 0 -0.0096781607918692749 -0.029394243141852312 0 -0.0049430722787133976 -0.029670361627653963 0 -0.0049430722787133976 -0.029670361627653963 0 -0.0082880520959749612 -0.033441748555230702 0 -0.0045943145841389728 -0.025419544004430458 0 -0.0048389896686753696 -0.023025780124800079 0 -0.0033840048567047839 -0.024751289866359785 0 -0.0033824920429739438 -0.026104316078903889 0 -0.0023915655764310622 -0.026015083952102891 0 -0.0033840048567047839 -0.024751289866359785 0 -0.0033824920429739438 -0.026104316078903889 0 -0.0045943145841389728 -0.025419544004430458 0 -0.0033840048567047839 -0.024751289866359785 0 -0.00072868681874926531 -0.025558157648374675 0 -0.0023915655764310622 -0.026015083952102891 0 -0.0018634450292238961 -0.024540582240554068 0 -0.0033840048567047839 -0.024751289866359785 0 -0.0018634450292238961 -0.024540582240554068 0 -0.0029503181593611458 -0.02355780903345947 0 -0.0023915655764310622 -0.026015083952102891 0 -0.0033840048567047839 -0.024751289866359785 0 -0.0018634450292238961 -0.024540582240554068 0 -0.0043797230970150595 -0.034588610910843601 0 -0.008892249226073682 -0.038505947986603811 0 -0.0061308537305436875 -0.036113653364160878 0 -0.0074992553072825412 -0.035717703248839376 0 -0.0080367343513099137 -0.034561089995044404 0 -0.00075751392590974246 -0.027966539532727732 0 -0.0011895369161262601 -0.028563069191757717 0 -0.0022896729498141808 -0.027507986258436673 0 -0.0043797230970150595 -0.034588610910843601 0 -0.0049430722787133976 -0.029670361627653963 0 -0.0015280980019392694 -0.026511496371326802 0 -0.0049430722787133976 -0.029670361627653963 0 -0.0080296899026972221 -0.041775829120894135 0 -0.0094817311047375175 -0.040723515273600699 0 -0.0081040889558732111 -0.040326806013021861 0 -0.0096979438643526508 -0.039872479935637077 0 -0.0094817311047375175 -0.040723515273600699 0 -0.0081040889558732111 -0.040326806013021861 0 -0.0095898320511583479 -0.039914032173540337 0 -0.0081583571989118243 -0.04040626496714373 0 -0.0088493587697800816 -0.040004739199351394 0 -0.0081623848547772507 -0.040507206440545541 0 -0.0082124635467397799 -0.039550772941542585 0 -0.0088493587697800816 -0.040004739199351394 0 -0.009045530994693584 -0.039334437172683506 0 -0.0082124635467397799 -0.039550772941542585 0 -0.0088493587697800816 -0.040004739199351394 0 -0.0096979438643526508 -0.039872479935637077 0 -0.0081623848547772507 -0.040507206440545541 0 -0.0088697850610940567 -0.039881347896640641 0 -0.0091363808006852208 -0.039079841939231405 0 -0.0096979438643526508 -0.039872479935637077 0 -0.0094817311047375175 -0.040723515273600699 0 -0.0107936429546666 -0.039802320969571238 0 -0.0096979438643526508 -0.039872479935637077 0 -0.0091458833309777526 -0.038851957053410095 0 -0.010184078440354098 -0.038800609641428174 0 -0.0088493587697800816 -0.040004739199351394 0 -0.0096979438643526508 -0.039872479935637077 0 -0.0091458833309777526 -0.038851957053410095 0 -0.0080367343513099137 -0.034561089995044404 0 -0.0084629514763952911 -0.034803979439335199 0 -0.0094347380369259343 -0.033883302129975548 0 -0.008892249226073682 -0.038505947986603811 0 -0.011733880694922681 -0.036046707031467576 0 -0.0074992553072825412 -0.035717703248839376 0 -0.0080367343513099137 -0.034561089995044404 0 -0.0084629514763952911 -0.034803979439335199 0 -0.0092736912647033241 -0.031900434876995211 0 -0.0086573133062097501 -0.03159679351344933 0 -0.0093913506754211163 -0.030903470596013231 0 -0.0080367343513099137 -0.034561089995044404 0 -0.009479118175890186 -0.033384869165884068 0 -0.0094347380369259343 -0.033883302129975548 0 -0.0096781607918692749 -0.029394243141852312 0 -0.012990245946145954 -0.034255417988516459 0 -0.018427730946486764 -0.034495851162608941 0 -0.017745512957520554 -0.035153789849559837 0 -0.01819144296575774 -0.035436433487500363 0 -0.017745512957520554 -0.035153789849559837 0 -0.01819144296575774 -0.035436433487500363 0 -0.017897025227139179 -0.035425959996962755 0 -0.0082880520959749612 -0.033441748555230702 0 -0.012990245946145954 -0.034255417988516459 0 -0.017831795514090438 -0.035149189576981286 0 -0.017737974623501448 -0.035252268478902317 0 -0.01770827728027841 -0.035236909094966171 0 -0.017831795514090438 -0.035149189576981286 0 -0.017745512957520554 -0.035153789849559837 0 -0.017737974623501448 -0.035252268478902317 0 -0.017745512957520554 -0.035153789849559837 0 -0.017780255171294522 -0.035360562085748684 0 -0.017737974623501448 -0.035252268478902317 0 -0.017780255171294522 -0.035360562085748684 0 -0.017737974623501448 -0.035252268478902317 0 -0.017737198466150527 -0.035428802786210571 0 -0.017745512957520554 -0.035153789849559837 0 -0.017780255171294522 -0.035360562085748684 0 -0.017897025227139179 -0.035425959996962755 0 -0.017672100188943943 -0.035358135919773097 0 -0.017737974623501448 -0.035252268478902317 0 -0.01770827728027841 -0.035236909094966171 0 -0.017672100188943943 -0.035358135919773097 0 -0.017737974623501448 -0.035252268478902317 0 -0.017737198466150527 -0.035428802786210571 0 -0.017694892698368363 -0.035582997419214689 0 -0.017864492592952565 -0.03555724557754468 0 -0.017622847906883676 -0.035678384982401785 0 -0.017672100188943943 -0.035358135919773097 0 -0.017664824191782634 -0.035489556062418541 0 -0.017737198466150527 -0.035428802786210571 0 -0.017664824191782634 -0.035489556062418541 0 -0.017737198466150527 -0.035428802786210571 0 -0.017772461350743143 -0.035521188969010964 0 -0.017737198466150527 -0.035428802786210571 0 -0.017805067260875433 -0.035464367927867349 0 -0.017772461350743143 -0.035521188969010964 0 -0.017780255171294522 -0.035360562085748684 0 -0.017737198466150527 -0.035428802786210571 0 -0.017805067260875433 -0.035464367927867349 0 -0.017780255171294522 -0.035360562085748684 0 -0.017805067260875433 -0.035464367927867349 0 -0.017897025227139179 -0.035425959996962755 0 -0.017805067260875433 -0.035464367927867349 0 -0.017772461350743143 -0.035521188969010964 0 -0.017866868832082029 -0.035555198758838537 0 -0.017772461350743143 -0.035521188969010964 0 -0.017694892698368363 -0.035582997419214689 0 -0.017864492592952565 -0.03555724557754468 0 -0.017772461350743143 -0.035521188969010964 0 -0.017866868832082029 -0.035555198758838537 0 -0.017864492592952565 -0.03555724557754468 0 -0.017664824191782634 -0.035489556062418541 0 -0.017772461350743143 -0.035521188969010964 0 -0.017694892698368363 -0.035582997419214689 0 -0.0096979438643526508 -0.039872479935637077 0 -0.0107936429546666 -0.039802320969571238 0 -0.011243639577959035 -0.039435470236628405 0 -0.0096979438643526508 -0.039872479935637077 0 -0.011243639577959035 -0.039435470236628405 0 -0.010184078440354098 -0.038800609641428174 0 -0.011733880694922681 -0.036046707031467576 0 -0.012990245946145954 -0.034255417988516459 0 -0.012990245946145954 -0.034255417988516459 0 -0.016826737536703329 -0.034154770332699778 0 -0.01819144296575774 -0.035436433487500363 0 -0.017897025227139179 -0.035425959996962755 0 -0.017866868832082029 -0.035555198758838537 0 -0.017805067260875433 -0.035464367927867349 0 -0.017897025227139179 -0.035425959996962755 0 -0.017866868832082029 -0.035555198758838537 0 -0.0177470955686258 -0.03557325583012369 0 -0.017721693434465929 -0.035674054279999062 0 -0.017866868832082029 -0.035555198758838537 0 -0.011733880694922681 -0.036046707031467576 0 -0.013793613774364952 -0.037017852795701259 0 -0.0177470955686258 -0.03557325583012369 0 -0.017866868832082029 -0.035555198758838537 0 -0.017864492592952565 -0.03555724557754468 0 -0.011212928023315125 -0.037913850724244642 0 -0.0095181459877438819 -0.03769191352912768 0 -0.010184078440354098 -0.038800609641428174 0 -0.011243639577959035 -0.039435470236628405 0 -0.011212928023315125 -0.037913850724244642 0 -0.010184078440354098 -0.038800609641428174 0 -0.017864492592952565 -0.03555724557754468 0 -0.017622847906883676 -0.035678384982401785 0 -0.017574192218564166 -0.035815488290587089 0 -0.013793613774364952 -0.037017852795701259 0 -0.016152443660627742 -0.03678038034525128 0 -0.011243639577959035 -0.039435470236628405 0 -0.011212928023315125 -0.037913850724244642 0 -0.013036038517610999 -0.037910398221049829 0 -0.011212928023315125 -0.037913850724244642 0 -0.012089327246672457 -0.037163598767531329 0 -0.013036038517610999 -0.037910398221049829 0 -0.012089327246672457 -0.037163598767531329 0 -0.013036038517610999 -0.037910398221049829 0 -0.012944599965517133 -0.03643011479146796 0 -0.011212928023315125 -0.037913850724244642 0 -0.012089327246672457 -0.037163598767531329 0 -0.011188318151248971 -0.036311206776141303 0 -0.011212928023315125 -0.037913850724244642 0 -0.0095181459877438819 -0.03769191352912768 0 -0.011188318151248971 -0.036311206776141303 0 -0.0099929327549788602 -0.038635715955505419 0 -0.011221814731719423 -0.037558794395792336 0 -0.0099929327549788602 -0.038635715955505419 0 -0.010424818849154294 -0.038541700452092466 0 -0.0092896292991777353 -0.038652206242714593 0 -0.0088929386502186233 -0.03833239385406207 0 -0.0095711374693436789 -0.037923655636443961 0 -0.010901706649170806 -0.038920805416445395 0 -0.010496621159127178 -0.03963761134699325 0 -0.010830398874377246 -0.03871049144346677 0 -0.010901706649170806 -0.038920805416445395 0 -0.010496621159127178 -0.03963761134699325 0 -0.01175071090365977 -0.03864980378815315 0 -0.0088929386502186233 -0.03833239385406207 0 -0.008692358695355484 -0.038914208947905336 0 -0.0080312471958723826 -0.038696614340728158 0 -0.0088929386502186233 -0.03833239385406207 0 -0.0081869871435609649 -0.037880197795281421 0 -0.0080312471958723826 -0.038696614340728158 0 -0.0092896292991777353 -0.038652206242714593 0 -0.0088929386502186233 -0.03833239385406207 0 -0.008692358695355484 -0.038914208947905336 0 -0.008692358695355484 -0.038914208947905336 0 -0.009045530994693584 -0.039334437172683506 0 -0.0082124635467397799 -0.039550772941542585 0 -0.008692358695355484 -0.038914208947905336 0 -0.0080312471958723826 -0.038696614340728158 0 -0.0082124635467397799 -0.039550772941542585 0 -0.0092896292991777353 -0.038652206242714593 0 -0.008692358695355484 -0.038914208947905336 0 -0.009045530994693584 -0.039334437172683506 0 -0.0099929327549788602 -0.038635715955505419 0 -0.0091363808006852208 -0.039079841939231405 0 -0.0095181459877438819 -0.03769191352912768 0 -0.0091458833309777526 -0.038851957053410095 0 -0.010184078440354098 -0.038800609641428174 0 -0.017122421496078098 -0.035474730000622866 0 -0.017248180542273041 -0.035642822289551422 0 -0.017072413323348839 -0.035662714571287321 0 -0.016930231677161251 -0.035548178468651062 0 -0.017122421496078098 -0.035474730000622866 0 -0.017072413323348839 -0.035662714571287321 0 -0.017122421496078098 -0.035474730000622866 0 -0.017006866431051933 -0.035307050822267719 0 -0.017213819682385716 -0.035254082076494518 0 -0.017122421496078098 -0.035474730000622866 0 -0.017213819682385716 -0.035254082076494518 0 -0.017337523206631584 -0.035375896062126239 0 -0.017441692225255146 -0.035071079354502953 0 -0.017213819682385716 -0.035254082076494518 0 -0.017337523206631584 -0.035375896062126239 0 -0.017122421496078098 -0.035474730000622866 0 -0.017337523206631584 -0.035375896062126239 0 -0.017248180542273041 -0.035642822289551422 0 -0.017452854387671208 -0.035475895311926742 0 -0.017337523206631584 -0.035375896062126239 0 -0.017248180542273041 -0.035642822289551422 0 -0.017452854387671208 -0.035475895311926742 0 -0.017404117759906086 -0.03562840525894452 0 -0.017248180542273041 -0.035642822289551422 0 -0.017441692225255146 -0.035071079354502953 0 -0.017337523206631584 -0.035375896062126239 0 -0.017555801569396179 -0.035301309437247866 0 -0.017452854387671208 -0.035475895311926742 0 -0.017337523206631584 -0.035375896062126239 0 -0.017555801569396179 -0.035301309437247866 0 -0.017673327544662457 -0.035102404731535308 0 -0.017555801569396179 -0.035301309437247866 0 -0.01770827728027841 -0.035236909094966171 0 -0.017672100188943943 -0.035358135919773097 0 -0.017555801569396179 -0.035301309437247866 0 -0.01770827728027841 -0.035236909094966171 0 -0.017672100188943943 -0.035358135919773097 0 -0.017555801569396179 -0.035301309437247866 0 -0.017570312480157609 -0.035454859468954714 0 -0.017672100188943943 -0.035358135919773097 0 -0.017664824191782634 -0.035489556062418541 0 -0.017570312480157609 -0.035454859468954714 0 -0.017452854387671208 -0.035475895311926742 0 -0.017555801569396179 -0.035301309437247866 0 -0.017570312480157609 -0.035454859468954714 0 -0.017452854387671208 -0.035475895311926742 0 -0.017549313027759653 -0.035596482447462205 0 -0.017404117759906086 -0.03562840525894452 0 -0.017452854387671208 -0.035475895311926742 0 -0.017570312480157609 -0.035454859468954714 0 -0.017549313027759653 -0.035596482447462205 0 -0.017664824191782634 -0.035489556062418541 0 -0.017570312480157609 -0.035454859468954714 0 -0.017549313027759653 -0.035596482447462205 0 -0.017664824191782634 -0.035489556062418541 0 -0.017694892698368363 -0.035582997419214689 0 -0.017549313027759653 -0.035596482447462205 0 -0.017482119326028916 -0.035708939628562156 0 -0.017568936133132922 -0.035818419948948188 0 -0.017320000863081775 -0.035774451413418049 0 -0.017549313027759653 -0.035596482447462205 0 -0.017622847906883676 -0.035678384982401785 0 -0.017482119326028916 -0.035708939628562156 0 -0.017694892698368363 -0.035582997419214689 0 -0.017549313027759653 -0.035596482447462205 0 -0.017622847906883676 -0.035678384982401785 0 -0.017549313027759653 -0.035596482447462205 0 -0.017482119326028916 -0.035708939628562156 0 -0.017404117759906086 -0.03562840525894452 0 -0.017622847906883676 -0.035678384982401785 0 -0.017482119326028916 -0.035708939628562156 0 -0.017571735782130431 -0.035767863116101639 0 -0.017622847906883676 -0.035678384982401785 0 -0.017571735782130431 -0.035767863116101639 0 -0.017574192218564166 -0.035815488290587089 0 -0.017482119326028916 -0.035708939628562156 0 -0.017571735782130431 -0.035767863116101639 0 -0.017568936133132922 -0.035818419948948188 0 -0.016300203742274047 -0.036432480735475802 0 -0.016152443660627742 -0.03678038034525128 0 -0.016758309334196086 -0.036336650423766867 0 -0.017106260198918026 -0.035994758620255099 0 -0.01674628023231545 -0.036016122080169681 0 -0.016152443660627742 -0.03678038034525128 0 -0.014817874888525859 -0.036144189013306849 0 -0.016152443660627742 -0.03678038034525128 0 -0.017540236448108915 -0.035680670597966771 0 -0.01717540053428912 -0.03585883160227997 0 -0.017320000863081775 -0.035774451413418049 0 -0.017106260198918026 -0.035994758620255099 0 -0.017568936133132922 -0.035818419948948188 0 -0.017320000863081775 -0.035774451413418049 0 -0.017106260198918026 -0.035994758620255099 0 -0.01717540053428912 -0.03585883160227997 0 -0.017320000863081775 -0.035774451413418049 0 -0.017248180542273041 -0.035642822289551422 0 -0.017320000863081775 -0.035774451413418049 0 -0.017404117759906086 -0.03562840525894452 0 -0.017248180542273041 -0.035642822289551422 0 -0.017482119326028916 -0.035708939628562156 0 -0.017320000863081775 -0.035774451413418049 0 -0.017404117759906086 -0.03562840525894452 0 -0.017248180542273041 -0.035642822289551422 0 -0.017123734345500657 -0.035848083196294581 0 -0.017072413323348839 -0.035662714571287321 0 -0.01717540053428912 -0.03585883160227997 0 -0.017248180542273041 -0.035642822289551422 0 -0.017123734345500657 -0.035848083196294581 0 -0.01717540053428912 -0.03585883160227997 0 -0.017123734345500657 -0.035848083196294581 0 -0.017072447414713584 -0.035974762604237924 0 -0.017060905439468685 -0.035775727288456315 0 -0.017123734345500657 -0.035848083196294581 0 -0.017113521607159926 -0.03588526240365314 0 -0.017123734345500657 -0.035848083196294581 0 -0.017113521607159926 -0.03588526240365314 0 -0.017124387602698458 -0.035932004569820784 0 -0.017060905439468685 -0.035775727288456315 0 -0.017123734345500657 -0.035848083196294581 0 -0.017072413323348839 -0.035662714571287321 0 -0.017369601559034355 -0.036126244244028466 0 -0.017161554552777538 -0.036007383520279178 0 -0.017118038847912378 -0.035957077275962507 0 -0.017161554552777538 -0.036007383520279178 0 -0.016999724860009384 -0.0359384815294276 0 -0.017118038847912378 -0.035957077275962507 0 -0.017155061059072385 -0.035936676841441952 0 -0.017161554552777538 -0.036007383520279178 0 -0.017113521607159926 -0.03588526240365314 0 -0.017161554552777538 -0.036007383520279178 0 -0.017113521607159926 -0.03588526240365314 0 -0.017124387602698458 -0.035932004569820784 0 -0.017123734345500657 -0.035848083196294581 0 -0.017124387602698458 -0.035932004569820784 0 -0.017072447414713584 -0.035974762604237924 0 -0.017161554552777538 -0.036007383520279178 0 -0.017124387602698458 -0.035932004569820784 0 -0.017072447414713584 -0.035974762604237924 0 -0.017161554552777538 -0.036007383520279178 0 -0.017072447414713584 -0.035974762604237924 0 -0.016999724860009384 -0.0359384815294276 0 -0.017072447414713584 -0.035974762604237924 0 -0.016999724860009384 -0.0359384815294276 0 -0.016983883521985654 -0.035936175287809055 0 -0.016999724860009384 -0.0359384815294276 0 -0.016855823463394561 -0.035843002784338648 0 -0.016983883521985654 -0.035936175287809055 0 -0.016855823463394561 -0.035843002784338648 0 -0.016883318954306632 -0.035896644895787158 0 -0.016760792833952789 -0.035810203440591902 0 -0.016855823463394561 -0.035843002784338648 0 -0.016883318954306632 -0.035896644895787158 0 -0.016983883521985654 -0.035936175287809055 0 -0.016883318954306632 -0.035896644895787158 0 -0.016983883521985654 -0.035936175287809055 0 -0.017106260198918026 -0.035994758620255099 0 -0.016883318954306632 -0.035896644895787158 0 -0.017106260198918026 -0.035994758620255099 0 -0.016849443624587419 -0.035926440158420996 0 -0.01717540053428912 -0.03585883160227997 0 -0.017072447414713584 -0.035974762604237924 0 -0.017106260198918026 -0.035994758620255099 0 -0.017072447414713584 -0.035974762604237924 0 -0.016983883521985654 -0.035936175287809055 0 -0.017106260198918026 -0.035994758620255099 0 -0.017106260198918026 -0.035994758620255099 0 -0.016849443624587419 -0.035926440158420996 0 -0.01674628023231545 -0.036016122080169681 0 -0.014817874888525859 -0.036144189013306849 0 -0.014370292662230581 -0.036177467476265233 0 -0.016849443624587419 -0.035926440158420996 0 -0.01674628023231545 -0.036016122080169681 0 -0.016766283363771391 -0.035858574602685753 0 -0.016883318954306632 -0.035896644895787158 0 -0.016849443624587419 -0.035926440158420996 0 -0.016766283363771391 -0.035858574602685753 0 -0.014370292662230581 -0.036177467476265233 0 -0.017448211253850536 -0.035449082289122864 0 -0.016883318954306632 -0.035896644895787158 0 -0.016766283363771391 -0.035858574602685753 0 -0.016760792833952789 -0.035810203440591902 0 -0.016754776937120772 -0.035922366297867284 0 -0.016753221238242584 -0.035909885576456177 0 -0.016760792833952789 -0.035810203440591902 0 -0.014370292662230581 -0.036177467476265233 0 -0.014064380927383408 -0.036747473850263009 0 -0.013161601427303743 -0.036288489540261398 0 -0.013945798664797403 -0.035647930444038904 0 -0.014818203107123168 -0.036292577345100219 0 -0.016753221238242584 -0.035909885576456177 0 -0.016738286747864671 -0.035741273861411897 0 -0.016760792833952789 -0.035810203440591902 0 -0.014064380927383408 -0.036747473850263009 0 -0.015963996054435606 -0.035941933813161533 0 -0.01324506681110957 -0.037557527957163918 0 -0.013161601427303743 -0.036288489540261398 0 -0.014818203107123168 -0.036292577345100219 0 -0.014064380927383408 -0.036747473850263009 0 -0.013094997234906926 -0.036390017030020767 0 -0.013945798664797403 -0.035647930444038904 0 -0.014745048736382311 -0.034999984446977606 0 -0.013057586122074857 -0.034999997718835767 0 -0.013161601427303743 -0.036288489540261398 0 -0.013945798664797403 -0.035647930444038904 0 -0.013057586122074857 -0.034999997718835767 0 -0.013945798664797403 -0.035647930444038904 0 -0.014745048736382311 -0.034999984446977606 0 -0.014818203107123168 -0.036292577345100219 0 -0.016855823463394561 -0.035843002784338648 0 -0.016738286747864671 -0.035741273861411897 0 -0.016760792833952789 -0.035810203440591902 0 -0.016999724860009384 -0.0359384815294276 0 -0.016833668595852311 -0.035756417502614227 0 -0.017118038847912378 -0.035957077275962507 0 -0.016999724860009384 -0.0359384815294276 0 -0.016855823463394561 -0.035843002784338648 0 -0.016833668595852311 -0.035756417502614227 0 -0.016855823463394561 -0.035843002784338648 0 -0.016738286747864671 -0.035741273861411897 0 -0.016833668595852311 -0.035756417502614227 0 -0.015963996054435606 -0.035941933813161533 0 -0.016432368912257952 -0.03500028358766677 0 -0.016738286747864671 -0.035741273861411897 0 -0.016833668595852311 -0.035756417502614227 0 -0.016433577999990782 -0.035000143803608642 0 -0.014745048736382311 -0.034999984446977606 0 -0.014818203107123168 -0.036292577345100219 0 -0.016432569156569689 -0.035000002603484758 0 -0.016833668595852311 -0.035756417502614227 0 -0.016433577999990782 -0.035000143803608642 0 -0.017292836126014413 -0.035710925312067286 0 -0.01834987762145995 -0.035590629544527415 0 -0.016433577999990782 -0.035000143803608642 0 -0.017292836126014413 -0.035710925312067286 0 -0.016833668595852311 -0.035756417502614227 0 -0.017292836126014413 -0.035710925312067286 0 -0.017118038847912378 -0.035957077275962507 0 -0.017369601559034355 -0.036126244244028466 0 -0.017292836126014413 -0.035710925312067286 0 -0.017118038847912378 -0.035957077275962507 0 -0.010185957788203763 -0.037668664368806393 0 -0.010647447768112762 -0.038986042585287942 0 -0.011049359279913252 -0.03782260205572844 0 -0.010185957788203763 -0.037668664368806393 0 -0.011049359279913252 -0.03782260205572844 0 -0.010612947785049133 -0.036910508899353572 0 -0.0093418057450701027 -0.037046556583922481 0 -0.0088656218643631858 -0.03762130109590877 0 -0.0083258409351637912 -0.036928194523182419 0 -0.0093418057450701027 -0.037046556583922481 0 -0.0091984031854877163 -0.036113906103273266 0 -0.0083258409351637912 -0.036928194523182419 0 -0.0088656218643631858 -0.03762130109590877 0 -0.0083258409351637912 -0.036928194523182419 0 -0.0081869871435609649 -0.037880197795281421 0 -0.0088929386502186233 -0.03833239385406207 0 -0.0088656218643631858 -0.03762130109590877 0 -0.0081869871435609649 -0.037880197795281421 0 -0.009739475357282569 -0.037319941593731906 0 -0.010424818849154294 -0.038541700452092466 0 -0.0088929386502186233 -0.03833239385406207 0 -0.0088656218643631858 -0.03762130109590877 0 -0.0095711374693436789 -0.037923655636443961 0 -0.010424818849154294 -0.038541700452092466 0 -0.011110750716534236 -0.037763418178444155 0 -0.0093418057450701027 -0.037046556583922481 0 -0.0088656218643631858 -0.03762130109590877 0 -0.0095711374693436789 -0.037923655636443961 0 -0.01052982651723695 -0.0387066914224002 0 -0.010424818849154294 -0.038541700452092466 0 -0.010901706649170806 -0.038920805416445395 0 -0.010826112486258439 -0.038709957342491504 0 -0.01175071090365977 -0.03864980378815315 0 -0.010826112486258439 -0.038709957342491504 0 -0.01175071090365977 -0.03864980378815315 0 -0.011546179857619323 -0.03814672443693342 0 -0.010826112486258439 -0.038709957342491504 0 -0.011546179857619323 -0.03814672443693342 0 -0.01116598395990648 -0.037683736700997145 0 -0.01175071090365977 -0.03864980378815315 0 -0.011546179857619323 -0.03814672443693342 0 -0.012318719600635951 -0.038031690339357965 0 -0.012944599965517133 -0.03643011479146796 0 -0.012869116130251141 -0.034953008946249399 0 -0.011188318151248971 -0.036311206776141303 0 -0.014370292662230581 -0.036177467476265233 0 -0.011221814731719423 -0.037558794395792336 0 -0.013099994837434101 -0.037590379035231228 0 -0.01175071090365977 -0.03864980378815315 0 -0.012318719600635951 -0.038031690339357965 0 -0.012089327246672457 -0.037163598767531329 0 -0.012944599965517133 -0.03643011479146796 0 -0.011188318151248971 -0.036311206776141303 0 -0.012318719600635951 -0.038031690339357965 0 -0.012266927989375341 -0.037069399968635765 0 -0.011800108388137455 -0.037654269692043649 0 -0.013090522013318619 -0.03744085249663074 0 -0.012318719600635951 -0.038031690339357965 0 -0.012266927989375341 -0.037069399968635765 0 -0.014064380927383408 -0.036747473850263009 0 -0.012149915321272955 -0.038188354311571727 0 -0.013099994837434101 -0.037590379035231228 0 -0.013092393597139622 -0.037426457957584869 0 -0.012318719600635951 -0.038031690339357965 0 -0.011049359279913252 -0.03782260205572844 0 -0.011480189705715344 -0.03662418235915902 0 -0.010612947785049133 -0.036910508899353572 0 -0.011110750716534236 -0.037763418178444155 0 -0.011447723994395637 -0.03672884889179908 0 -0.01116598395990648 -0.037683736700997145 0 -0.011800108388137455 -0.037654269692043649 0 -0.011480189705715344 -0.03662418235915902 0 -0.012266927989375341 -0.037069399968635765 0 -0.011800108388137455 -0.037654269692043649 0 -0.011480189705715344 -0.03662418235915902 0 -0.011546179857619323 -0.03814672443693342 0 -0.01116598395990648 -0.037683736700997145 0 -0.011800108388137455 -0.037654269692043649 0 -0.011546179857619323 -0.03814672443693342 0 -0.012318719600635951 -0.038031690339357965 0 -0.011800108388137455 -0.037654269692043649 0 -0.011480189705715344 -0.03662418235915902 0 -0.011995518026966741 -0.035930099162486517 0 -0.01067944694553577 -0.036004649267786973 0 -0.012266927989375341 -0.037069399968635765 0 -0.011480189705715344 -0.03662418235915902 0 -0.011995518026966741 -0.035930099162486517 0 -0.013090522013318619 -0.03744085249663074 0 -0.013064148907239514 -0.036258117703491161 0 -0.012266927989375341 -0.037069399968635765 0 -0.013064148907239514 -0.036258117703491161 0 -0.012266927989375341 -0.037069399968635765 0 -0.011995518026966741 -0.035930099162486517 0 -0.013094997234906926 -0.036390017030020767 0 -0.01305753492663579 -0.035000200499037536 0 -0.013064148907239514 -0.036258117703491161 0 -0.013057396997977977 -0.035000005915596932 0 -0.011995518026966741 -0.035930099162486517 0 -0.013057396997977977 -0.035000005915596932 0 -0.011995518026966741 -0.035930099162486517 0 -0.011126876379922651 -0.034999963712152755 0 -0.011995518026966741 -0.035930099162486517 0 -0.011126876379922651 -0.034999963712152755 0 -0.01067944694553577 -0.036004649267786973 0 -0.01067944694553577 -0.036004649267786973 0 -0.0097020728917003862 -0.036336140561340477 0 -0.0091961895649610194 -0.03499998654307563 0 -0.011126876379922651 -0.034999963712152755 0 -0.01067944694553577 -0.036004649267786973 0 -0.0091961895649610194 -0.03499998654307563 0 -0.010185957788203763 -0.037668664368806393 0 -0.010612947785049133 -0.036910508899353572 0 -0.0097020728917003862 -0.036336140561340477 0 -0.009739475357282569 -0.037319941593731906 0 -0.0094550359352391991 -0.036203187335377064 0 -0.011480189705715344 -0.03662418235915902 0 -0.01067944694553577 -0.036004649267786973 0 -0.010612947785049133 -0.036910508899353572 0 -0.01067944694553577 -0.036004649267786973 0 -0.010612947785049133 -0.036910508899353572 0 -0.0097020728917003862 -0.036336140561340477 0 -0.0091984031854877163 -0.036113906103273266 0 -0.0082666916558990933 -0.035988031777388324 0 -0.0083258409351637912 -0.036928194523182419 0 -0.0091984031854877163 -0.036113906103273266 0 -0.0091954173192555343 -0.035000000710162585 0 -0.0082666916558990933 -0.035988031777388324 0 -0.0094550359352391991 -0.036203187335377064 0 -0.0091961305967308317 -0.035000232249915664 0 -0.0091954173192555343 -0.035000000710162585 0 -0.0078925074122214427 -0.034999980527055309 0 -0.0082666916558990933 -0.035988031777388324 0 -0.0078925074122214427 -0.034999980527055309 0 -0.0069419304250353869 -0.036322563019095269 0 -0.0082666916558990933 -0.035988031777388324 0 -0.0078925074122214427 -0.034999980527055309 0 -0.0065893556333735592 -0.034999860717539868 0 -0.0069419304250353869 -0.036322563019095269 0 -0.0065889477899627302 -0.03500020697182267 0 -0.0067037699906168048 -0.036277892872689857 0 -0.0069419304250353869 -0.036322563019095269 0 -0.0082666916558990933 -0.035988031777388324 0 -0.0083258409351637912 -0.036928194523182419 0 -0.0065883965261595914 -0.034999981781100101 0 -0.0045561649909853803 -0.034999789852944711 0 -0.0051323779826811409 -0.035570816089947201 0 -0.0051323779826811409 -0.035570816089947201 0 -0.0047831315141454878 -0.036297060146086343 0 -0.0041204609574838529 -0.035430262806258855 0 -0.0045561649909853803 -0.034999789852944711 0 -0.0051323779826811409 -0.035570816089947201 0 -0.0041204609574838529 -0.035430262806258855 0 -0.0065883965261595914 -0.034999981781100101 0 -0.0064698117331413955 -0.036293641898715472 0 -0.0056302217302754629 -0.036036093816999008 0 -0.0065883965261595914 -0.034999981781100101 0 -0.0051323779826811409 -0.035570816089947201 0 -0.0056302217302754629 -0.036036093816999008 0 -0.0064698117331413955 -0.036293641898715472 0 -0.0056302217302754629 -0.036036093816999008 0 -0.0056101538795144948 -0.036845827279790959 0 -0.0056302217302754629 -0.036036093816999008 0 -0.0047831315141454878 -0.036297060146086343 0 -0.0056101538795144948 -0.036845827279790959 0 -0.0051323779826811409 -0.035570816089947201 0 -0.0056302217302754629 -0.036036093816999008 0 -0.0047831315141454878 -0.036297060146086343 0 -0.0048310757012565535 -0.037268423590317894 0 -0.0056101538795144948 -0.036845827279790959 0 -0.0054760615012112426 -0.037712896680784022 0 -0.0047831315141454878 -0.036297060146086343 0 -0.0048310757012565535 -0.037268423590317894 0 -0.0056101538795144948 -0.036845827279790959 0 -0.0056101538795144948 -0.036845827279790959 0 -0.0054760615012112426 -0.037712896680784022 0 -0.00650821772067205 -0.037363915052238537 0 -0.0064698117331413955 -0.036293641898715472 0 -0.0056101538795144948 -0.036845827279790959 0 -0.00650821772067205 -0.037363915052238537 0 -0.0054760615012112426 -0.037712896680784022 0 -0.00650821772067205 -0.037363915052238537 0 -0.0059178091785310012 -0.038281617986154599 0 -0.0054760615012112426 -0.037712896680784022 0 -0.0048378312291404869 -0.03793966500715782 0 -0.0052256108730480283 -0.038335460588554721 0 -0.0048310757012565535 -0.037268423590317894 0 -0.0054760615012112426 -0.037712896680784022 0 -0.0048378312291404869 -0.03793966500715782 0 -0.0083258409351637912 -0.036928194523182419 0 -0.0071043320571792488 -0.037361515306834674 0 -0.0081869871435609649 -0.037880197795281421 0 -0.0069419304250353869 -0.036322563019095269 0 -0.0083258409351637912 -0.036928194523182419 0 -0.0071043320571792488 -0.037361515306834674 0 -0.0067037699906168048 -0.036277892872689857 0 -0.0068062651908267525 -0.037359313396440642 0 -0.00650821772067205 -0.037363915052238537 0 -0.0066689198440113371 -0.038351729693383595 0 -0.0059178091785310012 -0.038281617986154599 0 -0.0068062651908267525 -0.037359313396440642 0 -0.0069073962181186626 -0.038387253848890246 0 -0.0071043320571792488 -0.037361515306834674 0 -0.0081869871435609649 -0.037880197795281421 0 -0.0071384039260860999 -0.038350805360008601 0 -0.0081869871435609649 -0.037880197795281421 0 -0.0080312471958723826 -0.038696614340728158 0 -0.0071384039260860999 -0.038350805360008601 0 -0.0080312471958723826 -0.038696614340728158 0 -0.007010923697911408 -0.039426314262264811 0 -0.0082124635467397799 -0.039550772941542585 0 -0.0070070180927539021 -0.039376140094841937 0 -0.0069073962181186626 -0.038387253848890246 0 -0.0080312471958723826 -0.038696614340728158 0 -0.007010923697911408 -0.039426314262264811 0 -0.0071384039260860999 -0.038350805360008601 0 -0.007010923697911408 -0.039426314262264811 0 -0.0066689198440113371 -0.038351729693383595 0 -0.0061457986885486643 -0.038899409246439309 0 -0.0054760615012112426 -0.037712896680784022 0 -0.0059178091785310012 -0.038281617986154599 0 -0.0052256108730480283 -0.038335460588554721 0 -0.0059178091785310012 -0.038281617986154599 0 -0.0053632343399354259 -0.038921882026728236 0 -0.0061457986885486643 -0.038899409246439309 0 -0.0066689198440113371 -0.038351729693383595 0 -0.0059178091785310012 -0.038281617986154599 0 -0.0061457986885486643 -0.038899409246439309 0 -0.0052256108730480283 -0.038335460588554721 0 -0.0053632343399354259 -0.038921882026728236 0 -0.0045992032527782459 -0.038583999626639547 0 -0.0048378312291404869 -0.03793966500715782 0 -0.0052256108730480283 -0.038335460588554721 0 -0.0045992032527782459 -0.038583999626639547 0 -0.0059178091785310012 -0.038281617986154599 0 -0.0052256108730480283 -0.038335460588554721 0 -0.0053632343399354259 -0.038921882026728236 0 -0.0053632343399354259 -0.038921882026728236 0 -0.0047234644707005412 -0.03909433997473391 0 -0.0045992032527782459 -0.038583999626639547 0 -0.0053632343399354259 -0.038921882026728236 0 -0.0050126280560868182 -0.039419539362403659 0 -0.0047234644707005412 -0.03909433997473391 0 -0.0053632343399354259 -0.038921882026728236 0 -0.0050126280560868182 -0.039419539362403659 0 -0.0057600911895175806 -0.039560112239346558 0 -0.007010923697911408 -0.039426314262264811 0 -0.0061457986885486643 -0.038899409246439309 0 -0.0057600911895175806 -0.039560112239346558 0 -0.0053632343399354259 -0.038921882026728236 0 -0.0061457986885486643 -0.038899409246439309 0 -0.0057600911895175806 -0.039560112239346558 0 -0.0057600911895175806 -0.039560112239346558 0 -0.0060339978913914747 -0.040290078447974574 0 -0.0049105080633294104 -0.039989126645855917 0 -0.007010923697911408 -0.039426314262264811 0 -0.0057600911895175806 -0.039560112239346558 0 -0.0060339978913914747 -0.040290078447974574 0 -0.0060339978913914747 -0.040290078447974574 0 -0.0049105080633294104 -0.039989126645855917 0 -0.0052292869741045224 -0.040675791348311674 0 -0.0050126280560868182 -0.039419539362403659 0 -0.0057600911895175806 -0.039560112239346558 0 -0.0049105080633294104 -0.039989126645855917 0 -0.0050126280560868182 -0.039419539362403659 0 -0.0049105080633294104 -0.039989126645855917 0 -0.004392498616582175 -0.039436207375552423 0 -0.0054295967838270988 -0.041289516263517838 0 -0.0052292869741045224 -0.040675791348311674 0 -0.0044986170420835137 -0.04080781051480635 0 -0.0038692179687545044 -0.039266679868199289 0 -0.0029738194730888042 -0.038149739322669921 0 -0.0049105080633294104 -0.039989126645855917 0 -0.0052292869741045224 -0.040675791348311674 0 -0.0044986170420835137 -0.04080781051480635 0 -0.0054295967838270988 -0.041289516263517838 0 -0.0052292869741045224 -0.040675791348311674 0 -0.0058690317286863971 -0.040800277459631218 0 -0.0060339978913914747 -0.040290078447974574 0 -0.0058690317286863971 -0.040800277459631218 0 -0.0068086160612477005 -0.040952402941917695 0 -0.0055222806888097333 -0.041264319171987432 0 -0.0067381993975455922 -0.040879494795910687 0 -0.0054295967838270988 -0.041289516263517838 0 -0.0058690317286863971 -0.040800277459631218 0 -0.0068086160612477005 -0.040952402941917695 0 -0.0060339978913914747 -0.040290078447974574 0 -0.0052292869741045224 -0.040675791348311674 0 -0.0058690317286863971 -0.040800277459631218 0 -0.0060339978913914747 -0.040290078447974574 0 -0.0068086160612477005 -0.040952402941917695 0 -0.007338893184835979 -0.040169134146338499 0 -0.0067381993975455922 -0.040879494795910687 0 -0.0081583571989118243 -0.04040626496714373 0 -0.0068086160612477005 -0.040952402941917695 0 -0.0081623848547772507 -0.040507206440545541 0 -0.007338893184835979 -0.040169134146338499 0 -0.006702595412804992 -0.040801459276996549 0 -0.0081040889558732111 -0.040326806013021861 0 -0.0075480004643544646 -0.041041843766366895 0 -0.0080296899026972221 -0.041775829120894135 0 -0.0081040889558732111 -0.040326806013021861 0 -0.0075480004643544646 -0.041041843766366895 0 -0.0081623848547772507 -0.040507206440545541 0 -0.007338893184835979 -0.040169134146338499 0 -0.0082124635467397799 -0.039550772941542585 0 -0.007010923697911408 -0.039426314262264811 0 -0.007338893184835979 -0.040169134146338499 0 -0.0082124635467397799 -0.039550772941542585 0 -0.007010923697911408 -0.039426314262264811 0 -0.0060339978913914747 -0.040290078447974574 0 -0.007338893184835979 -0.040169134146338499 0 0.0021848741878201989 -0.035927010722614797 0 0.002135992217802197 -0.035880764850605672 0 0.0021228223639732343 -0.035824904457220884 0 0.0021848741878201989 -0.035927010722614797 0 0.0021228223639732343 -0.035824904457220884 0 0.0021854279526647823 -0.035848645984611016 0 0.0021848741878201989 -0.035927010722614797 0 0.002135992217802197 -0.035880764850605672 0 0.0020839569741072134 -0.036000807320632808 0 0.0022767283127832732 -0.035757074194616704 0 0.0020839569741072134 -0.036000807320632808 0 0.0020496470884547109 -0.036228441424503578 0 0.002135992217802197 -0.035880764850605672 0 0.0022767283127832732 -0.035757074194616704 0 0.0020839569741072134 -0.036000807320632808 0 0.002135992217802197 -0.035880764850605672 0 0.0022767283127832732 -0.035757074194616704 0 0.0021228223639732343 -0.035824904457220884 0 0.0022767283127832732 -0.035757074194616704 0 0.0021815415708669105 -0.035795581675302453 0 0.0021228223639732343 -0.035824904457220884 0 0.0023240978646353592 -0.035790352718470232 0 0.0020078892150645032 -0.035848755765637001 0 0.0021815415708669105 -0.035795581675302453 0 0.0023240978646353592 -0.035790352718470232 0 0.0022767283127832732 -0.035757074194616704 0 0.0021815415708669105 -0.035795581675302453 0 0.0014333893349628988 -0.035652663117008626 0 -0.00060539912629004023 -0.035934391444161912 0 3.4191571483043808e-05 -0.036238768684275897 0 0.00054980004312842425 -0.035504339157986717 0 -0.00039382446518229213 -0.03432441799459994 0 0.0020078892150645032 -0.035848755765637001 0 0.0021228223639732343 -0.035824904457220884 0 0.0021854279526647823 -0.035848645984611016 0 0.0020078892150645032 -0.035848755765637001 0 0.0021815415708669105 -0.035795581675302453 0 0.0021228223639732343 -0.035824904457220884 0 -0.0020752626864300964 -0.035243199838795834 0 -0.0017868196917257557 -0.035610762866515079 0 -0.0019409336338865866 -0.035914913443055148 0 -0.0012657448019868806 -0.035947354906060033 0 -0.00060539912629004023 -0.035934391444161912 0 -0.0017868196917257557 -0.035610762866515079 0 -0.0018773177808584696 -0.035998261121294867 0 -0.0019409336338865866 -0.035914913443055148 0 -0.0017868196917257557 -0.035610762866515079 0 -0.0014301960899163505 -0.03568496474567974 0 -0.0018773177808584696 -0.035998261121294867 0 -0.0029738194730888042 -0.038149739322669921 0 -0.0015754906783709837 -0.037879098156242255 0 -0.0044986170420835137 -0.04080781051480635 0 -0.0040810867612472027 -0.040009990516652195 0 -0.003029144771565068 -0.039935222131224232 0 -0.0049105080633294104 -0.039989126645855917 0 -0.0044986170420835137 -0.04080781051480635 0 -0.0040810867612472027 -0.040009990516652195 0 -0.0049105080633294104 -0.039989126645855917 0 -0.0040810867612472027 -0.040009990516652195 0 -0.0039446444901078005 -0.039574223437593668 0 -0.0040810867612472027 -0.040009990516652195 0 -0.0039446444901078005 -0.039574223437593668 0 -0.003029144771565068 -0.039935222131224232 0 -0.0039446444901078005 -0.039574223437593668 0 -0.0041098607547177821 -0.039067332660038014 0 -0.0035774112663882643 -0.039193626138993895 0 -0.0049105080633294104 -0.039989126645855917 0 -0.0039446444901078005 -0.039574223437593668 0 -0.0041098607547177821 -0.039067332660038014 0 -0.0047772200434127946 -0.039831496583791662 0 -0.0044219832927470315 -0.039451300333693616 0 0.0021848741878201989 -0.035927010722614797 0 0.0021990781416005561 -0.035884035849102186 0 0.0021854279526647823 -0.035848645984611016 0 -0.00010876807332300628 -0.037237858505009873 0 -0.00060539912629004023 -0.035934391444161912 0 0.00027497325516907578 -0.037649582883861069 0 -0.00037110042793669532 -0.038077968993225894 0 -0.00078715504917690744 -0.036295543591706225 0 -0.0015754906783709837 -0.037879098156242255 0 -0.00010876807332300628 -0.037237858505009873 0 -0.0015754906783709837 -0.037879098156242255 0 -0.00060539912629004023 -0.035934391444161912 0 -0.0015754906783709837 -0.037879098156242255 0 -0.0030068387363757091 -0.039169495453188014 0 -0.0039446444901078005 -0.039574223437593668 0 -0.003029144771565068 -0.039935222131224232 0 -0.0035774112663882643 -0.039193626138993895 0 -0.0029673000699545998 -0.039934990761324819 0 -0.0028420279526314637 -0.039852877406023501 0 -0.0035774112663882643 -0.039193626138993895 0 0.0021848741878201989 -0.035927010722614797 0 0.0022987269190150265 -0.035846032869789192 0 0.0022480780459768171 -0.036082181498806147 0 0.0022126028450018377 -0.03580599023160496 0 -0.00010876807332300628 -0.037237858505009873 0 -0.00010876807332300628 -0.037237858505009873 0 -0.0017816211077226881 -0.038246145203383715 0 0.0022987269190150265 -0.035846032869789192 0 0.0022480780459768171 -0.036082181498806147 0 0.0024047358701445717 -0.036270461228308369 0 -0.0028420279526314637 -0.039852877406023501 0 -0.0032401030896035887 -0.038176750079247423 0 -0.0035774112663882643 -0.039193626138993895 0 0.0022480780459768171 -0.036082181498806147 0 0.0024047358701445717 -0.036270461228308369 0 0.0020857098559086628 -0.036233423652796547 0 -0.0038450146466395729 -0.038880366849952906 0 -0.004352288211848139 -0.038986496733227488 0 -0.0045992032527782459 -0.038583999626639547 0 -0.0050126280560868182 -0.039419539362403659 0 -0.004392498616582175 -0.039436207375552423 0 -0.0047234644707005412 -0.03909433997473391 0 -0.004392498616582175 -0.039436207375552423 0 -0.004352288211848139 -0.038986496733227488 0 -0.0047234644707005412 -0.03909433997473391 0 -0.0032401030896035887 -0.038176750079247423 0 -0.0041098607547177821 -0.039067332660038014 0 -0.0035774112663882643 -0.039193626138993895 0 -0.0017816211077226881 -0.038246145203383715 0 -0.0044219832927470315 -0.039451300333693616 0 -0.0038450146466395729 -0.038880366849952906 0 -0.004392498616582175 -0.039436207375552423 0 -0.004352288211848139 -0.038986496733227488 0 -0.004352288211848139 -0.038986496733227488 0 -0.0047234644707005412 -0.03909433997473391 0 -0.0045992032527782459 -0.038583999626639547 0 -0.0038450146466395729 -0.038880366849952906 0 -0.0045992032527782459 -0.038583999626639547 0 -0.0040870006376752342 -0.037807177551935293 0 -0.0017816211077226881 -0.038246145203383715 0 0.00076073866785780276 -0.037683456715541658 0 -0.0023520461223287244 -0.040380599673086048 0 -0.00098889870178095539 -0.039028073937783354 0 -0.0028492364649345763 -0.038349749695063363 0 -0.0017816211077226881 -0.038246145203383715 0 -0.0035730877356976664 -0.03834241513806641 0 0.0024047358701445717 -0.036270461228308369 0 0.0020074087110105439 -0.036645855410938621 0 0.0020857098559086628 -0.036233423652796547 0 0.0020074087110105439 -0.036645855410938621 0 0.0020857098559086628 -0.036233423652796547 0 0.0016164161692357997 -0.036512574554767717 0 0.0021848741878201989 -0.035927010722614797 0 0.0020857098559086628 -0.036233423652796547 0 0.0020839569741072134 -0.036000807320632808 0 0.0020857098559086628 -0.036233423652796547 0 0.0020839569741072134 -0.036000807320632808 0 0.0016164161692357997 -0.036512574554767717 0 0.0021848741878201989 -0.035927010722614797 0 0.0022480780459768171 -0.036082181498806147 0 0.0020857098559086628 -0.036233423652796547 0 0.0020839569741072134 -0.036000807320632808 0 0.0016164161692357997 -0.036512574554767717 0 0.0020496470884547109 -0.036228441424503578 0 0.0016164161692357997 -0.036512574554767717 0 0.00076046195106077694 -0.037139691975917988 0 0.0013521635124098242 -0.036799013875676717 0 0.0020074087110105439 -0.036645855410938621 0 0.0016164161692357997 -0.036512574554767717 0 0.00076046195106077694 -0.037139691975917988 0 -0.00098889870178095539 -0.039028073937783354 0 0.00076046195106077694 -0.037139691975917988 0 -0.0016278900616239912 -0.037414998586070676 0 0.00076073866785780276 -0.037683456715541658 0 0.00071507600837784902 -0.037266948236744216 0 0.00076046195106077694 -0.037139691975917988 0 -0.0016278900616239912 -0.037414998586070676 0 -0.0013768270167014009 -0.036237356407812261 0 0.00076046195106077694 -0.037139691975917988 0 0.00049818936655245507 -0.036234170075429853 0 -0.0013768270167014009 -0.036237356407812261 0 0.00076046195106077694 -0.037139691975917988 0 0.00049818936655245507 -0.036234170075429853 0 0.0013521635124098242 -0.036799013875676717 0 -0.0048310757012565535 -0.037268423590317894 0 -0.0048378312291404869 -0.03793966500715782 0 -0.0040870006376752342 -0.037807177551935293 0 -0.0048378312291404869 -0.03793966500715782 0 -0.0045992032527782459 -0.038583999626639547 0 -0.0040870006376752342 -0.037807177551935293 0 -0.00098889870178095539 -0.039028073937783354 0 -0.0028492364649345763 -0.038349749695063363 0 -0.0016278900616239912 -0.037414998586070676 0 -0.0016278900616239912 -0.037414998586070676 0 -0.0033449891284421411 -0.036695550919200161 0 -0.0013768270167014009 -0.036237356407812261 0 -0.0028492364649345763 -0.038349749695063363 0 -0.0016278900616239912 -0.037414998586070676 0 -0.0033449891284421411 -0.036695550919200161 0 -0.0035730877356976664 -0.03834241513806641 0 -0.0037952285688952307 -0.036620128570356097 0 -0.0048310757012565535 -0.037268423590317894 0 -0.0040870006376752342 -0.037807177551935293 0 -0.0042263631991125497 -0.036737838876055542 0 -0.0047831315141454878 -0.036297060146086343 0 -0.0048310757012565535 -0.037268423590317894 0 -0.0042263631991125497 -0.036737838876055542 0 -0.0047831315141454878 -0.036297060146086343 0 -0.0042263631991125497 -0.036737838876055542 0 -0.0041204609574838529 -0.035430262806258855 0 -0.0033449891284421411 -0.036695550919200161 0 -0.0027813461455488222 -0.035844963248597705 0 -0.0041204609574838529 -0.035430262806258855 0 -0.0037952285688952307 -0.036620128570356097 0 -0.0041039666104609176 -0.035482757101150848 0 -0.0033449891284421411 -0.036695550919200161 0 -0.0027813461455488222 -0.035844963248597705 0 -0.0013768270167014009 -0.036237356407812261 0 -0.0027813461455488222 -0.035844963248597705 0 -0.0025224201018249006 -0.034999658876146235 0 -0.0013768270167014009 -0.036237356407812261 0 -0.0027813461455488222 -0.035844963248597705 0 -0.0025224201018249006 -0.034999658876146235 0 -0.0041204609574838529 -0.035430262806258855 0 -0.0045561649909853803 -0.034999789852944711 0 -0.0025224201018249006 -0.034999658876146235 0 -0.0041204609574838529 -0.035430262806258855 0 0.00049818936655245507 -0.036234170075429853 0 -0.0013768270167014009 -0.036237356407812261 0 -0.00048937821381937134 -0.034999687284863468 0 -0.0025224201018249006 -0.034999658876146235 0 -0.0013768270167014009 -0.036237356407812261 0 -0.00048937821381937134 -0.034999687284863468 0 0.00049818936655245507 -0.036234170075429853 0 -0.00048937821381937134 -0.034999687284863468 0 0.0011502492894745636 -0.035802815373810429 0 -0.00048937821381937134 -0.034999687284863468 0 0.0011502492894745636 -0.035802815373810429 0 0.0015430596177260926 -0.034999856961930455 0 0.00049818936655245507 -0.036234170075429853 0 0.0011502492894745636 -0.035802815373810429 0 0.0016519011907303307 -0.036467860815252516 0 0.0023131319415317518 -0.035971023733272212 0 0.002326760138248867 -0.036496744301108726 0 0.0016519011907303307 -0.036467860815252516 0 0.0011502492894745636 -0.035802815373810429 0 0.0023131319415317518 -0.035971023733272212 0 0.0016519011907303307 -0.036467860815252516 0 0.0011502492894745636 -0.035802815373810429 0 0.0015430596177260926 -0.034999856961930455 0 0.0023131319415317518 -0.035971023733272212 0 0.0035752332122586782 -0.034999792229252945 0 0.003283779314441555 -0.035876955939540753 0 0.0023131319415317518 -0.035971023733272212 0 0.0015430596177260926 -0.034999856961930455 0 0.0035752332122586782 -0.034999792229252945 0 0.0023131319415317518 -0.035971023733272212 0 0.0035752332122586782 -0.034999792229252945 0 0.003283779314441555 -0.035876955939540753 0 0.0043712782007363071 -0.035898480952627668 0 0.0029885592232355078 -0.036586228196372077 0 0.0043712782007363071 -0.035898480952627668 0 0.0042535397968396565 -0.037190655232012301 0 0.003283779314441555 -0.035876955939540753 0 0.0029885592232355078 -0.036586228196372077 0 0.0043712782007363071 -0.035898480952627668 0 0.003283779314441555 -0.035876955939540753 0 0.0023131319415317518 -0.035971023733272212 0 0.0029885592232355078 -0.036586228196372077 0 0.0023131319415317518 -0.035971023733272212 0 0.002326760138248867 -0.036496744301108726 0 0.0029885592232355078 -0.036586228196372077 0 0.002326760138248867 -0.036496744301108726 0 0.0029885592232355078 -0.036586228196372077 0 0.002462609122157359 -0.036322512467211431 0 0.0029885592232355078 -0.036586228196372077 0 0.002462609122157359 -0.036322512467211431 0 0.0029318980511703649 -0.036561187390013565 0 0.001956732974697267 -0.036371064943437045 0 0.0045600524352331015 -0.03616971943679461 0 0.0029368672675172533 -0.036491716967849537 0 0.0045600524352331015 -0.03616971943679461 0 0.0027832966776390072 -0.036006274901879243 0 0.002462609122157359 -0.036322512467211431 0 0.002639325200990951 -0.036190704338444145 0 0.0027832966776390072 -0.036006274901879243 0 0.002462609122157359 -0.036322512467211431 0 0.0028647150733411494 -0.035465060883012885 0 0.002326760138248867 -0.036496744301108726 0 0.002462609122157359 -0.036322512467211431 0 0.0018917588129525268 -0.036581088390232698 0 0.0018917588129525268 -0.036581088390232698 0 0.0013521635124098242 -0.036799013875676717 0 0.0016519011907303307 -0.036467860815252516 0 0.0016164161692357997 -0.036512574554767717 0 0.0018917588129525268 -0.036581088390232698 0 0.0013521635124098242 -0.036799013875676717 0 0.00049818936655245507 -0.036234170075429853 0 0.0013521635124098242 -0.036799013875676717 0 0.0016519011907303307 -0.036467860815252516 0 0.002326760138248867 -0.036496744301108726 0 0.0018917588129525268 -0.036581088390232698 0 0.0016519011907303307 -0.036467860815252516 0 0.0093500015829326207 -0.035220631089237668 0 0.0076464598592740326 -0.034999132723355121 0 0.0093433926485513366 -0.034999679816307139 0 0.0076414007753155874 -0.03500023106830906 0 0.0075709642959180872 -0.035567115077517253 0 0.0093500015829326207 -0.035220631089237668 0 0.0076464598592740326 -0.034999132723355121 0 0.0086786270824547023 -0.035177858780558187 0 0.0076464598592740326 -0.034999132723355121 0 0.0086786270824547023 -0.035177858780558187 0 0.0085960245950007334 -0.035141939351476262 0 0.0093500015829326207 -0.035220631089237668 0 0.0086786270824547023 -0.035177858780558187 0 0.0091522295457197728 -0.03557018450448849 0 0.0086786270824547023 -0.035177858780558187 0 0.0085960245950007334 -0.035141939351476262 0 0.0086757116541904492 -0.035350271112236993 0 0.0085960245950007334 -0.035141939351476262 0 0.0079468211324446938 -0.035497941706227235 0 0.0084421163818671815 -0.035426187583895423 0 0.0085960245950007334 -0.035141939351476262 0 0.0084421163818671815 -0.035426187583895423 0 0.0086757116541904492 -0.035350271112236993 0 0.007641590731600206 -0.035000079554853278 0 0.006017462002510951 -0.036142861793315093 0 0.0056084729692654888 -0.034999748367393529 0 0.006017462002510951 -0.036142861793315093 0 0.0056084729692654888 -0.034999748367393529 0 0.0043712782007363071 -0.035898480952627668 0 0.0035752332122586782 -0.034999792229252945 0 0.0056084729692654888 -0.034999748367393529 0 0.0043712782007363071 -0.035898480952627668 0 0.006017462002510951 -0.036142861793315093 0 0.0043712782007363071 -0.035898480952627668 0 0.0042535397968396565 -0.037190655232012301 0 0.0075709642959180872 -0.035567115077517253 0 0.0045600524352331015 -0.03616971943679461 0 0.0028647150733411494 -0.035465060883012885 0 0.003146887188651068 -0.035768376695638135 0 0.0035848865968601306 -0.035497986040567329 0 0.0027832966776390072 -0.036006274901879243 0 0.0028647150733411494 -0.035465060883012885 0 0.003146887188651068 -0.035768376695638135 0 0.0027832966776390072 -0.036006274901879243 0 0.003146887188651068 -0.035768376695638135 0 0.0030882426124707292 -0.035983624751100209 0 0.003146887188651068 -0.035768376695638135 0 0.0034510911097539337 -0.035817299641853401 0 0.0035848865968601306 -0.035497986040567329 0 0.003146887188651068 -0.035768376695638135 0 0.0034510911097539337 -0.035817299641853401 0 0.0030882426124707292 -0.035983624751100209 0 0.0034510911097539337 -0.035817299641853401 0 0.0035848865968601306 -0.035497986040567329 0 0.0038484565969966254 -0.035766786621491548 0 0.0045600524352331015 -0.03616971943679461 0 0.0058957900324521422 -0.035543604397300851 0 0.0079468211324446938 -0.035497941706227235 0 0.0086389171133862755 -0.03576072571573042 0 0.0084421163818671815 -0.035426187583895423 0 0.0086389171133862755 -0.03576072571573042 0 0.0084421163818671815 -0.035426187583895423 0 0.0086757116541904492 -0.035350271112236993 0 0.0086786270824547023 -0.035177858780558187 0 0.0086757116541904492 -0.035350271112236993 0 0.0091522295457197728 -0.03557018450448849 0 0.0086389171133862755 -0.03576072571573042 0 0.0086757116541904492 -0.035350271112236993 0 0.0091522295457197728 -0.03557018450448849 0 0.0086389171133862755 -0.03576072571573042 0 0.0091522295457197728 -0.03557018450448849 0 0.0096242907469730448 -0.036086832385888327 0 0.0058957900324521422 -0.035543604397300851 0 0.0089081377502248458 -0.035598054573257154 0 0.0035848865968601306 -0.035497986040567329 0 0.0038484565969966254 -0.035766786621491548 0 0.0043613909618006085 -0.035578333776992939 0 0.0095546402949516843 -0.035886645910627797 0 0.0089081377502248458 -0.035598054573257154 0 0.0038484565969966254 -0.035766786621491548 0 0.0043613909618006085 -0.035578333776992939 0 0.004189387657910197 -0.035790849662062585 0 0.0043613909618006085 -0.035578333776992939 0 0.0044053871127851503 -0.03580603230507657 0 0.004189387657910197 -0.035790849662062585 0 0.0089081377502248458 -0.035598054573257154 0 0.012745697250878436 -0.036634916006350139 0 0.0089081377502248458 -0.035598054573257154 0 0.014730443734053954 -0.032205070692857427 0 0.012415559708507813 -0.036308301920840148 0 0.012592347448399741 -0.036432487813682544 0 0.012534266695473971 -0.036358341106656242 0 0.012415559708507813 -0.036308301920840148 0 0.012600489127458776 -0.036457981515045486 0 0.012592347448399741 -0.036432487813682544 0 0.0043613909618006085 -0.035578333776992939 0 0.0044053871127851503 -0.03580603230507657 0 0.0046343439510015683 -0.035817145512355993 0 0.010429415730876804 -0.036374675043480596 0 0.01136367555183866 -0.035780990924601817 0 0.012534266695473971 -0.036358341106656242 0 0.010429415730876804 -0.036374675043480596 0 0.010214865026372914 -0.035491195791893651 0 0.01136367555183866 -0.035780990924601817 0 0.0093500015829326207 -0.035220631089237668 0 0.0091522295457197728 -0.03557018450448849 0 0.010214865026372914 -0.035491195791893651 0 0.010214865026372914 -0.035491195791893651 0 0.011041688118804821 -0.035157234570418985 0 0.01136367555183866 -0.035780990924601817 0 0.0093500015829326207 -0.035220631089237668 0 0.010214865026372914 -0.035491195791893651 0 0.011041688118804821 -0.035157234570418985 0 0.0091522295457197728 -0.03557018450448849 0 0.010429415730876804 -0.036374675043480596 0 0.010214865026372914 -0.035491195791893651 0 0.0044544118321681531 -0.036449276702779441 0 0.0044456480728241911 -0.036186988750404075 0 0.0047705179541831337 -0.036311975978912912 0 0.0044544118321681531 -0.036449276702779441 0 0.0042565037580919503 -0.036242582482948975 0 0.0040941069967910439 -0.0363948041324079 0 0.0042565037580919503 -0.036242582482948975 0 0.0042590063633464355 -0.036061328008078548 0 0.0040410885317684027 -0.036128465741540307 0 0.0042565037580919503 -0.036242582482948975 0 0.0044456480728241911 -0.036186988750404075 0 0.0042590063633464355 -0.036061328008078548 0 0.0044544118321681531 -0.036449276702779441 0 0.0042565037580919503 -0.036242582482948975 0 0.0044456480728241911 -0.036186988750404075 0 0.0044456480728241911 -0.036186988750404075 0 0.0044742673306478152 -0.036010733778556694 0 0.0047705179541831337 -0.036311975978912912 0 0.0044456480728241911 -0.036186988750404075 0 0.0044742673306478152 -0.036010733778556694 0 0.0042590063633464355 -0.036061328008078548 0 0.0044742673306478152 -0.036010733778556694 0 0.0044053871127851503 -0.03580603230507657 0 0.0046343439510015683 -0.035817145512355993 0 0.0044742673306478152 -0.036010733778556694 0 0.0044053871127851503 -0.03580603230507657 0 0.0042796574283597583 -0.035884684524835009 0 0.004189387657910197 -0.035790849662062585 0 0.0042796574283597583 -0.035884684524835009 0 0.0040557776208543471 -0.035915308439208191 0 0.0044053871127851503 -0.03580603230507657 0 0.004189387657910197 -0.035790849662062585 0 0.0042796574283597583 -0.035884684524835009 0 0.0042796574283597583 -0.035884684524835009 0 0.0042590063633464355 -0.036061328008078548 0 0.0040557776208543471 -0.035915308439208191 0 0.0044742673306478152 -0.036010733778556694 0 0.0042796574283597583 -0.035884684524835009 0 0.0042590063633464355 -0.036061328008078548 0 0.0042590063633464355 -0.036061328008078548 0 0.0040410885317684027 -0.036128465741540307 0 0.0040557776208543471 -0.035915308439208191 0 0.0040410885317684027 -0.036128465741540307 0 0.0040557776208543471 -0.035915308439208191 0 0.0038508168858467254 -0.036016899592158931 0 0.0038484565969966254 -0.035766786621491548 0 0.0040557776208543471 -0.035915308439208191 0 0.0038508168858467254 -0.036016899592158931 0 0.0038484565969966254 -0.035766786621491548 0 0.004189387657910197 -0.035790849662062585 0 0.0040557776208543471 -0.035915308439208191 0 0.0038484565969966254 -0.035766786621491548 0 0.0038508168858467254 -0.036016899592158931 0 0.0035214238722187027 -0.036038239789354706 0 0.0040410885317684027 -0.036128465741540307 0 0.0038508168858467254 -0.036016899592158931 0 0.0037861228981558516 -0.036235822580381327 0 0.0038508168858467254 -0.036016899592158931 0 0.0037861228981558516 -0.036235822580381327 0 0.0035214238722187027 -0.036038239789354706 0 0.0040410885317684027 -0.036128465741540307 0 0.0037861228981558516 -0.036235822580381327 0 0.0040941069967910439 -0.0363948041324079 0 0.0042565037580919503 -0.036242582482948975 0 0.0040410885317684027 -0.036128465741540307 0 0.0040941069967910439 -0.0363948041324079 0 0.0037861228981558516 -0.036235822580381327 0 0.0040941069967910439 -0.0363948041324079 0 0.0037447778140179628 -0.03654984048331808 0 0.0034805054997325158 -0.036480677642571437 0 0.0035019579934778807 -0.036319443991299175 0 0.0037447778140179628 -0.03654984048331808 0 0.0037861228981558516 -0.036235822580381327 0 0.0035019579934778807 -0.036319443991299175 0 0.0037447778140179628 -0.03654984048331808 0 0.0034805054997325158 -0.036480677642571437 0 0.0035019579934778807 -0.036319443991299175 0 0.0032044500275010906 -0.036398313859317931 0 0.0034805054997325158 -0.036480677642571437 0 0.0032044500275010906 -0.036398313859317931 0 0.0034697247237211975 -0.036602779951462487 0 0.0035019579934778807 -0.036319443991299175 0 0.0035214238722187027 -0.036038239789354706 0 0.0030904772625809981 -0.036177361152694598 0 0.0035019579934778807 -0.036319443991299175 0 0.0030904772625809981 -0.036177361152694598 0 0.0032044500275010906 -0.036398313859317931 0 0.0037861228981558516 -0.036235822580381327 0 0.0035019579934778807 -0.036319443991299175 0 0.0035214238722187027 -0.036038239789354706 0 0.0034510911097539337 -0.035817299641853401 0 0.0038484565969966254 -0.035766786621491548 0 0.0035214238722187027 -0.036038239789354706 0 0.0034510911097539337 -0.035817299641853401 0 0.0035214238722187027 -0.036038239789354706 0 0.0030882426124707292 -0.035983624751100209 0 0.0035214238722187027 -0.036038239789354706 0 0.0030882426124707292 -0.035983624751100209 0 0.0030904772625809981 -0.036177361152694598 0 0.0030882426124707292 -0.035983624751100209 0 0.0030904772625809981 -0.036177361152694598 0 0.002639325200990951 -0.036190704338444145 0 0.0027832966776390072 -0.036006274901879243 0 0.0030882426124707292 -0.035983624751100209 0 0.002639325200990951 -0.036190704338444145 0 0.0030904772625809981 -0.036177361152694598 0 0.0027672734841629816 -0.036281021197222284 0 0.002639325200990951 -0.036190704338444145 0 0.0032044500275010906 -0.036398313859317931 0 0.0027672734841629816 -0.036281021197222284 0 0.0032799027989348119 -0.036772942589603889 0 0.0030904772625809981 -0.036177361152694598 0 0.0032044500275010906 -0.036398313859317931 0 0.0027672734841629816 -0.036281021197222284 0 0.0027672734841629816 -0.036281021197222284 0 0.002742567982462639 -0.036264818597820145 0 0.0024801487748790443 -0.036195096705201067 0 0.0071853150948447487 -0.031088999567629186 0 0.0048710914457759562 -0.034318072339824979 0 0.0036085529113712273 -0.036591712608546816 0 0.0071853150948447487 -0.031088999567629186 0 0.011473679162060844 -0.030665671215678363 0 0.01001150131686719 -0.032352047532611575 0 0.0074276855624782964 -0.031812306000695803 0 0.011473679162060844 -0.030665671215678363 0 0.01001150131686719 -0.032352047532611575 0 0.011861443524708793 -0.033510198632942703 0 0.0071853150948447487 -0.031088999567629186 0 0.011710107426758255 -0.027551318282834601 0 0.011473679162060844 -0.030665671215678363 0 0.011861443524708793 -0.033510198632942703 0 0.012574517535176796 -0.033041348219584869 0 0.0088593695501342322 -0.022429478374018503 0 0.010231753383171789 -0.022818054461042386 0 0.010254373428482368 -0.023847365292790353 0 0.0088593695501342322 -0.022429478374018503 0 0.0095105512824102331 -0.022156827577186792 0 0.010231753383171789 -0.022818054461042386 0 0.0032799027989348119 -0.036772942589603889 0 0.0037146575303322496 -0.036626799246494181 0 0.0034697247237211975 -0.036602779951462487 0 0.0032044500275010906 -0.036398313859317931 0 0.0032799027989348119 -0.036772942589603889 0 0.0034697247237211975 -0.036602779951462487 0 0.0071853150948447487 -0.031088999567629186 0 0.005819483347603566 -0.032944463664709274 0 0.005819483347603566 -0.032944463664709274 0 0.0050830144715875679 -0.033380317913657032 0 0.0034805054997325158 -0.036480677642571437 0 0.003516648251468774 -0.036619044255708923 0 0.0034697247237211975 -0.036602779951462487 0 0.0034805054997325158 -0.036480677642571437 0 0.003516648251468774 -0.036619044255708923 0 0.0037447778140179628 -0.03654984048331808 0 0.005819483347603566 -0.032944463664709274 0 0.0031278573990287085 -0.035448637047658452 0 0.005819483347603566 -0.032944463664709274 0 0.0066918453710839345 -0.029252135448130576 0 0.0095105512824102331 -0.022156827577186792 0 0.010231753383171789 -0.022818054461042386 0 0.011394897203662 -0.022448709996241052 0 0.0035096413424521651 -0.036620551835686313 0 0.0037447778140179628 -0.03654984048331808 0 0.0042068124232519065 -0.036754083220122441 0 0.0040941069967910439 -0.0363948041324079 0 0.0037447778140179628 -0.03654984048331808 0 0.0042068124232519065 -0.036754083220122441 0 0.010231753383171789 -0.022818054461042386 0 0.011144185505245994 -0.023173570380579048 0 0.010254373428482368 -0.023847365292790353 0 0.010231753383171789 -0.022818054461042386 0 0.011144185505245994 -0.023173570380579048 0 0.011394897203662 -0.022448709996241052 0 0.011144185505245994 -0.023173570380579048 0 0.010254373428482368 -0.023847365292790353 0 0.011459158691462289 -0.023868166696450376 0 0.011144185505245994 -0.023173570380579048 0 0.012041420310182415 -0.02344503181345179 0 0.011394897203662 -0.022448709996241052 0 0.012041420310182415 -0.02344503181345179 0 0.011394897203662 -0.022448709996241052 0 0.013042462847026193 -0.022857957427827171 0 0.011144185505245994 -0.023173570380579048 0 0.012041420310182415 -0.02344503181345179 0 0.011459158691462289 -0.023868166696450376 0 0.0044544118321681531 -0.036449276702779441 0 0.0042068124232519065 -0.036754083220122441 0 0.0049579901529140961 -0.03682877858437153 0 0.0066918453710839345 -0.029252135448130576 0 0.014900650138116615 -0.02833262074878555 0 0.0044544118321681531 -0.036449276702779441 0 0.0040941069967910439 -0.0363948041324079 0 0.0042068124232519065 -0.036754083220122441 0 0.0020496470884547109 -0.036228441424503578 0 0.0022937831485151474 -0.03632449283936242 0 0.0025006898064576129 -0.035977896098011684 0 0.0016164161692357997 -0.036512574554767717 0 0.0018917588129525268 -0.036581088390232698 0 0.0020496470884547109 -0.036228441424503578 0 0.0018917588129525268 -0.036581088390232698 0 0.0020496470884547109 -0.036228441424503578 0 0.0022937831485151474 -0.03632449283936242 0 0.002462609122157359 -0.036322512467211431 0 0.0022937831485151474 -0.03632449283936242 0 0.002639325200990951 -0.036190704338444145 0 0.002462609122157359 -0.036322512467211431 0 0.0018917588129525268 -0.036581088390232698 0 0.0022937831485151474 -0.03632449283936242 0 0.0027672734841629816 -0.036281021197222284 0 0.002639325200990951 -0.036190704338444145 0 0.0024801487748790443 -0.036195096705201067 0 0.0022937831485151474 -0.03632449283936242 0 0.002639325200990951 -0.036190704338444145 0 0.0024801487748790443 -0.036195096705201067 0 0.0022937831485151474 -0.03632449283936242 0 0.0024801487748790443 -0.036195096705201067 0 0.0025006898064576129 -0.035977896098011684 0 0.0024801487748790443 -0.036195096705201067 0 0.0023882312628188268 -0.035974906890514476 0 0.0025006898064576129 -0.035977896098011684 0 0.002742567982462639 -0.036264818597820145 0 0.0024801487748790443 -0.036195096705201067 0 0.0023882312628188268 -0.035974906890514476 0 0.0074276855624782964 -0.031812306000695803 0 0.0061573682950109704 -0.0355268842913775 0 0.0087878498710514553 -0.034183675429632382 0 0.01001150131686719 -0.032352047532611575 0 0.0074276855624782964 -0.031812306000695803 0 0.0087878498710514553 -0.034183675429632382 0 0.0023882312628188268 -0.035974906890514476 0 0.0030278282571144983 -0.035037617549401268 0 0.0025006898064576129 -0.035977896098011684 0 0.0074276855624782964 -0.031812306000695803 0 0.0030278282571144983 -0.035037617549401268 0 0.0061573682950109704 -0.0355268842913775 0 0.0048710914457759562 -0.034318072339824979 0 0.003262200349998948 -0.034768739458850277 0 0.0022767283127832732 -0.035757074194616704 0 0.0030278282571144983 -0.035037617549401268 0 0.0025006898064576129 -0.035977896098011684 0 0.0022767283127832732 -0.035757074194616704 0 0.0020496470884547109 -0.036228441424503578 0 0.0025006898064576129 -0.035977896098011684 0 0.0023240978646353592 -0.035790352718470232 0 0.0022767283127832732 -0.035757074194616704 0 0.0030278282571144983 -0.035037617549401268 0 0.0023240978646353592 -0.035790352718470232 0 0.0020339708299826524 -0.03656254429270004 0 0.0030187001832376577 -0.036538034433530549 0 0.0023240978646353592 -0.035790352718470232 0 0.0030278282571144983 -0.035037617549401268 0 0.0030187001832376577 -0.036538034433530549 0 0.0030278282571144983 -0.035037617549401268 0 0.0044484974615057989 -0.036608357117934996 0 0.0030187001832376577 -0.036538034433530549 0 0.0030278282571144983 -0.035037617549401268 0 0.0044484974615057989 -0.036608357117934996 0 0.0061573682950109704 -0.0355268842913775 0 0.0044484974615057989 -0.036608357117934996 0 0.0040853136709321806 -0.037993352032791791 0 0.0055198254176600558 -0.037411568578599633 0 0.0044484974615057989 -0.036608357117934996 0 0.0030187001832376577 -0.036538034433530549 0 0.0040853136709321806 -0.037993352032791791 0 0.0020339708299826524 -0.03656254429270004 0 0.0030187001832376577 -0.036538034433530549 0 0.0027586523868903235 -0.03812618932894888 0 0.0030187001832376577 -0.036538034433530549 0 0.0027586523868903235 -0.03812618932894888 0 0.0040853136709321806 -0.037993352032791791 0 0.0027586523868903235 -0.03812618932894888 0 0.0040853136709321806 -0.037993352032791791 0 0.0035615863993852209 -0.039890737983217524 0 0.0040853136709321806 -0.037993352032791791 0 0.0035615863993852209 -0.039890737983217524 0 0.0052454630781701306 -0.039069255902456405 0 0.0051798180459254996 -0.029965401107231695 0 0.010089399290463916 -0.034181047886112689 0 0.0098348557415538426 -0.030915074949699615 0 0.0095410964999040615 -0.030824695620496469 0 0.0085254425811890546 -0.031932048970383813 0 0.011088920927738046 -0.027905569747999646 0 0.010089399290463916 -0.034181047886112689 0 0.0051798180459254996 -0.029965401107231695 0 0.011088920927738046 -0.027905569747999646 0 0.0033502367594401656 -0.033069238384807596 0 0.0051798180459254996 -0.029965401107231695 0 0.0019948149117019892 -0.039273389503796427 0 0.0027586523868903235 -0.03812618932894888 0 0.0035615863993852209 -0.039890737983217524 0 0.0044517300655431335 -0.026085112060682751 0 0.0031006747235476895 -0.025669037122133143 0 0.0041778283318085942 -0.024868154435291733 0 0.013543278433470089 -0.031340310922774575 0 0.013138556196837362 -0.031115157153853972 0 0.013790301094178278 -0.030837766596035359 0 0.013543278433470089 -0.031340310922774575 0 0.013152963612678679 -0.031537968733473601 0 0.013138556196837362 -0.031115157153853972 0 0.014342776354773577 -0.031029503451626882 0 0.013976149577511424 -0.031456263238377087 0 0.013790301094178278 -0.030837766596035359 0 0.013543278433470089 -0.031340310922774575 0 0.013976149577511424 -0.031456263238377087 0 0.013790301094178278 -0.030837766596035359 0 0.0040853136709321806 -0.037993352032791791 0 0.0052454630781701306 -0.039069255902456405 0 0.0055198254176600558 -0.037411568578599633 0 0.013543278433470089 -0.031340310922774575 0 0.013976149577511424 -0.031456263238377087 0 0.013619008433270357 -0.031780476353513595 0 0.010089399290463916 -0.034181047886112689 0 0.010708672540333768 -0.03502822233255893 0 0.010089399290463916 -0.034181047886112689 0 0.014378313189955666 -0.031406157222367191 0 0.014188742353311072 -0.031684376666831202 0 0.013828223319458016 -0.031967404297926341 0 0.013649101829156839 -0.032276592407849386 0 0.0052454630781701306 -0.039069255902456405 0 0.0080277149887619074 -0.037460018395546857 0 0.0055198254176600558 -0.037411568578599633 0 0.013619008433270357 -0.031780476353513595 0 0.013152963612678679 -0.031537968733473601 0 0.013071600419210176 -0.031875907889635326 0 0.013543278433470089 -0.031340310922774575 0 0.013619008433270357 -0.031780476353513595 0 0.013152963612678679 -0.031537968733473601 0 0.014378313189955666 -0.031406157222367191 0 0.012989778790555139 -0.032350118004962389 0 0.013619008433270357 -0.031780476353513595 0 0.013164845652493127 -0.032214908928485532 0 0.013071600419210176 -0.031875907889635326 0 0.013828223319458016 -0.031967404297926341 0 0.013649101829156839 -0.032276592407849386 0 0.013164845652493127 -0.032214908928485532 0 0.013649101829156839 -0.032276592407849386 0 0.013164845652493127 -0.032214908928485532 0 0.012781168445961815 -0.032517614727492011 0 0.0080277149887619074 -0.037460018395546857 0 0.0055198254176600558 -0.037411568578599633 0 0.0061573682950109704 -0.0355268842913775 0 0.0044484974615057989 -0.036608357117934996 0 0.0055198254176600558 -0.037411568578599633 0 0.0061573682950109704 -0.0355268842913775 0 0.0080277149887619074 -0.037460018395546857 0 0.0061573682950109704 -0.0355268842913775 0 0.0087878498710514553 -0.034183675429632382 0 0.0080277149887619074 -0.037460018395546857 0 0.0087878498710514553 -0.034183675429632382 0 0.011861443524708793 -0.033510198632942703 0 0.01001150131686719 -0.032352047532611575 0 0.0087878498710514553 -0.034183675429632382 0 0.011861443524708793 -0.033510198632942703 0 0.010708672540333768 -0.03502822233255893 0 0.011905732143382818 -0.033513204165750904 0 0.011861443524708793 -0.033510198632942703 0 0.012781168445961815 -0.032517614727492011 0 0.01252393802897666 -0.032471430310696325 0 0.011861443524708793 -0.033510198632942703 0 0.012386323532047281 -0.032725118940016514 0 0.01252393802897666 -0.032471430310696325 0 0.011861443524708793 -0.033510198632942703 0 0.012574517535176796 -0.033041348219584869 0 0.012386323532047281 -0.032725118940016514 0 0.012574517535176796 -0.033041348219584869 0 0.012386323532047281 -0.032725118940016514 0 0.012490204154298412 -0.032280782295538941 0 0.012386323532047281 -0.032725118940016514 0 0.01256502529126723 -0.032079440592141857 0 0.01252393802897666 -0.032471430310696325 0 0.012386323532047281 -0.032725118940016514 0 0.01256502529126723 -0.032079440592141857 0 0.012490204154298412 -0.032280782295538941 0 0.01256502529126723 -0.032079440592141857 0 0.012490204154298412 -0.032280782295538941 0 0.012599999873328466 -0.03166148037572282 0 0.01256502529126723 -0.032079440592141857 0 0.01252393802897666 -0.032471430310696325 0 0.012801330093498807 -0.031872493967672839 0 0.013649101829156839 -0.032276592407849386 0 0.011861443524708793 -0.033510198632942703 0 0.012781168445961815 -0.032517614727492011 0 0.012854298984598772 -0.032189169415593508 0 0.01252393802897666 -0.032471430310696325 0 0.012801330093498807 -0.031872493967672839 0 0.013164845652493127 -0.032214908928485532 0 0.012854298984598772 -0.032189169415593508 0 0.013071600419210176 -0.031875907889635326 0 0.012854298984598772 -0.032189169415593508 0 0.013071600419210176 -0.031875907889635326 0 0.012801330093498807 -0.031872493967672839 0 0.013164845652493127 -0.032214908928485532 0 0.012854298984598772 -0.032189169415593508 0 0.012781168445961815 -0.032517614727492011 0 0.012854298984598772 -0.032189169415593508 0 0.012781168445961815 -0.032517614727492011 0 0.01252393802897666 -0.032471430310696325 0 0.012151877291542882 -0.02420701915507598 0 0.011637632720049305 -0.024576039408264586 0 0.01249459310112272 -0.024870848249212988 0 0.012041420310182415 -0.02344503181345179 0 0.012151877291542882 -0.02420701915507598 0 0.011459158691462289 -0.023868166696450376 0 0.012151877291542882 -0.02420701915507598 0 0.011459158691462289 -0.023868166696450376 0 0.011637632720049305 -0.024576039408264586 0 0.011710107426758255 -0.027551318282834601 0 0.011980750451745258 -0.02893160473275809 0 0.010254373428482368 -0.023847365292790353 0 0.011459158691462289 -0.023868166696450376 0 0.011637632720049305 -0.024576039408264586 0 0.010254373428482368 -0.023847365292790353 0 0.011637632720049305 -0.024576039408264586 0 0.011380215250627067 -0.025651279353670373 0 0.012574517535176796 -0.033041348219584869 0 0.012490204154298412 -0.032280782295538941 0 0.012341735198009173 -0.031701586559390364 0 0.012490204154298412 -0.032280782295538941 0 0.012341735198009173 -0.031701586559390364 0 0.012599999873328466 -0.03166148037572282 0 0.011380215250627067 -0.025651279353670373 0 0.01409325210908864 -0.026967429737194439 0 0.014026221219715224 -0.024384312837976405 0 0.011637632720049305 -0.024576039408264586 0 0.011380215250627067 -0.025651279353670373 0 0.014026221219715224 -0.024384312837976405 0 0.012088985388839532 -0.024557995774220645 0 0.012810144253800252 -0.024545530768811802 0 0.012341735198009173 -0.031701586559390364 0 0.012852248002484992 -0.031173563973059506 0 0.014031887849109834 -0.030304816642681493 0 0.011380215250627067 -0.025651279353670373 0 0.014031887849109834 -0.030304816642681493 0 0.01409325210908864 -0.026967429737194439 0 0.011980750451745258 -0.02893160473275809 0 0.013884504674547498 -0.030306892061269085 0 0.012852248002484992 -0.031173563973059506 0 0.012764375987576033 -0.03132565313341984 0 0.013067783439332722 -0.031033593216930794 0 0.012341735198009173 -0.031701586559390364 0 0.012852248002484992 -0.031173563973059506 0 0.012599999873328466 -0.03166148037572282 0 0.012852248002484992 -0.031173563973059506 0 0.012599999873328466 -0.03166148037572282 0 0.012764375987576033 -0.03132565313341984 0 0.012599999873328466 -0.03166148037572282 0 0.012764375987576033 -0.03132565313341984 0 0.012682492585928119 -0.031534440794508789 0 0.012806638403913552 -0.031287128137132122 0 0.013046220551307174 -0.031384703390433914 0 0.012788996277227816 -0.031372834635586787 0 0.012764375987576033 -0.03132565313341984 0 0.012806638403913552 -0.031287128137132122 0 0.013067783439332722 -0.031033593216930794 0 0.012806638403913552 -0.031287128137132122 0 0.013046220551307174 -0.031384703390433914 0 0.013067783439332722 -0.031033593216930794 0 0.013046220551307174 -0.031384703390433914 0 0.013067783439332722 -0.031033593216930794 0 0.013578631762274175 -0.031665003212673196 0 0.012852248002484992 -0.031173563973059506 0 0.013067783439332722 -0.031033593216930794 0 0.014031887849109834 -0.030304816642681493 0 0.013067783439332722 -0.031033593216930794 0 0.013578631762274175 -0.031665003212673196 0 0.014031887849109834 -0.030304816642681493 0 0.013152963612678679 -0.031537968733473601 0 0.012801330093498807 -0.031872493967672839 0 0.012769329892629274 -0.031377148873234735 0 0.013152963612678679 -0.031537968733473601 0 0.013071600419210176 -0.031875907889635326 0 0.012801330093498807 -0.031872493967672839 0 0.012801330093498807 -0.031872493967672839 0 0.012682492585928119 -0.031534440794508789 0 0.012769329892629274 -0.031377148873234735 0 0.01256502529126723 -0.032079440592141857 0 0.012801330093498807 -0.031872493967672839 0 0.012682492585928119 -0.031534440794508789 0 0.01256502529126723 -0.032079440592141857 0 0.012599999873328466 -0.03166148037572282 0 0.012682492585928119 -0.031534440794508789 0 0.012764375987576033 -0.03132565313341984 0 0.012806638403913552 -0.031287128137132122 0 0.012682492585928119 -0.031534440794508789 0 0.012806638403913552 -0.031287128137132122 0 0.012682492585928119 -0.031534440794508789 0 0.012769329892629274 -0.031377148873234735 0 0.012806638403913552 -0.031287128137132122 0 0.012769329892629274 -0.031377148873234735 0 0.012788996277227816 -0.031372834635586787 0 0.012721492040312418 -0.031272506308865966 0 0.012883325842105079 -0.031324534355904383 0 0.012769329892629274 -0.031377148873234735 0 0.013138556196837362 -0.031115157153853972 0 0.012530515523060341 -0.030921097045647813 0 0.013152963612678679 -0.031537968733473601 0 0.012769329892629274 -0.031377148873234735 0 0.013138556196837362 -0.031115157153853972 0 0.013138556196837362 -0.031115157153853972 0 0.013189078046594338 -0.030612618488373985 0 0.012530515523060341 -0.030921097045647813 0 0.013439369930493666 -0.026769645720614049 0 0.015859674785057516 -0.024065221220982327 0 0.012530515523060341 -0.030921097045647813 0 0.012584184512983394 -0.030377538838604622 0 0.012307513676334552 -0.030480889664257636 0 0.013189078046594338 -0.030612618488373985 0 0.012530515523060341 -0.030921097045647813 0 0.012584184512983394 -0.030377538838604622 0 0.012883325842105079 -0.031324534355904383 0 0.015757621974239449 -0.027374371815044873 0 0.018777575444227115 -0.019946418239462835 0 0.019379207600210217 -0.02013464899211248 0 0.018832399358578462 -0.020819943337735274 0 0.015859674785057516 -0.024065221220982327 0 0.015757621974239449 -0.027374371815044873 0 0.015859674785057516 -0.024065221220982327 0 0.019399809654069372 -0.023171442438563682 0 0.014468365113686541 -0.022611814963320657 0 0.015161126145436344 -0.022842503904815053 0 0.014381268489024442 -0.023098634103121019 0 0.018777575444227115 -0.019946418239462835 0 0.018832399358578462 -0.020819943337735274 0 0.017788219358707853 -0.020292482881737791 0 0.015859674785057516 -0.024065221220982327 0 0.016436445885147099 -0.02126402356023023 0 0.022095896003351483 -0.023671172270264128 0 0.021729360026904183 -0.024475038649810803 0 0.022871597115172903 -0.024189527068751954 0 0.022095896003351483 -0.023671172270264128 0 0.020082371107968944 -0.02422841599371707 0 0.021729360026904183 -0.024475038649810803 0 0.013046220551307174 -0.031384703390433914 0 0.013578631762274175 -0.031665003212673196 0 0.01302240463522172 -0.031591398911946733 0 0.018021182498208065 -0.027724503523146017 0 0.015757621974239449 -0.027374371815044873 0 0.013046220551307174 -0.031384703390433914 0 0.012788996277227816 -0.031372834635586787 0 0.01302240463522172 -0.031591398911946733 0 0.020082371107968944 -0.02422841599371707 0 0.020614936589242513 -0.024926017408100729 0 0.021729360026904183 -0.024475038649810803 0 0.015757621974239449 -0.027374371815044873 0 0.019399809654069372 -0.023171442438563682 0 0.016282322522870971 -0.024278449591502389 0 0.017342251697604422 -0.023881937801699542 0 0.017903401060783381 -0.024792321520146151 0 0.019399809654069372 -0.023171442438563682 0 0.020464568220258147 -0.021429086022136362 0 0.019399809654069372 -0.023171442438563682 0 0.022446493532530514 -0.023653659371105515 0 0.020981767251654855 -0.021877676793715405 0 0.022080028583924605 -0.022218648641318232 0 0.021452853423824404 -0.022622483123837751 0 0.020614936589242513 -0.024926017408100729 0 0.021729360026904183 -0.024475038649810803 0 0.022451352154924401 -0.02506218961592362 0 0.021729360026904183 -0.024475038649810803 0 0.022451352154924401 -0.02506218961592362 0 0.022871597115172903 -0.024189527068751954 0 0.022080028583924605 -0.022218648641318232 0 0.022153302969448421 -0.022692955302649604 0 0.021452853423824404 -0.022622483123837751 0 0.020464568220258147 -0.021429086022136362 0 0.022822013122615611 -0.021363831617230818 0 0.022153302969448421 -0.022692955302649604 0 0.021452853423824404 -0.022622483123837751 0 0.021917560103085244 -0.023361787649009452 0 0.019379207600210217 -0.02013464899211248 0 0.019724496966359632 -0.020669027759366684 0 0.018832399358578462 -0.020819943337735274 0 0.019724496966359632 -0.020669027759366684 0 0.019454126879657651 -0.021115946123347083 0 0.018832399358578462 -0.020819943337735274 0 0.019724496966359632 -0.020669027759366684 0 0.019454126879657651 -0.021115946123347083 0 0.020071615975327695 -0.021208450252316085 0 0.019454126879657651 -0.021115946123347083 0 0.018832399358578462 -0.020819943337735274 0 0.019188905843748931 -0.021767023177715481 0 0.019454126879657651 -0.021115946123347083 0 0.020071615975327695 -0.021208450252316085 0 0.019188905843748931 -0.021767023177715481 0 0.022822013122615611 -0.021363831617230818 0 0.020903939035090812 -0.019904730546905922 0 0.023545029619989225 -0.018216074035882674 0 0.022983205445305913 -0.018251595342750736 0 0.023397132819853516 -0.018679351628263358 0 0.022822013122615611 -0.021363831617230818 0 0.024404979228389904 -0.01938541781413821 0 0.018832399358578462 -0.020819943337735274 0 0.018244078156718836 -0.021465455361351693 0 0.017788219358707853 -0.020292482881737791 0 0.018832399358578462 -0.020819943337735274 0 0.018244078156718836 -0.021465455361351693 0 0.019188905843748931 -0.021767023177715481 0 0.018244078156718836 -0.021465455361351693 0 0.01737860250656292 -0.021155501317110172 0 0.017466022792426442 -0.021909509489202873 0 0.015016249373369093 -0.022333484059750924 0 0.016436445885147099 -0.02126402356023023 0 0.01737860250656292 -0.021155501317110172 0 0.016770651041895759 -0.020642080329488187 0 0.017788219358707853 -0.020292482881737791 0 0.018244078156718836 -0.021465455361351693 0 0.01737860250656292 -0.021155501317110172 0 0.017788219358707853 -0.020292482881737791 0 0.01737860250656292 -0.021155501317110172 0 0.016601510729170595 -0.021473868619319037 0 0.017466022792426442 -0.021909509489202873 0 0.01737860250656292 -0.021155501317110172 0 0.016770651041895759 -0.020642080329488187 0 0.016601510729170595 -0.021473868619319037 0 0.017508211062692854 -0.019554775583594586 0 0.018155665749780434 -0.02027231006987424 0 0.017876282371671156 -0.017742928273923771 0 0.016744249222560688 -0.01800015066389949 0 0.016549780963627529 -0.017047858199373874 0 0.017508211062692854 -0.019554775583594586 0 0.014440956005731765 -0.020179493495036092 0 0.013324432513223997 -0.01797206324659311 0 0.01547987088850508 -0.016631955230559624 0 0.010717032494381011 -0.015724964661723018 0 0.012795840917589361 -0.014960276183497136 0 0.012452711599346966 -0.018203661065292389 0 0.016744249222560688 -0.01800015066389949 0 0.016232710339613082 -0.017165917372299569 0 0.016073401554022114 -0.018705313944390938 0 0.016744249222560688 -0.01800015066389949 0 0.016232710339613082 -0.017165917372299569 0 0.016549780963627529 -0.017047858199373874 0 0.012747203594034976 -0.023496722783127831 0 0.013000961217751324 -0.023272408726366413 0 0.012778081471068466 -0.023040332658534481 0 0.012714944602136031 -0.023418975250669785 0 0.012560097452224963 -0.023206786610938546 0 0.012778081471068466 -0.023040332658534481 0 0.012824023820075569 -0.020539828829981857 0 0.012662531725727195 -0.023980113466787207 0 0.010092730985030952 -0.0175188422608674 0 0.011238527163120751 -0.017785494002848463 0 0.011296530416282289 -0.017260404320861403 0 0.013324432513223997 -0.01797206324659311 0 0.012824023820075569 -0.020539828829981857 0 0.012747203594034976 -0.023496722783127831 0 0.012879306265043501 -0.023566155719067214 0 0.013000961217751324 -0.023272408726366413 0 0.013324432513223997 -0.01797206324659311 0 0.014440956005731765 -0.020179493495036092 0 0.012837824824557928 -0.019879060173009791 0 0.012888620733279097 -0.019412037042920723 0 0.013383325522204679 -0.019676994698223177 0 0.012824023820075569 -0.020539828829981857 0 0.014440956005731765 -0.020179493495036092 0 0.015016249373369093 -0.022333484059750924 0 0.014440956005731765 -0.020179493495036092 0 0.013614921554321558 -0.023336254977921803 0 0.012879306265043501 -0.023566155719067214 0 0.013000961217751324 -0.023272408726366413 0 0.016770651041895759 -0.020642080329488187 0 0.016601510729170595 -0.021473868619319037 0 0.015720583999029442 -0.021010533725211052 0 0.013614921554321558 -0.023336254977921803 0 0.013000961217751324 -0.023272408726366413 0 0.013269940682677814 -0.022813293154965591 0 0.013000961217751324 -0.023272408726366413 0 0.013269940682677814 -0.022813293154965591 0 0.012778081471068466 -0.023040332658534481 0 0.012221685611163139 -0.023009564388219449 0 0.012778081471068466 -0.023040332658534481 0 0.012658924287607573 -0.022625740191200536 0 0.013269940682677814 -0.022813293154965591 0 0.012778081471068466 -0.023040332658534481 0 0.012658924287607573 -0.022625740191200536 0 0.0062267313080034354 -0.025160232079075084 0 0.0057612818077228791 -0.025014467028790566 0 0.0075054728115367649 -0.023202387332662791 0 0.011088920927738046 -0.027905569747999646 0 0.010320383705078632 -0.022612663872464852 0 0.0062267313080034354 -0.025160232079075084 0 0.0075054728115367649 -0.023202387332662791 0 0.0078890593086312043 -0.02393086559195625 0 0.0051798180459254996 -0.029965401107231695 0 0.0063295191438057907 -0.024189696961937891 0 0.013117969968665153 -0.022214901208162649 0 0.013269940682677814 -0.022813293154965591 0 0.013785703259907564 -0.022405212031072898 0 0.013117969968665153 -0.022214901208162649 0 0.013269940682677814 -0.022813293154965591 0 0.012658924287607573 -0.022625740191200536 0 0.011088920927738046 -0.027905569747999646 0 0.01431122153273833 -0.02658817436703749 0 0.013269940682677814 -0.022813293154965591 0 0.013785703259907564 -0.022405212031072898 0 0.013900643489671736 -0.022854067556600056 0 0.013138556196837362 -0.031115157153853972 0 0.013189078046594338 -0.030612618488373985 0 0.013790301094178278 -0.030837766596035359 0 0.013439369930493666 -0.026769645720614049 0 0.01431122153273833 -0.02658817436703749 0 0.014468365113686541 -0.022611814963320657 0 0.013785703259907564 -0.022405212031072898 0 0.013900643489671736 -0.022854067556600056 0 0.013614921554321558 -0.023336254977921803 0 0.014381268489024442 -0.023098634103121019 0 0.013900643489671736 -0.022854067556600056 0 0.014468365113686541 -0.022611814963320657 0 0.014381268489024442 -0.023098634103121019 0 0.013900643489671736 -0.022854067556600056 0 0.013614921554321558 -0.023336254977921803 0 0.013269940682677814 -0.022813293154965591 0 0.013900643489671736 -0.022854067556600056 0 0.025634779562913192 -0.024186957638250496 0 0.025164470857148992 -0.025062729699701879 0 0.025427492073989814 -0.025010496828071986 0 0.025634779562913192 -0.024186957638250496 0 0.025427492073989814 -0.025010496828071986 0 0.025928554447658906 -0.023835996385804085 0 0.025634779562913192 -0.024186957638250496 0 0.025013299092355262 -0.024555541415913991 0 0.025164470857148992 -0.025062729699701879 0 0.025634779562913192 -0.024186957638250496 0 0.025013299092355262 -0.024555541415913991 0 0.024912039495086077 -0.02410068433034571 0 0.025013299092355262 -0.024555541415913991 0 0.025164470857148992 -0.025062729699701879 0 0.024713645739059226 -0.025100803837845673 0 0.025164470857148992 -0.025062729699701879 0 0.025061807611050167 -0.025821319903216532 0 0.025427492073989814 -0.025010496828071986 0 0.025061807611050167 -0.025821319903216532 0 0.024565983045302633 -0.026845598819513657 0 0.025427492073989814 -0.025010496828071986 0 0.024565983045302633 -0.026845598819513657 0 0.024534064873322253 -0.025439704938737259 0 0.025427492073989814 -0.025010496828071986 0 0.024534064873322253 -0.025439704938737259 0 0.025427492073989814 -0.025010496828071986 0 0.02524716954747391 -0.023760864837462394 0 0.025427492073989814 -0.025010496828071986 0 0.025928554447658906 -0.023835996385804085 0 0.02524716954747391 -0.023760864837462394 0 0.025928554447658906 -0.023835996385804085 0 0.02524716954747391 -0.023760864837462394 0 0.026127267687966828 -0.021843914018562092 0 0.024534064873322253 -0.025439704938737259 0 0.02524716954747391 -0.023760864837462394 0 0.024085704609122877 -0.024009962520932054 0 0.026127267687966828 -0.021843914018562092 0 0.025073678723306722 -0.021669298152385452 0 0.025850068734450473 -0.019812517147204372 0 0.02524716954747391 -0.023760864837462394 0 0.026127267687966828 -0.021843914018562092 0 0.025073678723306722 -0.021669298152385452 0 0.025928554447658906 -0.023835996385804085 0 0.026127267687966828 -0.021843914018562092 0 0.026499245027567713 -0.023237544784680111 0 0.026127267687966828 -0.021843914018562092 0 0.026499245027567713 -0.023237544784680111 0 0.027398629056899621 -0.020385521524190701 0 0.026499245027567713 -0.023237544784680111 0 0.025616533583325888 -0.023967707964248432 0 0.026533168179974885 -0.024536416278479686 0 0.025634779562913192 -0.024186957638250496 0 0.025928554447658906 -0.023835996385804085 0 0.026499245027567713 -0.023237544784680111 0 0.025634779562913192 -0.024186957638250496 0 0.02541434090394858 -0.023836160273212177 0 0.024912039495086077 -0.02410068433034571 0 0.025634779562913192 -0.024186957638250496 0 0.026499245027567713 -0.023237544784680111 0 0.02541434090394858 -0.023836160273212177 0 0.02541434090394858 -0.023836160273212177 0 0.025616533583325888 -0.023967707964248432 0 0.0250621254894264 -0.023984807729980292 0 0.026499245027567713 -0.023237544784680111 0 0.02541434090394858 -0.023836160273212177 0 0.025616533583325888 -0.023967707964248432 0 0.025616533583325888 -0.023967707964248432 0 0.025023370566907639 -0.024203578388106314 0 0.0250621254894264 -0.023984807729980292 0 0.025023370566907639 -0.024203578388106314 0 0.0250621254894264 -0.023984807729980292 0 0.024661891182070649 -0.024027595243209014 0 0.0250621254894264 -0.023984807729980292 0 0.024661891182070649 -0.024027595243209014 0 0.024770417912978102 -0.023910814208781307 0 0.025023370566907639 -0.024203578388106314 0 0.024661891182070649 -0.024027595243209014 0 0.0244034216788316 -0.024421897182232949 0 0.024661891182070649 -0.024027595243209014 0 0.02406548815868707 -0.023703575606723482 0 0.0244034216788316 -0.024421897182232949 0 0.023226374090749239 -0.022807174272794425 0 0.022442001661823533 -0.022411323783290322 0 0.02406548815868707 -0.023703575606723482 0 0.023247346070551702 -0.02276069166793207 0 0.0244034216788316 -0.024421897182232949 0 0.024661891182070649 -0.024027595243209014 0 0.02406548815868707 -0.023703575606723482 0 0.024770417912978102 -0.023910814208781307 0 0.02406548815868707 -0.023703575606723482 0 0.024450891412427275 -0.023982386749143863 0 0.024770417912978102 -0.023910814208781307 0 0.02406548815868707 -0.023703575606723482 0 0.023982384608402216 -0.023955053281735229 0 0.023688248745016693 -0.023545372246497796 0 0.02406548815868707 -0.023703575606723482 0 0.023982384608402216 -0.023955053281735229 0 0.024450891412427275 -0.023982386749143863 0 0.024450891412427275 -0.023982386749143863 0 0.024770417912978102 -0.023910814208781307 0 0.024912039495086077 -0.02410068433034571 0 0.02541434090394858 -0.023836160273212177 0 0.024770417912978102 -0.023910814208781307 0 0.024912039495086077 -0.02410068433034571 0 0.02541434090394858 -0.023836160273212177 0 0.0250621254894264 -0.023984807729980292 0 0.024770417912978102 -0.023910814208781307 0 0.024303304443689097 -0.022135770538719207 0 0.023247346070551702 -0.02276069166793207 0 0.024043728384772405 -0.019428155246147966 0 0.026058165832968116 -0.02251964378854171 0 0.024303304443689097 -0.022135770538719207 0 0.024043728384772405 -0.019428155246147966 0 0.02406548815868707 -0.023703575606723482 0 0.023247346070551702 -0.02276069166793207 0 0.023688248745016693 -0.023545372246497796 0 0.023247346070551702 -0.02276069166793207 0 0.023677845374385522 -0.024030917358244294 0 0.023753735323559295 -0.024159233173924911 0 0.023982384608402216 -0.023955053281735229 0 0.023688248745016693 -0.023545372246497796 0 0.023663706005722082 -0.023793670676026907 0 0.023982384608402216 -0.023955053281735229 0 0.023663706005722082 -0.023793670676026907 0 0.023835697235582921 -0.024082631092850658 0 0.023982384608402216 -0.023955053281735229 0 0.023835697235582921 -0.024082631092850658 0 0.024002691109050154 -0.0241909041286048 0 0.023835697235582921 -0.024082631092850658 0 0.023745863240755165 -0.02414387162348312 0 0.023837724630546675 -0.024222159153455908 0 0.023663706005722082 -0.023793670676026907 0 0.023835697235582921 -0.024082631092850658 0 0.023745863240755165 -0.02414387162348312 0 0.023663706005722082 -0.023793670676026907 0 0.023745863240755165 -0.02414387162348312 0 0.023677845374385522 -0.024030917358244294 0 0.023745863240755165 -0.02414387162348312 0 0.023758935319570559 -0.02431849426341667 0 0.023837724630546675 -0.024222159153455908 0 0.023745863240755165 -0.02414387162348312 0 0.023724764724743361 -0.024258567242338418 0 0.023677845374385522 -0.024030917358244294 0 0.023745863240755165 -0.02414387162348312 0 0.023724764724743361 -0.024258567242338418 0 0.023758935319570559 -0.02431849426341667 0 0.023724764724743361 -0.024258567242338418 0 0.023711814992772817 -0.024497620888483142 0 0.023758935319570559 -0.02431849426341667 0 0.023724764724743361 -0.024258567242338418 0 0.023677845374385522 -0.024030917358244294 0 0.023711814992772817 -0.024497620888483142 0 0.023618637265987195 -0.023687102940032689 0 0.023523850965663919 -0.023566677533346268 0 0.023247346070551702 -0.02276069166793207 0 0.023663706005722082 -0.023793670676026907 0 0.023677845374385522 -0.024030917358244294 0 0.023247346070551702 -0.02276069166793207 0 0.023688248745016693 -0.023545372246497796 0 0.023663706005722082 -0.023793670676026907 0 0.026058165832968116 -0.02251964378854171 0 0.024303304443689097 -0.022135770538719207 0 0.023753735323559295 -0.024159233173924911 0 0.022153302969448421 -0.022692955302649604 0 0.021917560103085244 -0.023361787649009452 0 0.023157302706377163 -0.022568640166037528 0 0.022080028583924605 -0.022218648641318232 0 0.022153302969448421 -0.022692955302649604 0 0.023157302706377163 -0.022568640166037528 0 0.022822013122615611 -0.021363831617230818 0 0.023523850965663919 -0.023566677533346268 0 0.022446493532530514 -0.023653659371105515 0 0.023523850965663919 -0.023566677533346268 0 0.024303304443689097 -0.022135770538719207 0 0.023247346070551702 -0.02276069166793207 0 0.023753735323559295 -0.024159233173924911 0 0.022451352154924401 -0.02506218961592362 0 0.023711814992772817 -0.024497620888483142 0 0.023268192567300987 -0.024502963589625063 0 0.022451352154924401 -0.02506218961592362 0 0.023268192567300987 -0.024502963589625063 0 0.022871597115172903 -0.024189527068751954 0 0.023268192567300987 -0.024502963589625063 0 0.023728654165895657 -0.02431689696618811 0 0.023679948991423595 -0.024396092369922018 0 0.023711814992772817 -0.024497620888483142 0 0.023268192567300987 -0.024502963589625063 0 0.023679948991423595 -0.024396092369922018 0 0.023268192567300987 -0.024502963589625063 0 0.023728654165895657 -0.02431689696618811 0 0.023600323801940961 -0.024159163790162905 0 0.023268192567300987 -0.024502963589625063 0 0.023600323801940961 -0.024159163790162905 0 0.022871597115172903 -0.024189527068751954 0 0.023728654165895657 -0.02431689696618811 0 0.023845572635364885 -0.024295006868382502 0 0.024050159642182323 -0.024255864313469589 0 0.023728654165895657 -0.02431689696618811 0 0.023679948991423595 -0.024396092369922018 0 0.023845572635364885 -0.024295006868382502 0 0.023679948991423595 -0.024396092369922018 0 0.023758935319570559 -0.02431849426341667 0 0.023845572635364885 -0.024295006868382502 0 0.023711814992772817 -0.024497620888483142 0 0.023679948991423595 -0.024396092369922018 0 0.023758935319570559 -0.02431849426341667 0 0.023758935319570559 -0.02431849426341667 0 0.023837724630546675 -0.024222159153455908 0 0.023845572635364885 -0.024295006868382502 0 0.023837724630546675 -0.024222159153455908 0 0.023845572635364885 -0.024295006868382502 0 0.024002691109050154 -0.0241909041286048 0 0.023835697235582921 -0.024082631092850658 0 0.023837724630546675 -0.024222159153455908 0 0.024002691109050154 -0.0241909041286048 0 0.024002691109050154 -0.0241909041286048 0 0.024050159642182323 -0.024255864313469589 0 0.024358710559703088 -0.024208008234566286 0 0.023845572635364885 -0.024295006868382502 0 0.024002691109050154 -0.0241909041286048 0 0.024050159642182323 -0.024255864313469589 0 0.024050159642182323 -0.024255864313469589 0 0.024314985497896568 -0.024253711924377631 0 0.024358710559703088 -0.024208008234566286 0 0.024314985497896568 -0.024253711924377631 0 0.023600323801940961 -0.024159163790162905 0 0.023690945448311743 -0.023771902423327492 0 0.024050159642182323 -0.024255864313469589 0 0.024314985497896568 -0.024253711924377631 0 0.023600323801940961 -0.024159163790162905 0 0.023728654165895657 -0.02431689696618811 0 0.024050159642182323 -0.024255864313469589 0 0.023600323801940961 -0.024159163790162905 0 0.023600323801940961 -0.024159163790162905 0 0.022871597115172903 -0.024189527068751954 0 0.023690945448311743 -0.023771902423327492 0 0.018021182498208065 -0.027724503523146017 0 0.02009462366154487 -0.027422860464580156 0 0.022095896003351483 -0.023671172270264128 0 0.022871597115172903 -0.024189527068751954 0 0.023690945448311743 -0.023771902423327492 0 0.025013299092355262 -0.024555541415913991 0 0.024912039495086077 -0.02410068433034571 0 0.024706340661154364 -0.024438753383285026 0 0.024912039495086077 -0.02410068433034571 0 0.024358710559703088 -0.024208008234566286 0 0.024706340661154364 -0.024438753383285026 0 0.024450891412427275 -0.023982386749143863 0 0.024912039495086077 -0.02410068433034571 0 0.024358710559703088 -0.024208008234566286 0 0.023982384608402216 -0.023955053281735229 0 0.024450891412427275 -0.023982386749143863 0 0.024358710559703088 -0.024208008234566286 0 0.023982384608402216 -0.023955053281735229 0 0.024002691109050154 -0.0241909041286048 0 0.024358710559703088 -0.024208008234566286 0 0.024314985497896568 -0.024253711924377631 0 0.024706340661154364 -0.024438753383285026 0 0.024708051580350016 -0.024555066510025949 0 0.024314985497896568 -0.024253711924377631 0 0.024358710559703088 -0.024208008234566286 0 0.024706340661154364 -0.024438753383285026 0 0.025013299092355262 -0.024555541415913991 0 0.024706340661154364 -0.024438753383285026 0 0.024713645739059226 -0.025100803837845673 0 0.024706340661154364 -0.024438753383285026 0 0.024708051580350016 -0.024555066510025949 0 0.024713645739059226 -0.025100803837845673 0 0.024708051580350016 -0.024555066510025949 0 0.024407724090749889 -0.026045434986947846 0 0.024713645739059226 -0.025100803837845673 0 0.020972125307451558 -0.028930502416546516 0 0.019371796690991178 -0.026766610831110805 0 0.021823828080122076 -0.025040417611405942 0 0.020972125307451558 -0.028930502416546516 0 0.024407724090749889 -0.026045434986947846 0 0.021823828080122076 -0.025040417611405942 0 0.023362390128242427 -0.025417257818877839 0 0.024451511744699065 -0.025662697872330904 0 0.024407724090749889 -0.026045434986947846 0 0.021823828080122076 -0.025040417611405942 0 0.024752214648093868 -0.025654294226616092 0 0.022705466046367809 -0.026751719656960628 0 0.024179715710142699 -0.026161214865562585 0 0.016622343064726392 -0.031112027877243317 0 0.014031887849109834 -0.030304816642681493 0 0.016812330404489168 -0.027878881432278759 0 0.013578631762274175 -0.031665003212673196 0 0.016622343064726392 -0.031112027877243317 0 0.014031887849109834 -0.030304816642681493 0 0.020972125307451558 -0.028930502416546516 0 0.016622343064726392 -0.031112027877243317 0 0.016812330404489168 -0.027878881432278759 0 0.022705466046367809 -0.026751719656960628 0 0.02009462366154487 -0.027422860464580156 0 0.024314985497896568 -0.024253711924377631 0 0.024708051580350016 -0.024555066510025949 0 0.023690945448311743 -0.023771902423327492 0 0.020972125307451558 -0.028930502416546516 0 0.019371796690991178 -0.026766610831110805 0 0.016812330404489168 -0.027878881432278759 0 0.019371796690991178 -0.026766610831110805 0 0.016812330404489168 -0.027878881432278759 0 0.016894756075327717 -0.024565958333175663 0 0.016812330404489168 -0.027878881432278759 0 0.015566240052953985 -0.02617450495706038 0 0.016894756075327717 -0.024565958333175663 0 0.014031887849109834 -0.030304816642681493 0 0.016812330404489168 -0.027878881432278759 0 0.01409325210908864 -0.026967429737194439 0 0.016812330404489168 -0.027878881432278759 0 0.01409325210908864 -0.026967429737194439 0 0.015566240052953985 -0.02617450495706038 0 0.01409325210908864 -0.026967429737194439 0 0.014026221219715224 -0.024384312837976405 0 0.015566240052953985 -0.02617450495706038 0 0.014026221219715224 -0.024384312837976405 0 0.015566240052953985 -0.02617450495706038 0 0.016894756075327717 -0.024565958333175663 0 0.012810144253800252 -0.024545530768811802 0 0.018198411620524459 -0.026039993655321735 0 0.019371796690991178 -0.026766610831110805 0 0.016894756075327717 -0.024565958333175663 0 0.021823828080122076 -0.025040417611405942 0 0.018198411620524459 -0.026039993655321735 0 0.023362390128242427 -0.025417257818877839 0 0.023480239362600609 -0.025847133933502939 0 0.024018591160308453 -0.025892407971781762 0 0.023823445141429346 -0.025664619494131801 0 0.023480239362600609 -0.025847133933502939 0 0.023647396143425068 -0.025509447480490405 0 0.023414589571358457 -0.025554388308617077 0 0.023480239362600609 -0.025847133933502939 0 0.023647396143425068 -0.025509447480490405 0 0.023823445141429346 -0.025664619494131801 0 0.023647396143425068 -0.025509447480490405 0 0.023823445141429346 -0.025664619494131801 0 0.023859168713028414 -0.025529531689752267 0 0.01249459310112272 -0.024870848249212988 0 0.013478161625368662 -0.025124801715505039 0 0.013247398933149215 -0.023981879378833646 0 0.018198411620524459 -0.026039993655321735 0 0.018314928081815098 -0.024019307294952125 0 0.012041420310182415 -0.02344503181345179 0 0.012151877291542882 -0.02420701915507598 0 0.013247398933149215 -0.023981879378833646 0 0.012151877291542882 -0.02420701915507598 0 0.01249459310112272 -0.024870848249212988 0 0.013247398933149215 -0.023981879378833646 0 0.024419257190360671 -0.025647694512742902 0 0.024018591160308453 -0.025892407971781762 0 0.024752214648093868 -0.025654294226616092 0 0.024419257190360671 -0.025647694512742902 0 0.024018591160308453 -0.025892407971781762 0 0.024074631886798693 -0.025591557572543069 0 0.024018591160308453 -0.025892407971781762 0 0.024074631886798693 -0.025591557572543069 0 0.023823445141429346 -0.025664619494131801 0 0.024074631886798693 -0.025591557572543069 0 0.023859168713028414 -0.025529531689752267 0 0.023948772085440308 -0.025551172364564997 0 0.024074631886798693 -0.025591557572543069 0 0.023823445141429346 -0.025664619494131801 0 0.023859168713028414 -0.025529531689752267 0 0.024074631886798693 -0.025591557572543069 0 0.024273364336559182 -0.025501460125795426 0 0.023948772085440308 -0.025551172364564997 0 0.024419257190360671 -0.025647694512742902 0 0.024074631886798693 -0.025591557572543069 0 0.024273364336559182 -0.025501460125795426 0 0.021575242154977449 -0.035064336728982771 0 0.022538664473317187 -0.034184132219058597 0 0.023499608198621968 -0.033037272853576639 0 0.021575242154977449 -0.035064336728982771 0 0.022538664473317187 -0.034184132219058597 0 0.021756255657962093 -0.034862005887378714 0 0.022859652186428332 -0.030204418177943847 0 0.024047356728441219 -0.029251907979520531 0 0.024419257190360671 -0.025647694512742902 0 0.024273364336559182 -0.025501460125795426 0 0.024774428876403267 -0.025618499595173358 0 0.023002992714450998 -0.033568455674731025 0 0.023279500747827111 -0.032846711172323115 0 0.0225427339729121 -0.034343813945018876 0 0.022538664473317187 -0.034184132219058597 0 0.023002992714450998 -0.033568455674731025 0 0.023499608198621968 -0.033037272853576639 0 0.022538664473317187 -0.034184132219058597 0 0.023002992714450998 -0.033568455674731025 0 0.0225427339729121 -0.034343813945018876 0 0.023499608198621968 -0.033037272853576639 0 0.02449044737772357 -0.030391760237121864 0 0.023279500747827111 -0.032846711172323115 0 0.023002992714450998 -0.033568455674731025 0 0.023499608198621968 -0.033037272853576639 0 0.023279500747827111 -0.032846711172323115 0 0.024419257190360671 -0.025647694512742902 0 0.024774428876403267 -0.025618499595173358 0 0.024752214648093868 -0.025654294226616092 0 0.024774428876403267 -0.025618499595173358 0 0.024752214648093868 -0.025654294226616092 0 0.024683946202798918 -0.025717730340350214 0 0.024774428876403267 -0.025618499595173358 0 0.024683946202798918 -0.025717730340350214 0 0.024838329744225261 -0.025617101250636772 0 0.024407724090749889 -0.026045434986947846 0 0.024752214648093868 -0.025654294226616092 0 0.024683946202798918 -0.025717730340350214 0 0.024774428876403267 -0.025618499595173358 0 0.024838329744225261 -0.025617101250636772 0 0.024982934706781892 -0.025708815353961825 0 0.024047356728441219 -0.029251907979520531 0 0.02461078483685987 -0.027962931216397771 0 0.025164470857148992 -0.025062729699701879 0 0.025061807611050167 -0.025821319903216532 0 0.024838329744225261 -0.025617101250636772 0 0.025061807611050167 -0.025821319903216532 0 0.024838329744225261 -0.025617101250636772 0 0.024982934706781892 -0.025708815353961825 0 0.024683946202798918 -0.025717730340350214 0 0.024838329744225261 -0.025617101250636772 0 0.024713645739059226 -0.025100803837845673 0 0.024407724090749889 -0.026045434986947846 0 0.024683946202798918 -0.025717730340350214 0 0.024713645739059226 -0.025100803837845673 0 0.025164470857148992 -0.025062729699701879 0 0.024838329744225261 -0.025617101250636772 0 0.024713645739059226 -0.025100803837845673 0 0.024565983045302633 -0.026845598819513657 0 0.023472705768349134 -0.030271323579523807 0 0.023091903511149127 -0.029077243482151224 0 0.024565983045302633 -0.026845598819513657 0 0.02449044737772357 -0.030391760237121864 0 0.023472705768349134 -0.030271323579523807 0 0.025061807611050167 -0.025821319903216532 0 0.024565983045302633 -0.026845598819513657 0 0.024982934706781892 -0.025708815353961825 0 0.024415190313486858 -0.026829164794992109 0 0.02461078483685987 -0.027962931216397771 0 0.02449044737772357 -0.030391760237121864 0 0.023472705768349134 -0.030271323579523807 0 0.023488631870039089 -0.031436959217312772 0 0.023472705768349134 -0.030271323579523807 0 0.022832915578632408 -0.032073937072207022 0 0.023488631870039089 -0.031436959217312772 0 0.02449044737772357 -0.030391760237121864 0 0.023488631870039089 -0.031436959217312772 0 0.023279500747827111 -0.032846711172323115 0 0.022832915578632408 -0.032073937072207022 0 0.023488631870039089 -0.031436959217312772 0 0.023279500747827111 -0.032846711172323115 0 0.023279500747827111 -0.032846711172323115 0 0.02280274259229069 -0.033766709330285846 0 0.0225427339729121 -0.034343813945018876 0 0.022832915578632408 -0.032073937072207022 0 0.023279500747827111 -0.032846711172323115 0 0.02280274259229069 -0.033766709330285846 0 0.022832915578632408 -0.032073937072207022 0 0.02280274259229069 -0.033766709330285846 0 0.022523654356590823 -0.033893650523348966 0 0.022832915578632408 -0.032073937072207022 0 0.022523654356590823 -0.033893650523348966 0 0.022061305196135594 -0.033980926976925493 0 0.022523654356590823 -0.033893650523348966 0 0.022221000848475135 -0.034325895335923715 0 0.022440750698702196 -0.034410479446057803 0 0.02280274259229069 -0.033766709330285846 0 0.022523654356590823 -0.033893650523348966 0 0.022440750698702196 -0.034410479446057803 0 0.022523654356590823 -0.033893650523348966 0 0.022221000848475135 -0.034325895335923715 0 0.022061305196135594 -0.033980926976925493 0 0.022221000848475135 -0.034325895335923715 0 0.02217071817005346 -0.03455549171205561 0 0.022440750698702196 -0.034410479446057803 0 0.02217071817005346 -0.03455549171205561 0 0.022440750698702196 -0.034410479446057803 0 0.022180090644330051 -0.034606531789876618 0 0.022440750698702196 -0.034410479446057803 0 0.022062553099246957 -0.034712822235160007 0 0.022232299866379607 -0.034558455964091794 0 0.022440750698702196 -0.034410479446057803 0 0.022180090644330051 -0.034606531789876618 0 0.022232299866379607 -0.034558455964091794 0 0.022440750698702196 -0.034410479446057803 0 0.0225427339729121 -0.034343813945018876 0 0.022062553099246957 -0.034712822235160007 0 0.02280274259229069 -0.033766709330285846 0 0.022440750698702196 -0.034410479446057803 0 0.0225427339729121 -0.034343813945018876 0 0.022538664473317187 -0.034184132219058597 0 0.0225427339729121 -0.034343813945018876 0 0.021756255657962093 -0.034862005887378714 0 0.0225427339729121 -0.034343813945018876 0 0.021756255657962093 -0.034862005887378714 0 0.021138999859021731 -0.035161045597940435 0 0.021756255657962093 -0.034862005887378714 0 0.021138999859021731 -0.035161045597940435 0 0.02060359186173024 -0.035381522809780241 0 0.021138999859021731 -0.035161045597940435 0 0.022062553099246957 -0.034712822235160007 0 0.02141481454367725 -0.034814757443716655 0 0.021138999859021731 -0.035161045597940435 0 0.02141481454367725 -0.034814757443716655 0 0.019126533633752527 -0.035239411658348777 0 0.0225427339729121 -0.034343813945018876 0 0.021138999859021731 -0.035161045597940435 0 0.022062553099246957 -0.034712822235160007 0 0.022054373686320922 -0.034498589736541234 0 0.02141481454367725 -0.034814757443716655 0 0.021701318231290474 -0.034000448279863114 0 0.022062553099246957 -0.034712822235160007 0 0.022054373686320922 -0.034498589736541234 0 0.02141481454367725 -0.034814757443716655 0 0.02141481454367725 -0.034814757443716655 0 0.021701318231290474 -0.034000448279863114 0 0.019126533633752527 -0.035239411658348777 0 0.019642033889196959 -0.034876797895246031 0 0.01913701453774547 -0.035188039639281861 0 0.017691258028098671 -0.035524647521635505 0 0.018323240340934795 -0.035749465484473074 0 0.01812513270698585 -0.035880389364438221 0 0.017691258028098671 -0.035524647521635505 0 0.019126533633752527 -0.035239411658348777 0 0.018323240340934795 -0.035749465484473074 0 0.019642033889196959 -0.034876797895246031 0 0.019405041411127106 -0.035703999033492702 0 0.021701318231290474 -0.034000448279863114 0 0.022075554222886692 -0.034437207802480128 0 0.02219985202659704 -0.034701223620480524 0 0.022054373686320922 -0.034498589736541234 0 0.021701318231290474 -0.034000448279863114 0 0.022075554222886692 -0.034437207802480128 0 0.022054373686320922 -0.034498589736541234 0 0.022075554222886692 -0.034437207802480128 0 0.022148961915911189 -0.034537661962537554 0 0.022075554222886692 -0.034437207802480128 0 0.022148961915911189 -0.034537661962537554 0 0.022114159022099126 -0.034579056586899179 0 0.022148961915911189 -0.034537661962537554 0 0.02206829966985974 -0.034633334144695931 0 0.022124815270377067 -0.034614225853279675 0 0.022148961915911189 -0.034537661962537554 0 0.022114159022099126 -0.034579056586899179 0 0.02206829966985974 -0.034633334144695931 0 0.022114159022099126 -0.034579056586899179 0 0.022048616069832484 -0.034673476688554278 0 0.02219985202659704 -0.034701223620480524 0 0.022075554222886692 -0.034437207802480128 0 0.022114159022099126 -0.034579056586899179 0 0.02219985202659704 -0.034701223620480524 0 0.022114159022099126 -0.034579056586899179 0 0.022048616069832484 -0.034673476688554278 0 0.02206829966985974 -0.034633334144695931 0 0.022048616069832484 -0.034673476688554278 0 0.021953020159347397 -0.034729873347372729 0 0.021908861615794768 -0.03478806271543225 0 0.021953020159347397 -0.034729873347372729 0 0.022000927285859988 -0.034704359918777974 0 0.02206829966985974 -0.034633334144695931 0 0.022048616069832484 -0.034673476688554278 0 0.021953020159347397 -0.034729873347372729 0 0.02206829966985974 -0.034633334144695931 0 0.021890065209940385 -0.034788491070121164 0 0.021835129926071974 -0.034819348689565689 0 0.021785548834601511 -0.034863923410872681 0 0.021953020159347397 -0.034729873347372729 0 0.021890065209940385 -0.034788491070121164 0 0.021835129926071974 -0.034819348689565689 0 0.021953020159347397 -0.034729873347372729 0 0.021890065209940385 -0.034788491070121164 0 0.022000927285859988 -0.034704359918777974 0 0.022000927285859988 -0.034704359918777974 0 0.022051303585983843 -0.034693596644619594 0 0.021939178734712229 -0.034783216493742608 0 0.021890065209940385 -0.034788491070121164 0 0.022000927285859988 -0.034704359918777974 0 0.021939178734712229 -0.034783216493742608 0 0.022000927285859988 -0.034704359918777974 0 0.022124815270377067 -0.034614225853279675 0 0.022051303585983843 -0.034693596644619594 0 0.022000927285859988 -0.034704359918777974 0 0.02206829966985974 -0.034633334144695931 0 0.022124815270377067 -0.034614225853279675 0 0.022124815270377067 -0.034614225853279675 0 0.022051303585983843 -0.034693596644619594 0 0.022180090644330051 -0.034606531789876618 0 0.022051303585983843 -0.034693596644619594 0 0.022180090644330051 -0.034606531789876618 0 0.022069450744432059 -0.034681051245290695 0 0.02217071817005346 -0.03455549171205561 0 0.022180090644330051 -0.034606531789876618 0 0.022069450744432059 -0.034681051245290695 0 0.022124815270377067 -0.034614225853279675 0 0.022180090644330051 -0.034606531789876618 0 0.022232299866379607 -0.034558455964091794 0 0.022062553099246957 -0.034712822235160007 0 0.022054373686320922 -0.034498589736541234 0 0.022232299866379607 -0.034558455964091794 0 0.022054373686320922 -0.034498589736541234 0 0.022148961915911189 -0.034537661962537554 0 0.022232299866379607 -0.034558455964091794 0 0.022148961915911189 -0.034537661962537554 0 0.022124815270377067 -0.034614225853279675 0 0.022232299866379607 -0.034558455964091794 0 0.023081497688045228 -0.025788892028359104 0 0.023232348127181598 -0.025675411529472784 0 0.023043909744183959 -0.025664195023802464 0 0.0044544118321681531 -0.036449276702779441 0 0.0049579901529140961 -0.03682877858437153 0 0.0047705179541831337 -0.036311975978912912 0 0.014900650138116615 -0.02833262074878555 0 0.013773509036389278 -0.031264064524852288 0 0.012041420310182415 -0.02344503181345179 0 0.013247398933149215 -0.023981879378833646 0 0.013042462847026193 -0.022857957427827171 0 0.018314928081815098 -0.024019307294952125 0 0.014900650138116615 -0.02833262074878555 0 0.023647396143425068 -0.025509447480490405 0 0.023305541992512935 -0.025239511574690988 0 0.023724043130031344 -0.025333818959282217 0 0.014900650138116615 -0.02833262074878555 0 0.024977584053307748 -0.025740555079508048 0 0.023647396143425068 -0.025509447480490405 0 0.023414589571358457 -0.025554388308617077 0 0.023305541992512935 -0.025239511574690988 0 0.023647396143425068 -0.025509447480490405 0 0.023859168713028414 -0.025529531689752267 0 0.023724043130031344 -0.025333818959282217 0 0.023232348127181598 -0.025675411529472784 0 0.023655403165245864 -0.025591167845177103 0 0.023138903403558432 -0.025623316632798505 0 0.023411672021281336 -0.025789506149015783 0 0.023232348127181598 -0.025675411529472784 0 0.023655403165245864 -0.025591167845177103 0 0.023081497688045228 -0.025788892028359104 0 0.023411672021281336 -0.025789506149015783 0 0.023232348127181598 -0.025675411529472784 0 0.021144433535012663 -0.030732328779049193 0 0.02004642970192504 -0.03105349387886043 0 0.018906095977540543 -0.036038120209896031 0 0.018156926500661662 -0.035925998262115823 0 0.016131803367091514 -0.036766789500035292 0 0.018906095977540543 -0.036038120209896031 0 0.019458039496915006 -0.035586615775363671 0 0.018156926500661662 -0.035925998262115823 0 0.023411672021281336 -0.025789506149015783 0 0.023655403165245864 -0.025591167845177103 0 0.023948772085440308 -0.025551172364564997 0 0.023859168713028414 -0.025529531689752267 0 0.023724043130031344 -0.025333818959282217 0 0.023948772085440308 -0.025551172364564997 0 0.024977584053307748 -0.025740555079508048 0 0.023367041133586407 -0.025450271888381479 0 0.021575242154977449 -0.035064336728982771 0 0.018906095977540543 -0.036038120209896031 0 0.02060359186173024 -0.035381522809780241 0 0.024273364336559182 -0.025501460125795426 0 0.023655403165245864 -0.025591167845177103 0 0.023948772085440308 -0.025551172364564997 0 0.021575242154977449 -0.035064336728982771 0 0.021756255657962093 -0.034862005887378714 0 0.02060359186173024 -0.035381522809780241 0 0.022859652186428332 -0.030204418177943847 0 0.021144433535012663 -0.030732328779049193 0 0.021138999859021731 -0.035161045597940435 0 0.019458039496915006 -0.035586615775363671 0 0.019126533633752527 -0.035239411658348777 0 0.021138999859021731 -0.035161045597940435 0 0.02060359186173024 -0.035381522809780241 0 0.019458039496915006 -0.035586615775363671 0 0.018906095977540543 -0.036038120209896031 0 0.02060359186173024 -0.035381522809780241 0 0.019458039496915006 -0.035586615775363671 0 0.019458039496915006 -0.035586615775363671 0 0.019126533633752527 -0.035239411658348777 0 0.018156926500661662 -0.035925998262115823 0 0.019126533633752527 -0.035239411658348777 0 0.018164770685501964 -0.035722352205053508 0 0.018156926500661662 -0.035925998262115823 0 0.018323240340934795 -0.035749465484473074 0 0.018164770685501964 -0.035722352205053508 0 0.017585902133014964 -0.035794732517202915 0 0.018323240340934795 -0.035749465484473074 0 0.017585902133014964 -0.035794732517202915 0 0.017947366929518586 -0.035670175463081905 0 0.019126533633752527 -0.035239411658348777 0 0.018323240340934795 -0.035749465484473074 0 0.018164770685501964 -0.035722352205053508 0 0.017585902133014964 -0.035794732517202915 0 0.016881557764002211 -0.036168758748513927 0 0.016218793927792984 -0.035775014927303228 0 0.018164770685501964 -0.035722352205053508 0 0.017585902133014964 -0.035794732517202915 0 0.016881557764002211 -0.036168758748513927 0 0.016881557764002211 -0.036168758748513927 0 0.018156926500661662 -0.035925998262115823 0 0.016131803367091514 -0.036766789500035292 0 0.018164770685501964 -0.035722352205053508 0 0.016881557764002211 -0.036168758748513927 0 0.018156926500661662 -0.035925998262115823 0 0.023232348127181598 -0.025675411529472784 0 0.023138903403558432 -0.025623316632798505 0 0.023043909744183959 -0.025664195023802464 0 0.016881557764002211 -0.036168758748513927 0 0.016131803367091514 -0.036766789500035292 0 0.014838988487786956 -0.036306911238721588 0 0.016881557764002211 -0.036168758748513927 0 0.014838988487786956 -0.036306911238721588 0 0.016218793927792984 -0.035775014927303228 0 0.0044742673306478152 -0.036010733778556694 0 0.0046343439510015683 -0.035817145512355993 0 0.0047705179541831337 -0.036311975978912912 0 0.016131803367091514 -0.036766789500035292 0 0.014838988487786956 -0.036306911238721588 0 0.01266511267371272 -0.036645565256393925 0 0.014838988487786956 -0.036306911238721588 0 0.01266511267371272 -0.036645565256393925 0 0.013147299268693027 -0.036441962035022125 0 0.02004642970192504 -0.03105349387886043 0 0.014730443734053954 -0.032205070692857427 0 0.014730443734053954 -0.032205070692857427 0 0.013773509036389278 -0.031264064524852288 0 0.014730443734053954 -0.032205070692857427 0 0.014719648204704215 -0.032677931649166492 0 0.01266511267371272 -0.036645565256393925 0 0.012592347448399741 -0.036432487813682544 0 0.012777543477677303 -0.03644640451179109 0 0.01266511267371272 -0.036645565256393925 0 0.012777543477677303 -0.03644640451179109 0 0.013147299268693027 -0.036441962035022125 0 0.023138903403558432 -0.025623316632798505 0 0.022919738436529027 -0.025763183109104384 0 0.023043909744183959 -0.025664195023802464 0 0.011041688118804821 -0.035157234570418985 0 0.01136367555183866 -0.035780990924601817 0 0.012249463756383607 -0.035756492861299546 0 0.011041688118804821 -0.035157234570418985 0 0.012249463756383607 -0.035756492861299546 0 0.014041029343316223 -0.035837413569420891 0 0.01136367555183866 -0.035780990924601817 0 0.012249463756383607 -0.035756492861299546 0 0.012534266695473971 -0.036358341106656242 0 0.012777543477677303 -0.03644640451179109 0 0.013147299268693027 -0.036441962035022125 0 0.012534266695473971 -0.036358341106656242 0 0.012592347448399741 -0.036432487813682544 0 0.012777543477677303 -0.03644640451179109 0 0.012534266695473971 -0.036358341106656242 0 0.012249463756383607 -0.035756492861299546 0 0.012534266695473971 -0.036358341106656242 0 0.014041029343316223 -0.035837413569420891 0 0.013147299268693027 -0.036441962035022125 0 0.012534266695473971 -0.036358341106656242 0 0.014041029343316223 -0.035837413569420891 0 0.014838988487786956 -0.036306911238721588 0 0.013147299268693027 -0.036441962035022125 0 0.014041029343316223 -0.035837413569420891 0 0.014041029343316223 -0.035837413569420891 0 0.016338360101009339 -0.034272014380606342 0 0.016218793927792984 -0.035775014927303228 0 0.014838988487786956 -0.036306911238721588 0 0.014041029343316223 -0.035837413569420891 0 0.016218793927792984 -0.035775014927303228 0 0.011335068139100162 -0.035157505075100154 0 0.013811595899189059 -0.035363962632369503 0 0.011041688118804821 -0.035157234570418985 0 0.01124639908260449 -0.036401716143792111 0 0.010611274415809254 -0.035608377842150554 0 0.011041688118804821 -0.035157234570418985 0 0.014041029343316223 -0.035837413569420891 0 0.016338360101009339 -0.034272014380606342 0 0.016338360101009339 -0.034272014380606342 0 0.016218793927792984 -0.035775014927303228 0 0.017643899739567967 -0.035432410759905948 0 0.017585902133014964 -0.035794732517202915 0 0.016218793927792984 -0.035775014927303228 0 0.017643899739567967 -0.035432410759905948 0 0.016338360101009339 -0.034272014380606342 0 0.017643899739567967 -0.035432410759905948 0 0.018389997460288736 -0.035426003099976178 0 0.017585902133014964 -0.035794732517202915 0 0.017643899739567967 -0.035432410759905948 0 0.017947366929518586 -0.035670175463081905 0 0.017643899739567967 -0.035432410759905948 0 0.017947366929518586 -0.035670175463081905 0 0.01804822610006537 -0.035623102017495703 0 0.018323240340934795 -0.035749465484473074 0 0.017947366929518586 -0.035670175463081905 0 0.018178193571110234 -0.035742734786101182 0 0.017947366929518586 -0.035670175463081905 0 0.01804822610006537 -0.035623102017495703 0 0.018178193571110234 -0.035742734786101182 0 0.017643899739567967 -0.035432410759905948 0 0.018308433150877015 -0.035593680776638756 0 0.018389997460288736 -0.035426003099976178 0 0.017643899739567967 -0.035432410759905948 0 0.01804822610006537 -0.035623102017495703 0 0.018308433150877015 -0.035593680776638756 0 0.01804822610006537 -0.035623102017495703 0 0.018178193571110234 -0.035742734786101182 0 0.018308433150877015 -0.035593680776638756 0 0.015725410306536149 -0.036166422215654685 0 0.015394150242554746 -0.03655345185928463 0 0.01124639908260449 -0.036401716143792111 0 0.012759511711394628 -0.037023695675920801 0 0.011991916520091761 -0.035940751428939259 0 0.012759511711394628 -0.037023695675920801 0 0.011991916520091761 -0.035940751428939259 0 0.013424846731687336 -0.036058167009183177 0 0.013811595899189059 -0.035363962632369503 0 0.015394150242554746 -0.03655345185928463 0 0.011991916520091761 -0.035940751428939259 0 0.012747203013803599 -0.034999687587586308 0 0.013424846731687336 -0.036058167009183177 0 0.011991916520091761 -0.035940751428939259 0 0.012747203013803599 -0.034999687587586308 0 0.01104596317634193 -0.034999701742016061 0 0.011991916520091761 -0.035940751428939259 0 0.01104596317634193 -0.034999701742016061 0 0.010611274415809254 -0.035608377842150554 0 0.01124639908260449 -0.036401716143792111 0 0.011991916520091761 -0.035940751428939259 0 0.010611274415809254 -0.035608377842150554 0 0.01104596317634193 -0.034999701742016061 0 0.010611274415809254 -0.035608377842150554 0 0.0093433926485513366 -0.034999679816307139 0 0.0093500015829326207 -0.035220631089237668 0 0.010611274415809254 -0.035608377842150554 0 0.0093433926485513366 -0.034999679816307139 0 0.0093500015829326207 -0.035220631089237668 0 0.011041688118804821 -0.035157234570418985 0 0.010611274415809254 -0.035608377842150554 0 0.016785654118165724 -0.036530707756440774 0 0.016368213978796557 -0.036633499690374535 0 0.01686043559488026 -0.036608505224633499 0 0.016785654118165724 -0.036530707756440774 0 0.017076121996718846 -0.036608629399317694 0 0.01686043559488026 -0.036608505224633499 0 0.016785654118165724 -0.036530707756440774 0 0.016368213978796557 -0.036633499690374535 0 0.016006525309043174 -0.036390693624402747 0 0.016785654118165724 -0.036530707756440774 0 0.016006525309043174 -0.036390693624402747 0 0.016634668552613745 -0.036287531360925232 0 0.016785654118165724 -0.036530707756440774 0 0.017091411895356349 -0.036426814927886436 0 0.017085543194676082 -0.036602695898657972 0 0.016785654118165724 -0.036530707756440774 0 0.017091411895356349 -0.036426814927886436 0 0.016634668552613745 -0.036287531360925232 0 0.017091411895356349 -0.036426814927886436 0 0.017713656491255263 -0.036292805008871588 0 0.017277267575063975 -0.036776905839754508 0 0.017091411895356349 -0.036426814927886436 0 0.017085543194676082 -0.036602695898657972 0 0.017277267575063975 -0.036776905839754508 0 0.017085543194676082 -0.036602695898657972 0 0.017076121996718846 -0.036608629399317694 0 0.017277267575063975 -0.036776905839754508 0 0.016785654118165724 -0.036530707756440774 0 0.017085543194676082 -0.036602695898657972 0 0.017076121996718846 -0.036608629399317694 0 0.021767073535386358 -0.034883840676365657 0 0.02219985202659704 -0.034701223620480524 0 0.021457615429366302 -0.035087283222621682 0 0.017213808144124758 -0.036425080010236664 0 0.021193087106591402 -0.034566672581393079 0 0.021457615429366302 -0.035087283222621682 0 0.017076121996718846 -0.036608629399317694 0 0.017213808144124758 -0.036425080010236664 0 0.017277267575063975 -0.036776905839754508 0 0.016397001710892443 -0.036869327140925306 0 0.017213808144124758 -0.036425080010236664 0 0.021457615429366302 -0.035087283222621682 0 0.019405041411127106 -0.035703999033492702 0 0.021342413921603857 -0.035072707947115575 0 0.017402172696436253 -0.036479183253184708 0 0.019129659970512844 -0.035704365588166073 0 0.021767073535386358 -0.034883840676365657 0 0.021908861615794768 -0.03478806271543225 0 0.02219985202659704 -0.034701223620480524 0 0.021767073535386358 -0.034883840676365657 0 0.021700372123299911 -0.034913234694039681 0 0.02162083941387594 -0.034966247474243144 0 0.021798529074455723 -0.034852565249910414 0 0.021835129926071974 -0.034819348689565689 0 0.021700372123299911 -0.034913234694039681 0 0.021767073535386358 -0.034883840676365657 0 0.021798529074455723 -0.034852565249910414 0 0.021700372123299911 -0.034913234694039681 0 0.021767073535386358 -0.034883840676365657 0 0.021798529074455723 -0.034852565249910414 0 0.021908861615794768 -0.03478806271543225 0 0.021953020159347397 -0.034729873347372729 0 0.021835129926071974 -0.034819348689565689 0 0.021908861615794768 -0.03478806271543225 0 0.021798529074455723 -0.034852565249910414 0 0.021835129926071974 -0.034819348689565689 0 0.021908861615794768 -0.03478806271543225 0 0.022048616069832484 -0.034673476688554278 0 0.021908861615794768 -0.03478806271543225 0 0.02219985202659704 -0.034701223620480524 0 0.017691258028098671 -0.035524647521635505 0 0.016397001710892443 -0.036869327140925306 0 0.016539204151625544 -0.036849787411031433 0 0.016397001710892443 -0.036869327140925306 0 0.017213808144124758 -0.036425080010236664 0 0.016539204151625544 -0.036849787411031433 0 0.017213808144124758 -0.036425080010236664 0 0.01686043559488026 -0.036608505224633499 0 0.016539204151625544 -0.036849787411031433 0 0.017076121996718846 -0.036608629399317694 0 0.017213808144124758 -0.036425080010236664 0 0.01686043559488026 -0.036608505224633499 0 0.016368213978796557 -0.036633499690374535 0 0.01686043559488026 -0.036608505224633499 0 0.016539204151625544 -0.036849787411031433 0 0.017691258028098671 -0.035524647521635505 0 0.016539204151625544 -0.036849787411031433 0 0.017594564684305015 -0.036475468357761068 0 0.016422022755159554 -0.036801969197014839 0 0.016630691336626154 -0.036689026774823053 0 0.016368213978796557 -0.036633499690374535 0 0.016539204151625544 -0.036849787411031433 0 0.015411682957540864 -0.036980784642886712 0 0.018271134743524674 -0.035710723785879479 0 0.017594564684305015 -0.036475468357761068 0 0.01812513270698585 -0.035880389364438221 0 0.015394150242554746 -0.03655345185928463 0 0.016630691336626154 -0.036689026774823053 0 0.017691258028098671 -0.035524647521635505 0 0.017594564684305015 -0.036475468357761068 0 0.01812513270698585 -0.035880389364438221 0 0.018323240340934795 -0.035749465484473074 0 0.018178193571110234 -0.035742734786101182 0 0.01812513270698585 -0.035880389364438221 0 0.018178193571110234 -0.035742734786101182 0 0.018308433150877015 -0.035593680776638756 0 0.01812513270698585 -0.035880389364438221 0 0.018308433150877015 -0.035593680776638756 0 0.018271134743524674 -0.035710723785879479 0 0.01812513270698585 -0.035880389364438221 0 0.015394150242554746 -0.03655345185928463 0 0.013914257467567453 -0.036086264470417677 0 0.014578680566157026 -0.036855443439196965 0 0.015411682957540864 -0.036980784642886712 0 0.015238386292352189 -0.036427968369860751 0 0.014578680566157026 -0.036855443439196965 0 0.015238386292352189 -0.036427968369860751 0 0.014839075746050773 -0.035960568187990566 0 0.016368213978796557 -0.036633499690374535 0 0.016006525309043174 -0.036390693624402747 0 0.015411682957540864 -0.036980784642886712 0 0.016006525309043174 -0.036390693624402747 0 0.015411682957540864 -0.036980784642886712 0 0.015238386292352189 -0.036427968369860751 0 0.016006525309043174 -0.036390693624402747 0 0.015238386292352189 -0.036427968369860751 0 0.015409577445759451 -0.035968482868571044 0 0.015238386292352189 -0.036427968369860751 0 0.015409577445759451 -0.035968482868571044 0 0.014839075746050773 -0.035960568187990566 0 0.013914257467567453 -0.036086264470417677 0 0.014449696054354488 -0.034999727618870262 0 0.012747203013803599 -0.034999687587586308 0 0.013424846731687336 -0.036058167009183177 0 0.014448840513571894 -0.03499987891034121 0 0.014451221067481715 -0.034999909818357239 0 0.015486197302142093 -0.035474276658242258 0 0.016135995276032003 -0.034999761275945653 0 0.015409577445759451 -0.035968482868571044 0 0.014839075746050773 -0.035960568187990566 0 0.014451221067481715 -0.034999909818357239 0 0.015409577445759451 -0.035968482868571044 0 0.014451221067481715 -0.034999909818357239 0 0.015486197302142093 -0.035474276658242258 0 0.015486197302142093 -0.035474276658242258 0 0.016135995276032003 -0.034999761275945653 0 0.016143205793193133 -0.035953670468180668 0 0.016135995276032003 -0.034999761275945653 0 0.016143205793193133 -0.035953670468180668 0 0.017118873568196233 -0.035971900197155904 0 0.015409577445759451 -0.035968482868571044 0 0.015486197302142093 -0.035474276658242258 0 0.016143205793193133 -0.035953670468180668 0 0.016006525309043174 -0.036390693624402747 0 0.015409577445759451 -0.035968482868571044 0 0.016143205793193133 -0.035953670468180668 0 0.016006525309043174 -0.036390693624402747 0 0.016143205793193133 -0.035953670468180668 0 0.016634668552613745 -0.036287531360925232 0 0.016143205793193133 -0.035953670468180668 0 0.016634668552613745 -0.036287531360925232 0 0.017118873568196233 -0.035971900197155904 0 0.017091411895356349 -0.036426814927886436 0 0.017118873568196233 -0.035971900197155904 0 0.017713656491255263 -0.036292805008871588 0 0.017091411895356349 -0.036426814927886436 0 0.016634668552613745 -0.036287531360925232 0 0.017118873568196233 -0.035971900197155904 0 0.016135995276032003 -0.034999761275945653 0 0.017118873568196233 -0.035971900197155904 0 0.017822690214189401 -0.034999849432476283 0 0.017118873568196233 -0.035971900197155904 0 0.017822690214189401 -0.034999849432476283 0 0.018494531283323554 -0.035645161904107894 0 0.01950856027922275 -0.03499977751063435 0 0.018494531283323554 -0.035645161904107894 0 0.019908062322380474 -0.035608823304350189 0 0.017822690214189401 -0.034999849432476283 0 0.01950856027922275 -0.03499977751063435 0 0.018494531283323554 -0.035645161904107894 0 0.021785638536289856 -0.034457585372471261 0 0.022018612799975988 -0.034504071834038648 0 0.022034298116859228 -0.034283666267897382 0 0.018494531283323554 -0.035645161904107894 0 0.018599795217225303 -0.036386971134788219 0 0.019908062322380474 -0.035608823304350189 0 0.020250273490502142 -0.035321895380586332 0 0.020797498356476048 -0.035279233320817401 0 0.018599795217225303 -0.036386971134788219 0 0.017713656491255263 -0.036292805008871588 0 0.017277267575063975 -0.036776905839754508 0 0.017118873568196233 -0.035971900197155904 0 0.018494531283323554 -0.035645161904107894 0 0.017713656491255263 -0.036292805008871588 0 0.018494531283323554 -0.035645161904107894 0 0.018599795217225303 -0.036386971134788219 0 0.017713656491255263 -0.036292805008871588 0 0.021785638536289856 -0.034457585372471261 0 0.021193087106591402 -0.034566672581393079 0 0.021784547230675914 -0.03477280019360756 0 0.021193087106591402 -0.034566672581393079 0 0.021457615429366302 -0.035087283222621682 0 0.021784547230675914 -0.03477280019360756 0 0.020250273490502142 -0.035321895380586332 0 0.019129659970512844 -0.035704365588166073 0 0.021457615429366302 -0.035087283222621682 0 0.021784547230675914 -0.03477280019360756 0 0.021643361619809828 -0.034981281521860613 0 0.021785638536289856 -0.034457585372471261 0 0.021784547230675914 -0.03477280019360756 0 0.022018612799975988 -0.034504071834038648 0 0.021784547230675914 -0.03477280019360756 0 0.021992459151399871 -0.034833879072332354 0 0.022018612799975988 -0.034504071834038648 0 0.021784547230675914 -0.03477280019360756 0 0.021823376207594902 -0.034923905359074733 0 0.021643361619809828 -0.034981281521860613 0 0.021784547230675914 -0.03477280019360756 0 0.021823376207594902 -0.034923905359074733 0 0.021992459151399871 -0.034833879072332354 0 0.021823376207594902 -0.034923905359074733 0 0.021908223583270471 -0.034990509789072317 0 0.021992459151399871 -0.034833879072332354 0 0.021823376207594902 -0.034923905359074733 0 0.021838637713795402 -0.034960656089911182 0 0.021754594296691986 -0.034947640034485854 0 0.021823376207594902 -0.034923905359074733 0 0.021908223583270471 -0.034990509789072317 0 0.021838637713795402 -0.034960656089911182 0 0.021838637713795402 -0.034960656089911182 0 0.021754594296691986 -0.034947640034485854 0 0.021822152717634862 -0.034932980133469051 0 0.021754594296691986 -0.034947640034485854 0 0.021822152717634862 -0.034932980133469051 0 0.021797022320025283 -0.034891336658423457 0 0.021754594296691986 -0.034947640034485854 0 0.021729848713634491 -0.034924556964496659 0 0.021643361619809828 -0.034981281521860613 0 0.021754594296691986 -0.034947640034485854 0 0.021729848713634491 -0.034924556964496659 0 0.021797022320025283 -0.034891336658423457 0 0.021785548834601511 -0.034863923410872681 0 0.021729848713634491 -0.034924556964496659 0 0.021797022320025283 -0.034891336658423457 0 0.021835129926071974 -0.034819348689565689 0 0.021785548834601511 -0.034863923410872681 0 0.021700372123299911 -0.034913234694039681 0 0.021785548834601511 -0.034863923410872681 0 0.021700372123299911 -0.034913234694039681 0 0.021729848713634491 -0.034924556964496659 0 0.021700372123299911 -0.034913234694039681 0 0.021729848713634491 -0.034924556964496659 0 0.021643361619809828 -0.034981281521860613 0 0.021767073535386358 -0.034883840676365657 0 0.021457615429366302 -0.035087283222621682 0 0.02162083941387594 -0.034966247474243144 0 0.021700372123299911 -0.034913234694039681 0 0.02162083941387594 -0.034966247474243144 0 0.021643361619809828 -0.034981281521860613 0 0.021457615429366302 -0.035087283222621682 0 0.02162083941387594 -0.034966247474243144 0 0.021643361619809828 -0.034981281521860613 0 0.021823376207594902 -0.034923905359074733 0 0.021754594296691986 -0.034947640034485854 0 0.021643361619809828 -0.034981281521860613 0 0.022207887351823594 -0.034957917030608118 0 0.022576139757395156 -0.034851578225024368 0 0.02242516264430788 -0.035339097122371967 0 0.022207887351823594 -0.034957917030608118 0 0.022173443092813768 -0.03519950154666511 0 0.02242516264430788 -0.035339097122371967 0 0.022207887351823594 -0.034957917030608118 0 0.022040325392980578 -0.035045653017616543 0 0.022173443092813768 -0.03519950154666511 0 0.021908223583270471 -0.034990509789072317 0 0.022040325392980578 -0.035045653017616543 0 0.021992459151399871 -0.034833879072332354 0 0.022207887351823594 -0.034957917030608118 0 0.022040325392980578 -0.035045653017616543 0 0.021992459151399871 -0.034833879072332354 0 0.021992459151399871 -0.034833879072332354 0 0.022257530561487989 -0.034538413418184026 0 0.022018612799975988 -0.034504071834038648 0 0.022207887351823594 -0.034957917030608118 0 0.021992459151399871 -0.034833879072332354 0 0.022257530561487989 -0.034538413418184026 0 0.022207887351823594 -0.034957917030608118 0 0.022257530561487989 -0.034538413418184026 0 0.022576139757395156 -0.034851578225024368 0 0.022038772669699096 -0.035294770954153495 0 0.022657404200618854 -0.035673058778055967 0 0.021706724740599957 -0.036193930002235086 0 0.021378357571186266 -0.035578320764153015 0 0.022153156748422914 -0.035612653984064276 0 0.022038772669699096 -0.035294770954153495 0 0.020797498356476048 -0.035279233320817401 0 0.021706724740599957 -0.036193930002235086 0 0.020728061092420008 -0.035448039273023361 0 0.021378357571186266 -0.035578320764153015 0 0.022257530561487989 -0.034538413418184026 0 0.022018612799975988 -0.034504071834038648 0 0.022034298116859228 -0.034283666267897382 0 0.019509271034337385 -0.034999996217489643 0 0.020077757369687966 -0.035744246670192242 0 0.020967643046276078 -0.034999997629815677 0 0.020728061092420008 -0.035448039273023361 0 0.021378357571186266 -0.035578320764153015 0 0.020969420729471742 -0.03499959956202011 0 0.020797498356476048 -0.035279233320817401 0 0.02096722164314729 -0.035000431416374052 0 0.019509581510814528 -0.035000017082441263 0 0.020797498356476048 -0.035279233320817401 0 0.021378357571186266 -0.035578320764153015 0 0.020969420729471742 -0.03499959956202011 0 0.022153156748422914 -0.035612653984064276 0 0.020969420729471742 -0.03499959956202011 0 0.022153156748422914 -0.035612653984064276 0 0.023028755389233352 -0.034999853385171226 0 0.022153156748422914 -0.035612653984064276 0 0.023028755389233352 -0.034999853385171226 0 0.023061333907013051 -0.036186778512902369 0 0.023028755389233352 -0.034999853385171226 0 0.023061333907013051 -0.036186778512902369 0 0.024084340013714386 -0.035886354716688315 0 0.021706724740599957 -0.036193930002235086 0 0.022153156748422914 -0.035612653984064276 0 0.023061333907013051 -0.036186778512902369 0 0.025089791462606162 -0.034999344026714195 0 0.025245739120902794 -0.035970908112701427 0 0.026256263059308518 -0.035447168150903999 0 0.023028755389233352 -0.034999853385171226 0 0.025089791462606162 -0.034999344026714195 0 0.024084340013714386 -0.035886354716688315 0 0.024084340013714386 -0.035886354716688315 0 0.025245739120902794 -0.035970908112701427 0 0.024338751774681509 -0.036226793739240357 0 0.025089791462606162 -0.034999344026714195 0 0.024084340013714386 -0.035886354716688315 0 0.025245739120902794 -0.035970908112701427 0 0.024735943986233869 -0.036464732356257593 0 0.025491568893107695 -0.036368092374941645 0 0.025002401879579108 -0.036760948611454902 0 0.024735943986233869 -0.036464732356257593 0 0.02426348659951456 -0.036660777648484494 0 0.025002401879579108 -0.036760948611454902 0 0.025245739120902794 -0.035970908112701427 0 0.024735943986233869 -0.036464732356257593 0 0.025491568893107695 -0.036368092374941645 0 0.025245739120902794 -0.035970908112701427 0 0.024735943986233869 -0.036464732356257593 0 0.024338751774681509 -0.036226793739240357 0 0.024735943986233869 -0.036464732356257593 0 0.024235311094771665 -0.036466262383125253 0 0.02426348659951456 -0.036660777648484494 0 0.024735943986233869 -0.036464732356257593 0 0.024235311094771665 -0.036466262383125253 0 0.024338751774681509 -0.036226793739240357 0 0.024084340013714386 -0.035886354716688315 0 0.024338751774681509 -0.036226793739240357 0 0.023744629476260885 -0.036398719812763616 0 0.024235311094771665 -0.036466262383125253 0 0.024338751774681509 -0.036226793739240357 0 0.023744629476260885 -0.036398719812763616 0 0.023744629476260885 -0.036398719812763616 0 0.023531302053771557 -0.036296705037047003 0 0.023974182884106007 -0.036510086134495731 0 0.023531302053771557 -0.036296705037047003 0 0.023810828329792786 -0.03636807345542771 0 0.023974182884106007 -0.036510086134495731 0 0.024235311094771665 -0.036466262383125253 0 0.023744629476260885 -0.036398719812763616 0 0.023974182884106007 -0.036510086134495731 0 0.023974182884106007 -0.036510086134495731 0 0.02426348659951456 -0.036660777648484494 0 0.024015564020587625 -0.036587637989508995 0 0.024235311094771665 -0.036466262383125253 0 0.023974182884106007 -0.036510086134495731 0 0.02426348659951456 -0.036660777648484494 0 0.023810828329792786 -0.03636807345542771 0 0.023974182884106007 -0.036510086134495731 0 0.024015564020587625 -0.036587637989508995 0 0.023810828329792786 -0.03636807345542771 0 0.024015564020587625 -0.036587637989508995 0 0.023863439539759321 -0.036276210470557312 0 0.02426348659951456 -0.036660777648484494 0 0.024015564020587625 -0.036587637989508995 0 0.023902149903747106 -0.036857777642330621 0 0.024015564020587625 -0.036587637989508995 0 0.023863439539759321 -0.036276210470557312 0 0.023902149903747106 -0.036857777642330621 0 0.02426348659951456 -0.036660777648484494 0 0.023902149903747106 -0.036857777642330621 0 0.025002401879579108 -0.036760948611454902 0 0.023061333907013051 -0.036186778512902369 0 0.023232100845175994 -0.03635430360772271 0 0.022818130775286154 -0.036541367525253464 0 0.021706724740599957 -0.036193930002235086 0 0.023061333907013051 -0.036186778512902369 0 0.022818130775286154 -0.036541367525253464 0 0.023061333907013051 -0.036186778512902369 0 0.023744629476260885 -0.036398719812763616 0 0.023232100845175994 -0.03635430360772271 0 0.023061333907013051 -0.036186778512902369 0 0.024084340013714386 -0.035886354716688315 0 0.023744629476260885 -0.036398719812763616 0 0.023744629476260885 -0.036398719812763616 0 0.023531302053771557 -0.036296705037047003 0 0.023232100845175994 -0.03635430360772271 0 0.023531302053771557 -0.036296705037047003 0 0.023232100845175994 -0.03635430360772271 0 0.023144879484878752 -0.035890715520865694 0 0.022576139757395156 -0.034851578225024368 0 0.023144879484878752 -0.035890715520865694 0 0.02242516264430788 -0.035339097122371967 0 0.023232100845175994 -0.03635430360772271 0 0.022818130775286154 -0.036541367525253464 0 0.023144879484878752 -0.035890715520865694 0 0.022657404200618854 -0.035673058778055967 0 0.023065033395425844 -0.035863112266547988 0 0.022575784726075743 -0.035589239963486625 0 0.023144879484878752 -0.035890715520865694 0 0.02242516264430788 -0.035339097122371967 0 0.022575784726075743 -0.035589239963486625 0 0.023144879484878752 -0.035890715520865694 0 0.022942621778389224 -0.035838899790153193 0 0.023144879484878752 -0.035890715520865694 0 0.022942621778389224 -0.035838899790153193 0 0.023494866020092268 -0.036198984415952797 0 0.023531302053771557 -0.036296705037047003 0 0.023144879484878752 -0.035890715520865694 0 0.023494866020092268 -0.036198984415952797 0 0.022859489855044237 -0.034361553389236604 0 0.023451290085756474 -0.035083073356524552 0 0.022725666007093588 -0.03578377839574523 0 0.022942621778389224 -0.035838899790153193 0 0.023494866020092268 -0.036198984415952797 0 0.023171209586299035 -0.03326526471770868 0 0.022912355991213003 -0.032880757505947496 0 0.023481975090409724 -0.033788638163829057 0 0.023171209586299035 -0.03326526471770868 0 0.022912355991213003 -0.032880757505947496 0 0.022995493311489239 -0.032876739536983987 0 0.022725666007093588 -0.03578377839574523 0 0.022569681519170971 -0.035629372871854352 0 0.022295318536720586 -0.035438259025766534 0 0.022575784726075743 -0.035589239963486625 0 0.022569681519170971 -0.035629372871854352 0 0.0223549382068901 -0.035464254558621171 0 0.022725666007093588 -0.03578377839574523 0 0.022569681519170971 -0.035629372871854352 0 0.022942621778389224 -0.035838899790153193 0 0.022575784726075743 -0.035589239963486625 0 0.022569681519170971 -0.035629372871854352 0 0.022942621778389224 -0.035838899790153193 0 0.023863439539759321 -0.036276210470557312 0 0.023485424582690668 -0.034820749966715435 0 0.023481975090409724 -0.033788638163829057 0 0.023863439539759321 -0.036276210470557312 0 0.023902149903747106 -0.036857777642330621 0 0.022375502017398456 -0.035205369070456669 0 0.023863439539759321 -0.036276210470557312 0 0.023020490745347566 -0.034860151929551081 0 0.023485424582690668 -0.034820749966715435 0 0.023020490745347566 -0.034860151929551081 0 0.023485424582690668 -0.034820749966715435 0 0.023262258337984197 -0.034263594662201011 0 0.023662639532600744 -0.036120597264697789 0 0.023451290085756474 -0.035083073356524552 0 0.023485424582690668 -0.034820749966715435 0 0.023481975090409724 -0.033788638163829057 0 0.023262258337984197 -0.034263594662201011 0 0.023810828329792786 -0.03636807345542771 0 0.023863439539759321 -0.036276210470557312 0 0.023494866020092268 -0.036198984415952797 0 0.023531302053771557 -0.036296705037047003 0 0.023810828329792786 -0.03636807345542771 0 0.023494866020092268 -0.036198984415952797 0 0.023481975090409724 -0.033788638163829057 0 0.023126704486324159 -0.033539776391225344 0 0.023262258337984197 -0.034263594662201011 0 0.023171209586299035 -0.03326526471770868 0 0.023481975090409724 -0.033788638163829057 0 0.023126704486324159 -0.033539776391225344 0 0.023171209586299035 -0.03326526471770868 0 0.023126704486324159 -0.033539776391225344 0 0.022976838984091412 -0.033075373953487454 0 0.023020490745347566 -0.034860151929551081 0 0.023262258337984197 -0.034263594662201011 0 0.022698427144742742 -0.033614403457491081 0 0.023126704486324159 -0.033539776391225344 0 0.023262258337984197 -0.034263594662201011 0 0.022698427144742742 -0.033614403457491081 0 0.022747389741064012 -0.032861586891226785 0 0.022123156470857521 -0.033212814338583224 0 0.022261766121063006 -0.032406106879389274 0 0.022698427144742742 -0.033614403457491081 0 0.022747389741064012 -0.032861586891226785 0 0.022123156470857521 -0.033212814338583224 0 0.023126704486324159 -0.033539776391225344 0 0.022698427144742742 -0.033614403457491081 0 0.022747389741064012 -0.032861586891226785 0 0.022747389741064012 -0.032861586891226785 0 0.022976838984091412 -0.033075373953487454 0 0.022749462234262514 -0.032461642916101402 0 0.023126704486324159 -0.033539776391225344 0 0.022747389741064012 -0.032861586891226785 0 0.022976838984091412 -0.033075373953487454 0 0.022976838984091412 -0.033075373953487454 0 0.022977795763602919 -0.032922760318080793 0 0.022749462234262514 -0.032461642916101402 0 0.023171209586299035 -0.03326526471770868 0 0.022976838984091412 -0.033075373953487454 0 0.022977795763602919 -0.032922760318080793 0 0.022747389741064012 -0.032861586891226785 0 0.022660511709919472 -0.032215002791867856 0 0.022749462234262514 -0.032461642916101402 0 0.022747389741064012 -0.032861586891226785 0 0.022660511709919472 -0.032215002791867856 0 0.022261766121063006 -0.032406106879389274 0 0.021590846844378273 -0.031381286223003152 0 0.02148939833179677 -0.031276431157134486 0 0.022873420571159889 -0.032864168080807298 0 0.022552160711846445 -0.032785893115751003 0 0.022912355991213003 -0.032880757505947496 0 0.022481908643540844 -0.033608713908636491 0 0.022212272993132283 -0.03361262839565652 0 0.022859489855044237 -0.034361553389236604 0 0.022138985385857405 -0.034334400878343177 0 0.022912355991213003 -0.032880757505947496 0 0.022995493311489239 -0.032876739536983987 0 0.022481908643540844 -0.033608713908636491 0 0.022995493311489239 -0.032876739536983987 0 0.022615894854702345 -0.03203323994622892 0 0.022685614414920684 -0.031873577089465907 0 0.022995493311489239 -0.032876739536983987 0 0.022749462234262514 -0.032461642916101402 0 0.022615894854702345 -0.03203323994622892 0 0.022995493311489239 -0.032876739536983987 0 0.022977795763602919 -0.032922760318080793 0 0.022749462234262514 -0.032461642916101402 0 0.023171209586299035 -0.03326526471770868 0 0.022995493311489239 -0.032876739536983987 0 0.022977795763602919 -0.032922760318080793 0 0.022660511709919472 -0.032215002791867856 0 0.022749462234262514 -0.032461642916101402 0 0.022015093860119867 -0.031182276952550273 0 0.022749462234262514 -0.032461642916101402 0 0.022615894854702345 -0.03203323994622892 0 0.022015093860119867 -0.031182276952550273 0 0.022615894854702345 -0.03203323994622892 0 0.022540312134085163 -0.031630172967511666 0 0.022015093860119867 -0.031182276952550273 0 0.022615894854702345 -0.03203323994622892 0 0.022540312134085163 -0.031630172967511666 0 0.022685614414920684 -0.031873577089465907 0 0.022630782013191263 -0.031512129282635332 0 0.022732707588647476 -0.031347317148105354 0 0.022565800443752611 -0.031148707375772997 0 0.022552160711846445 -0.032785893115751003 0 0.022350337574869129 -0.032661445056553988 0 0.022540312134085163 -0.031630172967511666 0 0.022630782013191263 -0.031512129282635332 0 0.022565800443752611 -0.031148707375772997 0 0.022481908643540844 -0.033608713908636491 0 0.022212272993132283 -0.03361262839565652 0 0.021897072021711431 -0.034117903956227866 0 0.022732707588647476 -0.031347317148105354 0 0.022685614414920684 -0.031873577089465907 0 0.02284859413179896 -0.031239964053578626 0 0.022540312134085163 -0.031630172967511666 0 0.022630782013191263 -0.031512129282635332 0 0.022685614414920684 -0.031873577089465907 0 0.022630782013191263 -0.031512129282635332 0 0.022732707588647476 -0.031347317148105354 0 0.022685614414920684 -0.031873577089465907 0 0.022725666007093588 -0.03578377839574523 0 0.021957664272975835 -0.035174409928734905 0 0.022295318536720586 -0.035438259025766534 0 0.021957664272975835 -0.035174409928734905 0 0.022073686698178854 -0.035245301500307621 0 0.021978643274345452 -0.035106482410779211 0 0.022073686698178854 -0.035245301500307621 0 0.021978643274345452 -0.035106482410779211 0 0.022021332899699639 -0.035163967356589783 0 0.021957664272975835 -0.035174409928734905 0 0.022073686698178854 -0.035245301500307621 0 0.022295318536720586 -0.035438259025766534 0 0.021957664272975835 -0.035174409928734905 0 0.02191893894840306 -0.034938173998365414 0 0.021863853587154803 -0.034665259266436849 0 0.02193984968999169 -0.034996139476132171 0 0.021893999905864624 -0.034790601396407987 0 0.021920025007445051 -0.034893207085961352 0 0.02193984968999169 -0.034996139476132171 0 0.02191893894840306 -0.034938173998365414 0 0.021893999905864624 -0.034790601396407987 0 0.02193984968999169 -0.034996139476132171 0 0.021978643274345452 -0.035106482410779211 0 0.022021332899699639 -0.035163967356589783 0 0.02193984968999169 -0.034996139476132171 0 0.021978643274345452 -0.035106482410779211 0 0.02191893894840306 -0.034938173998365414 0 0.021957664272975835 -0.035174409928734905 0 0.021978643274345452 -0.035106482410779211 0 0.02191893894840306 -0.034938173998365414 0 0.021893999905864624 -0.034790601396407987 0 0.021863853587154803 -0.034665259266436849 0 0.021866147174615626 -0.034544539228996508 0 0.02191893894840306 -0.034938173998365414 0 0.021893999905864624 -0.034790601396407987 0 0.021863853587154803 -0.034665259266436849 0 0.022138985385857405 -0.034334400878343177 0 0.021850138459303579 -0.034148289708499285 0 0.022212272993132283 -0.03361262839565652 0 0.021897072021711431 -0.034117903956227866 0 0.021764068730544532 -0.03411153494498239 0 0.021863853587154803 -0.034665259266436849 0 0.021764068730544532 -0.03411153494498239 0 0.021831208018658579 -0.034388388584026146 0 0.021957664272975835 -0.035174409928734905 0 0.021863853587154803 -0.034665259266436849 0 0.021764068730544532 -0.03411153494498239 0 0.022732707588647476 -0.031347317148105354 0 0.02284859413179896 -0.031239964053578626 0 0.022742100128628533 -0.031030804359666077 0 0.022350337574869129 -0.032661445056553988 0 0.022377173211746731 -0.032333513037817806 0 0.021897072021711431 -0.034117903956227866 0 0.021764068730544532 -0.03411153494498239 0 0.021618000027050697 -0.033684907913267788 0 0.021764068730544532 -0.03411153494498239 0 0.021825414337256141 -0.0342344727446088 0 0.021618000027050697 -0.033684907913267788 0 0.021825414337256141 -0.0342344727446088 0 0.022011030728137572 -0.034420465654208948 0 0.021891080969659332 -0.034491233961125557 0 0.021764068730544532 -0.03411153494498239 0 0.021825414337256141 -0.0342344727446088 0 0.021831208018658579 -0.034388388584026146 0 0.021825414337256141 -0.0342344727446088 0 0.021831208018658579 -0.034388388584026146 0 0.021866147174615626 -0.034544539228996508 0 0.021863853587154803 -0.034665259266436849 0 0.021831208018658579 -0.034388388584026146 0 0.021866147174615626 -0.034544539228996508 0 0.021825414337256141 -0.0342344727446088 0 0.021866147174615626 -0.034544539228996508 0 0.021891080969659332 -0.034491233961125557 0 0.021825414337256141 -0.0342344727446088 0 0.022061305196135594 -0.033980926976925493 0 0.021618000027050697 -0.033684907913267788 0 0.021825414337256141 -0.0342344727446088 0 0.022061305196135594 -0.033980926976925493 0 0.022011030728137572 -0.034420465654208948 0 0.022221000848475135 -0.034325895335923715 0 0.022061305196135594 -0.033980926976925493 0 0.022011030728137572 -0.034420465654208948 0 0.022221000848475135 -0.034325895335923715 0 0.022011030728137572 -0.034420465654208948 0 0.022037011328614343 -0.034645940117025688 0 0.022011030728137572 -0.034420465654208948 0 0.022037011328614343 -0.034645940117025688 0 0.021955548428462434 -0.034595814559672401 0 0.022037011328614343 -0.034645940117025688 0 0.021955548428462434 -0.034595814559672401 0 0.021950430454092586 -0.034735536232739582 0 0.022037011328614343 -0.034645940117025688 0 0.021950430454092586 -0.034735536232739582 0 0.021971879319267536 -0.034761568966108547 0 0.022221000848475135 -0.034325895335923715 0 0.02217071817005346 -0.03455549171205561 0 0.022037011328614343 -0.034645940117025688 0 0.02217071817005346 -0.03455549171205561 0 0.022037011328614343 -0.034645940117025688 0 0.022069450744432059 -0.034681051245290695 0 0.021893999905864624 -0.034790601396407987 0 0.021866147174615626 -0.034544539228996508 0 0.021907311009539111 -0.034686868652309071 0 0.021866147174615626 -0.034544539228996508 0 0.021891080969659332 -0.034491233961125557 0 0.021907311009539111 -0.034686868652309071 0 0.022011030728137572 -0.034420465654208948 0 0.021891080969659332 -0.034491233961125557 0 0.021955548428462434 -0.034595814559672401 0 0.021891080969659332 -0.034491233961125557 0 0.021955548428462434 -0.034595814559672401 0 0.021907311009539111 -0.034686868652309071 0 0.021955548428462434 -0.034595814559672401 0 0.021950430454092586 -0.034735536232739582 0 0.021907311009539111 -0.034686868652309071 0 0.021950430454092586 -0.034735536232739582 0 0.021907311009539111 -0.034686868652309071 0 0.021925995622793484 -0.034837933625563228 0 0.021893999905864624 -0.034790601396407987 0 0.021907311009539111 -0.034686868652309071 0 0.021920025007445051 -0.034893207085961352 0 0.021907311009539111 -0.034686868652309071 0 0.021920025007445051 -0.034893207085961352 0 0.021925995622793484 -0.034837933625563228 0 0.021920025007445051 -0.034893207085961352 0 0.021929658124503495 -0.034956177791110335 0 0.021925995622793484 -0.034837933625563228 0 0.021929658124503495 -0.034956177791110335 0 0.021925995622793484 -0.034837933625563228 0 0.02193032134304216 -0.034870406605619866 0 0.021950430454092586 -0.034735536232739582 0 0.02193032134304216 -0.034870406605619866 0 0.021971879319267536 -0.034761568966108547 0 0.021950430454092586 -0.034735536232739582 0 0.021925995622793484 -0.034837933625563228 0 0.02193032134304216 -0.034870406605619866 0 0.02193032134304216 -0.034870406605619866 0 0.021915550894240368 -0.034975985659168117 0 0.02191479766135096 -0.034883527592307853 0 0.021929658124503495 -0.034956177791110335 0 0.02193032134304216 -0.034870406605619866 0 0.021915550894240368 -0.034975985659168117 0 0.021929658124503495 -0.034956177791110335 0 0.021915550894240368 -0.034975985659168117 0 0.021966169876915305 -0.035073821548355005 0 0.022037011328614343 -0.034645940117025688 0 0.022069450744432059 -0.034681051245290695 0 0.021972211928253198 -0.034783261086926941 0 0.022037011328614343 -0.034645940117025688 0 0.021971879319267536 -0.034761568966108547 0 0.021972211928253198 -0.034783261086926941 0 0.02193032134304216 -0.034870406605619866 0 0.021971879319267536 -0.034761568966108547 0 0.021972211928253198 -0.034783261086926941 0 0.02193032134304216 -0.034870406605619866 0 0.02191479766135096 -0.034883527592307853 0 0.021972211928253198 -0.034783261086926941 0 0.02191479766135096 -0.034883527592307853 0 0.021936723153320441 -0.034820105384699158 0 0.021972211928253198 -0.034783261086926941 0 0.022069450744432059 -0.034681051245290695 0 0.021972211928253198 -0.034783261086926941 0 0.021993123111132089 -0.034754490302369698 0 0.021936723153320441 -0.034820105384699158 0 0.021972211928253198 -0.034783261086926941 0 0.021993123111132089 -0.034754490302369698 0 0.021936723153320441 -0.034820105384699158 0 0.021993123111132089 -0.034754490302369698 0 0.021939178734712229 -0.034783216493742608 0 0.022051303585983843 -0.034693596644619594 0 0.021993123111132089 -0.034754490302369698 0 0.021939178734712229 -0.034783216493742608 0 0.022051303585983843 -0.034693596644619594 0 0.022069450744432059 -0.034681051245290695 0 0.021993123111132089 -0.034754490302369698 0 0.021936723153320441 -0.034820105384699158 0 0.021939178734712229 -0.034783216493742608 0 0.021870893859612883 -0.034882462141822577 0 0.021939178734712229 -0.034783216493742608 0 0.021870893859612883 -0.034882462141822577 0 0.021867695477376867 -0.034833766839716916 0 0.02191479766135096 -0.034883527592307853 0 0.021936723153320441 -0.034820105384699158 0 0.021870893859612883 -0.034882462141822577 0 0.021870893859612883 -0.034882462141822577 0 0.021822152717634862 -0.034932980133469051 0 0.021797022320025283 -0.034891336658423457 0 0.021870893859612883 -0.034882462141822577 0 0.021822152717634862 -0.034932980133469051 0 0.021872204552499511 -0.034965635736719625 0 0.021870893859612883 -0.034882462141822577 0 0.021867695477376867 -0.034833766839716916 0 0.021797022320025283 -0.034891336658423457 0 0.021785548834601511 -0.034863923410872681 0 0.021867695477376867 -0.034833766839716916 0 0.021797022320025283 -0.034891336658423457 0 0.021890065209940385 -0.034788491070121164 0 0.021785548834601511 -0.034863923410872681 0 0.021867695477376867 -0.034833766839716916 0 0.021890065209940385 -0.034788491070121164 0 0.021939178734712229 -0.034783216493742608 0 0.021867695477376867 -0.034833766839716916 0 0.021915550894240368 -0.034975985659168117 0 0.021943808377753289 -0.035046437955079564 0 0.021966169876915305 -0.035073821548355005 0 0.021915550894240368 -0.034975985659168117 0 0.021872204552499511 -0.034965635736719625 0 0.021943808377753289 -0.035046437955079564 0 0.021915550894240368 -0.034975985659168117 0 0.02191479766135096 -0.034883527592307853 0 0.021872204552499511 -0.034965635736719625 0 0.02191479766135096 -0.034883527592307853 0 0.021870893859612883 -0.034882462141822577 0 0.021872204552499511 -0.034965635736719625 0 0.021908223583270471 -0.034990509789072317 0 0.021838637713795402 -0.034960656089911182 0 0.021872204552499511 -0.034965635736719625 0 0.021838637713795402 -0.034960656089911182 0 0.021822152717634862 -0.034932980133469051 0 0.021872204552499511 -0.034965635736719625 0 0.021908223583270471 -0.034990509789072317 0 0.021872204552499511 -0.034965635736719625 0 0.021943808377753289 -0.035046437955079564 0 0.022040325392980578 -0.035045653017616543 0 0.021943808377753289 -0.035046437955079564 0 0.022051273657555815 -0.035155838648968304 0 0.021908223583270471 -0.034990509789072317 0 0.022040325392980578 -0.035045653017616543 0 0.021943808377753289 -0.035046437955079564 0 0.021943808377753289 -0.035046437955079564 0 0.022051273657555815 -0.035155838648968304 0 0.021966169876915305 -0.035073821548355005 0 0.022051273657555815 -0.035155838648968304 0 0.022218020012728303 -0.035325575427459788 0 0.022052621475103555 -0.035190618174626785 0 0.022040325392980578 -0.035045653017616543 0 0.022051273657555815 -0.035155838648968304 0 0.022173443092813768 -0.03519950154666511 0 0.022173443092813768 -0.03519950154666511 0 0.02242516264430788 -0.035339097122371967 0 0.022218020012728303 -0.035325575427459788 0 0.022575784726075743 -0.035589239963486625 0 0.02242516264430788 -0.035339097122371967 0 0.022218020012728303 -0.035325575427459788 0 0.022051273657555815 -0.035155838648968304 0 0.022173443092813768 -0.03519950154666511 0 0.022218020012728303 -0.035325575427459788 0 0.022218020012728303 -0.035325575427459788 0 0.022159585306079772 -0.035314742445983718 0 0.022052621475103555 -0.035190618174626785 0 0.022575784726075743 -0.035589239963486625 0 0.022218020012728303 -0.035325575427459788 0 0.0223549382068901 -0.035464254558621171 0 0.022218020012728303 -0.035325575427459788 0 0.0223549382068901 -0.035464254558621171 0 0.022159585306079772 -0.035314742445983718 0 0.022569681519170971 -0.035629372871854352 0 0.0223549382068901 -0.035464254558621171 0 0.022295318536720586 -0.035438259025766534 0 0.0223549382068901 -0.035464254558621171 0 0.022295318536720586 -0.035438259025766534 0 0.022159585306079772 -0.035314742445983718 0 0.022073686698178854 -0.035245301500307621 0 0.022159585306079772 -0.035314742445983718 0 0.022021332899699639 -0.035163967356589783 0 0.022159585306079772 -0.035314742445983718 0 0.022021332899699639 -0.035163967356589783 0 0.022052621475103555 -0.035190618174626785 0 0.022073686698178854 -0.035245301500307621 0 0.022295318536720586 -0.035438259025766534 0 0.022159585306079772 -0.035314742445983718 0 0.022021332899699639 -0.035163967356589783 0 0.021962593609392241 -0.035055169963126548 0 0.022052621475103555 -0.035190618174626785 0 0.02193984968999169 -0.034996139476132171 0 0.022021332899699639 -0.035163967356589783 0 0.021962593609392241 -0.035055169963126548 0 0.02193984968999169 -0.034996139476132171 0 0.021920025007445051 -0.034893207085961352 0 0.021962593609392241 -0.035055169963126548 0 0.021920025007445051 -0.034893207085961352 0 0.021929658124503495 -0.034956177791110335 0 0.021962593609392241 -0.035055169963126548 0 0.021929658124503495 -0.034956177791110335 0 0.021962593609392241 -0.035055169963126548 0 0.021966169876915305 -0.035073821548355005 0 0.021962593609392241 -0.035055169963126548 0 0.021966169876915305 -0.035073821548355005 0 0.022052621475103555 -0.035190618174626785 0 0.022051273657555815 -0.035155838648968304 0 0.021966169876915305 -0.035073821548355005 0 0.022052621475103555 -0.035190618174626785 0 0.034999445033440685 -0.031429537446077009 0 0.035050097477542473 -0.031340764380973787 0 0.034999512522870958 -0.030399222292146259 0 0.034999550487342122 -0.031433356664385251 0 0.034511320369903384 -0.032234619354751484 0 0.035050097477542473 -0.031340764380973787 0 0.034825213717312634 -0.030911867583768873 0 0.034999512522870958 -0.030399222292146259 0 0.035050097477542473 -0.031340764380973787 0 0.035016104120077447 -0.03147913340181574 0 0.034825213717312634 -0.030911867583768873 0 0.034196161993736512 -0.033223634298756854 0 0.034010056476063963 -0.034050086099975049 0 0.033480303804837262 -0.03399343784921996 0 0.034997454731115471 -0.03144075028797727 0 0.034196161993736512 -0.033223634298756854 0 0.034010056476063963 -0.034050086099975049 0 0.034998497726892487 -0.034997050196096086 0 0.034010056476063963 -0.034050086099975049 0 0.031633205429258918 -0.034999148069780148 0 0.034997454731115471 -0.03144075028797727 0 0.034998497726892487 -0.034997050196096086 0 0.034010056476063963 -0.034050086099975049 0 0.034010056476063963 -0.034050086099975049 0 0.03323831038634676 -0.033952605521052656 0 0.033480303804837262 -0.03399343784921996 0 0.033759182110595719 -0.034186072432006068 0 0.032718369464827812 -0.03444610654135008 0 0.034010056476063963 -0.034050086099975049 0 0.032275566190217347 -0.034997423090710883 0 0.031633205429258918 -0.034999148069780148 0 0.03323831038634676 -0.033952605521052656 0 0.033058091516527673 -0.034163168845825292 0 0.033480303804837262 -0.03399343784921996 0 0.032718369464827812 -0.03444610654135008 0 0.031338520003576342 -0.034890213159079135 0 0.032275566190217347 -0.034997423090710883 0 0.031633205429258918 -0.034999148069780148 0 0.030711291631523901 -0.035454963190450432 0 0.03323831038634676 -0.033952605521052656 0 0.032575675820247202 -0.03439732262504628 0 0.031905223321537224 -0.03427764940221887 0 0.03323831038634676 -0.033952605521052656 0 0.032575675820247202 -0.03439732262504628 0 0.033058091516527673 -0.034163168845825292 0 0.032575675820247202 -0.03439732262504628 0 0.033058091516527673 -0.034163168845825292 0 0.032872199104544642 -0.034252499818412614 0 0.033276018423945605 -0.033842524115746869 0 0.033297075308452842 -0.033816773882369131 0 0.034025365811724675 -0.032835649472729211 0 0.032872199104544642 -0.034252499818412614 0 0.033276018423945605 -0.033842524115746869 0 0.033270826998727139 -0.033880021879478486 0 0.033276018423945605 -0.033842524115746869 0 0.034025365811724675 -0.032835649472729211 0 0.033270826998727139 -0.033880021879478486 0 0.033058091516527673 -0.034163168845825292 0 0.032872199104544642 -0.034252499818412614 0 0.033276018423945605 -0.033842524115746869 0 0.033058091516527673 -0.034163168845825292 0 0.033276018423945605 -0.033842524115746869 0 0.033480303804837262 -0.03399343784921996 0 0.034196161993736512 -0.033223634298756854 0 0.033480303804837262 -0.03399343784921996 0 0.033297075308452842 -0.033816773882369131 0 0.033276018423945605 -0.033842524115746869 0 0.033480303804837262 -0.03399343784921996 0 0.033297075308452842 -0.033816773882369131 0 0.035050097477542473 -0.031340764380973787 0 0.034842747832029959 -0.031694487300128159 0 0.035016104120077447 -0.03147913340181574 0 0.034511320369903384 -0.032234619354751484 0 0.034162712485915181 -0.032711608178039121 0 0.034842747832029959 -0.031694487300128159 0 0.034653927610815941 -0.032051329724634592 0 0.035016104120077447 -0.03147913340181574 0 0.034162712485915181 -0.032711608178039121 0 0.034172616028970128 -0.032828258869677038 0 0.034842747832029959 -0.031694487300128159 0 0.034653927610815941 -0.032051329724634592 0 0.034025365811724675 -0.032835649472729211 0 0.032664585336097098 -0.035579980915502685 0 0.030058287658863501 -0.033949232359655405 0 0.029675725077701744 -0.038278229662639524 0 0.030719317458610784 -0.037452385928865919 0 0.030663951019467017 -0.039624569706002241 0 0.034653927610815941 -0.032051329724634592 0 0.034025365811724675 -0.032835649472729211 0 0.034744415457599584 -0.031924532040274581 0 0.034025365811724675 -0.032835649472729211 0 0.034319371943873044 -0.033097240865976291 0 0.034744415457599584 -0.031924532040274581 0 0.029675725077701744 -0.038278229662639524 0 0.029624369845508397 -0.037219087296722589 0 0.030719317458610784 -0.037452385928865919 0 0.029675725077701744 -0.038278229662639524 0 0.028609358739582876 -0.037639146047621398 0 0.027660990718837271 -0.039076974012644414 0 0.029675725077701744 -0.038278229662639524 0 0.028609358739582876 -0.037639146047621398 0 0.029624369845508397 -0.037219087296722589 0 0.028609358739582876 -0.037639146047621398 0 0.029624369845508397 -0.037219087296722589 0 0.028082499829065681 -0.036423950487588216 0 0.029624369845508397 -0.037219087296722589 0 0.029793408008188652 -0.036275975914682075 0 0.028082499829065681 -0.036423950487588216 0 0.032664585336097098 -0.035579980915502685 0 0.031693761648596545 -0.034652665524820277 0 0.029793408008188652 -0.036275975914682075 0 0.030719317458610784 -0.037452385928865919 0 0.031509828491920369 -0.035025166279171682 0 0.034319371943873044 -0.033097240865976291 0 0.033270826998727139 -0.033880021879478486 0 0.031509828491920369 -0.035025166279171682 0 0.029624369845508397 -0.037219087296722589 0 0.029793408008188652 -0.036275975914682075 0 0.030719317458610784 -0.037452385928865919 0 0.034025365811724675 -0.032835649472729211 0 0.034319371943873044 -0.033097240865976291 0 0.033270826998727139 -0.033880021879478486 0 0.031633205429258918 -0.034999148069780148 0 0.030711291631523901 -0.035454963190450432 0 0.029212186355605685 -0.035000158697684365 0 0.032575675820247202 -0.03439732262504628 0 0.032872199104544642 -0.034252499818412614 0 0.031509828491920369 -0.035025166279171682 0 0.032872199104544642 -0.034252499818412614 0 0.033270826998727139 -0.033880021879478486 0 0.031509828491920369 -0.035025166279171682 0 0.032575675820247202 -0.03439732262504628 0 0.031509828491920369 -0.035025166279171682 0 0.031905223321537224 -0.03427764940221887 0 0.031509828491920369 -0.035025166279171682 0 0.031905223321537224 -0.03427764940221887 0 0.029214382460407917 -0.034995848964585595 0 0.031338520003576342 -0.034890213159079135 0 0.029213728306885265 -0.034999900696057108 0 0.029214382460407917 -0.034995848964585595 0 0.029216805228287519 -0.035505483862870287 0 0.027757638578092967 -0.035411357041950454 0 0.031509828491920369 -0.035025166279171682 0 0.029214382460407917 -0.034995848964585595 0 0.029216805228287519 -0.035505483862870287 0 0.029793408008188652 -0.036275975914682075 0 0.031509828491920369 -0.035025166279171682 0 0.029216805228287519 -0.035505483862870287 0 0.029793408008188652 -0.036275975914682075 0 0.029216805228287519 -0.035505483862870287 0 0.028082499829065681 -0.036423950487588216 0 0.029216805228287519 -0.035505483862870287 0 0.027757638578092967 -0.035411357041950454 0 0.028082499829065681 -0.036423950487588216 0 0.027757638578092967 -0.035411357041950454 0 0.026513004476828902 -0.035978857729162594 0 0.028082499829065681 -0.036423950487588216 0 0.029214382460407917 -0.034995848964585595 0 0.027757638578092967 -0.035411357041950454 0 0.027150654154613939 -0.035000222015824388 0 0.027757638578092967 -0.035411357041950454 0 0.026256263059308518 -0.035447168150903999 0 0.027150654154613939 -0.035000222015824388 0 0.025089791462606162 -0.034999344026714195 0 0.026256263059308518 -0.035447168150903999 0 0.027150654154613939 -0.035000222015824388 0 0.025245739120902794 -0.035970908112701427 0 0.026513004476828902 -0.035978857729162594 0 0.025491568893107695 -0.036368092374941645 0 0.027757638578092967 -0.035411357041950454 0 0.026256263059308518 -0.035447168150903999 0 0.026513004476828902 -0.035978857729162594 0 0.025245739120902794 -0.035970908112701427 0 0.026256263059308518 -0.035447168150903999 0 0.026513004476828902 -0.035978857729162594 0 0.025491568893107695 -0.036368092374941645 0 0.026098085396173448 -0.036681917696722396 0 0.025002401879579108 -0.036760948611454902 0 0.026513004476828902 -0.035978857729162594 0 0.025491568893107695 -0.036368092374941645 0 0.026098085396173448 -0.036681917696722396 0 0.026513004476828902 -0.035978857729162594 0 0.026098085396173448 -0.036681917696722396 0 0.028082499829065681 -0.036423950487588216 0 0.026098085396173448 -0.036681917696722396 0 0.028082499829065681 -0.036423950487588216 0 0.027331630357733668 -0.037279053611633431 0 0.028609358739582876 -0.037639146047621398 0 0.028082499829065681 -0.036423950487588216 0 0.027331630357733668 -0.037279053611633431 0 0.028609358739582876 -0.037639146047621398 0 0.027331630357733668 -0.037279053611633431 0 0.027660990718837271 -0.039076974012644414 0 0.027331630357733668 -0.037279053611633431 0 0.026043116696405706 -0.037349140266026114 0 0.027660990718837271 -0.039076974012644414 0 0.023902149903747106 -0.036857777642330621 0 0.025002401879579108 -0.036760948611454902 0 0.026043116696405706 -0.037349140266026114 0 0.023902149903747106 -0.036857777642330621 0 0.026043116696405706 -0.037349140266026114 0 0.027660990718837271 -0.039076974012644414 0 0.024492466153538957 -0.036861183221939341 0 0.023232857526592172 -0.037689527844251718 0 0.026098085396173448 -0.036681917696722396 0 0.025002401879579108 -0.036760948611454902 0 0.026043116696405706 -0.037349140266026114 0 0.026098085396173448 -0.036681917696722396 0 0.027331630357733668 -0.037279053611633431 0 0.026043116696405706 -0.037349140266026114 0 0.023902149903747106 -0.036857777642330621 0 0.022375502017398456 -0.035205369070456669 0 0.020939844253598652 -0.035543762348002314 0 0.023020490745347566 -0.034860151929551081 0 0.022375502017398456 -0.035205369070456669 0 0.022288144626259863 -0.034085336462539008 0 0.023863439539759321 -0.036276210470557312 0 0.023020490745347566 -0.034860151929551081 0 0.022375502017398456 -0.035205369070456669 0 0.020939844253598652 -0.035543762348002314 0 0.021275564878001633 -0.033987645280006334 0 0.020288823299608408 -0.034428549645670908 0 0.022375502017398456 -0.035205369070456669 0 0.020939844253598652 -0.035543762348002314 0 0.021275564878001633 -0.033987645280006334 0 0.022375502017398456 -0.035205369070456669 0 0.021275564878001633 -0.033987645280006334 0 0.022288144626259863 -0.034085336462539008 0 0.021275564878001633 -0.033987645280006334 0 0.022288144626259863 -0.034085336462539008 0 0.022123156470857521 -0.033212814338583224 0 0.023020490745347566 -0.034860151929551081 0 0.022698427144742742 -0.033614403457491081 0 0.022288144626259863 -0.034085336462539008 0 0.022698427144742742 -0.033614403457491081 0 0.022288144626259863 -0.034085336462539008 0 0.022123156470857521 -0.033212814338583224 0 0.022123156470857521 -0.033212814338583224 0 0.022261766121063006 -0.032406106879389274 0 0.020960085994715317 -0.032600593529910835 0 0.02148939833179677 -0.031276431157134486 0 0.018707606073239375 -0.031728287057404887 0 0.019652823749530948 -0.030202134697496674 0 0.019572551695466643 -0.029917853207540417 0 0.019782161881334009 -0.029896733417798926 0 0.020017022829444654 -0.03029118515640819 0 0.019652823749530948 -0.030202134697496674 0 0.019782161881334009 -0.029896733417798926 0 0.021275564878001633 -0.033987645280006334 0 0.020960085994715317 -0.032600593529910835 0 0.020314412481387423 -0.03360865744505865 0 0.021275564878001633 -0.033987645280006334 0 0.022123156470857521 -0.033212814338583224 0 0.020960085994715317 -0.032600593529910835 0 0.020960085994715317 -0.032600593529910835 0 0.019536701135760472 -0.0329520131239735 0 0.020314412481387423 -0.03360865744505865 0 0.018707606073239375 -0.031728287057404887 0 0.026755956722841132 -0.030464744491407788 0 0.019652823749530948 -0.030202134697496674 0 0.019460261986641626 -0.030075953942161369 0 0.019572551695466643 -0.029917853207540417 0 0.019652823749530948 -0.030202134697496674 0 0.019460261986641626 -0.030075953942161369 0 0.019363926571271638 -0.030254279507732067 0 0.026755956722841132 -0.030464744491407788 0 0.028475101364926023 -0.028539255215406515 0 0.037070191993770499 -0.027894320018528682 0 0.03719421774055244 -0.028300837685651843 0 0.03729217127007356 -0.027593320419418976 0 0.03719421774055244 -0.028300837685651843 0 0.03750714858402189 -0.028789988636365046 0 0.03729217127007356 -0.027593320419418976 0 0.019460261986641626 -0.030075953942161369 0 0.019363926571271638 -0.030254279507732067 0 0.019285327112979717 -0.029855648348686828 0 0.037640183823296591 -0.028913479313798309 0 0.037590671835525002 -0.030376745119349506 0 0.036994994139346017 -0.029061689024580742 0 0.026755956722841132 -0.030464744491407788 0 0.028556143764065439 -0.03218139354400882 0 0.026755956722841132 -0.030464744491407788 0 0.037526970808899635 -0.028424076807651598 0 0.03719421774055244 -0.028300837685651843 0 0.03750714858402189 -0.028789988636365046 0 0.036994994139346017 -0.029061689024580742 0 0.019536701135760472 -0.0329520131239735 0 0.019514994516188044 -0.033991427107599934 0 0.020314412481387423 -0.03360865744505865 0 0.028556143764065439 -0.03218139354400882 0 0.030058287658863501 -0.033949232359655405 0 0.037590671835525002 -0.030376745119349506 0 0.037510197634105388 -0.031987112001652482 0 0.036362942100982336 -0.030192374731157205 0 0.037590671835525002 -0.030376745119349506 0 0.036362942100982336 -0.030192374731157205 0 0.036994994139346017 -0.029061689024580742 0 0.019514994516188044 -0.033991427107599934 0 0.020288823299608408 -0.034428549645670908 0 0.01953333873956473 -0.034982882878504276 0 0.021275564878001633 -0.033987645280006334 0 0.020314412481387423 -0.03360865744505865 0 0.020288823299608408 -0.034428549645670908 0 0.019514994516188044 -0.033991427107599934 0 0.020314412481387423 -0.03360865744505865 0 0.020288823299608408 -0.034428549645670908 0 0.020939844253598652 -0.035543762348002314 0 0.020288823299608408 -0.034428549645670908 0 0.01953333873956473 -0.034982882878504276 0 0.029675725077701744 -0.038278229662639524 0 0.027660990718837271 -0.039076974012644414 0 0.030663951019467017 -0.039624569706002241 0 0.023232857526592172 -0.037689527844251718 0 0.030058287658863501 -0.033949232359655405 0 0.030058287658863501 -0.033949232359655405 0 0.037548854800936282 -0.031524939145960731 0 0.034653927610815941 -0.032051329724634592 0 0.034744415457599584 -0.031924532040274581 0 0.035259617895939996 -0.031531018737567487 0 0.037510197634105388 -0.031987112001652482 0 0.035259617895939996 -0.031531018737567487 0 0.036362942100982336 -0.030192374731157205 0 0.034653927610815941 -0.032051329724634592 0 0.035259617895939996 -0.031531018737567487 0 0.035016104120077447 -0.03147913340181574 0 0.035259617895939996 -0.031531018737567487 0 0.035016104120077447 -0.03147913340181574 0 0.034898521922754049 -0.030786611073314572 0 0.035259617895939996 -0.031531018737567487 0 0.035525612322665288 -0.030031475997653288 0 0.034898521922754049 -0.030786611073314572 0 0.035259617895939996 -0.031531018737567487 0 0.035525612322665288 -0.030031475997653288 0 0.036362942100982336 -0.030192374731157205 0 0.036362942100982336 -0.030192374731157205 0 0.036167359900109816 -0.029213147909944819 0 0.036994994139346017 -0.029061689024580742 0 0.035525612322665288 -0.030031475997653288 0 0.036362942100982336 -0.030192374731157205 0 0.036167359900109816 -0.029213147909944819 0 0.036167359900109816 -0.029213147909944819 0 0.036994994139346017 -0.029061689024580742 0 0.036958919002621153 -0.028143085832684944 0 0.03719421774055244 -0.028300837685651843 0 0.036994994139346017 -0.029061689024580742 0 0.036958919002621153 -0.028143085832684944 0 0.037070191993770499 -0.027894320018528682 0 0.03719421774055244 -0.028300837685651843 0 0.036958919002621153 -0.028143085832684944 0 0.036958919002621153 -0.028143085832684944 0 0.034691942799919738 -0.028842075030894081 0 0.036439968145557125 -0.026247665551878921 0 0.035599599595498542 -0.027997908077933686 0 0.036383893986636995 -0.026388804638888146 0 0.036167359900109816 -0.029213147909944819 0 0.036958919002621153 -0.028143085832684944 0 0.034691942799919738 -0.028842075030894081 0 0.035525612322665288 -0.030031475997653288 0 0.036167359900109816 -0.029213147909944819 0 0.034691942799919738 -0.028842075030894081 0 0.035525612322665288 -0.030031475997653288 0 0.034691942799919738 -0.028842075030894081 0 0.034898521922754049 -0.030786611073314572 0 0.036428374682121477 -0.027157132442712978 0 0.035633433652869063 -0.027656254650180016 0 0.035884175357649838 -0.028785234043497022 0 0.035599599595498542 -0.027997908077933686 0 0.035153163447961822 -0.029616985498966374 0 0.036428374682121477 -0.027157132442712978 0 0.034999949844570742 -0.026599714288884312 0 0.035936101248272824 -0.025514929949949208 0 0.036428374682121477 -0.027157132442712978 0 0.034999949844570742 -0.026599714288884312 0 0.035633433652869063 -0.027656254650180016 0 0.034999949844570742 -0.026599714288884312 0 0.035633433652869063 -0.027656254650180016 0 0.034999766178325467 -0.028497088934148745 0 0.035633433652869063 -0.027656254650180016 0 0.034999766178325467 -0.028497088934148745 0 0.035884175357649838 -0.028785234043497022 0 0.034999766178325467 -0.028497088934148745 0 0.035884175357649838 -0.028785234043497022 0 0.035000085516345154 -0.030394884032611546 0 0.034432727361376134 -0.030545044503830856 0 0.034898521922754049 -0.030786611073314572 0 0.034825213717312634 -0.030911867583768873 0 0.034691942799919738 -0.028842075030894081 0 0.034432727361376134 -0.030545044503830856 0 0.034898521922754049 -0.030786611073314572 0 0.035016104120077447 -0.03147913340181574 0 0.034898521922754049 -0.030786611073314572 0 0.034825213717312634 -0.030911867583768873 0 0.035153163447961822 -0.029616985498966374 0 0.03500000441476793 -0.030394708662453956 0 0.034432727361376134 -0.030545044503830856 0 0.034825213717312634 -0.030911867583768873 0 0.034999512522870958 -0.030399222292146259 0 0.034973864331303825 -0.022792649989821973 0 0.035284550885526476 -0.022314107184252051 0 0.034999792917830688 -0.021635339724655579 0 0.035284550885526476 -0.022314107184252051 0 0.036209033766662631 -0.022050657511843229 0 0.034999792917830688 -0.021635339724655579 0 0.034973864331303825 -0.022792649989821973 0 0.035284550885526476 -0.022314107184252051 0 0.036209033766662631 -0.022050657511843229 0 0.034453181962643117 -0.023045260371285823 0 0.035768943176937379 -0.022259095502041061 0 0.033670028421606039 -0.023187561188497106 0 0.03522730800728921 -0.023291858136968695 0 0.035358633120835238 -0.022452389597642213 0 0.03522730800728921 -0.023291858136968695 0 0.035358633120835238 -0.022452389597642213 0 0.036490379816105221 -0.023313035114763299 0 0.03522730800728921 -0.023291858136968695 0 0.035400323031120687 -0.024214739434976207 0 0.036490379816105221 -0.023313035114763299 0 0.033670028421606039 -0.023187561188497106 0 0.03522730800728921 -0.023291858136968695 0 0.035400323031120687 -0.024214739434976207 0 0.034453181962643117 -0.023045260371285823 0 0.035739693969998348 -0.0242031388080996 0 0.034973846048927892 -0.022794011920320507 0 0.036167653175405177 -0.024240358661292538 0 0.03540198778250269 -0.023912766324240692 0 0.034973846048927892 -0.022794011920320507 0 0.03540198778250269 -0.023912766324240692 0 0.034999535633930892 -0.024702734312061297 0 0.03540198778250269 -0.023912766324240692 0 0.034999535633930892 -0.024702734312061297 0 0.035936101248272824 -0.025514929949949208 0 0.034999949844570742 -0.026599714288884312 0 0.034999535633930892 -0.024702734312061297 0 0.035936101248272824 -0.025514929949949208 0 0.036428374682121477 -0.027157132442712978 0 0.035936101248272824 -0.025514929949949208 0 0.036439968145557125 -0.026247665551878921 0 0.036167653175405177 -0.024240358661292538 0 0.03540198778250269 -0.023912766324240692 0 0.035936101248272824 -0.025514929949949208 0 0.036167653175405177 -0.024240358661292538 0 0.035936101248272824 -0.025514929949949208 0 0.036384293883849499 -0.025334618386621249 0 0.035739693969998348 -0.0242031388080996 0 0.037052665687731204 -0.025209728327012685 0 0.035400323031120687 -0.024214739434976207 0 0.037097799529778555 -0.025281757591361535 0 0.03664926006242309 -0.024248078885009631 0 0.036167653175405177 -0.024240358661292538 0 0.036384293883849499 -0.025334618386621249 0 0.037097799529778555 -0.025281757591361535 0 0.035936101248272824 -0.025514929949949208 0 0.036384293883849499 -0.025334618386621249 0 0.036439968145557125 -0.026247665551878921 0 0.036384293883849499 -0.025334618386621249 0 0.036439968145557125 -0.026247665551878921 0 0.037097799529778555 -0.025281757591361535 0 0.036958919002621153 -0.028143085832684944 0 0.036439968145557125 -0.026247665551878921 0 0.037521724933815462 -0.025826362460327604 0 0.036993895269223857 -0.027971450832910139 0 0.037086523462228203 -0.026601593504671374 0 0.037070191993770499 -0.027894320018528682 0 0.036958919002621153 -0.028143085832684944 0 0.036697158994053701 -0.027344152257467846 0 0.036439968145557125 -0.026247665551878921 0 0.037521724933815462 -0.025826362460327604 0 0.037097799529778555 -0.025281757591361535 0 0.036697158994053701 -0.027344152257467846 0 0.036523501565659554 -0.026487537789341712 0 0.037074187455607387 -0.026670374489231517 0 0.037086523462228203 -0.026601593504671374 0 0.037070030742588252 -0.025268663849455222 0 0.037521724933815462 -0.025826362460327604 0 0.037097799529778555 -0.025281757591361535 0 0.037622898938646933 -0.024177860607470254 0 0.037097799529778555 -0.025281757591361535 0 0.037622898938646933 -0.024177860607470254 0 0.03664926006242309 -0.024248078885009631 0 0.035400323031120687 -0.024214739434976207 0 0.03664926006242309 -0.024248078885009631 0 0.036490379816105221 -0.023313035114763299 0 0.037622898938646933 -0.024177860607470254 0 0.03664926006242309 -0.024248078885009631 0 0.036490379816105221 -0.023313035114763299 0 0.035358633120835238 -0.022452389597642213 0 0.036490379816105221 -0.023313035114763299 0 0.036837189071052205 -0.022510675789769174 0 0.037070030742588252 -0.025268663849455222 0 0.037115515978863964 -0.024254943459077371 0 0.036837189071052205 -0.022510675789769174 0 0.03767289406174721 -0.022460846504545495 0 0.037130367562153987 -0.021707151873096478 0 0.037622898938646933 -0.024177860607470254 0 0.036490379816105221 -0.023313035114763299 0 0.03767289406174721 -0.022460846504545495 0 0.036523501565659554 -0.026487537789341712 0 0.036410850014711227 -0.025613767549152535 0 0.036699265595454361 -0.026078582496319849 0 0.036490379816105221 -0.023313035114763299 0 0.036837189071052205 -0.022510675789769174 0 0.03767289406174721 -0.022460846504545495 0 0.036410850014711227 -0.025613767549152535 0 0.036934738929747982 -0.02569865643151056 0 0.036699265595454361 -0.026078582496319849 0 0.036410850014711227 -0.025613767549152535 0 0.036934738929747982 -0.02569865643151056 0 0.036641701785616772 -0.025195905505103786 0 0.019576085645725133 -0.028737792178667284 0 0.019931164783277479 -0.028508314582782978 0 0.01956525645496146 -0.028487126995086719 0 0.019280543375167925 -0.028687039659500209 0 0.019576085645725133 -0.028737792178667284 0 0.019443667987308282 -0.029002228393719316 0 0.019280543375167925 -0.028687039659500209 0 0.019576085645725133 -0.028737792178667284 0 0.01956525645496146 -0.028487126995086719 0 0.019576085645725133 -0.028737792178667284 0 0.019443667987308282 -0.029002228393719316 0 0.019672092104259725 -0.028984729887010872 0 0.019443667987308282 -0.029002228393719316 0 0.019519209973349584 -0.029272556942140846 0 0.019239788773403765 -0.029297992666279395 0 0.019443667987308282 -0.029002228393719316 0 0.019519209973349584 -0.029272556942140846 0 0.019672092104259725 -0.028984729887010872 0 0.036934738929747982 -0.02569865643151056 0 0.037074187455607387 -0.026670374489231517 0 0.036699265595454361 -0.026078582496319849 0 0.019280543375167925 -0.028687039659500209 0 0.019443667987308282 -0.029002228393719316 0 0.019239788773403765 -0.029297992666279395 0 0.027943411794165332 -0.02743710568518197 0 0.028162192667617405 -0.027982760875471996 0 0.036523501565659554 -0.026487537789341712 0 0.037074187455607387 -0.026670374489231517 0 0.036699265595454361 -0.026078582496319849 0 0.019239788773403765 -0.029297992666279395 0 0.019285327112979717 -0.029855648348686828 0 0.019532622877093557 -0.029603986388704876 0 0.028162192667617405 -0.027982760875471996 0 0.028475101364926023 -0.028539255215406515 0 0.036697158994053701 -0.027344152257467846 0 0.037074187455607387 -0.026670374489231517 0 0.03729217127007356 -0.027593320419418976 0 0.037070191993770499 -0.027894320018528682 0 0.036697158994053701 -0.027344152257467846 0 0.03729217127007356 -0.027593320419418976 0 0.019460261986641626 -0.030075953942161369 0 0.019285327112979717 -0.029855648348686828 0 0.019572551695466643 -0.029917853207540417 0 0.019285327112979717 -0.029855648348686828 0 0.019572551695466643 -0.029917853207540417 0 0.019532622877093557 -0.029603986388704876 0 0.019519209973349584 -0.029272556942140846 0 0.019532622877093557 -0.029603986388704876 0 0.019799733181646656 -0.029382059100672389 0 0.019519209973349584 -0.029272556942140846 0 0.019239788773403765 -0.029297992666279395 0 0.019532622877093557 -0.029603986388704876 0 0.019532622877093557 -0.029603986388704876 0 0.019799733181646656 -0.029382059100672389 0 0.019782161881334009 -0.029896733417798926 0 0.019572551695466643 -0.029917853207540417 0 0.019532622877093557 -0.029603986388704876 0 0.019782161881334009 -0.029896733417798926 0 0.020017022829444654 -0.03029118515640819 0 0.019782161881334009 -0.029896733417798926 0 0.020119101508995322 -0.02974623538696795 0 0.019799733181646656 -0.029382059100672389 0 0.020055126859144762 -0.029153941169380571 0 0.020119101508995322 -0.02974623538696795 0 0.019799733181646656 -0.029382059100672389 0 0.019782161881334009 -0.029896733417798926 0 0.020119101508995322 -0.02974623538696795 0 0.019799733181646656 -0.029382059100672389 0 0.020055126859144762 -0.029153941169380571 0 0.019960665500890287 -0.028856538453943842 0 0.019519209973349584 -0.029272556942140846 0 0.019799733181646656 -0.029382059100672389 0 0.019672092104259725 -0.028984729887010872 0 0.019799733181646656 -0.029382059100672389 0 0.019672092104259725 -0.028984729887010872 0 0.019960665500890287 -0.028856538453943842 0 0.019672092104259725 -0.028984729887010872 0 0.019960665500890287 -0.028856538453943842 0 0.019931164783277479 -0.028508314582782978 0 0.019576085645725133 -0.028737792178667284 0 0.019672092104259725 -0.028984729887010872 0 0.019931164783277479 -0.028508314582782978 0 0.019960665500890287 -0.028856538453943842 0 0.020115784922850394 -0.028471724423449113 0 0.019931164783277479 -0.028508314582782978 0 0.020055126859144762 -0.029153941169380571 0 0.019960665500890287 -0.028856538453943842 0 0.020185177503889432 -0.028626958164035446 0 0.019960665500890287 -0.028856538453943842 0 0.020115784922850394 -0.028471724423449113 0 0.020185177503889432 -0.028626958164035446 0 0.020115784922850394 -0.028471724423449113 0 0.020189982729148282 -0.028229439149118095 0 0.020474821350974278 -0.028164960324547215 0 0.020115784922850394 -0.028471724423449113 0 0.019931164783277479 -0.028508314582782978 0 0.020189982729148282 -0.028229439149118095 0 0.019128403577407964 -0.029517935979541023 0 0.023232056384578006 -0.024156991962035607 0 0.019931164783277479 -0.028508314582782978 0 0.020020092143008875 -0.028213766141366396 0 0.020189982729148282 -0.028229439149118095 0 0.019931164783277479 -0.028508314582782978 0 0.020020092143008875 -0.028213766141366396 0 0.019933062676928952 -0.028189005797535794 0 0.028373968184801361 -0.0184195153501444 0 0.026665955266100761 -0.019639034451088371 0 0.034129833071009252 -0.011171094832625397 0 0.033985303712851599 -0.011434341193077463 0 0.033535874430950428 -0.010986264633086086 0 0.034129833071009252 -0.011171094832625397 0 0.034246969743406144 -0.011174165680761728 0 0.033535874430950428 -0.010986264633086086 0 0.030616504391309193 -0.017516446635298031 0 0.028373968184801361 -0.0184195153501444 0 0.034271647959966386 -0.011392518292158425 0 0.034321935574343695 -0.01163864182650713 0 0.034621484614306225 -0.011496788043584482 0 0.034303100104883986 -0.011169335407694009 0 0.034271647959966386 -0.011392518292158425 0 0.034621484614306225 -0.011496788043584482 0 0.034129833071009252 -0.011171094832625397 0 0.034303100104883986 -0.011169335407694009 0 0.034271647959966386 -0.011392518292158425 0 0.034271647959966386 -0.011392518292158425 0 0.033985303712851599 -0.011434341193077463 0 0.034321935574343695 -0.01163864182650713 0 0.034129833071009252 -0.011171094832625397 0 0.034271647959966386 -0.011392518292158425 0 0.033985303712851599 -0.011434341193077463 0 0.033985303712851599 -0.011434341193077463 0 0.033535874430950428 -0.010986264633086086 0 0.033696174839442712 -0.011680387412294834 0 0.033535874430950428 -0.010986264633086086 0 0.033696174839442712 -0.011680387412294834 0 0.032965772844585309 -0.011417500837300604 0 0.033985303712851599 -0.011434341193077463 0 0.033696174839442712 -0.011680387412294834 0 0.034131903770921269 -0.011852203941144716 0 0.033696174839442712 -0.011680387412294834 0 0.033985039263805521 -0.012174722247050487 0 0.034131903770921269 -0.011852203941144716 0 0.033696174839442712 -0.011680387412294834 0 0.033985039263805521 -0.012174722247050487 0 0.033446846491418401 -0.012112363185836807 0 0.033985039263805521 -0.012174722247050487 0 0.033446846491418401 -0.012112363185836807 0 0.03389625751400864 -0.012690076036455994 0 0.033985039263805521 -0.012174722247050487 0 0.034339926871405711 -0.012528645405302123 0 0.03389625751400864 -0.012690076036455994 0 0.034339926871405711 -0.012528645405302123 0 0.034799262893252421 -0.012307749780340436 0 0.034698182762805105 -0.012817130224149053 0 0.034339926871405711 -0.012528645405302123 0 0.034378370075685533 -0.012150278937768955 0 0.034799262893252421 -0.012307749780340436 0 0.033985039263805521 -0.012174722247050487 0 0.034339926871405711 -0.012528645405302123 0 0.034378370075685533 -0.012150278937768955 0 0.033985039263805521 -0.012174722247050487 0 0.034378370075685533 -0.012150278937768955 0 0.034131903770921269 -0.011852203941144716 0 0.034378370075685533 -0.012150278937768955 0 0.03451791917938455 -0.011892353096298092 0 0.034799262893252421 -0.012307749780340436 0 0.03451791917938455 -0.011892353096298092 0 0.034131903770921269 -0.011852203941144716 0 0.034321935574343695 -0.01163864182650713 0 0.034378370075685533 -0.012150278937768955 0 0.03451791917938455 -0.011892353096298092 0 0.034131903770921269 -0.011852203941144716 0 0.033985303712851599 -0.011434341193077463 0 0.034131903770921269 -0.011852203941144716 0 0.034321935574343695 -0.01163864182650713 0 0.03451791917938455 -0.011892353096298092 0 0.034321935574343695 -0.01163864182650713 0 0.034621484614306225 -0.011496788043584482 0 0.03451791917938455 -0.011892353096298092 0 0.034851604264025657 -0.011864505067202404 0 0.034621484614306225 -0.011496788043584482 0 0.035012087048931592 -0.01165892362691661 0 0.034851604264025657 -0.011864505067202404 0 0.034621484614306225 -0.011496788043584482 0 0.035079179666329521 -0.012049466909482442 0 0.034851604264025657 -0.011864505067202404 0 0.034799262893252421 -0.012307749780340436 0 0.035012087048931592 -0.01165892362691661 0 0.035079179666329521 -0.012049466909482442 0 0.034851604264025657 -0.011864505067202404 0 0.03451791917938455 -0.011892353096298092 0 0.034851604264025657 -0.011864505067202404 0 0.034799262893252421 -0.012307749780340436 0 0.034799262893252421 -0.012307749780340436 0 0.035329969645211526 -0.012365793298195885 0 0.035035944178358251 -0.012716793362052612 0 0.035079179666329521 -0.012049466909482442 0 0.034799262893252421 -0.012307749780340436 0 0.035329969645211526 -0.012365793298195885 0 0.035604706622289206 -0.013715041683955277 0 0.035479465630695713 -0.013833100064656403 0 0.035493652586276549 -0.013601147553745004 0 0.035604706622289206 -0.013715041683955277 0 0.035479465630695713 -0.013833100064656403 0 0.035517210964779021 -0.013989423784864837 0 0.035576841023840337 -0.012489770166997113 0 0.033741627714351734 -0.015676106849162548 0 0.035517210964779021 -0.013989423784864837 0 0.035447289111516525 -0.014033631144984241 0 0.035605749241954136 -0.014189059780494652 0 0.035604706622289206 -0.013715041683955277 0 0.035517210964779021 -0.013989423784864837 0 0.035605749241954136 -0.014189059780494652 0 0.035079179666329521 -0.012049466909482442 0 0.035329969645211526 -0.012365793298195885 0 0.035315897413649024 -0.011681992695404068 0 0.035479465630695713 -0.013833100064656403 0 0.035517210964779021 -0.013989423784864837 0 0.03545825008705427 -0.014024959217085121 0 0.035485130517917275 -0.015906666788801999 0 0.035087205863154995 -0.016391226671933559 0 0.035012087048931592 -0.01165892362691661 0 0.035079179666329521 -0.012049466909482442 0 0.035315897413649024 -0.011681992695404068 0 0.033157330669156826 -0.01915235901074187 0 0.033776864733532794 -0.019769410934822089 0 0.033183105020854836 -0.01980368406483602 0 0.035087205863154995 -0.016391226671933559 0 0.033741627714351734 -0.015676106849162548 0 0.033776864733532794 -0.019769410934822089 0 0.033183105020854836 -0.01980368406483602 0 0.033770655196865763 -0.020397261655950072 0 0.031727214838371209 -0.020578357701321822 0 0.03326061246104111 -0.020418264891860136 0 0.033183105020854836 -0.01980368406483602 0 0.033770655196865763 -0.020397261655950072 0 0.032627059643431405 -0.020182767405596089 0 0.033162109882316486 -0.020700572775389694 0 0.033733519663885284 -0.020459247481506845 0 0.032627059643431405 -0.020182767405596089 0 0.033162109882316486 -0.020700572775389694 0 0.033730389451987586 -0.021051034893320643 0 0.033733519663885284 -0.020459247481506845 0 0.033162109882316486 -0.020700572775389694 0 0.033730389451987586 -0.021051034893320643 0 0.03254872382775334 -0.021108049300554713 0 0.02964439944587785 -0.025331244514330005 0 0.036055296477060135 -0.021854516438593281 0 0.036859996837537837 -0.024729018649640663 0 0.036641701785616772 -0.025195905505103786 0 0.036360855269861186 -0.024744465095444219 0 0.02964439944587785 -0.025331244514330005 0 0.023232056384578006 -0.024156991962035607 0 0.019371275970695351 -0.028135691404252133 0 0.019603440326193849 -0.028135882590587729 0 0.019458141992313722 -0.028358172975990296 0 0.032269329549028107 -0.018617240480189326 0 0.032264754283513733 -0.018166909438986228 0 0.031653086301116795 -0.018046683071575764 0 0.031727214838371209 -0.020578357701321822 0 0.029929132943120405 -0.019038467230149493 0 0.030126090330479555 -0.02223253842676335 0 0.030124711239936777 -0.023994892543283207 0 0.027704688372396768 -0.023497213276056538 0 0.033741627714351734 -0.015676106849162548 0 0.029929132943120405 -0.019038467230149493 0 0.035012087048931592 -0.01165892362691661 0 0.035315897413649024 -0.011681992695404068 0 0.034986080459135073 -0.011350551694265463 0 0.02964439944587785 -0.025331244514330005 0 0.031727214838371209 -0.020578357701321822 0 0.033741627714351734 -0.015676106849162548 0 0.031727214838371209 -0.020578357701321822 0 0.034303100104883986 -0.011169335407694009 0 0.034986080459135073 -0.011350551694265463 0 0.034621484614306225 -0.011496788043584482 0 0.035012087048931592 -0.01165892362691661 0 0.034986080459135073 -0.011350551694265463 0 0.034621484614306225 -0.011496788043584482 0 0.028373968184801361 -0.0184195153501444 0 0.029929132943120405 -0.019038467230149493 0 0.027548048350237928 -0.019529805089461755 0 0.027544383688857983 -0.019556349557410119 0 0.027541922358353406 -0.019551516650377566 0 0.028373968184801361 -0.0184195153501444 0 0.023232056384578006 -0.024156991962035607 0 0.030126090330479555 -0.02223253842676335 0 0.027704688372396768 -0.023497213276056538 0 0.026567076462276594 -0.022402926567565845 0 0.029929132943120405 -0.019038467230149493 0 0.023232056384578006 -0.024156991962035607 0 0.019603440326193849 -0.028135882590587729 0 0.01956525645496146 -0.028487126995086719 0 0.019458141992313722 -0.028358172975990296 0 0.019931164783277479 -0.028508314582782978 0 0.019603440326193849 -0.028135882590587729 0 0.01956525645496146 -0.028487126995086719 0 0.027943411794165332 -0.02743710568518197 0 0.02964439944587785 -0.025331244514330005 0 0.019280543375167925 -0.028687039659500209 0 0.019371275970695351 -0.028135691404252133 0 0.019458141992313722 -0.028358172975990296 0 0.036934738929747982 -0.02569865643151056 0 0.036859996837537837 -0.024729018649640663 0 0.036641701785616772 -0.025195905505103786 0 0.019280543375167925 -0.028687039659500209 0 0.01956525645496146 -0.028487126995086719 0 0.019458141992313722 -0.028358172975990296 0 0.03767289406174721 -0.022460846504545495 0 0.037130367562153987 -0.021707151873096478 0 0.0376105086320173 -0.02102934733771232 0 0.036410850014711227 -0.025613767549152535 0 0.036641701785616772 -0.025195905505103786 0 0.036360855269861186 -0.024744465095444219 0 0.037130367562153987 -0.021707151873096478 0 0.036801364551365415 -0.021162850942033681 0 0.0376105086320173 -0.02102934733771232 0 0.037115515978863964 -0.024254943459077371 0 0.036055296477060135 -0.021854516438593281 0 0.035358633120835238 -0.022452389597642213 0 0.036837189071052205 -0.022510675789769174 0 0.037130367562153987 -0.021707151873096478 0 0.035768943176937379 -0.022259095502041061 0 0.03706650326312623 -0.02172824196304755 0 0.036209033766662631 -0.022050657511843229 0 0.037130367562153987 -0.021707151873096478 0 0.036801364551365415 -0.021162850942033681 0 0.036526474161607633 -0.020390729275565071 0 0.036526109761667119 -0.020382542728407071 0 0.036518874361182993 -0.020394797541320803 0 0.036829261995256851 -0.020776733382926016 0 0.036412017701368489 -0.020709066213263599 0 0.037380925583486546 -0.02006236490972586 0 0.036412017701368489 -0.020709066213263599 0 0.036526474161607633 -0.020390729275565071 0 0.036526109761667119 -0.020382542728407071 0 0.036533995959224207 -0.020392365010097658 0 0.03254872382775334 -0.021108049300554713 0 0.032627059643431405 -0.020182767405596089 0 0.032574481836550914 -0.019508720557182297 0 0.036055296477060135 -0.021854516438593281 0 0.035917074433308396 -0.018931491338918433 0 0.036526109761667119 -0.020382542728407071 0 0.036533995959224207 -0.020392365010097658 0 0.036533702720817005 -0.020366261297184503 0 0.036829261995256851 -0.020776733382926016 0 0.036055296477060135 -0.021854516438593281 0 0.033162109882316486 -0.020700572775389694 0 0.03254872382775334 -0.021108049300554713 0 0.032627059643431405 -0.020182767405596089 0 0.033183105020854836 -0.01980368406483602 0 0.032627059643431405 -0.020182767405596089 0 0.032574481836550914 -0.019508720557182297 0 0.037380925583486546 -0.02006236490972586 0 0.035917074433308396 -0.018931491338918433 0 0.033157330669156826 -0.01915235901074187 0 0.033183105020854836 -0.01980368406483602 0 0.032574481836550914 -0.019508720557182297 0 0.038946881573729795 -0.019197939110804463 0 0.03896819060103214 -0.018438113287784774 0 0.037854071189166796 -0.018760584468656277 0 0.035917074433308396 -0.018931491338918433 0 0.036438128988759436 -0.016083036376554605 0 0.036375676150458079 -0.017123335631837017 0 0.035897783166721736 -0.017413459959409176 0 0.035909775453339711 -0.016664289044358852 0 0.035479465630695713 -0.013833100064656403 0 0.03545825008705427 -0.014024959217085121 0 0.03533918841011878 -0.013877415421625022 0 0.035087205863154995 -0.016391226671933559 0 0.035917074433308396 -0.018931491338918433 0 0.035087205863154995 -0.016391226671933559 0 0.036438128988759436 -0.016083036376554605 0 0.036438128988759436 -0.016083036376554605 0 0.035641290562153184 -0.013757067212275782 0 0.035479465630695713 -0.013833100064656403 0 0.03533918841011878 -0.013877415421625022 0 0.035493652586276549 -0.013601147553745004 0 0.036438128988759436 -0.016083036376554605 0 0.036916278098040538 -0.016204780475394899 0 0.03896819060103214 -0.018438113287784774 0 0.037854071189166796 -0.018760584468656277 0 0.037635713732240665 -0.017047981186044132 0 0.037854071189166796 -0.018760584468656277 0 0.03617089006372505 -0.017738588774551738 0 0.037635713732240665 -0.017047981186044132 0 0.037758167327236997 -0.019912376679556972 0 0.037854071189166796 -0.018760584468656277 0 0.036528159306243028 -0.019203556934318529 0 0.037758167327236997 -0.019912376679556972 0 0.038946881573729795 -0.019197939110804463 0 0.037854071189166796 -0.018760584468656277 0 0.037854071189166796 -0.018760584468656277 0 0.036528159306243028 -0.019203556934318529 0 0.03617089006372505 -0.017738588774551738 0 0.03617089006372505 -0.017738588774551738 0 0.034999989465183359 -0.018894554098548018 0 0.03499955404024347 -0.017075604128973153 0 0.036528159306243028 -0.019203556934318529 0 0.03617089006372505 -0.017738588774551738 0 0.034999989465183359 -0.018894554098548018 0 0.036528159306243028 -0.019203556934318529 0 0.034999989465183359 -0.018894554098548018 0 0.035776692362102701 -0.019876678470642468 0 0.035000639615090819 -0.020712774608007665 0 0.036412017701368489 -0.020709066213263599 0 0.035776692362102701 -0.019876678470642468 0 0.034999926948511596 -0.020712697276296568 0 0.036601779444348795 -0.020594066198524982 0 0.034999989465183359 -0.018894554098548018 0 0.035776692362102701 -0.019876678470642468 0 0.034999926948511596 -0.020712697276296568 0 0.036528159306243028 -0.019203556934318529 0 0.035776692362102701 -0.019876678470642468 0 0.036601779444348795 -0.020594066198524982 0 0.037758167327236997 -0.019912376679556972 0 0.036528159306243028 -0.019203556934318529 0 0.036601779444348795 -0.020594066198524982 0 0.036209033766662631 -0.022050657511843229 0 0.03616451098956866 -0.021145362547837936 0 0.034999792917830688 -0.021635339724655579 0 0.036209033766662631 -0.022050657511843229 0 0.036801364551365415 -0.021162850942033681 0 0.03616451098956866 -0.021145362547837936 0 0.034999990830723762 -0.020712875966927606 0 0.036665128384839686 -0.020633181804268343 0 0.0350000024904061 -0.021634391543598253 0 0.036412017701368489 -0.020709066213263599 0 0.035000136040230924 -0.021634478620870062 0 0.022733382477911426 -0.028972686478511298 0 0.022219876675481139 -0.029121613343732079 0 0.022641913062151624 -0.030070654847437484 0 0.022219876675481139 -0.029121613343732079 0 0.021314534613145357 -0.028091451315497513 0 0.022709739780909871 -0.027664872753085639 0 0.022733382477911426 -0.028972686478511298 0 0.022219876675481139 -0.029121613343732079 0 0.022709739780909871 -0.027664872753085639 0 0.022733382477911426 -0.028972686478511298 0 0.022709739780909871 -0.027664872753085639 0 0.022884193269511841 -0.027636927357827266 0 0.022733382477911426 -0.028972686478511298 0 0.023091903511149127 -0.029077243482151224 0 0.022884193269511841 -0.027636927357827266 0 0.024565983045302633 -0.026845598819513657 0 0.023091903511149127 -0.029077243482151224 0 0.022884193269511841 -0.027636927357827266 0 0.023472705768349134 -0.030271323579523807 0 0.023091903511149127 -0.029077243482151224 0 0.022921605283816662 -0.030215104896561394 0 0.022733382477911426 -0.028972686478511298 0 0.023091903511149127 -0.029077243482151224 0 0.022921605283816662 -0.030215104896561394 0 0.022733382477911426 -0.028972686478511298 0 0.022921605283816662 -0.030215104896561394 0 0.022641913062151624 -0.030070654847437484 0 0.022921605283816662 -0.030215104896561394 0 0.022900391316703024 -0.030807310428546855 0 0.022641913062151624 -0.030070654847437484 0 0.022832915578632408 -0.032073937072207022 0 0.022921605283816662 -0.030215104896561394 0 0.022900391316703024 -0.030807310428546855 0 0.023472705768349134 -0.030271323579523807 0 0.022832915578632408 -0.032073937072207022 0 0.022921605283816662 -0.030215104896561394 0 0.022832915578632408 -0.032073937072207022 0 0.022061305196135594 -0.033980926976925493 0 0.021618000027050697 -0.033684907913267788 0 0.022832915578632408 -0.032073937072207022 0 0.022900391316703024 -0.030807310428546855 0 0.022952636484559818 -0.030986146574702389 0 0.022879471045619593 -0.032036019604017182 0 0.022377173211746731 -0.032333513037817806 0 0.022900391316703024 -0.030807310428546855 0 0.022952636484559818 -0.030986146574702389 0 0.022827445030673701 -0.030797192389100617 0 0.022952636484559818 -0.030986146574702389 0 0.022849949786108853 -0.031015196814328357 0 0.022827445030673701 -0.030797192389100617 0 0.02284859413179896 -0.031239964053578626 0 0.022952636484559818 -0.030986146574702389 0 0.022849949786108853 -0.031015196814328357 0 0.022849949786108853 -0.031015196814328357 0 0.022742100128628533 -0.031030804359666077 0 0.022827445030673701 -0.030797192389100617 0 0.02284859413179896 -0.031239964053578626 0 0.022849949786108853 -0.031015196814328357 0 0.022742100128628533 -0.031030804359666077 0 0.022742100128628533 -0.031030804359666077 0 0.022827445030673701 -0.030797192389100617 0 0.02263174005667774 -0.030653852897365778 0 0.022900391316703024 -0.030807310428546855 0 0.022827445030673701 -0.030797192389100617 0 0.022641913062151624 -0.030070654847437484 0 0.022827445030673701 -0.030797192389100617 0 0.022641913062151624 -0.030070654847437484 0 0.02263174005667774 -0.030653852897365778 0 0.022219876675481139 -0.029121613343732079 0 0.022359271537896741 -0.030389623286361616 0 0.021773636082035992 -0.029607372619159172 0 0.022219876675481139 -0.029121613343732079 0 0.022641913062151624 -0.030070654847437484 0 0.022359271537896741 -0.030389623286361616 0 0.022641913062151624 -0.030070654847437484 0 0.022359271537896741 -0.030389623286361616 0 0.02263174005667774 -0.030653852897365778 0 0.022359271537896741 -0.030389623286361616 0 0.02263174005667774 -0.030653852897365778 0 0.022565800443752611 -0.031148707375772997 0 0.022732707588647476 -0.031347317148105354 0 0.022742100128628533 -0.031030804359666077 0 0.022565800443752611 -0.031148707375772997 0 0.022742100128628533 -0.031030804359666077 0 0.02263174005667774 -0.030653852897365778 0 0.022565800443752611 -0.031148707375772997 0 0.022359271537896741 -0.030389623286361616 0 0.022565800443752611 -0.031148707375772997 0 0.022015093860119867 -0.031182276952550273 0 0.022359271537896741 -0.030389623286361616 0 0.022015093860119867 -0.031182276952550273 0 0.021414518539204168 -0.030004692027591359 0 0.022540312134085163 -0.031630172967511666 0 0.022565800443752611 -0.031148707375772997 0 0.022015093860119867 -0.031182276952550273 0 0.022015093860119867 -0.031182276952550273 0 0.021414518539204168 -0.030004692027591359 0 0.020620627078033502 -0.029948842381805119 0 0.020562546801818016 -0.030601661784002174 0 0.022015093860119867 -0.031182276952550273 0 0.020620627078033502 -0.029948842381805119 0 0.021590846844378273 -0.031381286223003152 0 0.022141259782099788 -0.031181723171635922 0 0.021414518539204168 -0.030004692027591359 0 0.020620627078033502 -0.029948842381805119 0 0.020690775016306541 -0.029297117149580065 0 0.022359271537896741 -0.030389623286361616 0 0.021414518539204168 -0.030004692027591359 0 0.021773636082035992 -0.029607372619159172 0 0.020562546801818016 -0.030601661784002174 0 0.020017022829444654 -0.03029118515640819 0 0.020119101508995322 -0.02974623538696795 0 0.020562546801818016 -0.030601661784002174 0 0.020620627078033502 -0.029948842381805119 0 0.020119101508995322 -0.02974623538696795 0 0.020620627078033502 -0.029948842381805119 0 0.020267930520940523 -0.02907411362938709 0 0.020690775016306541 -0.029297117149580065 0 0.020620627078033502 -0.029948842381805119 0 0.020119101508995322 -0.02974623538696795 0 0.020267930520940523 -0.02907411362938709 0 0.020055126859144762 -0.029153941169380571 0 0.020119101508995322 -0.02974623538696795 0 0.020267930520940523 -0.02907411362938709 0 0.020055126859144762 -0.029153941169380571 0 0.020267930520940523 -0.02907411362938709 0 0.020185177503889432 -0.028626958164035446 0 0.020267930520940523 -0.02907411362938709 0 0.020690775016306541 -0.029297117149580065 0 0.02051186184400397 -0.028660139896233876 0 0.020267930520940523 -0.02907411362938709 0 0.02051186184400397 -0.028660139896233876 0 0.020269645821496672 -0.028450174149012419 0 0.020269645821496672 -0.028450174149012419 0 0.020185177503889432 -0.028626958164035446 0 0.020182070069328678 -0.027838655413201047 0 0.02051186184400397 -0.028660139896233876 0 0.020269645821496672 -0.028450174149012419 0 0.020388697699530986 -0.028111522550881441 0 0.020269645821496672 -0.028450174149012419 0 0.020388697699530986 -0.028111522550881441 0 0.020182070069328678 -0.027838655413201047 0 0.020267930520940523 -0.02907411362938709 0 0.020269645821496672 -0.028450174149012419 0 0.020185177503889432 -0.028626958164035446 0 0.021414518539204168 -0.030004692027591359 0 0.021773636082035992 -0.029607372619159172 0 0.02110956651422188 -0.028903942218834012 0 0.022219876675481139 -0.029121613343732079 0 0.021773636082035992 -0.029607372619159172 0 0.02110956651422188 -0.028903942218834012 0 0.022219876675481139 -0.029121613343732079 0 0.02110956651422188 -0.028903942218834012 0 0.021314534613145357 -0.028091451315497513 0 0.021414518539204168 -0.030004692027591359 0 0.020690775016306541 -0.029297117149580065 0 0.02110956651422188 -0.028903942218834012 0 0.020690775016306541 -0.029297117149580065 0 0.02051186184400397 -0.028660139896233876 0 0.02110956651422188 -0.028903942218834012 0 0.02051186184400397 -0.028660139896233876 0 0.02110956651422188 -0.028903942218834012 0 0.0207920562187753 -0.028337845254426779 0 0.02110956651422188 -0.028903942218834012 0 0.0207920562187753 -0.028337845254426779 0 0.021314534613145357 -0.028091451315497513 0 0.02051186184400397 -0.028660139896233876 0 0.0207920562187753 -0.028337845254426779 0 0.020388697699530986 -0.028111522550881441 0 0.0207920562187753 -0.028337845254426779 0 0.020388697699530986 -0.028111522550881441 0 0.020553950293040992 -0.027695768410141569 0 0.020388697699530986 -0.028111522550881441 0 0.020285756516035407 -0.027784644622466232 0 0.020182070069328678 -0.027838655413201047 0 0.020388697699530986 -0.028111522550881441 0 0.020553950293040992 -0.027695768410141569 0 0.020285756516035407 -0.027784644622466232 0 0.0207920562187753 -0.028337845254426779 0 0.020553950293040992 -0.027695768410141569 0 0.021314534613145357 -0.028091451315497513 0 0.020553950293040992 -0.027695768410141569 0 0.021314534613145357 -0.028091451315497513 0 0.021062938320442086 -0.026726935707973451 0 0.021314534613145357 -0.028091451315497513 0 0.021062938320442086 -0.026726935707973451 0 0.022709739780909871 -0.027664872753085639 0 0.021062938320442086 -0.026726935707973451 0 0.021093502236130535 -0.024578258357072946 0 0.023579058532158605 -0.024402949321732526 0 0.021062938320442086 -0.026726935707973451 0 0.020116643357008027 -0.027224284971761104 0 0.021093502236130535 -0.024578258357072946 0 0.020553950293040992 -0.027695768410141569 0 0.021062938320442086 -0.026726935707973451 0 0.020023076044346676 -0.027434169813531813 0 0.024325761058632021 -0.022235684681588225 0 0.02312801140859393 -0.022113818293836199 0 0.021062938320442086 -0.026726935707973451 0 0.020023076044346676 -0.027434169813531813 0 0.020116643357008027 -0.027224284971761104 0 0.020553950293040992 -0.027695768410141569 0 0.020285756516035407 -0.027784644622466232 0 0.020023076044346676 -0.027434169813531813 0 0.020285756516035407 -0.027784644622466232 0 0.020023076044346676 -0.027434169813531813 0 0.020182070069328678 -0.027838655413201047 0 0.022446894673941245 -0.024989850224837799 0 0.024325761058632021 -0.022235684681588225 0 0.026382743340625393 -0.02216327980060611 0 0.025878812189458596 -0.023177496263045615 0 0.02501984139315911 -0.022839278202112141 0 0.022446894673941245 -0.024989850224837799 0 0.026269732857400682 -0.02025707085030265 0 0.026269732857400682 -0.02025707085030265 0 0.024325761058632021 -0.022235684681588225 0 0.025373588623992156 -0.019181139410137146 0 0.025435843837846528 -0.019367714473748087 0 0.025247583061011946 -0.019131874783461084 0 0.026269732857400682 -0.02025707085030265 0 0.028870592965599965 -0.014072223439409422 0 0.025383399762016534 -0.019168870402883974 0 0.025373588623992156 -0.019181139410137146 0 0.025247583061011946 -0.019131874783461084 0 0.031954519329114917 -0.010813743901345084 0 0.032240087412182247 -0.011325017765723961 0 0.031394312794942411 -0.011470464655981229 0 0.020115784922850394 -0.028471724423449113 0 0.020185177503889432 -0.028626958164035446 0 0.020474821350974278 -0.028164960324547215 0 0.026665955266100761 -0.019639034451088371 0 0.026685780783384794 -0.019483162835274483 0 0.021010555292740426 -0.02828006199545436 0 0.021047237555261191 -0.028208001240309179 0 0.020474821350974278 -0.028164960324547215 0 0.020185177503889432 -0.028626958164035446 0 0.020172241271342265 -0.02770391615393971 0 0.020182070069328678 -0.027838655413201047 0 0.031954519329114917 -0.010813743901345084 0 0.032747012359230963 -0.010829005024267029 0 0.032460888044052096 -0.011080341589719852 0 0.020185177503889432 -0.028626958164035446 0 0.021010555292740426 -0.02828006199545436 0 0.020474821350974278 -0.028164960324547215 0 0.01928695194865335 -0.029607237489011298 0 0.022446894673941245 -0.024989850224837799 0 0.026269732857400682 -0.02025707085030265 0 0.026685780783384794 -0.019483162835274483 0 0.022446894673941245 -0.024989850224837799 0 0.021472717672158508 -0.026601585481521986 0 0.032460888044052096 -0.011080341589719852 0 0.032240087412182247 -0.011325017765723961 0 0.032965772844585309 -0.011417500837300604 0 0.031954519329114917 -0.010813743901345084 0 0.032460888044052096 -0.011080341589719852 0 0.032240087412182247 -0.011325017765723961 0 0.033535874430950428 -0.010986264633086086 0 0.032747012359230963 -0.010829005024267029 0 0.032965772844585309 -0.011417500837300604 0 0.032747012359230963 -0.010829005024267029 0 0.032460888044052096 -0.011080341589719852 0 0.032965772844585309 -0.011417500837300604 0 0.033696174839442712 -0.011680387412294834 0 0.032965772844585309 -0.011417500837300604 0 0.033446846491418401 -0.012112363185836807 0 0.032965772844585309 -0.011417500837300604 0 0.032741107972744071 -0.012028144467842831 0 0.033446846491418401 -0.012112363185836807 0 0.032240087412182247 -0.011325017765723961 0 0.032106202029207151 -0.011815743521497765 0 0.032741107972744071 -0.012028144467842831 0 0.032240087412182247 -0.011325017765723961 0 0.032965772844585309 -0.011417500837300604 0 0.032741107972744071 -0.012028144467842831 0 0.032741107972744071 -0.012028144467842831 0 0.032035198280565481 -0.012472329703124774 0 0.033227637335868469 -0.012672531973250812 0 0.032106202029207151 -0.011815743521497765 0 0.032741107972744071 -0.012028144467842831 0 0.032035198280565481 -0.012472329703124774 0 0.032741107972744071 -0.012028144467842831 0 0.033446846491418401 -0.012112363185836807 0 0.033227637335868469 -0.012672531973250812 0 0.033446846491418401 -0.012112363185836807 0 0.033227637335868469 -0.012672531973250812 0 0.03389625751400864 -0.012690076036455994 0 0.025247583061011946 -0.019131874783461084 0 0.025761598779199438 -0.017731011917365674 0 0.025666986356721915 -0.019133802124839807 0 0.025435843837846528 -0.019367714473748087 0 0.025247583061011946 -0.019131874783461084 0 0.025666986356721915 -0.019133802124839807 0 0.032106202029207151 -0.011815743521497765 0 0.031394312794942411 -0.011470464655981229 0 0.032035198280565481 -0.012472329703124774 0 0.032240087412182247 -0.011325017765723961 0 0.032106202029207151 -0.011815743521497765 0 0.031394312794942411 -0.011470464655981229 0 0.031394312794942411 -0.011470464655981229 0 0.032035198280565481 -0.012472329703124774 0 0.030183877545804962 -0.012382399466536553 0 0.028870592965599965 -0.014072223439409422 0 0.02785809567309986 -0.015431339620929551 0 0.025761598779199438 -0.017731011917365674 0 0.026651460891568259 -0.018020821156000937 0 0.02607958961615426 -0.018889916821069299 0 0.025761598779199438 -0.017731011917365674 0 0.025666986356721915 -0.019133802124839807 0 0.02607958961615426 -0.018889916821069299 0 0.026651460891568259 -0.018020821156000937 0 0.027488860110416288 -0.017769675161087992 0 0.027295627201839263 -0.017109312300809244 0 0.026651460891568259 -0.018020821156000937 0 0.0264858836727433 -0.019078315817617618 0 0.027488860110416288 -0.017769675161087992 0 0.0264858836727433 -0.019078315817617618 0 0.0269259838665429 -0.021877883722504588 0 0.027488860110416288 -0.017769675161087992 0 0.0264858836727433 -0.019078315817617618 0 0.026088905594419065 -0.020205821214384766 0 0.0269259838665429 -0.021877883722504588 0 0.026651460891568259 -0.018020821156000937 0 0.0264858836727433 -0.019078315817617618 0 0.02607958961615426 -0.018889916821069299 0 0.0264858836727433 -0.019078315817617618 0 0.026088905594419065 -0.020205821214384766 0 0.02607958961615426 -0.018889916821069299 0 0.026088905594419065 -0.020205821214384766 0 0.025666986356721915 -0.019133802124839807 0 0.02607958961615426 -0.018889916821069299 0 0.02312801140859393 -0.022113818293836199 0 0.026197847035180251 -0.020184047142033142 0 0.025435843837846528 -0.019367714473748087 0 0.026088905594419065 -0.020205821214384766 0 0.025666986356721915 -0.019133802124839807 0 0.021093502236130535 -0.024578258357072946 0 0.026088905594419065 -0.020205821214384766 0 0.023579058532158605 -0.024402949321732526 0 0.026088905594419065 -0.020205821214384766 0 0.023579058532158605 -0.024402949321732526 0 0.0269259838665429 -0.021877883722504588 0 0.024350735964675178 -0.02376715822628267 0 0.022856345427460911 -0.027334866415318029 0 0.023579058532158605 -0.024402949321732526 0 0.0269259838665429 -0.021877883722504588 0 0.022709739780909871 -0.027664872753085639 0 0.021926282225127807 -0.025717659620553283 0 0.022709739780909871 -0.027664872753085639 0 0.02269058123454255 -0.02645311679699924 0 0.022709739780909871 -0.027664872753085639 0 0.022884193269511841 -0.027636927357827266 0 0.02269058123454255 -0.02645311679699924 0 0.021062938320442086 -0.026726935707973451 0 0.023579058532158605 -0.024402949321732526 0 0.022709739780909871 -0.027664872753085639 0 0.024565983045302633 -0.026845598819513657 0 0.024534064873322253 -0.025439704938737259 0 0.022884193269511841 -0.027636927357827266 0 0.024534064873322253 -0.025439704938737259 0 0.022884193269511841 -0.027636927357827266 0 0.02349435919069805 -0.025507704450269442 0 0.022884193269511841 -0.027636927357827266 0 0.02269058123454255 -0.02645311679699924 0 0.02349435919069805 -0.025507704450269442 0 0.02269058123454255 -0.02645311679699924 0 0.022900146546004099 -0.024863083121758171 0 0.02349435919069805 -0.025507704450269442 0 0.021926282225127807 -0.025717659620553283 0 0.02269058123454255 -0.02645311679699924 0 0.022900146546004099 -0.024863083121758171 0 0.024534064873322253 -0.025439704938737259 0 0.02349435919069805 -0.025507704450269442 0 0.024085704609122877 -0.024009962520932054 0 0.022900146546004099 -0.024863083121758171 0 0.02349435919069805 -0.025507704450269442 0 0.024085704609122877 -0.024009962520932054 0 0.02524716954747391 -0.023760864837462394 0 0.024085704609122877 -0.024009962520932054 0 0.025073678723306722 -0.021669298152385452 0 0.024350735964675178 -0.02376715822628267 0 0.025003269533654993 -0.020266049893910804 0 0.022900146546004099 -0.024863083121758171 0 0.024085704609122877 -0.024009962520932054 0 0.022447041121501084 -0.02255596507832321 0 0.021926282225127807 -0.025717659620553283 0 0.022900146546004099 -0.024863083121758171 0 0.022447041121501084 -0.02255596507832321 0 0.025003269533654993 -0.020266049893910804 0 0.025520738790604673 -0.018522169331302803 0 0.022447041121501084 -0.02255596507832321 0 0.025073678723306722 -0.021669298152385452 0 0.02558718811022799 -0.018337395651453051 0 0.024085704609122877 -0.024009962520932054 0 0.022447041121501084 -0.02255596507832321 0 0.025073678723306722 -0.021669298152385452 0 0.02558718811022799 -0.018337395651453051 0 0.025850068734450473 -0.019812517147204372 0 0.025907188864198051 -0.01827733688804865 0 0.025073678723306722 -0.021669298152385452 0 0.02558718811022799 -0.018337395651453051 0 0.025850068734450473 -0.019812517147204372 0 0.027488860110416288 -0.017769675161087992 0 0.02558718811022799 -0.018337395651453051 0 0.027295627201839263 -0.017109312300809244 0 0.02558718811022799 -0.018337395651453051 0 0.026719668386993765 -0.01710761061971957 0 0.027295627201839263 -0.017109312300809244 0 0.02558718811022799 -0.018337395651453051 0 0.026719668386993765 -0.01710761061971957 0 0.025907188864198051 -0.01827733688804865 0 0.026205511067699781 -0.017652284861803154 0 0.026719668386993765 -0.01710761061971957 0 0.025907188864198051 -0.01827733688804865 0 0.026205511067699781 -0.017652284861803154 0 0.026719668386993765 -0.01710761061971957 0 0.026526071506340444 -0.017368709739791825 0 0.026719668386993765 -0.01710761061971957 0 0.027143767759994851 -0.017053827549292386 0 0.026526071506340444 -0.017368709739791825 0 0.027143767759994851 -0.017053827549292386 0 0.026526071506340444 -0.017368709739791825 0 0.027426814607040887 -0.017799056262091797 0 0.026205511067699781 -0.017652284861803154 0 0.026526071506340444 -0.017368709739791825 0 0.026343137148929156 -0.017511011653824952 0 0.026526071506340444 -0.017368709739791825 0 0.026374698676991836 -0.017483319779971199 0 0.026413534163734792 -0.017553140455330993 0 0.026526071506340444 -0.017368709739791825 0 0.026374698676991836 -0.017483319779971199 0 0.026343137148929156 -0.017511011653824952 0 0.028150294152778598 -0.016380173801095278 0 0.031279713104814123 -0.015280499008101876 0 0.029908760677321733 -0.017188193571486824 0 0.027143767759994851 -0.017053827549292386 0 0.028150294152778598 -0.016380173801095278 0 0.027426814607040887 -0.017799056262091797 0 0.026719668386993765 -0.01710761061971957 0 0.028150294152778598 -0.016380173801095278 0 0.028036169685222451 -0.015483006882248218 0 0.026719668386993765 -0.01710761061971957 0 0.027143767759994851 -0.017053827549292386 0 0.028150294152778598 -0.016380173801095278 0 0.028150294152778598 -0.016380173801095278 0 0.028036169685222451 -0.015483006882248218 0 0.031279713104814123 -0.015280499008101876 0 0.025761598779199438 -0.017731011917365674 0 0.026651460891568259 -0.018020821156000937 0 0.027295627201839263 -0.017109312300809244 0 0.025761598779199438 -0.017731011917365674 0 0.028036169685222451 -0.015483006882248218 0 0.027295627201839263 -0.017109312300809244 0 0.026719668386993765 -0.01710761061971957 0 0.028036169685222451 -0.015483006882248218 0 0.027295627201839263 -0.017109312300809244 0 0.02785809567309986 -0.015431339620929551 0 0.028026942227010319 -0.015380374373638702 0 0.028036169685222451 -0.015483006882248218 0 0.031842479475438376 -0.013555766094535859 0 0.031799198612272261 -0.014581208283435516 0 0.030183877545804962 -0.012382399466536553 0 0.028036169685222451 -0.015483006882248218 0 0.031842479475438376 -0.013555766094535859 0 0.032035198280565481 -0.012472329703124774 0 0.030183877545804962 -0.012382399466536553 0 0.031842479475438376 -0.013555766094535859 0 0.032035198280565481 -0.012472329703124774 0 0.031842479475438376 -0.013555766094535859 0 0.032882839956468915 -0.013266932839358802 0 0.031842479475438376 -0.013555766094535859 0 0.033153498216307697 -0.013909568083562234 0 0.031799198612272261 -0.014581208283435516 0 0.033227637335868469 -0.012672531973250812 0 0.032882839956468915 -0.013266932839358802 0 0.033788113919574078 -0.013371552124813991 0 0.033227637335868469 -0.012672531973250812 0 0.033788113919574078 -0.013371552124813991 0 0.03389625751400864 -0.012690076036455994 0 0.032035198280565481 -0.012472329703124774 0 0.033227637335868469 -0.012672531973250812 0 0.032882839956468915 -0.013266932839358802 0 0.031842479475438376 -0.013555766094535859 0 0.032882839956468915 -0.013266932839358802 0 0.033153498216307697 -0.013909568083562234 0 0.032882839956468915 -0.013266932839358802 0 0.033788113919574078 -0.013371552124813991 0 0.033153498216307697 -0.013909568083562234 0 0.033788113919574078 -0.013371552124813991 0 0.033153498216307697 -0.013909568083562234 0 0.034073512689770429 -0.013882481297504828 0 0.033153498216307697 -0.013909568083562234 0 0.033277506557612135 -0.014268671255801694 0 0.031799198612272261 -0.014581208283435516 0 0.033153498216307697 -0.013909568083562234 0 0.033277506557612135 -0.014268671255801694 0 0.034073512689770429 -0.013882481297504828 0 0.033277506557612135 -0.014268671255801694 0 0.034073512689770429 -0.013882481297504828 0 0.034490505647517281 -0.013856891216887776 0 0.028036169685222451 -0.015483006882248218 0 0.031799198612272261 -0.014581208283435516 0 0.031279713104814123 -0.015280499008101876 0 0.033277506557612135 -0.014268671255801694 0 0.031799198612272261 -0.014581208283435516 0 0.031279713104814123 -0.015280499008101876 0 0.033277506557612135 -0.014268671255801694 0 0.031279713104814123 -0.015280499008101876 0 0.03338209706551571 -0.014059403423034873 0 0.03338209706551571 -0.014059403423034873 0 0.034882563338902717 -0.011485173029725296 0 0.035228786701449702 -0.010879493235119104 0 0.033034097620726684 -0.014094894671563454 0 0.03234182449288199 -0.01394675824934518 0 0.031279713104814123 -0.015280499008101876 0 0.03338209706551571 -0.014059403423034873 0 0.029908760677321733 -0.017188193571486824 0 0.03338209706551571 -0.014059403423034873 0 0.034244677352299989 -0.011902938328174619 0 0.033644308296062846 -0.012935948231368986 0 0.034244677352299989 -0.011902938328174619 0 0.034882563338902717 -0.011485173029725296 0 0.034964290124412843 -0.011187656998238394 0 0.03338209706551571 -0.014059403423034873 0 0.034244677352299989 -0.011902938328174619 0 0.034882563338902717 -0.011485173029725296 0 0.034882563338902717 -0.011485173029725296 0 0.035138729671282065 -0.011115102338292927 0 0.03501011566686188 -0.011004513434549034 0 0.034882563338902717 -0.011485173029725296 0 0.035228786701449702 -0.010879493235119104 0 0.03501011566686188 -0.011004513434549034 0 0.033277506557612135 -0.014268671255801694 0 0.03338209706551571 -0.014059403423034873 0 0.033644308296062846 -0.012935948231368986 0 0.033424735588982638 -0.014114395146965259 0 0.03395430435823734 -0.01333164719750737 0 0.033277506557612135 -0.014268671255801694 0 0.033437020498751309 -0.012782201567125383 0 0.033644308296062846 -0.012935948231368986 0 0.034244677352299989 -0.011902938328174619 0 0.033644308296062846 -0.012935948231368986 0 0.034296239604054216 -0.011400219918638899 0 0.033437020498751309 -0.012782201567125383 0 0.033644308296062846 -0.012935948231368986 0 0.034296239604054216 -0.011400219918638899 0 0.033437020498751309 -0.012782201567125383 0 0.034296239604054216 -0.011400219918638899 0 0.033993147010715832 -0.011383737090478213 0 0.03395430435823734 -0.01333164719750737 0 0.034652115017978914 -0.012266836324108151 0 0.034296239604054216 -0.011400219918638899 0 0.034763408258128931 -0.010756092783638338 0 0.034624195325404332 -0.010684064250362862 0 0.034296239604054216 -0.011400219918638899 0 0.034624195325404332 -0.010684064250362862 0 0.033993147010715832 -0.011383737090478213 0 0.034244677352299989 -0.011902938328174619 0 0.034296239604054216 -0.011400219918638899 0 0.034671323831949707 -0.011218068953270037 0 0.034296239604054216 -0.011400219918638899 0 0.035006833865593466 -0.010739273614504245 0 0.034671323831949707 -0.011218068953270037 0 0.034296239604054216 -0.011400219918638899 0 0.035006833865593466 -0.010739273614504245 0 0.034763408258128931 -0.010756092783638338 0 0.035006833865593466 -0.010739273614504245 0 0.035390401006479721 -0.010345408203297367 0 0.035159497318338985 -0.01023318735205399 0 0.035006833865593466 -0.010739273614504245 0 0.034763408258128931 -0.010756092783638338 0 0.035159497318338985 -0.01023318735205399 0 0.034763408258128931 -0.010756092783638338 0 0.034624195325404332 -0.010684064250362862 0 0.035159497318338985 -0.01023318735205399 0 0.034882563338902717 -0.011485173029725296 0 0.035138729671282065 -0.011115102338292927 0 0.034964290124412843 -0.011187656998238394 0 0.035138729671282065 -0.011115102338292927 0 0.034964290124412843 -0.011187656998238394 0 0.03526730672258533 -0.010907053371873955 0 0.034244677352299989 -0.011902938328174619 0 0.034964290124412843 -0.011187656998238394 0 0.034671323831949707 -0.011218068953270037 0 0.034964290124412843 -0.011187656998238394 0 0.034671323831949707 -0.011218068953270037 0 0.035160575210942221 -0.010812998416579076 0 0.034964290124412843 -0.011187656998238394 0 0.035160575210942221 -0.010812998416579076 0 0.03526730672258533 -0.010907053371873955 0 0.035006833865593466 -0.010739273614504245 0 0.034671323831949707 -0.011218068953270037 0 0.035160575210942221 -0.010812998416579076 0 0.035006833865593466 -0.010739273614504245 0 0.035160575210942221 -0.010812998416579076 0 0.035390401006479721 -0.010345408203297367 0 0.035160575210942221 -0.010812998416579076 0 0.035412807750927151 -0.010610509154332565 0 0.03526730672258533 -0.010907053371873955 0 0.035160575210942221 -0.010812998416579076 0 0.035412807750927151 -0.010610509154332565 0 0.035390401006479721 -0.010345408203297367 0 0.035412807750927151 -0.010610509154332565 0 0.03526730672258533 -0.010907053371873955 0 0.035467111748308959 -0.010682205767485948 0 0.035138729671282065 -0.011115102338292927 0 0.03526730672258533 -0.010907053371873955 0 0.03518967240897241 -0.011068350699640926 0 0.03526730672258533 -0.010907053371873955 0 0.03518967240897241 -0.011068350699640926 0 0.035467111748308959 -0.010682205767485948 0 0.035229470355880782 -0.010977028132857445 0 0.03518967240897241 -0.011068350699640926 0 0.035467111748308959 -0.010682205767485948 0 0.035229470355880782 -0.010977028132857445 0 0.03497681020781087 -0.011265331476012495 0 0.035213354086992152 -0.011069365900260692 0 0.035229470355880782 -0.010977028132857445 0 0.03497681020781087 -0.011265331476012495 0 0.03518967240897241 -0.011068350699640926 0 0.03497681020781087 -0.011265331476012495 0 0.03518967240897241 -0.011068350699640926 0 0.034969560187820901 -0.011247852950027875 0 0.034969560187820901 -0.011247852950027875 0 0.034347762214859252 -0.011633342413625656 0 0.034478696683536904 -0.0105538230667622 0 0.035138729671282065 -0.011115102338292927 0 0.03518967240897241 -0.011068350699640926 0 0.034969560187820901 -0.011247852950027875 0 0.03497681020781087 -0.011265331476012495 0 0.034969560187820901 -0.011247852950027875 0 0.034347762214859252 -0.011633342413625656 0 0.034969560187820901 -0.011247852950027875 0 0.03501011566686188 -0.011004513434549034 0 0.034478696683536904 -0.0105538230667622 0 0.035138729671282065 -0.011115102338292927 0 0.034969560187820901 -0.011247852950027875 0 0.03501011566686188 -0.011004513434549034 0 0.034347762214859252 -0.011633342413625656 0 0.034478696683536904 -0.0105538230667622 0 0.033000824064432742 -0.010383462855640787 0 0.034347762214859252 -0.011633342413625656 0 0.032185110817072295 -0.01107896486493393 0 0.033000824064432742 -0.010383462855640787 0 0.034347762214859252 -0.011633342413625656 0 0.032759718534600843 -0.011984879378596294 0 0.033796455026861225 -0.013042074161134908 0 0.034347762214859252 -0.011633342413625656 0 0.032759718534600843 -0.011984879378596294 0 0.032185110817072295 -0.01107896486493393 0 0.032759718534600843 -0.011984879378596294 0 0.03358481226249703 -0.013940761728112957 0 0.031241387560477434 -0.011837094494310378 0 0.032759718534600843 -0.011984879378596294 0 0.033796455026861225 -0.013042074161134908 0 0.03358481226249703 -0.013940761728112957 0 0.034564468863926917 -0.01218892422515206 0 0.033548464850356112 -0.011477868980373906 0 0.031505126541900685 -0.012108007945000814 0 0.032246968055469505 -0.012909658330168178 0 0.034347762214859252 -0.011633342413625656 0 0.033796455026861225 -0.013042074161134908 0 0.034566091672980838 -0.014721126655917242 0 0.03497681020781087 -0.011265331476012495 0 0.034347762214859252 -0.011633342413625656 0 0.035213354086992152 -0.011069365900260692 0 0.033796455026861225 -0.013042074161134908 0 0.034566091672980838 -0.014721126655917242 0 0.03358481226249703 -0.013940761728112957 0 0.031975480099985999 -0.011401480117463832 0 0.0321931033896969 -0.01157204811097641 0 0.031967695813020676 -0.011282364243798405 0 0.033548464850356112 -0.011477868980373906 0 0.031505126541900685 -0.012108007945000814 0 0.025600691668419093 -0.0099963346759581132 0 0.025640984322099818 -0.0095624397287370211 0 0.025166253681229947 -0.009514629194039571 0 0.031505126541900685 -0.012108007945000814 0 0.031830449393638952 -0.0097197476073025979 0 0.025600691668419093 -0.0099963346759581132 0 0.026059931219097131 -0.0098268599939071808 0 0.025640984322099818 -0.0095624397287370211 0 0.025600691668419093 -0.0099963346759581132 0 0.026059931219097131 -0.0098268599939071808 0 0.026545567239682117 -0.010233876321358857 0 0.026059931219097131 -0.0098268599939071808 0 0.026471847384015895 -0.009858160120382398 0 0.026081654762192118 -0.0094386375850633881 0 0.033831611487846927 -0.014925063481639057 0 0.031241387560477434 -0.011837094494310378 0 0.030615519630276609 -0.012688819923555025 0 0.025600691668419093 -0.0099963346759581132 0 0.026545567239682117 -0.010233876321358857 0 0.026770537829188944 -0.010612877473097949 0 0.031505126541900685 -0.012108007945000814 0 0.028381149249682561 -0.011479921429823532 0 0.026059931219097131 -0.0098268599939071808 0 0.026471847384015895 -0.009858160120382398 0 0.026545567239682117 -0.010233876321358857 0 0.026471847384015895 -0.009858160120382398 0 0.026545567239682117 -0.010233876321358857 0 0.026928480196002365 -0.010176980205547035 0 0.026471847384015895 -0.009858160120382398 0 0.026928480196002365 -0.010176980205547035 0 0.027023159735721971 -0.0095883697048715442 0 0.026840593873141923 -0.010411345564998816 0 0.026545567239682117 -0.010233876321358857 0 0.026928480196002365 -0.010176980205547035 0 0.026840593873141923 -0.010411345564998816 0 0.026545567239682117 -0.010233876321358857 0 0.026770537829188944 -0.010612877473097949 0 0.026928480196002365 -0.010176980205547035 0 0.027478514463092088 -0.010209734082679911 0 0.027023159735721971 -0.0095883697048715442 0 0.026928480196002365 -0.010176980205547035 0 0.027478514463092088 -0.010209734082679911 0 0.02700791557212209 -0.010547161261228472 0 0.026840593873141923 -0.010411345564998816 0 0.026928480196002365 -0.010176980205547035 0 0.02700791557212209 -0.010547161261228472 0 0.027281506999900392 -0.01037629953019694 0 0.028381149249682561 -0.011479921429823532 0 0.025529755107449321 -0.010187385284470591 0 0.024833305620284834 -0.0090051553727651026 0 0.029195893944435964 -0.011035275170675716 0 0.027109167814570428 -0.010167962101740632 0 0.030615519630276609 -0.012688819923555025 0 0.02700791557212209 -0.010547161261228472 0 0.027109167814570428 -0.010167962101740632 0 0.026770537829188944 -0.010612877473097949 0 0.025041369689295413 -0.010052718698454366 0 0.025088908006602857 -0.0091022872564969839 0 0.024907614051692239 -0.0089823713237932139 0 0.02700791557212209 -0.010547161261228472 0 0.02699024307094567 -0.01076939447202958 0 0.027109167814570428 -0.010167962101740632 0 0.025529755107449321 -0.010187385284470591 0 0.026122504895829974 -0.0096767763166881356 0 0.027478514463092088 -0.010209734082679911 0 0.02700791557212209 -0.010547161261228472 0 0.02699024307094567 -0.01076939447202958 0 0.029195893944435964 -0.011035275170675716 0 0.027109167814570428 -0.010167962101740632 0 0.028624912406769298 -0.0096320742524495743 0 0.029195893944435964 -0.011035275170675716 0 0.02977181058597762 -0.010266193395670187 0 0.028624912406769298 -0.0096320742524495743 0 0.02699024307094567 -0.01076939447202958 0 0.027109167814570428 -0.010167962101740632 0 0.02644298583533803 -0.0082691219242461596 0 0.025088908006602857 -0.0091022872564969839 0 0.02644298583533803 -0.0082691219242461596 0 0.024907614051692239 -0.0089823713237932139 0 0.032759718534600843 -0.011984879378596294 0 0.031241387560477434 -0.011837094494310378 0 0.032185110817072295 -0.01107896486493393 0 0.026840593873141923 -0.010411345564998816 0 0.02700791557212209 -0.010547161261228472 0 0.026770537829188944 -0.010612877473097949 0 0.029195893944435964 -0.011035275170675716 0 0.030615519630276609 -0.012688819923555025 0 0.030415134788291248 -0.011574271312492014 0 0.031241387560477434 -0.011837094494310378 0 0.030615519630276609 -0.012688819923555025 0 0.030415134788291248 -0.011574271312492014 0 0.02977181058597762 -0.010266193395670187 0 0.030571125440954448 -0.010801414283874197 0 0.030657022835005127 -0.0096150246418638362 0 0.031241387560477434 -0.011837094494310378 0 0.030415134788291248 -0.011574271312492014 0 0.030571125440954448 -0.010801414283874197 0 0.029195893944435964 -0.011035275170675716 0 0.030415134788291248 -0.011574271312492014 0 0.030571125440954448 -0.010801414283874197 0 0.029195893944435964 -0.011035275170675716 0 0.02977181058597762 -0.010266193395670187 0 0.030571125440954448 -0.010801414283874197 0 0.030571125440954448 -0.010801414283874197 0 0.032185110817072295 -0.01107896486493393 0 0.030657022835005127 -0.0096150246418638362 0 0.031241387560477434 -0.011837094494310378 0 0.030571125440954448 -0.010801414283874197 0 0.032185110817072295 -0.01107896486493393 0 0.030657022835005127 -0.0096150246418638362 0 0.029396233637406836 -0.008321694964650423 0 0.032991062588401961 -0.0081526820984528028 0 0.030657022835005127 -0.0096150246418638362 0 0.032991062588401961 -0.0081526820984528028 0 0.033000824064432742 -0.010383462855640787 0 0.032185110817072295 -0.01107896486493393 0 0.030657022835005127 -0.0096150246418638362 0 0.033000824064432742 -0.010383462855640787 0 0.02977181058597762 -0.010266193395670187 0 0.030657022835005127 -0.0096150246418638362 0 0.028624912406769298 -0.0096320742524495743 0 0.030657022835005127 -0.0096150246418638362 0 0.029396233637406836 -0.008321694964650423 0 0.028624912406769298 -0.0096320742524495743 0 0.027109167814570428 -0.010167962101740632 0 0.028624912406769298 -0.0096320742524495743 0 0.02644298583533803 -0.0082691219242461596 0 0.026122504895829974 -0.0096767763166881356 0 0.026321841005598808 -0.0083631637204329597 0 0.02644298583533803 -0.0082691219242461596 0 0.025021658295085195 -0.0085429241371925667 0 0.024907614051692239 -0.0089823713237932139 0 0.029396233637406836 -0.008321694964650423 0 0.028624912406769298 -0.0096320742524495743 0 0.02644298583533803 -0.0082691219242461596 0 0.029396233637406836 -0.008321694964650423 0 0.02644298583533803 -0.0082691219242461596 0 0.027657639019312528 -0.0064021504732889962 0 0.026526071506340444 -0.017368709739791825 0 0.026507940649827613 -0.017704704194334425 0 0.026413534163734792 -0.017553140455330993 0 0.029396233637406836 -0.008321694964650423 0 0.027657639019312528 -0.0064021504732889962 0 0.032991062588401961 -0.0081526820984528028 0 0.026526071506340444 -0.017368709739791825 0 0.026507940649827613 -0.017704704194334425 0 0.027426814607040887 -0.017799056262091797 0 0.027661863845159559 -0.012186789062407839 0 0.029935187908540946 -0.012995954450849816 0 0.032991062588401961 -0.0081526820984528028 0 0.035228786701449702 -0.010879493235119104 0 0.034478696683536904 -0.0105538230667622 0 0.028150294152778598 -0.016380173801095278 0 0.027426814607040887 -0.017799056262091797 0 0.029908760677321733 -0.017188193571486824 0 0.029935187908540946 -0.012995954450849816 0 0.03234182449288199 -0.01394675824934518 0 0.035228786701449702 -0.010879493235119104 0 0.03501011566686188 -0.011004513434549034 0 0.034478696683536904 -0.0105538230667622 0 0.032991062588401961 -0.0081526820984528028 0 0.034478696683536904 -0.0105538230667622 0 0.033000824064432742 -0.010383462855640787 0 0.034999424975439841 -0.01343872590187788 0 0.035262238960239042 -0.013314006402832406 0 0.035522735322492102 -0.014112259628176835 0 0.035262238960239042 -0.013314006402832406 0 0.035522735322492102 -0.014112259628176835 0 0.035334554482778134 -0.013147263209116414 0 0.035522735322492102 -0.014112259628176835 0 0.035813572811755165 -0.015357614574099473 0 0.035735896644684788 -0.01447532451369502 0 0.035522735322492102 -0.014112259628176835 0 0.0349997156903201 -0.015257139293230543 0 0.035813572811755165 -0.015357614574099473 0 0.034999424975439841 -0.01343872590187788 0 0.035522735322492102 -0.014112259628176835 0 0.0349997156903201 -0.015257139293230543 0 0.0349997156903201 -0.015257139293230543 0 0.03499955404024347 -0.017075604128973153 0 0.035813572811755165 -0.015357614574099473 0 0.03617089006372505 -0.017738588774551738 0 0.03499955404024347 -0.017075604128973153 0 0.035813572811755165 -0.015357614574099473 0 0.035777673957891686 -0.015283596152709552 0 0.036916278098040538 -0.016204780475394899 0 0.03617089006372505 -0.017738588774551738 0 0.035813572811755165 -0.015357614574099473 0 0.037635713732240665 -0.017047981186044132 0 0.035813572811755165 -0.015357614574099473 0 0.035735896644684788 -0.01447532451369502 0 0.035776188369680113 -0.0148989499784404 0 0.035735896644684788 -0.01447532451369502 0 0.035776188369680113 -0.0148989499784404 0 0.036066856815832965 -0.014847347937748919 0 0.035813572811755165 -0.015357614574099473 0 0.035776188369680113 -0.0148989499784404 0 0.035784655911878752 -0.014967535734158483 0 0.035776188369680113 -0.0148989499784404 0 0.035784655911878752 -0.014967535734158483 0 0.036066856815832965 -0.014847347937748919 0 0.03533918841011878 -0.013877415421625022 0 0.035453361995643966 -0.013374516733401509 0 0.035493652586276549 -0.013601147553745004 0 0.036062346268110938 -0.015255206088575708 0 0.035784655911878752 -0.014967535734158483 0 0.036066856815832965 -0.014847347937748919 0 0.035735896644684788 -0.01447532451369502 0 0.036066856815832965 -0.014847347937748919 0 0.035669167129853276 -0.013701022320795762 0 0.035641290562153184 -0.013757067212275782 0 0.035715052245957647 -0.013911408669051842 0 0.035453361995643966 -0.013374516733401509 0 0.035669167129853276 -0.013701022320795762 0 0.035474772032302621 -0.013461949590959808 0 0.035522735322492102 -0.014112259628176835 0 0.035735896644684788 -0.01447532451369502 0 0.03557742654487412 -0.013807949345787067 0 0.035735896644684788 -0.01447532451369502 0 0.035669167129853276 -0.013701022320795762 0 0.03557742654487412 -0.013807949345787067 0 0.03557742654487412 -0.013807949345787067 0 0.03547856479351983 -0.013427121705300037 0 0.035334554482778134 -0.013147263209116414 0 0.035522735322492102 -0.014112259628176835 0 0.03557742654487412 -0.013807949345787067 0 0.035334554482778134 -0.013147263209116414 0 0.035669167129853276 -0.013701022320795762 0 0.03557742654487412 -0.013807949345787067 0 0.03547856479351983 -0.013427121705300037 0 0.035669167129853276 -0.013701022320795762 0 0.03547856479351983 -0.013427121705300037 0 0.035360245251284346 -0.013539544695765848 0 0.03547856479351983 -0.013427121705300037 0 0.035360245251284346 -0.013539544695765848 0 0.035297617744937247 -0.013256969733566666 0 0.035360245251284346 -0.013539544695765848 0 0.035165388060558814 -0.013389106203461197 0 0.035297617744937247 -0.013256969733566666 0 0.035056076797015397 -0.013531991564504514 0 0.03491309893199334 -0.013567925435012165 0 0.035165388060558814 -0.013389106203461197 0 0.035360245251284346 -0.013539544695765848 0 0.035056076797015397 -0.013531991564504514 0 0.035165388060558814 -0.013389106203461197 0 0.035056076797015397 -0.013531991564504514 0 0.035376329402442279 -0.013486872932239085 0 0.035106721599015157 -0.013295953123927767 0 0.035056076797015397 -0.013531991564504514 0 0.035106721599015157 -0.013295953123927767 0 0.03481938533981125 -0.013296466427420233 0 0.035360245251284346 -0.013539544695765848 0 0.035056076797015397 -0.013531991564504514 0 0.035376329402442279 -0.013486872932239085 0 0.035669167129853276 -0.013701022320795762 0 0.035376329402442279 -0.013486872932239085 0 0.035474772032302621 -0.013461949590959808 0 0.035669167129853276 -0.013701022320795762 0 0.035360245251284346 -0.013539544695765848 0 0.035376329402442279 -0.013486872932239085 0 0.035376329402442279 -0.013486872932239085 0 0.035474772032302621 -0.013461949590959808 0 0.035520502976679996 -0.013407862589177425 0 0.035391094344807271 -0.013426962965692684 0 0.035420411302827998 -0.013326079058634787 0 0.035376329402442279 -0.013486872932239085 0 0.035341675734062772 -0.012974451435663848 0 0.035106721599015157 -0.013295953123927767 0 0.035453361995643966 -0.013374516733401509 0 0.035474772032302621 -0.013461949590959808 0 0.035520502976679996 -0.013407862589177425 0 0.035576841023840337 -0.012489770166997113 0 0.035420411302827998 -0.013326079058634787 0 0.035453361995643966 -0.013374516733401509 0 0.035520502976679996 -0.013407862589177425 0 0.035493652586276549 -0.013601147553745004 0 0.035329969645211526 -0.012365793298195885 0 0.035341675734062772 -0.012974451435663848 0 0.035035944178358251 -0.012716793362052612 0 0.035604706622289206 -0.013715041683955277 0 0.035520502976679996 -0.013407862589177425 0 0.035493652586276549 -0.013601147553745004 0 0.034799262893252421 -0.012307749780340436 0 0.035035944178358251 -0.012716793362052612 0 0.034698182762805105 -0.012817130224149053 0 0.035341675734062772 -0.012974451435663848 0 0.035035944178358251 -0.012716793362052612 0 0.035005144590229784 -0.01305245836295559 0 0.035035944178358251 -0.012716793362052612 0 0.035005144590229784 -0.01305245836295559 0 0.034698182762805105 -0.012817130224149053 0 0.035005144590229784 -0.01305245836295559 0 0.03481938533981125 -0.013296466427420233 0 0.034698182762805105 -0.012817130224149053 0 0.035341675734062772 -0.012974451435663848 0 0.035005144590229784 -0.01305245836295559 0 0.035106721599015157 -0.013295953123927767 0 0.035005144590229784 -0.01305245836295559 0 0.035106721599015157 -0.013295953123927767 0 0.03481938533981125 -0.013296466427420233 0 0.03481938533981125 -0.013296466427420233 0 0.034357009566240784 -0.013091900105922389 0 0.034698182762805105 -0.012817130224149053 0 0.03481938533981125 -0.013296466427420233 0 0.034357009566240784 -0.013091900105922389 0 0.034550841117984267 -0.013600919206057887 0 0.034339926871405711 -0.012528645405302123 0 0.034357009566240784 -0.013091900105922389 0 0.034698182762805105 -0.012817130224149053 0 0.034339926871405711 -0.012528645405302123 0 0.034357009566240784 -0.013091900105922389 0 0.03389625751400864 -0.012690076036455994 0 0.033788113919574078 -0.013371552124813991 0 0.034357009566240784 -0.013091900105922389 0 0.03389625751400864 -0.012690076036455994 0 0.033788113919574078 -0.013371552124813991 0 0.034357009566240784 -0.013091900105922389 0 0.034550841117984267 -0.013600919206057887 0 0.033788113919574078 -0.013371552124813991 0 0.034073512689770429 -0.013882481297504828 0 0.034550841117984267 -0.013600919206057887 0 0.035056076797015397 -0.013531991564504514 0 0.03481938533981125 -0.013296466427420233 0 0.034550841117984267 -0.013600919206057887 0 0.034550841117984267 -0.013600919206057887 0 0.03491309893199334 -0.013567925435012165 0 0.034856985261546188 -0.013634924850299634 0 0.035056076797015397 -0.013531991564504514 0 0.034550841117984267 -0.013600919206057887 0 0.03491309893199334 -0.013567925435012165 0 0.034073512689770429 -0.013882481297504828 0 0.034550841117984267 -0.013600919206057887 0 0.034856985261546188 -0.013634924850299634 0 0.034073512689770429 -0.013882481297504828 0 0.034490505647517281 -0.013856891216887776 0 0.034856985261546188 -0.013634924850299634 0 0.034490505647517281 -0.013856891216887776 0 0.034856985261546188 -0.013634924850299634 0 0.035321096506244667 -0.013121917593030972 0 0.03491309893199334 -0.013567925435012165 0 0.034856985261546188 -0.013634924850299634 0 0.035165388060558814 -0.013389106203461197 0 0.034856985261546188 -0.013634924850299634 0 0.035254974431605156 -0.013059135219096773 0 0.035165388060558814 -0.013389106203461197 0 0.034856985261546188 -0.013634924850299634 0 0.035254974431605156 -0.013059135219096773 0 0.035321096506244667 -0.013121917593030972 0 0.034624195325404332 -0.010684064250362862 0 0.033993147010715832 -0.011383737090478213 0 0.034590266637482346 -0.010516568261152969 0 0.034624195325404332 -0.010684064250362862 0 0.034590266637482346 -0.010516568261152969 0 0.035115678890542831 -0.0098991903852633303 0 0.035254974431605156 -0.013059135219096773 0 0.035713991700058824 -0.011939669364825194 0 0.03516902551158594 -0.012596699649073386 0 0.035254974431605156 -0.013059135219096773 0 0.035321096506244667 -0.013121917593030972 0 0.035713991700058824 -0.011939669364825194 0 0.034652115017978914 -0.012266836324108151 0 0.035119075418352678 -0.011221248001392618 0 0.035713991700058824 -0.011939669364825194 0 0.03516902551158594 -0.012596699649073386 0 0.035073147333185166 -0.011512530506468848 0 0.035119075418352678 -0.011221248001392618 0 0.035044907601134573 -0.010248490805844852 0 0.035713991700058824 -0.011939669364825194 0 0.035073147333185166 -0.011512530506468848 0 0.035097098220872702 -0.010132692649524194 0 0.035073147333185166 -0.011512530506468848 0 0.034945196386587392 -0.012200866349952221 0 0.034688257785957341 -0.011265931084983237 0 0.035073147333185166 -0.011512530506468848 0 0.034688257785957341 -0.011265931084983237 0 0.034705374647200964 -0.010007967344636926 0 0.03516902551158594 -0.012596699649073386 0 0.035073147333185166 -0.011512530506468848 0 0.034945196386587392 -0.012200866349952221 0 0.03516902551158594 -0.012596699649073386 0 0.034945196386587392 -0.012200866349952221 0 0.035160315730380809 -0.012933696568126849 0 0.034945196386587392 -0.012200866349952221 0 0.035160315730380809 -0.012933696568126849 0 0.035006269308995433 -0.012602503842410928 0 0.035254974431605156 -0.013059135219096773 0 0.03516902551158594 -0.012596699649073386 0 0.035165388060558814 -0.013389106203461197 0 0.03516902551158594 -0.012596699649073386 0 0.035160315730380809 -0.012933696568126849 0 0.035165388060558814 -0.013389106203461197 0 0.035160315730380809 -0.012933696568126849 0 0.035297617744937247 -0.013256969733566666 0 0.035006269308995433 -0.012602503842410928 0 0.035160315730380809 -0.012933696568126849 0 0.035165388060558814 -0.013389106203461197 0 0.035297617744937247 -0.013256969733566666 0 0.035297617744937247 -0.013256969733566666 0 0.03520685908765811 -0.012958566860484407 0 0.035006269308995433 -0.012602503842410928 0 0.03547856479351983 -0.013427121705300037 0 0.035297617744937247 -0.013256969733566666 0 0.03520685908765811 -0.012958566860484407 0 0.03547856479351983 -0.013427121705300037 0 0.03520685908765811 -0.012958566860484407 0 0.035334554482778134 -0.013147263209116414 0 0.03520685908765811 -0.012958566860484407 0 0.035334554482778134 -0.013147263209116414 0 0.034914858089893135 -0.012457158123464946 0 0.034914858089893135 -0.012457158123464946 0 0.035006269308995433 -0.012602503842410928 0 0.034599867774693718 -0.011938372213855729 0 0.03520685908765811 -0.012958566860484407 0 0.034914858089893135 -0.012457158123464946 0 0.035006269308995433 -0.012602503842410928 0 0.034945196386587392 -0.012200866349952221 0 0.035006269308995433 -0.012602503842410928 0 0.034599867774693718 -0.011938372213855729 0 0.034945196386587392 -0.012200866349952221 0 0.034688257785957341 -0.011265931084983237 0 0.034599867774693718 -0.011938372213855729 0 0.034688257785957341 -0.011265931084983237 0 0.034056932313420052 -0.011171735561669298 0 0.034599867774693718 -0.011938372213855729 0 0.034914858089893135 -0.012457158123464946 0 0.034599867774693718 -0.011938372213855729 0 0.034534802914001399 -0.011937919149413714 0 0.03502390990436724 -0.0087699319185198105 0 0.035572606932623138 -0.0099159568372279329 0 0.035182927778806043 -0.0087461117965238287 0 0.034056932313420052 -0.011171735561669298 0 0.034599867774693718 -0.011938372213855729 0 0.034534802914001399 -0.011937919149413714 0 0.034572803130292366 -0.0099805507540613736 0 0.034984088165119734 -0.010915560546697702 0 0.035572606932623138 -0.0099159568372279329 0 0.03499933641200003 -0.0097014040830717858 0 0.035182927778806043 -0.0087461117965238287 0 0.035572606932623138 -0.0099159568372279329 0 0.03499933641200003 -0.0097014040830717858 0 0.03500011408383058 -0.011621235992864586 0 0.034534802914001399 -0.011937919149413714 0 0.034999001233058311 -0.011624265540954722 0 0.035101777722722903 -0.012414274647376204 0 0.034984088165119734 -0.010915560546697702 0 0.034999918935050493 -0.011621046962831607 0 0.034914858089893135 -0.012457158123464946 0 0.034534802914001399 -0.011937919149413714 0 0.035101777722722903 -0.012414274647376204 0 0.035334554482778134 -0.013147263209116414 0 0.034914858089893135 -0.012457158123464946 0 0.035101777722722903 -0.012414274647376204 0 0.035262238960239042 -0.013314006402832406 0 0.035334554482778134 -0.013147263209116414 0 0.035101777722722903 -0.012414274647376204 0 0.034999424975439841 -0.01343872590187788 0 0.034999001233058311 -0.011624265540954722 0 0.035101777722722903 -0.012414274647376204 0 0.034999424975439841 -0.01343872590187788 0 0.035262238960239042 -0.013314006402832406 0 0.035101777722722903 -0.012414274647376204 0 0.034999957751449602 -0.0047370579905085643 0 0.036168019566959635 -0.0049127851246327037 0 0.035776381705725085 -0.0036995836221481067 0 0.034999957751449602 -0.0047370579905085643 0 0.036168019566959635 -0.0049127851246327037 0 0.035462791647256811 -0.0056157317534351455 0 0.036582932365495341 -0.0045920545163468784 0 0.036696780042981887 -0.0054129460446030358 0 0.035942858229134213 -0.005038897017870741 0 0.036582932365495341 -0.0045920545163468784 0 0.036696780042981887 -0.0054129460446030358 0 0.037055836972910719 -0.0043749392758698829 0 0.034054418271501172 -0.0085273565630657102 0 0.034315353299349302 -0.008607745341605853 0 0.034706702009127094 -0.0086711659260584086 0 0.036696780042981887 -0.0054129460446030358 0 0.035942858229134213 -0.005038897017870741 0 0.035275215815581726 -0.006603340399547933 0 0.034054418271501172 -0.0085273565630657102 0 0.034315353299349302 -0.008607745341605853 0 0.034032979061702669 -0.0085310439381865218 0 0.035567491577297737 -0.0069406508714183026 0 0.035167220387181078 -0.0070407398351903057 0 0.034999957751449602 -0.0047370579905085643 0 0.035462791647256811 -0.0056157317534351455 0 0.034999993735896462 -0.0068184719510958865 0 0.035462791647256811 -0.0056157317534351455 0 0.035625244678429584 -0.0062926772390207953 0 0.034999993735896462 -0.0068184719510958865 0 0.036168019566959635 -0.0049127851246327037 0 0.035462791647256811 -0.0056157317534351455 0 0.035625244678429584 -0.0062926772390207953 0 0.036117713867068212 -0.0048369436025570301 0 0.035167220387181078 -0.0070407398351903057 0 0.035167220387181078 -0.0070407398351903057 0 0.035000572957105458 -0.006818172365352957 0 0.035627472195897229 -0.0063014176160102048 0 0.034999982620014268 -0.006818512641668514 0 0.03500000972538099 -0.0077846987201200023 0 0.034706702009127094 -0.0086711659260584086 0 0.034721678249019443 -0.0084015420910727567 0 0.034999436542306334 -0.0077882680865142334 0 0.035167220387181078 -0.0070407398351903057 0 0.034999875807588988 -0.0077852052662282798 0 0.034721678249019443 -0.0084015420910727567 0 0.034999436542306334 -0.0077882680865142334 0 0.035182927778806043 -0.0087461117965238287 0 0.03499933641200003 -0.0097014040830717858 0 0.034999436542306334 -0.0077882680865142334 0 0.035182927778806043 -0.0087461117965238287 0 0.034721678249019443 -0.0084015420910727567 0 0.035182927778806043 -0.0087461117965238287 0 0.03461539080882136 -0.0088492755517591715 0 0.03502390990436724 -0.0087699319185198105 0 0.035182927778806043 -0.0087461117965238287 0 0.03461539080882136 -0.0088492755517591715 0 0.034315353299349302 -0.008607745341605853 0 0.034706702009127094 -0.0086711659260584086 0 0.034721678249019443 -0.0084015420910727567 0 0.034315353299349302 -0.008607745341605853 0 0.034721678249019443 -0.0084015420910727567 0 0.03461539080882136 -0.0088492755517591715 0 0.034315353299349302 -0.008607745341605853 0 0.03461539080882136 -0.0088492755517591715 0 0.034061433564668141 -0.0087244473534968357 0 0.03461539080882136 -0.0088492755517591715 0 0.034222004205034323 -0.009378871275612214 0 0.034061433564668141 -0.0087244473534968357 0 0.03502390990436724 -0.0087699319185198105 0 0.03461539080882136 -0.0088492755517591715 0 0.034222004205034323 -0.009378871275612214 0 0.034572803130292366 -0.0099805507540613736 0 0.03433226310052246 -0.0094227116949250674 0 0.034688257785957341 -0.011265931084983237 0 0.034056932313420052 -0.011171735561669298 0 0.034222004205034323 -0.009378871275612214 0 0.034688257785957341 -0.011265931084983237 0 0.034222004205034323 -0.009378871275612214 0 0.034705374647200964 -0.010007967344636926 0 0.034222004205034323 -0.009378871275612214 0 0.034272686136589826 -0.0089154616840101484 0 0.034061433564668141 -0.0087244473534968357 0 0.034222004205034323 -0.009378871275612214 0 0.034272686136589826 -0.0089154616840101484 0 0.034705374647200964 -0.010007967344636926 0 0.034272686136589826 -0.0089154616840101484 0 0.033945701096793145 -0.0082903996528453563 0 0.034061433564668141 -0.0087244473534968357 0 0.034272686136589826 -0.0089154616840101484 0 0.033945701096793145 -0.0082903996528453563 0 0.034275317577234996 -0.0082686227327309209 0 0.034315353299349302 -0.008607745341605853 0 0.034061433564668141 -0.0087244473534968357 0 0.034032979061702669 -0.0085310439381865218 0 0.034054418271501172 -0.0085273565630657102 0 0.034032979061702669 -0.0085310439381865218 0 0.033848248627735542 -0.0082679033903977801 0 0.034061433564668141 -0.0087244473534968357 0 0.034032979061702669 -0.0085310439381865218 0 0.033848248627735542 -0.0082679033903977801 0 0.033945701096793145 -0.0082903996528453563 0 0.034061433564668141 -0.0087244473534968357 0 0.033848248627735542 -0.0082679033903977801 0 0.034054418271501172 -0.0085273565630657102 0 0.033848248627735542 -0.0082679033903977801 0 0.03358288564543719 -0.0078266366173720871 0 0.036696780042981887 -0.0054129460446030358 0 0.038005595022468419 -0.0042741665044955385 0 0.037055836972910719 -0.0043749392758698829 0 0.033945701096793145 -0.0082903996528453563 0 0.033848248627735542 -0.0082679033903977801 0 0.033572768124770773 -0.007852902131488787 0 0.035567491577297737 -0.0069406508714183026 0 0.034318553356866739 -0.0059410749236440043 0 0.033848248627735542 -0.0082679033903977801 0 0.033572768124770773 -0.007852902131488787 0 0.03358288564543719 -0.0078266366173720871 0 0.034226210708854177 -0.0071883562808510324 0 0.034318553356866739 -0.0059410749236440043 0 0.033572768124770773 -0.007852902131488787 0 0.033977124482348145 -0.0078256453306682263 0 0.033865479092042461 -0.0069968435246148169 0 0.033572768124770773 -0.007852902131488787 0 0.033865479092042461 -0.0069968435246148169 0 0.033221034812213952 -0.0072442907374915518 0 0.033977124482348145 -0.0078256453306682263 0 0.034372143762904227 -0.0075576746563190134 0 0.033865479092042461 -0.0069968435246148169 0 0.033945701096793145 -0.0082903996528453563 0 0.033977124482348145 -0.0078256453306682263 0 0.034275317577234996 -0.0082686227327309209 0 0.033977124482348145 -0.0078256453306682263 0 0.034372143762904227 -0.0075576746563190134 0 0.034275317577234996 -0.0082686227327309209 0 0.033945701096793145 -0.0082903996528453563 0 0.033572768124770773 -0.007852902131488787 0 0.033977124482348145 -0.0078256453306682263 0 0.034372143762904227 -0.0075576746563190134 0 0.034885341302527101 -0.0081424356843166155 0 0.034275317577234996 -0.0082686227327309209 0 0.034372143762904227 -0.0075576746563190134 0 0.034885341302527101 -0.0081424356843166155 0 0.034796617343038364 -0.006707187502572441 0 0.034372143762904227 -0.0075576746563190134 0 0.034796617343038364 -0.006707187502572441 0 0.033865479092042461 -0.0069968435246148169 0 0.034885341302527101 -0.0081424356843166155 0 0.035547231041338327 -0.0076350123626180537 0 0.034796617343038364 -0.006707187502572441 0 0.034885341302527101 -0.0081424356843166155 0 0.035251517260569472 -0.0090585930517320268 0 0.035547231041338327 -0.0076350123626180537 0 0.034885341302527101 -0.0081424356843166155 0 0.03476182579753357 -0.0091142851831416648 0 0.035251517260569472 -0.0090585930517320268 0 0.034885341302527101 -0.0081424356843166155 0 0.034275317577234996 -0.0082686227327309209 0 0.03476182579753357 -0.0091142851831416648 0 0.034272686136589826 -0.0089154616840101484 0 0.034275317577234996 -0.0082686227327309209 0 0.03476182579753357 -0.0091142851831416648 0 0.034272686136589826 -0.0089154616840101484 0 0.03476182579753357 -0.0091142851831416648 0 0.034705374647200964 -0.010007967344636926 0 0.03476182579753357 -0.0091142851831416648 0 0.034705374647200964 -0.010007967344636926 0 0.035097098220872702 -0.010132692649524194 0 0.035073147333185166 -0.011512530506468848 0 0.034705374647200964 -0.010007967344636926 0 0.035097098220872702 -0.010132692649524194 0 0.03476182579753357 -0.0091142851831416648 0 0.035097098220872702 -0.010132692649524194 0 0.035251517260569472 -0.0090585930517320268 0 0.035097098220872702 -0.010132692649524194 0 0.035251517260569472 -0.0090585930517320268 0 0.035115678890542831 -0.0098991903852633303 0 0.034590266637482346 -0.010516568261152969 0 0.035097098220872702 -0.010132692649524194 0 0.035115678890542831 -0.0098991903852633303 0 0.035115678890542831 -0.0098991903852633303 0 0.035829464304464355 -0.0086108216052099614 0 0.035662263454812444 -0.0094089195136849262 0 0.035251517260569472 -0.0090585930517320268 0 0.035115678890542831 -0.0098991903852633303 0 0.035829464304464355 -0.0086108216052099614 0 0.035251517260569472 -0.0090585930517320268 0 0.035829464304464355 -0.0086108216052099614 0 0.035547231041338327 -0.0076350123626180537 0 0.035829464304464355 -0.0086108216052099614 0 0.035547231041338327 -0.0076350123626180537 0 0.036441616795347909 -0.0068283163465561528 0 0.035547231041338327 -0.0076350123626180537 0 0.036441616795347909 -0.0068283163465561528 0 0.035642286373809416 -0.0058677017213791382 0 0.036441616795347909 -0.0068283163465561528 0 0.036377376765152902 -0.0055033110956007871 0 0.035642286373809416 -0.0058677017213791382 0 0.036377376765152902 -0.0055033110956007871 0 0.036211333481591362 -0.0038736113484538126 0 0.035642286373809416 -0.0058677017213791382 0 0.036377376765152902 -0.0055033110956007871 0 0.036211333481591362 -0.0038736113484538126 0 0.037557952657679881 -0.0048345527223716831 0 0.036441616795347909 -0.0068283163465561528 0 0.036377376765152902 -0.0055033110956007871 0 0.037557952657679881 -0.0048345527223716831 0 0.035259832449657455 0.0017725820850596791 0 0.034118032170353321 0.0013083797248528498 0 0.037418749301822145 -0.0020828717572566563 0 0.036211333481591362 -0.0038736113484538126 0 0.037557952657679881 -0.0048345527223716831 0 0.033289164651524442 0.005668175066617708 0 0.030702705732604162 0.0073404654495022766 0 0.031353974139646287 0.0054615459932698292 0 0.030871989201996852 0.004005831362126515 0 0.032504272675530251 0.0039065056650862988 0 0.031353974139646287 0.0054615459932698292 0 0.032504272675530251 0.0039065056650862988 0 0.033289164651524442 0.005668175066617708 0 0.031353974139646287 0.0054615459932698292 0 0.035919684714253199 0.0015626942134605915 0 0.037418749301822145 -0.0020828717572566563 0 0.036087841091342519 -0.00072748863510962167 0 0.037418749301822145 -0.0020828717572566563 0 0.036087841091342519 -0.00072748863510962167 0 0.035968563484489874 -0.0019816017184478094 0 0.035814334648183191 0.0016449334139506933 0 0.035259832449657455 0.0017725820850596791 0 0.037418749301822145 -0.0020828717572566563 0 0.036211333481591362 -0.0038736113484538126 0 0.035968563484489874 -0.0019816017184478094 0 0.036211333481591362 -0.0038736113484538126 0 0.035968563484489874 -0.0019816017184478094 0 0.034849375433822979 -0.0019679846292423179 0 0.036211333481591362 -0.0038736113484538126 0 0.034849375433822979 -0.0019679846292423179 0 0.034845468413837649 -0.0045353056421332744 0 0.035968563484489874 -0.0019816017184478094 0 0.035209597610027128 -0.00038524365846158854 0 0.034849375433822979 -0.0019679846292423179 0 0.036087841091342519 -0.00072748863510962167 0 0.035968563484489874 -0.0019816017184478094 0 0.035209597610027128 -0.00038524365846158854 0 0.034565643596909827 4.0686817796334073e-05 0 0.034849375433822979 -0.0019679846292423179 0 0.033724657283789011 -0.00050457930884664542 0 0.035209597610027128 -0.00038524365846158854 0 0.034565643596909827 4.0686817796334073e-05 0 0.034849375433822979 -0.0019679846292423179 0 0.034849375433822979 -0.0019679846292423179 0 0.034845468413837649 -0.0045353056421332744 0 0.03350170460176051 -0.002884219631312317 0 0.034849375433822979 -0.0019679846292423179 0 0.03350170460176051 -0.002884219631312317 0 0.033724657283789011 -0.00050457930884664542 0 0.034845468413837649 -0.0045353056421332744 0 0.033775212508541236 -0.0055386209584406551 0 0.03350170460176051 -0.002884219631312317 0 0.036211333481591362 -0.0038736113484538126 0 0.034845468413837649 -0.0045353056421332744 0 0.035642286373809416 -0.0058677017213791382 0 0.035547231041338327 -0.0076350123626180537 0 0.035642286373809416 -0.0058677017213791382 0 0.034796617343038364 -0.006707187502572441 0 0.034845468413837649 -0.0045353056421332744 0 0.035642286373809416 -0.0058677017213791382 0 0.034796617343038364 -0.006707187502572441 0 0.034796617343038364 -0.006707187502572441 0 0.033775212508541236 -0.0055386209584406551 0 0.033865479092042461 -0.0069968435246148169 0 0.034845468413837649 -0.0045353056421332744 0 0.034796617343038364 -0.006707187502572441 0 0.033775212508541236 -0.0055386209584406551 0 0.033775212508541236 -0.0055386209584406551 0 0.032227868512505115 -0.0067453956362697213 0 0.031701824591500151 -0.0040204599491327781 0 0.033251190945714472 -0.0061088359735728378 0 0.034318553356866739 -0.0059410749236440043 0 0.033775212508541236 -0.0055386209584406551 0 0.033865479092042461 -0.0069968435246148169 0 0.033221034812213952 -0.0072442907374915518 0 0.034318553356866739 -0.0059410749236440043 0 0.034727485452347731 -0.0032328866124469663 0 0.038005595022468419 -0.0042741665044955385 0 0.037313268075016809 -0.0036842834071753893 0 0.037542018195012107 -0.0025529494756599798 0 0.038005595022468419 -0.0042741665044955385 0 0.037055836972910719 -0.0043749392758698829 0 0.037313268075016809 -0.0036842834071753893 0 0.037313268075016809 -0.0036842834071753893 0 0.037542018195012107 -0.0025529494756599798 0 0.036647673922212277 -0.0035594029957338566 0 0.033775212508541236 -0.0055386209584406551 0 0.031701824591500151 -0.0040204599491327781 0 0.03350170460176051 -0.002884219631312317 0 0.03350170460176051 -0.002884219631312317 0 0.033724657283789011 -0.00050457930884664542 0 0.031813260267303127 -0.00098003184596460601 0 0.033349308951075608 0.00095396256545786243 0 0.033724657283789011 -0.00050457930884664542 0 0.031813260267303127 -0.00098003184596460601 0 0.031701824591500151 -0.0040204599491327781 0 0.03350170460176051 -0.002884219631312317 0 0.031813260267303127 -0.00098003184596460601 0 0.034727485452347731 -0.0032328866124469663 0 0.034458397055911152 -0.0010083374388478812 0 0.037542018195012107 -0.0025529494756599798 0 0.037005767837535002 -0.0008666721859505466 0 0.036186684599731983 -0.0022326117093737397 0 0.037005767837535002 -0.0008666721859505466 0 0.034999956280193603 -0.00057428549741449827 0 0.036186684599731983 -0.0022326117093737397 0 0.036305333028435173 0.00089252708644447371 0 0.037005767837535002 -0.0008666721859505466 0 0.034999956280193603 -0.00057428549741449827 0 0.034656996725624868 0.001089831741896425 0 0.034458397055911152 -0.0010083374388478812 0 0.034999956280193603 -0.00057428549741449827 0 0.034999877309064432 -0.002655694370346664 0 0.036186684599731983 -0.0022326117093737397 0 0.034999877309064432 -0.002655694370346664 0 0.036186684599731983 -0.0022326117093737397 0 0.035776381705725085 -0.0036995836221481067 0 0.036186684599731983 -0.0022326117093737397 0 0.036647673922212277 -0.0035594029957338566 0 0.035776381705725085 -0.0036995836221481067 0 0.037542018195012107 -0.0025529494756599798 0 0.036186684599731983 -0.0022326117093737397 0 0.036647673922212277 -0.0035594029957338566 0 0.036117713867068212 -0.0048369436025570301 0 0.036575339079805494 -0.0037349426890755525 0 0.036582932365495341 -0.0045920545163468784 0 0.035942858229134213 -0.005038897017870741 0 0.036647673922212277 -0.0035594029957338566 0 0.036168019566959635 -0.0049127851246327037 0 0.036647673922212277 -0.0035594029957338566 0 0.035776381705725085 -0.0036995836221481067 0 0.036582932365495341 -0.0045920545163468784 0 0.037055836972910719 -0.0043749392758698829 0 0.036647673922212277 -0.0035594029957338566 0 0.037055836972910719 -0.0043749392758698829 0 0.037313268075016809 -0.0036842834071753893 0 0.036647673922212277 -0.0035594029957338566 0 0.034999957751449602 -0.0047370579905085643 0 0.034999877309064432 -0.002655694370346664 0 0.035776381705725085 -0.0036995836221481067 0 0.024895081804879995 -0.0070739856940500688 0 0.026169232042391084 -0.0066749833041325046 0 0.025937191279549552 -0.0081258069418323354 0 0.027614946614134456 0.0012518128259711547 0 0.027131390538474784 -2.9436605019171834e-05 0 0.027216657444286727 0.0063604539606806143 0 0.027715752607151402 0.0072412869636114558 0 0.028010046564261523 0.0066111294469112947 0 0.027333821080116439 0.008530535406665497 0 0.027532884863006656 0.0080810704611942105 0 0.027752083194863188 0.0082272246696931985 0 0.031792040995610567 -0.0033773680439980278 0 0.030631260802772845 -0.0051711738038882635 0 0.028300926725373748 -0.0044777821017278245 0 0.027333821080116439 0.008530535406665497 0 0.027960547668947528 0.0086594278835190538 0 0.027752083194863188 0.0082272246696931985 0 0.027614946614134456 0.0012518128259711547 0 0.031536453151771893 -0.0034347488257505639 0 0.027333821080116439 0.008530535406665497 0 0.027532884863006656 0.0080810704611942105 0 0.027273369022670416 0.007709708020248715 0 0.027614946614134456 0.0012518128259711547 0 0.027092567328204219 0.010316324641978795 0 0.027532884863006656 0.0080810704611942105 0 0.027752083194863188 0.0082272246696931985 0 0.027747469619072946 0.0078973967535184153 0 0.027532884863006656 0.0080810704611942105 0 0.027747469619072946 0.0078973967535184153 0 0.027273369022670416 0.007709708020248715 0 0.027715752607151402 0.0072412869636114558 0 0.027522279653076402 0.0076003189721377826 0 0.027273369022670416 0.007709708020248715 0 0.027216657444286727 0.0063604539606806143 0 0.027715752607151402 0.0072412869636114558 0 0.027273369022670416 0.007709708020248715 0 0.028200356543429297 0.0072101949785693805 0 0.028724111450878352 0.0067539000045533006 0 0.028010046564261523 0.0066111294469112947 0 0.027715752607151402 0.0072412869636114558 0 0.028200356543429297 0.0072101949785693805 0 0.028010046564261523 0.0066111294469112947 0 0.028200356543429297 0.0072101949785693805 0 0.028724111450878352 0.0067539000045533006 0 0.028604836369140726 0.0076419301030566543 0 0.022696401918306474 -0.0032150441879400552 0 0.022815390180100762 -0.0040923584361073585 0 0.022170622260377245 -0.0034620343723374063 0 0.026326554714403629 -0.0012447878389441297 0 0.024866578764476205 0.0048500010928183629 0 0.026326554714403629 -0.0012447878389441297 0 0.021332830647094483 -0.003514028488671773 0 0.022665739595842987 -0.0033077274997884427 0 0.022555057898509773 -0.002561953145129922 0 0.02228134070324048 -0.0028762217351706409 0 0.027507959376146113 -0.0062118311267270222 0 0.027023971232646434 -0.007106896820633834 0 0.027710757683151555 -0.0077836020825496986 0 0.022665739595842987 -0.0033077274997884427 0 0.022170622260377245 -0.0034620343723374063 0 0.02228134070324048 -0.0028762217351706409 0 0.026326554714403629 -0.0012447878389441297 0 0.0252930676065557 -0.0070232969272407044 0 0.026326554714403629 -0.0012447878389441297 0 0.027131390538474784 -2.9436605019171834e-05 0 0.026169232042391084 -0.0066749833041325046 0 0.026723006309555375 -0.0077722838545480066 0 0.025937191279549552 -0.0081258069418323354 0 0.027507959376146113 -0.0062118311267270222 0 0.026169232042391084 -0.0066749833041325046 0 0.027023971232646434 -0.007106896820633834 0 0.026169232042391084 -0.0066749833041325046 0 0.027023971232646434 -0.007106896820633834 0 0.026723006309555375 -0.0077722838545480066 0 0.02620762011956183 -0.0089172835676154128 0 0.026816875308660729 -0.0086882481867548052 0 0.025937191279549552 -0.0081258069418323354 0 0.026723006309555375 -0.0077722838545480066 0 0.026816875308660729 -0.0086882481867548052 0 0.025937191279549552 -0.0081258069418323354 0 0.024705528114717636 -0.0077622504432424636 0 0.024935936865366982 -0.0094260958711967994 0 0.025316380054122848 -0.0077851561594994836 0 0.027549556528039188 -0.0078548414499115607 0 0.027617475665497434 -0.0090924929268417186 0 0.026816875308660729 -0.0086882481867548052 0 0.0252930676065557 -0.0070232969272407044 0 0.02632439366337163 -0.00947791497115885 0 0.024813714976546265 -0.011183294832631072 0 0.023210367020411172 -0.0072312596227491104 0 0.022555057898509773 -0.002561953145129922 0 0.02228134070324048 -0.0028762217351706409 0 0.02231793340504884 -0.0025615053155438657 0 0.0252930676065557 -0.0070232969272407044 0 0.023210367020411172 -0.0072312596227491104 0 0.027452906377264216 -0.0076801964138002183 0 0.0252930676065557 -0.0070232969272407044 0 0.027023971232646434 -0.007106896820633834 0 0.026723006309555375 -0.0077722838545480066 0 0.027710757683151555 -0.0077836020825496986 0 0.026723006309555375 -0.0077722838545480066 0 0.027549556528039188 -0.0078548414499115607 0 0.026816875308660729 -0.0086882481867548052 0 0.025169758949000247 -0.01100442012855805 0 0.025235405964951843 -0.009436982637843783 0 0.024935936865366982 -0.0094260958711967994 0 0.025235405964951843 -0.009436982637843783 0 0.024935936865366982 -0.0094260958711967994 0 0.025316380054122848 -0.0077851561594994836 0 0.025529755107449321 -0.010187385284470591 0 0.024813714976546265 -0.011183294832631072 0 0.027478514463092088 -0.010209734082679911 0 0.027617475665497434 -0.0090924929268417186 0 0.027023159735721971 -0.0095883697048715442 0 0.025529755107449321 -0.010187385284470591 0 0.02632439366337163 -0.00947791497115885 0 0.027617475665497434 -0.0090924929268417186 0 0.027023159735721971 -0.0095883697048715442 0 0.026816875308660729 -0.0086882481867548052 0 0.02620762011956183 -0.0089172835676154128 0 0.026816875308660729 -0.0086882481867548052 0 0.026523866294407214 -0.0093067458025576505 0 0.026471847384015895 -0.009858160120382398 0 0.027023159735721971 -0.0095883697048715442 0 0.026523866294407214 -0.0093067458025576505 0 0.027023159735721971 -0.0095883697048715442 0 0.026816875308660729 -0.0086882481867548052 0 0.026523866294407214 -0.0093067458025576505 0 0.02620762011956183 -0.0089172835676154128 0 0.026523866294407214 -0.0093067458025576505 0 0.026081654762192118 -0.0094386375850633881 0 0.026471847384015895 -0.009858160120382398 0 0.026523866294407214 -0.0093067458025576505 0 0.026081654762192118 -0.0094386375850633881 0 0.031830449393638952 -0.0097197476073025979 0 0.028610725729072771 -0.0083173077157959029 0 0.026081654762192118 -0.0094386375850633881 0 0.025640984322099818 -0.0095624397287370211 0 0.025592679537536758 -0.0089397326322880992 0 0.026059931219097131 -0.0098268599939071808 0 0.026081654762192118 -0.0094386375850633881 0 0.025640984322099818 -0.0095624397287370211 0 0.025166253681229947 -0.009514629194039571 0 0.025592679537536758 -0.0089397326322880992 0 0.025013067581756955 -0.0083250059693830997 0 0.025640984322099818 -0.0095624397287370211 0 0.025166253681229947 -0.009514629194039571 0 0.025592679537536758 -0.0089397326322880992 0 0.033548464850356112 -0.011477868980373906 0 0.031830449393638952 -0.0097197476073025979 0 0.02620762011956183 -0.0089172835676154128 0 0.026081654762192118 -0.0094386375850633881 0 0.025592679537536758 -0.0089397326322880992 0 0.02620762011956183 -0.0089172835676154128 0 0.025592679537536758 -0.0089397326322880992 0 0.025937191279549552 -0.0081258069418323354 0 0.025592679537536758 -0.0089397326322880992 0 0.025937191279549552 -0.0081258069418323354 0 0.025013067581756955 -0.0083250059693830997 0 0.024895081804879995 -0.0070739856940500688 0 0.025937191279549552 -0.0081258069418323354 0 0.025013067581756955 -0.0083250059693830997 0 0.027614946614134456 0.0012518128259711547 0 0.028610725729072771 -0.0083173077157959029 0 0.031792040995610567 -0.0033773680439980278 0 0.032064774316342644 -0.006317477338788258 0 0.030631260802772845 -0.0051711738038882635 0 0.030631260802772845 -0.0051711738038882635 0 0.030298647916224171 -0.0068634818789635793 0 0.028300926725373748 -0.0044777821017278245 0 0.032064774316342644 -0.006317477338788258 0 0.030631260802772845 -0.0051711738038882635 0 0.030298647916224171 -0.0068634818789635793 0 0.036130379566689103 -0.010002983861261822 0 0.036108172225572062 -0.010070945874823925 0 0.035906194796167509 -0.010008194457085335 0 0.03232048308700787 -0.009269030976528583 0 0.032064774316342644 -0.006317477338788258 0 0.030298647916224171 -0.0068634818789635793 0 0.031830449393638952 -0.0097197476073025979 0 0.033749588130443341 -0.0090369316622998675 0 0.036095266190454611 -0.010101192223477273 0 0.036130379566689103 -0.010002983861261822 0 0.036108172225572062 -0.010070945874823925 0 0.035229470355880782 -0.010977028132857445 0 0.035213354086992152 -0.011069365900260692 0 0.035452235867295512 -0.01068312851513421 0 0.033548464850356112 -0.011477868980373906 0 0.035845816245972918 -0.010492691669586411 0 0.036090552554026788 -0.010107185485034559 0 0.036095266190454611 -0.010101192223477273 0 0.036108172225572062 -0.010070945874823925 0 0.035229470355880782 -0.010977028132857445 0 0.035452235867295512 -0.01068312851513421 0 0.035467111748308959 -0.010682205767485948 0 0.035467111748308959 -0.010682205767485948 0 0.035643452081530788 -0.010233976350212726 0 0.035906194796167509 -0.010008194457085335 0 0.035452235867295512 -0.01068312851513421 0 0.035467111748308959 -0.010682205767485948 0 0.035906194796167509 -0.010008194457085335 0 0.035845816245972918 -0.010492691669586411 0 0.035728457171602591 -0.010063109177633076 0 0.035643452081530788 -0.010233976350212726 0 0.035906877632105511 -0.0097975965764267106 0 0.035906194796167509 -0.010008194457085335 0 0.035412807750927151 -0.010610509154332565 0 0.035467111748308959 -0.010682205767485948 0 0.035643452081530788 -0.010233976350212726 0 0.035412807750927151 -0.010610509154332565 0 0.035390401006479721 -0.010345408203297367 0 0.035643452081530788 -0.010233976350212726 0 0.035390401006479721 -0.010345408203297367 0 0.035643452081530788 -0.010233976350212726 0 0.035736984768740529 -0.0098492772401292568 0 0.035643452081530788 -0.010233976350212726 0 0.035906877632105511 -0.0097975965764267106 0 0.035736984768740529 -0.0098492772401292568 0 0.035906877632105511 -0.0097975965764267106 0 0.035736984768740529 -0.0098492772401292568 0 0.036047644236754245 -0.0094047972610271161 0 0.035736984768740529 -0.0098492772401292568 0 0.036047644236754245 -0.0094047972610271161 0 0.036030459317929517 -0.0091576697773681232 0 0.035906877632105511 -0.0097975965764267106 0 0.036047644236754245 -0.0094047972610271161 0 0.036158151866458918 -0.009473030251423117 0 0.036158151866458918 -0.009473030251423117 0 0.036095302223127353 -0.0095270802200305808 0 0.035906194796167509 -0.010008194457085335 0 0.034444944843476683 -0.0052713165701631856 0 0.031536453151771893 -0.0034347488257505639 0 0.033749588130443341 -0.0090369316622998675 0 0.031536453151771893 -0.0034347488257505639 0 0.036130379566689103 -0.010002983861261822 0 0.036095302223127353 -0.0095270802200305808 0 0.035906194796167509 -0.010008194457085335 0 0.035906877632105511 -0.0097975965764267106 0 0.036158151866458918 -0.009473030251423117 0 0.035906194796167509 -0.010008194457085335 0 0.034624195325404332 -0.010684064250362862 0 0.035115678890542831 -0.0098991903852633303 0 0.035159497318338985 -0.01023318735205399 0 0.035115678890542831 -0.0098991903852633303 0 0.035159497318338985 -0.01023318735205399 0 0.035662263454812444 -0.0094089195136849262 0 0.035159497318338985 -0.01023318735205399 0 0.035582079472426524 -0.0098032338640037051 0 0.035662263454812444 -0.0094089195136849262 0 0.035390401006479721 -0.010345408203297367 0 0.035159497318338985 -0.01023318735205399 0 0.035582079472426524 -0.0098032338640037051 0 0.035390401006479721 -0.010345408203297367 0 0.035736984768740529 -0.0098492772401292568 0 0.035582079472426524 -0.0098032338640037051 0 0.035582079472426524 -0.0098032338640037051 0 0.036030459317929517 -0.0091576697773681232 0 0.035662263454812444 -0.0094089195136849262 0 0.035736984768740529 -0.0098492772401292568 0 0.035582079472426524 -0.0098032338640037051 0 0.036030459317929517 -0.0091576697773681232 0 0.035829464304464355 -0.0086108216052099614 0 0.035662263454812444 -0.0094089195136849262 0 0.036390798760037125 -0.0082130268252561568 0 0.036030459317929517 -0.0091576697773681232 0 0.036390798760037125 -0.0082130268252561568 0 0.036644867329115843 -0.0083060855420863302 0 0.036030459317929517 -0.0091576697773681232 0 0.035662263454812444 -0.0094089195136849262 0 0.036390798760037125 -0.0082130268252561568 0 0.036390798760037125 -0.0082130268252561568 0 0.036644867329115843 -0.0083060855420863302 0 0.03718629155813534 -0.0068472963338939838 0 0.032509642210915006 0.00055634855224871303 0 0.033263920691254986 0.00049670169061171528 0 0.035829464304464355 -0.0086108216052099614 0 0.036441616795347909 -0.0068283163465561528 0 0.036390798760037125 -0.0082130268252561568 0 0.031536453151771893 -0.0034347488257505639 0 0.032509642210915006 0.00055634855224871303 0 0.036158151866458918 -0.009473030251423117 0 0.036320970693493083 -0.0094046160483398453 0 0.036644867329115843 -0.0083060855420863302 0 0.027960547668947528 0.0086594278835190538 0 0.028495126399009214 0.008250956896147018 0 0.028049519325099123 0.0081920838530265272 0 0.027960547668947528 0.0086594278835190538 0 0.028049519325099123 0.0081920838530265272 0 0.027752083194863188 0.0082272246696931985 0 0.036047644236754245 -0.0094047972610271161 0 0.036158151866458918 -0.009473030251423117 0 0.036644867329115843 -0.0083060855420863302 0 0.036047644236754245 -0.0094047972610271161 0 0.036030459317929517 -0.0091576697773681232 0 0.036644867329115843 -0.0083060855420863302 0 0.028495126399009214 0.008250956896147018 0 0.028049519325099123 0.0081920838530265272 0 0.028269230784650313 0.0079072581206628412 0 0.028049519325099123 0.0081920838530265272 0 0.027747469619072946 0.0078973967535184153 0 0.028269230784650313 0.0079072581206628412 0 0.028049519325099123 0.0081920838530265272 0 0.027752083194863188 0.0082272246696931985 0 0.027747469619072946 0.0078973967535184153 0 0.027747469619072946 0.0078973967535184153 0 0.027873739870339684 0.0076200581416532211 0 0.027470511681082742 0.0077240958185471626 0 0.027873739870339684 0.0076200581416532211 0 0.028269230784650313 0.0079072581206628412 0 0.028316940164812985 0.0074500340308964828 0 0.027747469619072946 0.0078973967535184153 0 0.027873739870339684 0.0076200581416532211 0 0.028269230784650313 0.0079072581206628412 0 0.028495126399009214 0.008250956896147018 0 0.028269230784650313 0.0079072581206628412 0 0.02930895402639698 0.0079545791737640377 0 0.028269230784650313 0.0079072581206628412 0 0.028316940164812985 0.0074500340308964828 0 0.02930895402639698 0.0079545791737640377 0 0.028316940164812985 0.0074500340308964828 0 0.028686781487296378 0.0070816341448148006 0 0.02930895402639698 0.0079545791737640377 0 0.028316940164812985 0.0074500340308964828 0 0.028686781487296378 0.0070816341448148006 0 0.028191254755349216 0.0069390652966952763 0 0.028316940164812985 0.0074500340308964828 0 0.02779017945556591 0.0072240242587401386 0 0.028191254755349216 0.0069390652966952763 0 0.027873739870339684 0.0076200581416532211 0 0.02779017945556591 0.0072240242587401386 0 0.027429560090548508 0.0075019180640824509 0 0.027873739870339684 0.0076200581416532211 0 0.028316940164812985 0.0074500340308964828 0 0.02779017945556591 0.0072240242587401386 0 0.036441616795347909 -0.0068283163465561528 0 0.03718629155813534 -0.0068472963338939838 0 0.037557952657679881 -0.0048345527223716831 0 0.036441616795347909 -0.0068283163465561528 0 0.036390798760037125 -0.0082130268252561568 0 0.03718629155813534 -0.0068472963338939838 0 0.028686781487296378 0.0070816341448148006 0 0.02930895402639698 0.0079545791737640377 0 0.029245654774190555 0.0066924622072833499 0 0.033263920691254986 0.00049670169061171528 0 0.034118032170353321 0.0013083797248528498 0 0.02930895402639698 0.0079545791737640377 0 0.030702705732604162 0.0073404654495022766 0 0.029245654774190555 0.0066924622072833499 0 0.030702705732604162 0.0073404654495022766 0 0.029245654774190555 0.0066924622072833499 0 0.029837151192167014 0.0057970377683500222 0 0.030702705732604162 0.0073404654495022766 0 0.029837151192167014 0.0057970377683500222 0 0.031353974139646287 0.0054615459932698292 0 0.028644568555245744 0.0052554716141355829 0 0.029245654774190555 0.0066924622072833499 0 0.028394859510382807 0.0063408733256523509 0 0.028644568555245744 0.0052554716141355829 0 0.029245654774190555 0.0066924622072833499 0 0.029837151192167014 0.0057970377683500222 0 0.028644568555245744 0.0052554716141355829 0 0.030871989201996852 0.004005831362126515 0 0.029837151192167014 0.0057970377683500222 0 0.030871989201996852 0.004005831362126515 0 0.029837151192167014 0.0057970377683500222 0 0.031353974139646287 0.0054615459932698292 0 0.02779017945556591 0.0072240242587401386 0 0.028191254755349216 0.0069390652966952763 0 0.027722554455509606 0.0066469745298766321 0 0.028191254755349216 0.0069390652966952763 0 0.028394859510382807 0.0063408733256523509 0 0.027722554455509606 0.0066469745298766321 0 0.028686781487296378 0.0070816341448148006 0 0.029245654774190555 0.0066924622072833499 0 0.028394859510382807 0.0063408733256523509 0 0.028686781487296378 0.0070816341448148006 0 0.028191254755349216 0.0069390652966952763 0 0.028394859510382807 0.0063408733256523509 0 0.028586350271281868 0.0058906365117852031 0 0.028644568555245744 0.0052554716141355829 0 0.028394859510382807 0.0063408733256523509 0 0.028586350271281868 0.0058906365117852031 0 0.028394859510382807 0.0063408733256523509 0 0.028144734778315299 0.0062971740201026869 0 0.028394859510382807 0.0063408733256523509 0 0.028144734778315299 0.0062971740201026869 0 0.027722554455509606 0.0066469745298766321 0 0.027938165347398351 0.00626317829927436 0 0.028144734778315299 0.0062971740201026869 0 0.027722554455509606 0.0066469745298766321 0 0.027938165347398351 0.00626317829927436 0 0.027722554455509606 0.0066469745298766321 0 0.027299953793060109 0.0064889063392317651 0 0.027722554455509606 0.0066469745298766321 0 0.027299953793060109 0.0064889063392317651 0 0.026985333640054364 0.006829099051136673 0 0.027299953793060109 0.0064889063392317651 0 0.026667623183281391 0.0064559383153570222 0 0.026985333640054364 0.006829099051136673 0 0.026667623183281391 0.0064559383153570222 0 0.026985333640054364 0.006829099051136673 0 0.026227767249689327 0.0067048635312066196 0 0.026985333640054364 0.006829099051136673 0 0.027330370231532612 0.0071349644972416495 0 0.026756501742331941 0.0073686413642165055 0 0.026985333640054364 0.006829099051136673 0 0.026756501742331941 0.0073686413642165055 0 0.026227767249689327 0.0067048635312066196 0 0.027722554455509606 0.0066469745298766321 0 0.026985333640054364 0.006829099051136673 0 0.027330370231532612 0.0071349644972416495 0 0.02779017945556591 0.0072240242587401386 0 0.027722554455509606 0.0066469745298766321 0 0.027330370231532612 0.0071349644972416495 0 0.027330370231532612 0.0071349644972416495 0 0.027429560090548508 0.0075019180640824509 0 0.026756501742331941 0.0073686413642165055 0 0.02779017945556591 0.0072240242587401386 0 0.027330370231532612 0.0071349644972416495 0 0.027429560090548508 0.0075019180640824509 0 0.027429560090548508 0.0075019180640824509 0 0.026756501742331941 0.0073686413642165055 0 0.027247779661932085 0.0078160821188989656 0 0.027103413863515276 0.0078488199264960378 0 0.027541607074657953 0.0078550584096103871 0 0.027247779661932085 0.0078160821188989656 0 0.027522279653076402 0.0076003189721377826 0 0.027944088927694559 0.0077780861632755788 0 0.026756501742331941 0.0073686413642165055 0 0.027247779661932085 0.0078160821188989656 0 0.026409934390253978 0.0080151326184815085 0 0.027715752607151402 0.0072412869636114558 0 0.027522279653076402 0.0076003189721377826 0 0.027944088927694559 0.0077780861632755788 0 0.027247779661932085 0.0078160821188989656 0 0.027522279653076402 0.0076003189721377826 0 0.027273369022670416 0.007709708020248715 0 0.027247779661932085 0.0078160821188989656 0 0.027273369022670416 0.007709708020248715 0 0.027470511681082742 0.0077240958185471626 0 0.027747469619072946 0.0078973967535184153 0 0.027273369022670416 0.007709708020248715 0 0.027470511681082742 0.0077240958185471626 0 0.027873739870339684 0.0076200581416532211 0 0.027429560090548508 0.0075019180640824509 0 0.027470511681082742 0.0077240958185471626 0 0.027429560090548508 0.0075019180640824509 0 0.027247779661932085 0.0078160821188989656 0 0.027470511681082742 0.0077240958185471626 0 0.024866578764476205 0.0048500010928183629 0 0.022933587596355557 0.0018370799407511761 0 0.025381203794837517 0.008271147599659974 0 0.024698468557373794 0.0076706037049885847 0 0.024220747684575196 0.0082820664547719521 0 0.024866578764476205 0.0048500010928183629 0 0.027541607074657953 0.0078550584096103871 0 0.028200356543429297 0.0072101949785693805 0 0.028604836369140726 0.0076419301030566543 0 0.027944088927694559 0.0077780861632755788 0 0.027715752607151402 0.0072412869636114558 0 0.028200356543429297 0.0072101949785693805 0 0.027944088927694559 0.0077780861632755788 0 0.025668568733545692 0.0080550067887548531 0 0.026409934390253978 0.0080151326184815085 0 0.025699155342869522 0.0071090463245872676 0 0.026756501742331941 0.0073686413642165055 0 0.026409934390253978 0.0080151326184815085 0 0.025699155342869522 0.0071090463245872676 0 0.025699155342869522 0.0071090463245872676 0 0.024194240574787328 0.006939635514325972 0 0.024698468557373794 0.0076706037049885847 0 0.025381203794837517 0.008271147599659974 0 0.025699155342869522 0.0071090463245872676 0 0.024698468557373794 0.0076706037049885847 0 0.024866578764476205 0.0048500010928183629 0 0.02574558615434858 0.0085025418841028263 0 0.025699155342869522 0.0071090463245872676 0 0.024880077134301203 0.0063951968194279783 0 0.024194240574787328 0.006939635514325972 0 0.025699155342869522 0.0071090463245872676 0 0.026227767249689327 0.0067048635312066196 0 0.025685896418298708 0.006295804925503393 0 0.026756501742331941 0.0073686413642165055 0 0.025699155342869522 0.0071090463245872676 0 0.026227767249689327 0.0067048635312066196 0 0.026114161591217062 0.0062500323683730482 0 0.026227767249689327 0.0067048635312066196 0 0.025685896418298708 0.006295804925503393 0 0.026114161591217062 0.0062500323683730482 0 0.026667623183281391 0.0064559383153570222 0 0.026227767249689327 0.0067048635312066196 0 0.025160908886906579 0.0057365238783782307 0 0.024880077134301203 0.0063951968194279783 0 0.025685896418298708 0.006295804925503393 0 0.025699155342869522 0.0071090463245872676 0 0.024880077134301203 0.0063951968194279783 0 0.025685896418298708 0.006295804925503393 0 0.025160908886906579 0.0057365238783782307 0 0.024278452666826638 0.0057283646734911297 0 0.024880077134301203 0.0063951968194279783 0 0.024278452666826638 0.0057283646734911297 0 0.024880077134301203 0.0063951968194279783 0 0.023993705851795093 0.0062857102412366755 0 0.024278452666826638 0.0057283646734911297 0 0.023364845121395628 0.0055734245959559491 0 0.023993705851795093 0.0062857102412366755 0 0.023364845121395628 0.0055734245959559491 0 0.023993705851795093 0.0062857102412366755 0 0.023159072174896409 0.0063534069752358138 0 0.023364845121395628 0.0055734245959559491 0 0.023159072174896409 0.0063534069752358138 0 0.022725388488543871 0.0058419663978060794 0 0.023993705851795093 0.0062857102412366755 0 0.023159072174896409 0.0063534069752358138 0 0.024194240574787328 0.006939635514325972 0 0.023159072174896409 0.0063534069752358138 0 0.024194240574787328 0.006939635514325972 0 0.022986361138845109 0.0070801535702122468 0 0.024880077134301203 0.0063951968194279783 0 0.023993705851795093 0.0062857102412366755 0 0.024194240574787328 0.006939635514325972 0 0.022215129725467617 0.005340074168887962 0 0.021950191165944544 0.0060502748713297467 0 0.021361969493330545 0.0055734433683308562 0 0.021950191165944544 0.0060502748713297467 0 0.021181375567835867 0.0060651470877084923 0 0.021361969493330545 0.0055734433683308562 0 0.022215129725467617 0.005340074168887962 0 0.021950191165944544 0.0060502748713297467 0 0.022725388488543871 0.0058419663978060794 0 0.021950191165944544 0.0060502748713297467 0 0.022725388488543871 0.0058419663978060794 0 0.022531193273569949 0.0064604188754976213 0 0.023159072174896409 0.0063534069752358138 0 0.022725388488543871 0.0058419663978060794 0 0.022531193273569949 0.0064604188754976213 0 0.023364845121395628 0.0055734245959559491 0 0.022215129725467617 0.005340074168887962 0 0.022725388488543871 0.0058419663978060794 0 0.023159072174896409 0.0063534069752358138 0 0.022531193273569949 0.0064604188754976213 0 0.022986361138845109 0.0070801535702122468 0 0.021950191165944544 0.0060502748713297467 0 0.022531193273569949 0.0064604188754976213 0 0.02210301651593365 0.0067921630844843348 0 0.022531193273569949 0.0064604188754976213 0 0.02210301651593365 0.0067921630844843348 0 0.022986361138845109 0.0070801535702122468 0 0.021950191165944544 0.0060502748713297467 0 0.021508451942075235 0.0064739021126336517 0 0.021181375567835867 0.0060651470877084923 0 0.021950191165944544 0.0060502748713297467 0 0.021508451942075235 0.0064739021126336517 0 0.02210301651593365 0.0067921630844843348 0 0.020990500891639476 -0.00049642398575239948 0 0.019846798079671435 0.0012934854510172037 0 0.021508451942075235 0.0064739021126336517 0 0.021609646805538067 0.0070383710002581276 0 0.020706177385598563 0.0064878511178290453 0 0.021609646805538067 0.0070383710002581276 0 0.022247217614137307 0.0074228993666745173 0 0.021627356312170457 0.007947950214561213 0 0.021609646805538067 0.0070383710002581276 0 0.021627356312170457 0.007947950214561213 0 0.020706177385598563 0.0064878511178290453 0 0.021508451942075235 0.0064739021126336517 0 0.021609646805538067 0.0070383710002581276 0 0.02210301651593365 0.0067921630844843348 0 0.021609646805538067 0.0070383710002581276 0 0.022247217614137307 0.0074228993666745173 0 0.02210301651593365 0.0067921630844843348 0 0.022247217614137307 0.0074228993666745173 0 0.022986361138845109 0.0070801535702122468 0 0.022960680230208065 0.0081638750314904883 0 0.022247217614137307 0.0074228993666745173 0 0.02210301651593365 0.0067921630844843348 0 0.022986361138845109 0.0070801535702122468 0 0.019834777701558535 -0.0043782087263677825 0 0.020892019442943121 -0.0043545981734708639 0 0.020600128215024507 -0.00389353724230316 0 0.020990500891639476 -0.00049642398575239948 0 0.021879261366170091 0.0020601010153954999 0 0.019834777701558535 -0.0043782087263677825 0 0.01975821256429575 -0.0044727325186913565 0 0.020892019442943121 -0.0043545981734708639 0 0.022247217614137307 0.0074228993666745173 0 0.021627356312170457 0.007947950214561213 0 0.022960680230208065 0.0081638750314904883 0 0.020990500891639476 -0.00049642398575239948 0 0.018686878242010558 -0.0042178339278833082 0 0.019747011464627328 -0.0044887041202750829 0 0.019354144034805759 -0.0040654019526842186 0 0.018779838769648952 -0.0045334358312125005 0 0.019834777701558535 -0.0043782087263677825 0 0.019747011464627328 -0.0044887041202750829 0 0.019354144034805759 -0.0040654019526842186 0 0.02061325699662616 -0.001061828426924101 0 0.020990500891639476 -0.00049642398575239948 0 0.024698468557373794 0.0076706037049885847 0 0.023771457241929875 0.0075790631276270977 0 0.024220747684575196 0.0082820664547719521 0 0.024194240574787328 0.006939635514325972 0 0.024698468557373794 0.0076706037049885847 0 0.023771457241929875 0.0075790631276270977 0 0.023771457241929875 0.0075790631276270977 0 0.022986361138845109 0.0070801535702122468 0 0.022960680230208065 0.0081638750314904883 0 0.024194240574787328 0.006939635514325972 0 0.023771457241929875 0.0075790631276270977 0 0.022986361138845109 0.0070801535702122468 0 0.020892019442943121 -0.0043545981734708639 0 0.021907958543788745 -0.0042153255009615047 0 0.021426393877873286 -0.0036238276156171337 0 0.021879261366170091 0.0020601010153954999 0 0.022933587596355557 0.0018370799407511761 0 0.023771457241929875 0.0075790631276270977 0 0.022960680230208065 0.0081638750314904883 0 0.024220747684575196 0.0082820664547719521 0 0.022815390180100762 -0.0040923584361073585 0 0.021907958543788745 -0.0042153255009615047 0 0.022170622260377245 -0.0034620343723374063 0 0.022170622260377245 -0.0034620343723374063 0 0.021876401480858804 -0.0032337270807452465 0 0.021426393877873286 -0.0036238276156171337 0 0.021907958543788745 -0.0042153255009615047 0 0.022170622260377245 -0.0034620343723374063 0 0.021426393877873286 -0.0036238276156171337 0 0.021876401480858804 -0.0032337270807452465 0 0.021599306632805928 -0.0030040734879320068 0 0.021426393877873286 -0.0036238276156171337 0 0.022170622260377245 -0.0034620343723374063 0 0.021876401480858804 -0.0032337270807452465 0 0.02228134070324048 -0.0028762217351706409 0 0.021599306632805928 -0.0030040734879320068 0 0.022314662970948786 -0.0024443568115143496 0 0.021021223834107785 -0.0023410748813527077 0 0.021876401480858804 -0.0032337270807452465 0 0.02228134070324048 -0.0028762217351706409 0 0.021599306632805928 -0.0030040734879320068 0 0.02228134070324048 -0.0028762217351706409 0 0.021599306632805928 -0.0030040734879320068 0 0.022314662970948786 -0.0024443568115143496 0 0.022796469554408845 -0.0024380285583571167 0 0.023210367020411172 -0.0072312596227491104 0 0.021599306632805928 -0.0030040734879320068 0 0.020730911658278922 -0.0033139509354125612 0 0.021021223834107785 -0.0023410748813527077 0 0.021599306632805928 -0.0030040734879320068 0 0.021426393877873286 -0.0036238276156171337 0 0.020730911658278922 -0.0033139509354125612 0 0.021426393877873286 -0.0036238276156171337 0 0.020600128215024507 -0.00389353724230316 0 0.020730911658278922 -0.0033139509354125612 0 0.020892019442943121 -0.0043545981734708639 0 0.021426393877873286 -0.0036238276156171337 0 0.020600128215024507 -0.00389353724230316 0 0.019834777701558535 -0.0043782087263677825 0 0.020600128215024507 -0.00389353724230316 0 0.019927343627757541 -0.0036882579976304274 0 0.020600128215024507 -0.00389353724230316 0 0.020730911658278922 -0.0033139509354125612 0 0.019927343627757541 -0.0036882579976304274 0 0.019834777701558535 -0.0043782087263677825 0 0.019354144034805759 -0.0040654019526842186 0 0.019927343627757541 -0.0036882579976304274 0 0.019354144034805759 -0.0040654019526842186 0 0.019927343627757541 -0.0036882579976304274 0 0.019250038087773303 -0.003404169467480846 0 0.019250038087773303 -0.003404169467480846 0 0.019905401592892842 -0.0029795180379554738 0 0.018823709811285179 -0.0029273951713402078 0 0.019905401592892842 -0.0029795180379554738 0 0.019542074391179848 -0.0022465461250850741 0 0.018823709811285179 -0.0029273951713402078 0 0.019927343627757541 -0.0036882579976304274 0 0.019250038087773303 -0.003404169467480846 0 0.019905401592892842 -0.0029795180379554738 0 0.020730911658278922 -0.0033139509354125612 0 0.019905401592892842 -0.0029795180379554738 0 0.021021223834107785 -0.0023410748813527077 0 0.020730911658278922 -0.0033139509354125612 0 0.019927343627757541 -0.0036882579976304274 0 0.019905401592892842 -0.0029795180379554738 0 0.019905401592892842 -0.0029795180379554738 0 0.019542074391179848 -0.0022465461250850741 0 0.021021223834107785 -0.0023410748813527077 0 0.018241439810420583 -0.013230784773247132 0 0.020023434907329461 -0.011585831107740339 0 0.021562077443242875 -0.013334332748767316 0 0.018877699852724972 -0.0076565946215379011 0 0.021306022205108764 -0.0079315947859171405 0 0.018241439810420583 -0.013230784773247132 0 0.017983491061909294 -0.01004854921467699 0 0.016337785936988022 -0.011563025700516054 0 0.018241439810420583 -0.013230784773247132 0 0.017983491061909294 -0.01004854921467699 0 0.020023434907329461 -0.011585831107740339 0 0.017983491061909294 -0.01004854921467699 0 0.020023434907329461 -0.011585831107740339 0 0.020267046800142935 -0.010029198514506061 0 0.020023434907329461 -0.011585831107740339 0 0.021746001960271034 -0.011193287907630443 0 0.020267046800142935 -0.010029198514506061 0 0.020023434907329461 -0.011585831107740339 0 0.021746001960271034 -0.011193287907630443 0 0.021562077443242875 -0.013334332748767316 0 0.021746001960271034 -0.011193287907630443 0 0.023085581191649471 -0.012012392082455194 0 0.021562077443242875 -0.013334332748767316 0 0.021746001960271034 -0.011193287907630443 0 0.023085581191649471 -0.012012392082455194 0 0.023257256136575429 -0.010622135164669014 0 0.024404399966063674 -0.011651506635172719 0 0.023085581191649471 -0.012012392082455194 0 0.023257256136575429 -0.010622135164669014 0 0.023210367020411172 -0.0072312596227491104 0 0.021306022205108764 -0.0079315947859171405 0 0.023085581191649471 -0.012012392082455194 0 0.024326120792598254 -0.013356768429387636 0 0.021562077443242875 -0.013334332748767316 0 0.024404399966063674 -0.011651506635172719 0 0.023085581191649471 -0.012012392082455194 0 0.024326120792598254 -0.013356768429387636 0 0.015110334012978724 -0.0081517402994116858 0 0.014327592262678591 -0.0081430231838469855 0 0.014819697797374033 -0.0069322979592791774 0 0.015096838521489556 -0.0074473693699728455 0 0.015110334012978724 -0.0081517402994116858 0 0.015251795101281135 -0.007688808505677552 0 0.015110334012978724 -0.0081517402994116858 0 0.015251795101281135 -0.007688808505677552 0 0.015379712871519588 -0.0082376323216070985 0 0.015110334012978724 -0.0081517402994116858 0 0.015379712871519588 -0.0082376323216070985 0 0.015824800732006958 -0.008689241769133051 0 0.015096838521489556 -0.0074473693699728455 0 0.015251795101281135 -0.007688808505677552 0 0.015172989818781346 -0.0067607904119824196 0 0.015251795101281135 -0.007688808505677552 0 0.015172989818781346 -0.0067607904119824196 0 0.015336560391257142 -0.0072509119748739382 0 0.015251795101281135 -0.007688808505677552 0 0.015354635027077103 -0.0077054607950692335 0 0.015336560391257142 -0.0072509119748739382 0 0.015251795101281135 -0.007688808505677552 0 0.015354635027077103 -0.0077054607950692335 0 0.01541070049735882 -0.0080448682085580963 0 0.015251795101281135 -0.007688808505677552 0 0.01541070049735882 -0.0080448682085580963 0 0.015379712871519588 -0.0082376323216070985 0 0.015354635027077103 -0.0077054607950692335 0 0.01541070049735882 -0.0080448682085580963 0 0.015443429409709117 -0.0079652069316349262 0 0.01541070049735882 -0.0080448682085580963 0 0.015379712871519588 -0.0082376323216070985 0 0.015548243091624132 -0.0082523351886324443 0 0.015379712871519588 -0.0082376323216070985 0 0.015784638204698269 -0.0084961162271103372 0 0.015824800732006958 -0.008689241769133051 0 0.015379712871519588 -0.0082376323216070985 0 0.015784638204698269 -0.0084961162271103372 0 0.015548243091624132 -0.0082523351886324443 0 0.015824800732006958 -0.008689241769133051 0 0.016458442619917881 -0.0089627200031705771 0 0.016744426644193001 -0.0093727463837588627 0 0.015784638204698269 -0.0084961162271103372 0 0.015824800732006958 -0.008689241769133051 0 0.016458442619917881 -0.0089627200031705771 0 0.017983491061909294 -0.01004854921467699 0 0.016458442619917881 -0.0089627200031705771 0 0.016744426644193001 -0.0093727463837588627 0 0.017919687920829177 -0.009822535783473689 0 0.016299355378638851 -0.010732218648555688 0 0.018241439810420583 -0.013230784773247132 0 0.016337785936988022 -0.011563025700516054 0 0.014675150612416239 -0.012994363418256513 0 0.018877699852724972 -0.0076565946215379011 0 0.016294677717522212 -0.008069292616029667 0 0.019542074391179848 -0.0022465461250850741 0 0.017873021654552006 -0.0021360757718178278 0 0.018823709811285179 -0.0029273951713402078 0 0.016299355378638851 -0.010732218648555688 0 0.016294677717522212 -0.008069292616029667 0 0.015824800732006958 -0.008689241769133051 0 0.016744426644193001 -0.0093727463837588627 0 0.015925101922131323 -0.0089707551308104982 0 0.015110334012978724 -0.0081517402994116858 0 0.015824800732006958 -0.008689241769133051 0 0.015925101922131323 -0.0089707551308104982 0 0.014895303314220386 -0.0082422636200122339 0 0.016294677717522212 -0.008069292616029667 0 0.016294677717522212 -0.008069292616029667 0 0.01587727026967985 -0.0045799066896614208 0 0.017873021654552006 -0.0021360757718178278 0 0.017955595087173884 -0.003452615241193033 0 0.016584647859153805 -0.0031507415094703763 0 0.019250038087773303 -0.003404169467480846 0 0.018823709811285179 -0.0029273951713402078 0 0.018656249317927368 -0.0038267724009501507 0 0.017955595087173884 -0.003452615241193033 0 0.018823709811285179 -0.0029273951713402078 0 0.018656249317927368 -0.0038267724009501507 0 0.017873021654552006 -0.0021360757718178278 0 0.017955595087173884 -0.003452615241193033 0 0.018823709811285179 -0.0029273951713402078 0 0.019354144034805759 -0.0040654019526842186 0 0.019250038087773303 -0.003404169467480846 0 0.018656249317927368 -0.0038267724009501507 0 0.019354144034805759 -0.0040654019526842186 0 0.018656249317927368 -0.0038267724009501507 0 0.018779838769648952 -0.0045334358312125005 0 0.017955595087173884 -0.003452615241193033 0 0.017200117551441241 -0.0041517801715170513 0 0.017845610299407507 -0.0045004300192311997 0 0.017955595087173884 -0.003452615241193033 0 0.017200117551441241 -0.0041517801715170513 0 0.016584647859153805 -0.0031507415094703763 0 0.017955595087173884 -0.003452615241193033 0 0.018656249317927368 -0.0038267724009501507 0 0.017845610299407507 -0.0045004300192311997 0 0.017200117551441241 -0.0041517801715170513 0 0.015965301564234355 -0.0049081518296550967 0 0.016584647859153805 -0.0031507415094703763 0 0.017200117551441241 -0.0041517801715170513 0 0.015965301564234355 -0.0049081518296550967 0 0.017311707483933098 -0.0047944103504619102 0 0.015096838521489556 -0.0074473693699728455 0 0.015110334012978724 -0.0081517402994116858 0 0.014819697797374033 -0.0069322979592791774 0 0.014819697797374033 -0.0069322979592791774 0 0.015172989818781346 -0.0067607904119824196 0 0.01502473163914096 -0.0053275459046294212 0 0.015096838521489556 -0.0074473693699728455 0 0.014819697797374033 -0.0069322979592791774 0 0.015172989818781346 -0.0067607904119824196 0 0.01587727026967985 -0.0045799066896614208 0 0.015072441770720433 -0.0054091571111394288 0 0.015965301564234355 -0.0049081518296550967 0 0.016584647859153805 -0.0031507415094703763 0 0.01502473163914096 -0.0053275459046294212 0 0.015172989818781346 -0.0067607904119824196 0 0.01502473163914096 -0.0053275459046294212 0 0.015198997781323418 -0.0060703564686197392 0 0.01502473163914096 -0.0053275459046294212 0 0.015192031623341 -0.0054062707790974301 0 0.014896912614336715 -0.0054783387600890465 0 0.015192031623341 -0.0054062707790974301 0 0.015008949838671107 -0.0054872326509373534 0 0.014896912614336715 -0.0054783387600890465 0 0.015965301564234355 -0.0049081518296550967 0 0.01502473163914096 -0.0053275459046294212 0 0.015192031623341 -0.0054062707790974301 0 0.015965301564234355 -0.0049081518296550967 0 0.017311707483933098 -0.0047944103504619102 0 0.017540930155551145 -0.0050774659380270794 0 0.015955088477111926 -0.0046684014301284962 0 0.01616470625571783 -0.00554460327421502 0 0.015965301564234355 -0.0049081518296550967 0 0.015192031623341 -0.0054062707790974301 0 0.014946394505239114 -0.0055370264372188059 0 0.015192031623341 -0.0054062707790974301 0 0.014946394505239114 -0.0055370264372188059 0 0.015008949838671107 -0.0054872326509373534 0 0.014946394505239114 -0.0055370264372188059 0 0.015008949838671107 -0.0054872326509373534 0 0.015264339899111738 -0.0048919225712141801 0 0.018686878242010558 -0.0042178339278833082 0 0.018070148130206454 -0.0044087549419092476 0 0.019979103167781502 -0.00380419841880971 0 0.018888900868679854 -0.0039896012169199479 0 0.018757439434090643 -0.0050247442531354252 0 0.018656249317927368 -0.0038267724009501507 0 0.018779838769648952 -0.0045334358312125005 0 0.017845610299407507 -0.0045004300192311997 0 0.018888900868679854 -0.0039896012169199479 0 0.017845610299407507 -0.0045004300192311997 0 0.017970893821075581 -0.0048413327321481297 0 0.017200117551441241 -0.0041517801715170513 0 0.017311707483933098 -0.0047944103504619102 0 0.017845610299407507 -0.0045004300192311997 0 0.017311707483933098 -0.0047944103504619102 0 0.017845610299407507 -0.0045004300192311997 0 0.017970893821075581 -0.0048413327321481297 0 0.017311707483933098 -0.0047944103504619102 0 0.017540930155551145 -0.0050774659380270794 0 0.017970893821075581 -0.0048413327321481297 0 0.017540930155551145 -0.0050774659380270794 0 0.01804715838206862 -0.0051374946145604531 0 0.017970893821075581 -0.0048413327321481297 0 0.01804715838206862 -0.0051374946145604531 0 0.017970893821075581 -0.0048413327321481297 0 0.018757439434090643 -0.0050247442531354252 0 0.018888900868679854 -0.0039896012169199479 0 0.017970893821075581 -0.0048413327321481297 0 0.018757439434090643 -0.0050247442531354252 0 0.020706177385598563 0.0064878511178290453 0 0.021181375567835867 0.0060651470877084923 0 0.020829721052722908 0.0059235759839289673 0 0.020706177385598563 0.0064878511178290453 0 0.020829721052722908 0.0059235759839289673 0 0.020498435964591496 0.005841670366170568 0 0.021508451942075235 0.0064739021126336517 0 0.020706177385598563 0.0064878511178290453 0 0.021181375567835867 0.0060651470877084923 0 0.019846798079671435 0.0012934854510172037 0 0.019226632902503663 0.0005294913924786932 0 0.017540930155551145 -0.0050774659380270794 0 0.01804715838206862 -0.0051374946145604531 0 0.018063722553837928 -0.0055354975838443655 0 0.01804715838206862 -0.0051374946145604531 0 0.018212209796105047 -0.0053631915072076047 0 0.018063722553837928 -0.0055354975838443655 0 0.01804715838206862 -0.0051374946145604531 0 0.018757439434090643 -0.0050247442531354252 0 0.018212209796105047 -0.0053631915072076047 0 0.018644517275286883 -0.00032573707504223327 0 0.018271714751070645 -0.00074596270815356668 0 0.018371890861747207 -0.0010757495400199773 0 0.019226632902503663 0.0005294913924786932 0 0.018685140557128894 0.0010866033420547031 0 0.019226632902503663 0.0005294913924786932 0 0.016823151527866613 -0.0036360758043901989 0 0.016823151527866613 -0.0036360758043901989 0 0.018685140557128894 0.0010866033420547031 0 0.014435496005402391 -0.0045173879755576558 0 0.014376859972461411 -0.0043591525747587925 0 0.014690171969604799 -0.0042409142649383639 0 0.020943348285632633 0.0053842720605400875 0 0.02056496713269567 0.005527734157359813 0 0.020876255164080697 0.0056424125514449343 0 0.020498435964591496 0.005841670366170568 0 0.02056496713269567 0.005527734157359813 0 0.020876255164080697 0.0056424125514449343 0 0.020829721052722908 0.0059235759839289673 0 0.020498435964591496 0.005841670366170568 0 0.020876255164080697 0.0056424125514449343 0 0.021181375567835867 0.0060651470877084923 0 0.020829721052722908 0.0059235759839289673 0 0.020876255164080697 0.0056424125514449343 0 0.020943348285632633 0.0053842720605400875 0 0.020876255164080697 0.0056424125514449343 0 0.021361969493330545 0.0055734433683308562 0 0.021181375567835867 0.0060651470877084923 0 0.020876255164080697 0.0056424125514449343 0 0.021361969493330545 0.0055734433683308562 0 0.014985848694093256 -0.0054381591857424324 0 0.014892641517379689 -0.005248929654008111 0 0.014946394505239114 -0.0055370264372188059 0 0.015264339899111738 -0.0048919225712141801 0 0.01489921228712141 -0.0046970600646855142 0 0.014946394505239114 -0.0055370264372188059 0 0.014434602214804547 -0.0046830317733291852 0 0.01489921228712141 -0.0046970600646855142 0 0.01616470625571783 -0.00554460327421502 0 0.016823151527866613 -0.0036360758043901989 0 0.01525948229259958 -0.0039180530116952579 0 0.01489921228712141 -0.0046970600646855142 0 0.014690171969604799 -0.0042409142649383639 0 0.016823151527866613 -0.0036360758043901989 0 0.014362392904342975 -0.0048632588336231424 0 0.014434602214804547 -0.0046830317733291852 0 0.01489921228712141 -0.0046970600646855142 0 0.014690171969604799 -0.0042409142649383639 0 0.014762485023517107 -0.0046398133372084699 0 0.014892641517379689 -0.005248929654008111 0 0.01525948229259958 -0.0039180530116952579 0 0.015264339899111738 -0.0048919225712141801 0 0.01489921228712141 -0.0046970600646855142 0 0.014522369036453413 -0.0055594381672816207 0 0.014267256441314512 -0.005375146447493857 0 0.014517600512753706 -0.0056783262255866718 0 0.014522369036453413 -0.0055594381672816207 0 0.014517600512753706 -0.0056783262255866718 0 0.013934519106348265 -0.0055550192297069857 0 0.014517600512753706 -0.0056783262255866718 0 0.013934519106348265 -0.0055550192297069857 0 0.014496176425379165 -0.0055307216875989133 0 0.013934519106348265 -0.0055550192297069857 0 0.014161242037684088 -0.0055930866161136815 0 0.014496176425379165 -0.0055307216875989133 0 0.013479787372085635 -0.0051402907110745461 0 0.013826013706558208 -0.005453993435663885 0 0.013138480859005276 -0.0048511404514013966 0 0.012418228657869122 -0.0048564420630245499 0 0.013934519106348265 -0.0055550192297069857 0 0.013138480859005276 -0.0048511404514013966 0 0.013575054304342976 -0.0049919827311284319 0 0.013794584720154339 -0.0054356383943119533 0 0.013138480859005276 -0.0048511404514013966 0 0.013934519106348265 -0.0055550192297069857 0 0.013794584720154339 -0.0054356383943119533 0 0.013575054304342976 -0.0049919827311284319 0 0.01387620245875292 -0.0055242044486291187 0 0.013794584720154339 -0.0054356383943119533 0 0.013575054304342976 -0.0049919827311284319 0 0.01387620245875292 -0.0055242044486291187 0 0.013826606935461262 -0.0052578280078810812 0 0.013934519106348265 -0.0055550192297069857 0 0.013794584720154339 -0.0054356383943119533 0 0.014161242037684088 -0.0055930866161136815 0 0.01387620245875292 -0.0055242044486291187 0 0.013794584720154339 -0.0054356383943119533 0 0.014161242037684088 -0.0055930866161136815 0 0.01387620245875292 -0.0055242044486291187 0 0.014161242037684088 -0.0055930866161136815 0 0.014323415869815299 -0.0057601326079862849 0 0.01387620245875292 -0.0055242044486291187 0 0.014323415869815299 -0.0057601326079862849 0 0.013918455881503325 -0.0057575968347460243 0 0.014323415869815299 -0.0057601326079862849 0 0.013918455881503325 -0.0057575968347460243 0 0.014068281209155464 -0.0057824576710309413 0 0.014323415869815299 -0.0057601326079862849 0 0.014741354982256552 -0.0056182902286712848 0 0.015003542201004345 -0.005887636505080944 0 0.014161242037684088 -0.0055930866161136815 0 0.014323415869815299 -0.0057601326079862849 0 0.014741354982256552 -0.0056182902286712848 0 0.014741354982256552 -0.0056182902286712848 0 0.014896912614336715 -0.0054783387600890465 0 0.014496176425379165 -0.0055307216875989133 0 0.014741354982256552 -0.0056182902286712848 0 0.014896912614336715 -0.0054783387600890465 0 0.015026214000148407 -0.0056263334341813999 0 0.015008949838671107 -0.0054872326509373534 0 0.014896912614336715 -0.0054783387600890465 0 0.014496176425379165 -0.0055307216875989133 0 0.015008949838671107 -0.0054872326509373534 0 0.014517600512753706 -0.0056783262255866718 0 0.014496176425379165 -0.0055307216875989133 0 0.014161242037684088 -0.0055930866161136815 0 0.014741354982256552 -0.0056182902286712848 0 0.014496176425379165 -0.0055307216875989133 0 0.013743542297558921 -0.0057538861647186551 0 0.01368512658277907 -0.0060345473735206566 0 0.013852939514422178 -0.0058589275655031225 0 0.011082580369108893 -0.011459131944738578 0 0.010695411607517299 -0.012032185522461106 0 0.010780156088009779 -0.010784934020475364 0 0.011477918523365093 -0.012299381847139433 0 0.011082580369108893 -0.011459131944738578 0 0.010695411607517299 -0.012032185522461106 0 0.012140601311957534 -0.0093167931085674244 0 0.012910031296473676 -0.0064780624836842599 0 0.011082580369108893 -0.011459131944738578 0 0.010888973587904582 -0.010675580442592401 0 0.010780156088009779 -0.010784934020475364 0 0.014855727879183442 -0.0044247253915177687 0 0.014828648119740563 -0.0045932658463660519 0 0.014323290891387869 -0.0044638798440432238 0 0.013298623732461509 -0.005603523346092102 0 0.013238209287235731 -0.0055415541150544076 0 0.013224812730062386 -0.0056803739288977736 0 0.013100567504383384 -0.0049304932329477568 0 0.012910031296473676 -0.0064780624836842599 0 0.013704323776405609 -0.003200446262265122 0 0.013670260796232958 -0.0031140689417318975 0 0.013708797639437553 -0.0031542617536989858 0 0.012685535041541638 -0.0054397871162921042 0 0.013100567504383384 -0.0049304932329477568 0 0.012685535041541638 -0.0054397871162921042 0 0.012910031296473676 -0.0064780624836842599 0 0.012910031296473676 -0.0064780624836842599 0 0.014350950351706296 -0.0052529756395872365 0 0.014828648119740563 -0.0045932658463660519 0 0.014323290891387869 -0.0044638798440432238 0 0.014351021641588154 -0.0051456432545030264 0 0.014323290891387869 -0.0044638798440432238 0 0.014151300300363882 -0.0047757572606225984 0 0.014351021641588154 -0.0051456432545030264 0 0.013988432321699055 -0.0043693837980352023 0 0.014323290891387869 -0.0044638798440432238 0 0.014151300300363882 -0.0047757572606225984 0 0.013743542297558921 -0.0057538861647186551 0 0.013852939514422178 -0.0058589275655031225 0 0.013848117363203837 -0.0057277090388584296 0 0.013852939514422178 -0.0058589275655031225 0 0.013950465693328013 -0.0056408409406989339 0 0.013848117363203837 -0.0057277090388584296 0 0.014350950351706296 -0.0052529756395872365 0 0.013862645041004989 -0.0057342191527143573 0 0.013953643204535307 -0.0050708754874349733 0 0.013826606935461262 -0.0052578280078810812 0 0.013950465693328013 -0.0056408409406989339 0 0.014351021641588154 -0.0051456432545030264 0 0.013953643204535307 -0.0050708754874349733 0 0.013950465693328013 -0.0056408409406989339 0 0.013988432321699055 -0.0043693837980352023 0 0.013766005903761964 -0.0046831106472135613 0 0.013953643204535307 -0.0050708754874349733 0 0.013988432321699055 -0.0043693837980352023 0 0.014151300300363882 -0.0047757572606225984 0 0.013953643204535307 -0.0050708754874349733 0 0.014151300300363882 -0.0047757572606225984 0 0.014351021641588154 -0.0051456432545030264 0 0.013953643204535307 -0.0050708754874349733 0 0.013766005903761964 -0.0046831106472135613 0 0.013575054304342976 -0.0049919827311284319 0 0.013826606935461262 -0.0052578280078810812 0 0.013766005903761964 -0.0046831106472135613 0 0.013953643204535307 -0.0050708754874349733 0 0.013826606935461262 -0.0052578280078810812 0 0.01387620245875292 -0.0055242044486291187 0 0.013826606935461262 -0.0052578280078810812 0 0.013918455881503325 -0.0057575968347460243 0 0.013826606935461262 -0.0052578280078810812 0 0.013918455881503325 -0.0057575968347460243 0 0.013950465693328013 -0.0056408409406989339 0 0.013918455881503325 -0.0057575968347460243 0 0.013829124857435669 -0.0059150006327186944 0 0.014068281209155464 -0.0057824576710309413 0 0.013918455881503325 -0.0057575968347460243 0 0.013829124857435669 -0.0059150006327186944 0 0.013759438986904553 -0.0058754636974239832 0 0.013759438986904553 -0.0058754636974239832 0 0.013592055191074646 -0.0059675093344817975 0 0.013645236125940713 -0.0061438715985988436 0 0.013829124857435669 -0.0059150006327186944 0 0.013759438986904553 -0.0058754636974239832 0 0.013645236125940713 -0.0061438715985988436 0 0.013918455881503325 -0.0057575968347460243 0 0.013759438986904553 -0.0058754636974239832 0 0.013950465693328013 -0.0056408409406989339 0 0.013759438986904553 -0.0058754636974239832 0 0.013950465693328013 -0.0056408409406989339 0 0.013843092130591456 -0.0056861396750711845 0 0.013743542297558921 -0.0057538861647186551 0 0.013843092130591456 -0.0056861396750711845 0 0.014021015775714837 -0.0055807966871116365 0 0.013950465693328013 -0.0056408409406989339 0 0.013848117363203837 -0.0057277090388584296 0 0.013843092130591456 -0.0056861396750711845 0 0.013743542297558921 -0.0057538861647186551 0 0.013848117363203837 -0.0057277090388584296 0 0.013843092130591456 -0.0056861396750711845 0 0.013759438986904553 -0.0058754636974239832 0 0.013843092130591456 -0.0056861396750711845 0 0.013592055191074646 -0.0059675093344817975 0 0.013592055191074646 -0.0059675093344817975 0 0.013332860128377503 -0.0066904249947608088 0 0.013645236125940713 -0.0061438715985988436 0 0.013592055191074646 -0.0059675093344817975 0 0.014021015775714837 -0.0055807966871116365 0 0.013332860128377503 -0.0066904249947608088 0 0.013843092130591456 -0.0056861396750711845 0 0.013592055191074646 -0.0059675093344817975 0 0.014021015775714837 -0.0055807966871116365 0 0.010736917115609064 -0.013167922731898497 0 0.011241839001767217 -0.013271428134149053 0 0.011154076224746854 -0.013708844677699197 0 0.010736917115609064 -0.013167922731898497 0 0.011241839001767217 -0.013271428134149053 0 0.011099803813507749 -0.012718053908203745 0 0.010695411607517299 -0.012032185522461106 0 0.010736917115609064 -0.013167922731898497 0 0.011099803813507749 -0.012718053908203745 0 0.011477918523365093 -0.012299381847139433 0 0.010695411607517299 -0.012032185522461106 0 0.011099803813507749 -0.012718053908203745 0 0.012140601311957534 -0.0093167931085674244 0 0.012383242429731626 -0.0093285916099920142 0 0.01140412517523068 -0.014477378957023498 0 0.011289266256071344 -0.014108481444840389 0 0.011321692923663695 -0.014351836295085067 0 0.011289266256071344 -0.014108481444840389 0 0.01102655692474838 -0.014158771738368834 0 0.011321692923663695 -0.014351836295085067 0 0.012383242429731626 -0.0093285916099920142 0 0.012192865067005449 -0.011812660954034429 0 0.010736917115609064 -0.013167922731898497 0 0.011154076224746854 -0.013708844677699197 0 0.01102655692474838 -0.014158771738368834 0 0.011464494249432097 -0.013725451777896299 0 0.011289266256071344 -0.014108481444840389 0 0.011154076224746854 -0.013708844677699197 0 0.011464494249432097 -0.013725451777896299 0 0.011241839001767217 -0.013271428134149053 0 0.011154076224746854 -0.013708844677699197 0 0.011289266256071344 -0.014108481444840389 0 0.011154076224746854 -0.013708844677699197 0 0.01102655692474838 -0.014158771738368834 0 0.013332860128377503 -0.0066904249947608088 0 0.013722883912623406 -0.0056138234534479203 0 0.013645236125940713 -0.0061438715985988436 0 0.013332860128377503 -0.0066904249947608088 0 0.012155412425812268 -0.0087324332719267532 0 0.013456448817520719 -0.0095307972780929104 0 0.014021015775714837 -0.0055807966871116365 0 0.013332860128377503 -0.0066904249947608088 0 0.013456448817520719 -0.0095307972780929104 0 0.013332860128377503 -0.0066904249947608088 0 0.012155412425812268 -0.0087324332719267532 0 0.0091699668502596941 -0.010364171655540405 0 0.013301303858730103 -0.0063109139146196114 0 0.011417410909773032 -0.0091259267331757123 0 0.012155412425812268 -0.0087324332719267532 0 0.011155834756501472 -0.011434523997856322 0 0.0095821794964709821 -0.010732008028720133 0 0.011196797879899266 -0.0093580972947848971 0 0.011417410909773032 -0.0091259267331757123 0 0.013456448817520719 -0.0095307972780929104 0 0.011155834756501472 -0.011434523997856322 0 0.011653374773718033 -0.014194261527079532 0 0.012155412425812268 -0.0087324332719267532 0 0.013456448817520719 -0.0095307972780929104 0 0.011155834756501472 -0.011434523997856322 0 0.011155834756501472 -0.011434523997856322 0 0.0095821794964709821 -0.010732008028720133 0 0.0095629569185933239 -0.013236658302408135 0 0.013722883912623406 -0.0056138234534479203 0 0.013904052922704436 -0.0058308145186191113 0 0.013962649261678804 -0.0056454557849674718 0 0.013722883912623406 -0.0056138234534479203 0 0.013645236125940713 -0.0061438715985988436 0 0.013904052922704436 -0.0058308145186191113 0 0.013829124857435669 -0.0059150006327186944 0 0.013645236125940713 -0.0061438715985988436 0 0.013904052922704436 -0.0058308145186191113 0 0.013829124857435669 -0.0059150006327186944 0 0.013904052922704436 -0.0058308145186191113 0 0.014068281209155464 -0.0057824576710309413 0 0.013904052922704436 -0.0058308145186191113 0 0.014068281209155464 -0.0057824576710309413 0 0.014029589850549131 -0.0057271817757404489 0 0.011417410909773032 -0.0091259267331757123 0 0.014419735898472891 -0.0074563901271255768 0 0.014029589850549131 -0.0057271817757404489 0 0.013962649261678804 -0.0056454557849674718 0 0.014101858277684419 -0.0056131276989109758 0 0.013722883912623406 -0.0056138234534479203 0 0.013962649261678804 -0.0056454557849674718 0 0.014040413140277846 -0.0055267693600348743 0 0.013904052922704436 -0.0058308145186191113 0 0.014029589850549131 -0.0057271817757404489 0 0.013962649261678804 -0.0056454557849674718 0 0.013962649261678804 -0.0056454557849674718 0 0.014040413140277846 -0.0055267693600348743 0 0.014101858277684419 -0.0056131276989109758 0 0.011417410909773032 -0.0091259267331757123 0 0.014732626497652595 -0.01364106280420465 0 0.013177996844875743 -0.010367799341086314 0 0.013995707858609804 -0.0098898354277055425 0 0.013980568224650889 -0.0095853718212105272 0 0.013995707858609804 -0.0098898354277055425 0 0.013980568224650889 -0.0095853718212105272 0 0.014121678155583321 -0.0096879083842461838 0 0.014732626497652595 -0.01364106280420465 0 0.013802415600883652 -0.012380320594019429 0 0.020909047798875025 -0.020828156410259389 0 0.020962544323830636 -0.019770254708693667 0 0.019573917150792472 -0.02015761386001869 0 0.0075249326865177799 -0.013676955694581916 0 0.010184687784097592 -0.01503062178549891 0 0.0095629569185933239 -0.013236658302408135 0 0.014732626497652595 -0.01364106280420465 0 0.014935618515635414 -0.018018199377616013 0 0.010184687784097592 -0.01503062178549891 0 0.0095629569185933239 -0.013236658302408135 0 0.011653374773718033 -0.014194261527079532 0 0.0095821794964709821 -0.010732008028720133 0 0.0075249326865177799 -0.013676955694581916 0 0.0095629569185933239 -0.013236658302408135 0 0.011155834756501472 -0.011434523997856322 0 0.0095629569185933239 -0.013236658302408135 0 0.011653374773718033 -0.014194261527079532 0 0.012192865067005449 -0.011812660954034429 0 0.011756018154385237 -0.013948070316549209 0 0.010184687784097592 -0.01503062178549891 0 0.01126776924897833 -0.014831190478342514 0 0.011566185927470919 -0.015123356682301352 0 0.010184687784097592 -0.01503062178549891 0 0.011653374773718033 -0.014194261527079532 0 0.01126776924897833 -0.014831190478342514 0 0.01126776924897833 -0.014831190478342514 0 0.011499969304571738 -0.014828963389988636 0 0.011566185927470919 -0.015123356682301352 0 0.011653374773718033 -0.014194261527079532 0 0.01126776924897833 -0.014831190478342514 0 0.011499969304571738 -0.014828963389988636 0 0.011653374773718033 -0.014194261527079532 0 0.011499969304571738 -0.014828963389988636 0 0.011443494153903158 -0.014735223432613489 0 0.011452750275901431 -0.015038956886553597 0 0.011499969304571738 -0.014828963389988636 0 0.011443494153903158 -0.014735223432613489 0 0.01102655692474838 -0.014158771738368834 0 0.011653374773718033 -0.014194261527079532 0 0.011321692923663695 -0.014351836295085067 0 0.011653374773718033 -0.014194261527079532 0 0.011443494153903158 -0.014735223432613489 0 0.011321692923663695 -0.014351836295085067 0 0.01140412517523068 -0.014477378957023498 0 0.011443494153903158 -0.014735223432613489 0 0.011321692923663695 -0.014351836295085067 0 0.015370978189846691 -0.0064836987182334349 0 0.015305748662623317 -0.006617845284045857 0 0.015498745271174764 -0.007172456017398572 0 0.015370978189846691 -0.0064836987182334349 0 0.015305748662623317 -0.006617845284045857 0 0.015142085679663507 -0.0059841629962641184 0 0.015172989818781346 -0.0067607904119824196 0 0.015305748662623317 -0.006617845284045857 0 0.015336560391257142 -0.0072509119748739382 0 0.015172989818781346 -0.0067607904119824196 0 0.015305748662623317 -0.006617845284045857 0 0.015198997781323418 -0.0060703564686197392 0 0.015305748662623317 -0.006617845284045857 0 0.015198997781323418 -0.0060703564686197392 0 0.015142085679663507 -0.0059841629962641184 0 0.015198997781323418 -0.0060703564686197392 0 0.015026214000148407 -0.0056263334341813999 0 0.015142085679663507 -0.0059841629962641184 0 0.014741354982256552 -0.0056182902286712848 0 0.015026214000148407 -0.0056263334341813999 0 0.015142085679663507 -0.0059841629962641184 0 0.01502473163914096 -0.0053275459046294212 0 0.015198997781323418 -0.0060703564686197392 0 0.015026214000148407 -0.0056263334341813999 0 0.01502473163914096 -0.0053275459046294212 0 0.014896912614336715 -0.0054783387600890465 0 0.015026214000148407 -0.0056263334341813999 0 0.015370978189846691 -0.0064836987182334349 0 0.015003542201004345 -0.005887636505080944 0 0.015142085679663507 -0.0059841629962641184 0 0.014741354982256552 -0.0056182902286712848 0 0.015003542201004345 -0.005887636505080944 0 0.015142085679663507 -0.0059841629962641184 0 0.014407850347100688 -0.0058254239052958883 0 0.014708903413187476 -0.0059633989961320388 0 0.014323415869815299 -0.0057601326079862849 0 0.015003542201004345 -0.005887636505080944 0 0.01525279789079103 -0.0060709144028041574 0 0.014068281209155464 -0.0057824576710309413 0 0.014029589850549131 -0.0057271817757404489 0 0.014252951362538589 -0.0056643616642207848 0 0.014323415869815299 -0.0057601326079862849 0 0.014068281209155464 -0.0057824576710309413 0 0.014252951362538589 -0.0056643616642207848 0 0.014029589850549131 -0.0057271817757404489 0 0.014101858277684419 -0.0056131276989109758 0 0.014252951362538589 -0.0056643616642207848 0 0.014101858277684419 -0.0056131276989109758 0 0.014252951362538589 -0.0056643616642207848 0 0.014182823082892402 -0.0055749043605386392 0 0.015370978189846691 -0.0064836987182334349 0 0.01525279789079103 -0.0060709144028041574 0 0.015761469419036507 -0.006948582270113161 0 0.014708903413187476 -0.0059633989961320388 0 0.014997665054775009 -0.006087442817069336 0 0.015370978189846691 -0.0064836987182334349 0 0.015003542201004345 -0.005887636505080944 0 0.01525279789079103 -0.0060709144028041574 0 0.014252951362538589 -0.0056643616642207848 0 0.014240415112560433 -0.0055525959768398742 0 0.014182823082892402 -0.0055749043605386392 0 0.014240415112560433 -0.0055525959768398742 0 0.014182823082892402 -0.0055749043605386392 0 0.014198867266875186 -0.0055217586935558333 0 0.01398603226543038 -0.0096037334643866504 0 0.014121678155583321 -0.0096879083842461838 0 0.014688078150341547 -0.0094031045435783896 0 0.014132701013742767 -0.0055534538379247945 0 0.014182823082892402 -0.0055749043605386392 0 0.014198867266875186 -0.0055217586935558333 0 0.014419735898472891 -0.0074563901271255768 0 0.014324351930526282 -0.0074939697285864625 0 0.014040413140277846 -0.0055267693600348743 0 0.014132701013742767 -0.0055534538379247945 0 0.014198867266875186 -0.0055217586935558333 0 0.013995707858609804 -0.0098898354277055425 0 0.014121678155583321 -0.0096879083842461838 0 0.014688078150341547 -0.0094031045435783896 0 0.014101858277684419 -0.0056131276989109758 0 0.014132701013742767 -0.0055534538379247945 0 0.014182823082892402 -0.0055749043605386392 0 0.014040413140277846 -0.0055267693600348743 0 0.014101858277684419 -0.0056131276989109758 0 0.014132701013742767 -0.0055534538379247945 0 0.01398603226543038 -0.0096037334643866504 0 0.014688078150341547 -0.0094031045435783896 0 0.014646911330097424 -0.0088714681711338991 0 0.014732626497652595 -0.01364106280420465 0 0.018730585982037789 -0.014361691013929718 0 0.020909047798875025 -0.020828156410259389 0 0.020962544323830636 -0.019770254708693667 0 0.021962993044469168 -0.019587692970301107 0 0.014324351930526282 -0.0074939697285864625 0 0.015051495288281818 -0.0075416682668569806 0 0.014997665054775009 -0.006087442817069336 0 0.015051495288281818 -0.0075416682668569806 0 0.014240415112560433 -0.0055525959768398742 0 0.014198867266875186 -0.0055217586935558333 0 0.01425328682146562 -0.0055305648595450636 0 0.014688078150341547 -0.0094031045435783896 0 0.015293026464729048 -0.0089201831524047381 0 0.014646911330097424 -0.0088714681711338991 0 0.015768468524087715 -0.0077143921561499814 0 0.015498745271174764 -0.007172456017398572 0 0.015441888314386813 -0.0076885227922262314 0 0.015761469419036507 -0.006948582270113161 0 0.015768468524087715 -0.0077143921561499814 0 0.015498745271174764 -0.007172456017398572 0 0.015370978189846691 -0.0064836987182334349 0 0.015761469419036507 -0.006948582270113161 0 0.015498745271174764 -0.007172456017398572 0 0.015354635027077103 -0.0077054607950692335 0 0.015336560391257142 -0.0072509119748739382 0 0.015441888314386813 -0.0076885227922262314 0 0.015305748662623317 -0.006617845284045857 0 0.015498745271174764 -0.007172456017398572 0 0.015336560391257142 -0.0072509119748739382 0 0.015498745271174764 -0.007172456017398572 0 0.015336560391257142 -0.0072509119748739382 0 0.015441888314386813 -0.0076885227922262314 0 0.015354635027077103 -0.0077054607950692335 0 0.015441888314386813 -0.0076885227922262314 0 0.015443429409709117 -0.0079652069316349262 0 0.015441888314386813 -0.0076885227922262314 0 0.015443429409709117 -0.0079652069316349262 0 0.015495832105009136 -0.0080330963960033776 0 0.015443429409709117 -0.0079652069316349262 0 0.015495832105009136 -0.0080330963960033776 0 0.015542502568511935 -0.0081329531256159153 0 0.015485357653082362 -0.0082522612557026313 0 0.015500443414434481 -0.0081064138445095003 0 0.01563671973106244 -0.0080715890741397539 0 0.015550796104305728 -0.0081646905572608959 0 0.015596322105543223 -0.0080825999119888206 0 0.015500443414434481 -0.0081064138445095003 0 0.015482341466390444 -0.0079030395242786922 0 0.01563671973106244 -0.0080715890741397539 0 0.015485357653082362 -0.0082522612557026313 0 0.015500443414434481 -0.0081064138445095003 0 0.015387832940033975 -0.0082221716909761152 0 0.015500443414434481 -0.0081064138445095003 0 0.015387832940033975 -0.0082221716909761152 0 0.015482341466390444 -0.0079030395242786922 0 0.015387832940033975 -0.0082221716909761152 0 0.015222152822212009 -0.0081920032267015445 0 0.015482341466390444 -0.0079030395242786922 0 0.018501123713822946 -0.013388724754382296 0 0.021715169490994952 -0.013605524859295915 0 0.015293026464729048 -0.0089201831524047381 0 0.015387832940033975 -0.0082221716909761152 0 0.015222152822212009 -0.0081920032267015445 0 0.015051495288281818 -0.0075416682668569806 0 0.015355601372001653 -0.0086429104718167317 0 0.015051495288281818 -0.0075416682668569806 0 0.015550796104305728 -0.0081646905572608959 0 0.01535411864898816 -0.0083342634008683244 0 0.015485357653082362 -0.0082522612557026313 0 0.015387832940033975 -0.0082221716909761152 0 0.015768468524087715 -0.0077143921561499814 0 0.015441888314386813 -0.0076885227922262314 0 0.015495832105009136 -0.0080330963960033776 0 0.021962993044469168 -0.019587692970301107 0 0.021934762893744339 -0.018761099137483108 0 0.022638637645694577 -0.018585731284011364 0 0.018730585982037789 -0.014361691013929718 0 0.018501123713822946 -0.013388724754382296 0 0.015293026464729048 -0.0089201831524047381 0 0.014646911330097424 -0.0088714681711338991 0 0.015222152822212009 -0.0081920032267015445 0 0.021459163646438871 -0.019279763803135251 0 0.021934762893744339 -0.018761099137483108 0 0.021153127622129762 -0.018828142754797692 0 0.020962544323830636 -0.019770254708693667 0 0.021459163646438871 -0.019279763803135251 0 0.021962993044469168 -0.019587692970301107 0 0.021459163646438871 -0.019279763803135251 0 0.021962993044469168 -0.019587692970301107 0 0.021934762893744339 -0.018761099137483108 0 0.021934762893744339 -0.018761099137483108 0 0.021857822377146927 -0.018134117029364537 0 0.021153127622129762 -0.018828142754797692 0 0.021934762893744339 -0.018761099137483108 0 0.022340721750528279 -0.018248197585453419 0 0.021857822377146927 -0.018134117029364537 0 0.022638637645694577 -0.018585731284011364 0 0.022340721750528279 -0.018248197585453419 0 0.022632454690780943 -0.018027291619086148 0 0.021934762893744339 -0.018761099137483108 0 0.022638637645694577 -0.018585731284011364 0 0.022340721750528279 -0.018248197585453419 0 0.022340721750528279 -0.018248197585453419 0 0.021857822377146927 -0.018134117029364537 0 0.022340077509116592 -0.017789340760982642 0 0.022340721750528279 -0.018248197585453419 0 0.022340077509116592 -0.017789340760982642 0 0.022632454690780943 -0.018027291619086148 0 0.022340077509116592 -0.017789340760982642 0 0.022719521254953402 -0.017834397371942954 0 0.022632454690780943 -0.018027291619086148 0 0.021857822377146927 -0.018134117029364537 0 0.02176754261407007 -0.017697598665989391 0 0.022340077509116592 -0.017789340760982642 0 0.021857822377146927 -0.018134117029364537 0 0.02176754261407007 -0.017697598665989391 0 0.021238374778834442 -0.01785823299713438 0 0.02176754261407007 -0.017697598665989391 0 0.022009649470685212 -0.017516748545877248 0 0.022340077509116592 -0.017789340760982642 0 0.02176754261407007 -0.017697598665989391 0 0.022009649470685212 -0.017516748545877248 0 0.021237656345537141 -0.01731517453935234 0 0.022009649470685212 -0.017516748545877248 0 0.022340077509116592 -0.017789340760982642 0 0.022459363179586689 -0.017581980055557243 0 0.022340077509116592 -0.017789340760982642 0 0.022702424485958331 -0.017703318313370436 0 0.022459363179586689 -0.017581980055557243 0 0.022340077509116592 -0.017789340760982642 0 0.022702424485958331 -0.017703318313370436 0 0.022719521254953402 -0.017834397371942954 0 0.022702424485958331 -0.017703318313370436 0 0.022719521254953402 -0.017834397371942954 0 0.022876071793620927 -0.017752583871829385 0 0.022719521254953402 -0.017834397371942954 0 0.022876071793620927 -0.017752583871829385 0 0.022902611973420816 -0.017907004687578304 0 0.022702424485958331 -0.017703318313370436 0 0.022876071793620927 -0.017752583871829385 0 0.022938723714995599 -0.017699079697009998 0 0.022876071793620927 -0.017752583871829385 0 0.022902611973420816 -0.017907004687578304 0 0.02300522014484295 -0.017649743377389237 0 0.021715169490994952 -0.013605524859295915 0 0.024317960449745477 -0.014695052460489187 0 0.022876071793620927 -0.017752583871829385 0 0.022938723714995599 -0.017699079697009998 0 0.02300522014484295 -0.017649743377389237 0 0.021715169490994952 -0.013605524859295915 0 0.019635672521716219 -0.0085162442686436933 0 0.022719521254953402 -0.017834397371942954 0 0.022902611973420816 -0.017907004687578304 0 0.022632454690780943 -0.018027291619086148 0 0.022638637645694577 -0.018585731284011364 0 0.023148695397460436 -0.017877138008871217 0 0.022632454690780943 -0.018027291619086148 0 0.021715169490994952 -0.013605524859295915 0 0.022821702820796909 -0.017926177018670508 0 0.016002297128254923 -0.018055843227451216 0 0.017886267547785668 -0.019208168062023058 0 0.017893713881262749 -0.018200133465333342 0 0.013816655361478985 -0.018642182863091203 0 0.015495089520270221 -0.017730517021399623 0 0.017063406618507131 -0.019234032840469008 0 0.01350700552584118 -0.017198656362962059 0 0.017766364289050304 -0.018764222593546875 0 0.015495089520270221 -0.017730517021399623 0 0.017063406618507131 -0.019234032840469008 0 0.017763995944611064 -0.01746317796240654 0 0.011419008393916893 -0.014602685302976504 0 0.011452750275901431 -0.015038956886553597 0 0.011566185927470919 -0.015123356682301352 0 0.01350700552584118 -0.017198656362962059 0 0.014622486408047532 -0.0169732468777056 0 0.011452750275901431 -0.015038956886553597 0 0.011499969304571738 -0.014828963389988636 0 0.011566185927470919 -0.015123356682301352 0 0.017886267547785668 -0.019208168062023058 0 0.017893713881262749 -0.018200133465333342 0 0.019615178118848883 -0.01843477448058814 0 0.019573917150792472 -0.02015761386001869 0 0.017886267547785668 -0.019208168062023058 0 0.019615178118848883 -0.01843477448058814 0 0.014935618515635414 -0.018018199377616013 0 0.014622486408047532 -0.0169732468777056 0 0.017766364289050304 -0.018764222593546875 0 0.01965729829588609 -0.018788356848858989 0 0.017063406618507131 -0.019234032840469008 0 0.019923765426763312 -0.019158942448703954 0 0.017763995944611064 -0.01746317796240654 0 0.019573917150792472 -0.02015761386001869 0 0.019615178118848883 -0.01843477448058814 0 0.020355604588520301 -0.019299395282934489 0 0.020962544323830636 -0.019770254708693667 0 0.019573917150792472 -0.02015761386001869 0 0.020355604588520301 -0.019299395282934489 0 0.019615178118848883 -0.01843477448058814 0 0.020355604588520301 -0.019299395282934489 0 0.021153127622129762 -0.018828142754797692 0 0.020962544323830636 -0.019770254708693667 0 0.020355604588520301 -0.019299395282934489 0 0.021153127622129762 -0.018828142754797692 0 0.020962544323830636 -0.019770254708693667 0 0.021459163646438871 -0.019279763803135251 0 0.021153127622129762 -0.018828142754797692 0 0.021857822377146927 -0.018134117029364537 0 0.021153127622129762 -0.018828142754797692 0 0.021238374778834442 -0.01785823299713438 0 0.01965729829588609 -0.018788356848858989 0 0.021028216579587259 -0.018835892777489559 0 0.019923765426763312 -0.019158942448703954 0 0.021153127622129762 -0.018828142754797692 0 0.021238374778834442 -0.01785823299713438 0 0.021238374778834442 -0.01785823299713438 0 0.021237656345537141 -0.01731517453935234 0 0.02018998366121302 -0.016964955198826275 0 0.02176754261407007 -0.017697598665989391 0 0.021238374778834442 -0.01785823299713438 0 0.021237656345537141 -0.01731517453935234 0 0.021237656345537141 -0.01731517453935234 0 0.02018998366121302 -0.016964955198826275 0 0.020702402833439881 -0.017180849707773546 0 0.019923765426763312 -0.019158942448703954 0 0.021238374778834442 -0.01785823299713438 0 0.02018998366121302 -0.016964955198826275 0 0.019923765426763312 -0.019158942448703954 0 0.02018998366121302 -0.016964955198826275 0 0.017763995944611064 -0.01746317796240654 0 0.02018998366121302 -0.016964955198826275 0 0.017763995944611064 -0.01746317796240654 0 0.016228844019650971 -0.015057621701665164 0 0.02018998366121302 -0.016964955198826275 0 0.016228844019650971 -0.015057621701665164 0 0.017227668342942863 -0.012518208423867012 0 0.020035766099271452 -0.016846259439820131 0 0.019301335511114952 -0.014849369614144667 0 0.02018998366121302 -0.016964955198826275 0 0.020642715168776391 -0.017203897590915059 0 0.020702402833439881 -0.017180849707773546 0 0.013864117700822444 -0.012882548682392331 0 0.013501616963002309 -0.014533732755189845 0 0.016228844019650971 -0.015057621701665164 0 0.013501616963002309 -0.014533732755189845 0 0.016228844019650971 -0.015057621701665164 0 0.015087516242081522 -0.016142696444730632 0 0.013864117700822444 -0.012882548682392331 0 0.016228844019650971 -0.015057621701665164 0 0.017227668342942863 -0.012518208423867012 0 0.015495089520270221 -0.017730517021399623 0 0.017763995944611064 -0.01746317796240654 0 0.015087516242081522 -0.016142696444730632 0 0.017763995944611064 -0.01746317796240654 0 0.016228844019650971 -0.015057621701665164 0 0.015087516242081522 -0.016142696444730632 0 0.013981991947588231 -0.017189022869570338 0 0.015495089520270221 -0.017730517021399623 0 0.015087516242081522 -0.016142696444730632 0 0.014931934699734433 -0.013431549353001178 0 0.019301335511114952 -0.014849369614144667 0 0.020091370742495923 -0.016713265650693001 0 0.020642715168776391 -0.017203897590915059 0 0.020528067277480612 -0.016862180081594579 0 0.020091370742495923 -0.016713265650693001 0 0.020528067277480612 -0.016862180081594579 0 0.020093615497689031 -0.016666722885626411 0 0.020127904729550089 -0.016961238114329629 0 0.020108980186723632 -0.016466705805022311 0 0.019439848252658775 -0.016664983237624414 0 0.012039255071462725 -0.013786471079240583 0 0.014931934699734433 -0.013431549353001178 0 0.013933413402801192 -0.014694063188068342 0 0.014318768623680877 -0.015214442221019883 0 0.014350745051953681 -0.014898770050641875 0 0.014931934699734433 -0.013431549353001178 0 0.015411643659832636 -0.015148428278408474 0 0.021039142009109415 -0.017272525503611823 0 0.015411643659832636 -0.015148428278408474 0 0.013864117700822444 -0.012882548682392331 0 0.014355551988403709 -0.008749120825997287 0 0.017227668342942863 -0.012518208423867012 0 0.020642715168776391 -0.017203897590915059 0 0.020528067277480612 -0.016862180081594579 0 0.020752697971309721 -0.017118660541750166 0 0.020642715168776391 -0.017203897590915059 0 0.020752697971309721 -0.017118660541750166 0 0.020702402833439881 -0.017180849707773546 0 0.021039142009109415 -0.017272525503611823 0 0.020444324314088543 -0.016966230561778553 0 0.020127904729550089 -0.016961238114329629 0 0.020724129370483263 -0.01674710849986313 0 0.020752697971309721 -0.017118660541750166 0 0.020127904729550089 -0.016961238114329629 0 0.020724129370483263 -0.01674710849986313 0 0.020108980186723632 -0.016466705805022311 0 0.020724129370483263 -0.01674710849986313 0 0.021134849835655358 -0.016991384869074477 0 0.021074305094606626 -0.016689492480599609 0 0.021134849835655358 -0.016991384869074477 0 0.021308154320422323 -0.016844095509102826 0 0.021074305094606626 -0.016689492480599609 0 0.021134849835655358 -0.016991384869074477 0 0.020752697971309721 -0.017118660541750166 0 0.021099418043201697 -0.017179350946523099 0 0.020724129370483263 -0.01674710849986313 0 0.021134849835655358 -0.016991384869074477 0 0.020752697971309721 -0.017118660541750166 0 0.020752697971309721 -0.017118660541750166 0 0.020702402833439881 -0.017180849707773546 0 0.021099418043201697 -0.017179350946523099 0 0.021237656345537141 -0.01731517453935234 0 0.020702402833439881 -0.017180849707773546 0 0.021099418043201697 -0.017179350946523099 0 0.021237656345537141 -0.01731517453935234 0 0.021099418043201697 -0.017179350946523099 0 0.021593656271265978 -0.017267608248711146 0 0.021237656345537141 -0.01731517453935234 0 0.021593656271265978 -0.017267608248711146 0 0.021904283071865992 -0.017387151232655274 0 0.021099418043201697 -0.017179350946523099 0 0.021593656271265978 -0.017267608248711146 0 0.021419038617282522 -0.017122195807219156 0 0.021593656271265978 -0.017267608248711146 0 0.021792079690649852 -0.017152529346460561 0 0.022104367297916955 -0.017314287586789701 0 0.021593656271265978 -0.017267608248711146 0 0.021419038617282522 -0.017122195807219156 0 0.021792079690649852 -0.017152529346460561 0 0.021134849835655358 -0.016991384869074477 0 0.021099418043201697 -0.017179350946523099 0 0.021419038617282522 -0.017122195807219156 0 0.021134849835655358 -0.016991384869074477 0 0.021419038617282522 -0.017122195807219156 0 0.021498507999530857 -0.016979785211890995 0 0.021419038617282522 -0.017122195807219156 0 0.021498507999530857 -0.016979785211890995 0 0.021792079690649852 -0.017152529346460561 0 0.021134849835655358 -0.016991384869074477 0 0.021498507999530857 -0.016979785211890995 0 0.021308154320422323 -0.016844095509102826 0 0.021498507999530857 -0.016979785211890995 0 0.021308154320422323 -0.016844095509102826 0 0.021545033906146763 -0.016700893000543015 0 0.021498507999530857 -0.016979785211890995 0 0.02174789477389381 -0.016961540618882179 0 0.021545033906146763 -0.016700893000543015 0 0.02174789477389381 -0.016961540618882179 0 0.021792079690649852 -0.017152529346460561 0 0.022327792320941661 -0.017229482100968675 0 0.021498507999530857 -0.016979785211890995 0 0.02174789477389381 -0.016961540618882179 0 0.021792079690649852 -0.017152529346460561 0 0.019443513729533613 -0.019827365207629483 0 0.019194389149452974 -0.018442763629504002 0 0.020498146696614452 -0.019137928475250813 0 0.02096230181767262 -0.017615023954410305 0 0.022255194504198082 -0.017447795231584771 0 0.02174789477389381 -0.016961540618882179 0 0.021684389132362016 -0.016631864601692515 0 0.022327792320941661 -0.017229482100968675 0 0.02174789477389381 -0.016961540618882179 0 0.021684389132362016 -0.016631864601692515 0 0.021545033906146763 -0.016700893000543015 0 0.02096230181767262 -0.017615023954410305 0 0.021169119862503295 -0.017439546793691019 0 0.021308154320422323 -0.016844095509102826 0 0.021545033906146763 -0.016700893000543015 0 0.021074305094606626 -0.016689492480599609 0 0.017876282371671156 -0.017742928273923771 0 0.019194389149452974 -0.018442763629504002 0 0.017764844536500284 -0.019273680182145887 0 0.019443513729533613 -0.019827365207629483 0 0.019194389149452974 -0.018442763629504002 0 0.017764844536500284 -0.019273680182145887 0 0.02096230181767262 -0.017615023954410305 0 0.019610145637290605 -0.017947917761356409 0 0.021636752354519482 -0.01664586274631466 0 0.021545033906146763 -0.016700893000543015 0 0.020621744572040628 -0.016181333602487875 0 0.021545033906146763 -0.016700893000543015 0 0.021074305094606626 -0.016689492480599609 0 0.020621744572040628 -0.016181333602487875 0 0.020724129370483263 -0.01674710849986313 0 0.021074305094606626 -0.016689492480599609 0 0.020621744572040628 -0.016181333602487875 0 0.020108980186723632 -0.016466705805022311 0 0.020621744572040628 -0.016181333602487875 0 0.019520302713530349 -0.015787505810385884 0 0.020724129370483263 -0.01674710849986313 0 0.020108980186723632 -0.016466705805022311 0 0.020621744572040628 -0.016181333602487875 0 0.016744249222560688 -0.01800015066389949 0 0.017764844536500284 -0.019273680182145887 0 0.016073401554022114 -0.018705313944390938 0 0.017876282371671156 -0.017742928273923771 0 0.016744249222560688 -0.01800015066389949 0 0.017764844536500284 -0.019273680182145887 0 0.019610145637290605 -0.017947917761356409 0 0.01547987088850508 -0.016631955230559624 0 0.01547987088850508 -0.016631955230559624 0 0.015411643659832636 -0.015148428278408474 0 0.011948565003014043 -0.016651043801049401 0 0.012464729194577277 -0.014376656795133776 0 0.012200346430441119 -0.016774529580472486 0 0.020108980186723632 -0.016466705805022311 0 0.019520302713530349 -0.015787505810385884 0 0.019439848252658775 -0.016664983237624414 0 0.012039255071462725 -0.013786471079240583 0 0.015411643659832636 -0.015148428278408474 0 0.022885481175962261 -0.017738938884522663 0 0.023123018408454963 -0.017996875345453262 0 0.023008121162429711 -0.017767852714670653 0 0.022885481175962261 -0.017738938884522663 0 0.022892225427545734 -0.017836917538650167 0 0.023123018408454963 -0.017996875345453262 0 0.022885481175962261 -0.017738938884522663 0 0.022892225427545734 -0.017836917538650167 0 0.022765041125044357 -0.017689204960225181 0 0.023117832090268596 -0.017950778827426662 0 0.023008121162429711 -0.017767852714670653 0 0.023007248905226329 -0.017694672885465914 0 0.023123018408454963 -0.017996875345453262 0 0.023117832090268596 -0.017950778827426662 0 0.023008121162429711 -0.017767852714670653 0 0.023007248905226329 -0.017694672885465914 0 0.022938723714995599 -0.017699079697009998 0 0.02300522014484295 -0.017649743377389237 0 0.023008121162429711 -0.017767852714670653 0 0.023007248905226329 -0.017694672885465914 0 0.022938723714995599 -0.017699079697009998 0 0.022702424485958331 -0.017703318313370436 0 0.022938723714995599 -0.017699079697009998 0 0.022797555737050092 -0.01767311852845951 0 0.023008121162429711 -0.017767852714670653 0 0.022938723714995599 -0.017699079697009998 0 0.022797555737050092 -0.01767311852845951 0 0.022885481175962261 -0.017738938884522663 0 0.023008121162429711 -0.017767852714670653 0 0.022797555737050092 -0.01767311852845951 0 0.022885481175962261 -0.017738938884522663 0 0.022797555737050092 -0.01767311852845951 0 0.022610937134831227 -0.017585944709752849 0 0.022702424485958331 -0.017703318313370436 0 0.022797555737050092 -0.01767311852845951 0 0.022459363179586689 -0.017581980055557243 0 0.022459363179586689 -0.017581980055557243 0 0.022275467654403421 -0.017455127522152079 0 0.022610937134831227 -0.017585944709752849 0 0.022797555737050092 -0.01767311852845951 0 0.022459363179586689 -0.017581980055557243 0 0.022610937134831227 -0.017585944709752849 0 0.022009649470685212 -0.017516748545877248 0 0.021237656345537141 -0.01731517453935234 0 0.021904283071865992 -0.017387151232655274 0 0.022009649470685212 -0.017516748545877248 0 0.022275467654403421 -0.017455127522152079 0 0.021904283071865992 -0.017387151232655274 0 0.022009649470685212 -0.017516748545877248 0 0.022459363179586689 -0.017581980055557243 0 0.022275467654403421 -0.017455127522152079 0 0.021593656271265978 -0.017267608248711146 0 0.021904283071865992 -0.017387151232655274 0 0.022104367297916955 -0.017314287586789701 0 0.022275467654403421 -0.017455127522152079 0 0.021904283071865992 -0.017387151232655274 0 0.022104367297916955 -0.017314287586789701 0 0.022275467654403421 -0.017455127522152079 0 0.022104367297916955 -0.017314287586789701 0 0.022435486200351747 -0.017444827873427795 0 0.022435486200351747 -0.017444827873427795 0 0.022327792320941661 -0.017229482100968675 0 0.022533256769675006 -0.017530218340850258 0 0.021792079690649852 -0.017152529346460561 0 0.022104367297916955 -0.017314287586789701 0 0.022327792320941661 -0.017229482100968675 0 0.022104367297916955 -0.017314287586789701 0 0.022435486200351747 -0.017444827873427795 0 0.022327792320941661 -0.017229482100968675 0 0.022610937134831227 -0.017585944709752849 0 0.022765041125044357 -0.017689204960225181 0 0.022663525193527316 -0.017628698406934085 0 0.022885481175962261 -0.017738938884522663 0 0.022610937134831227 -0.017585944709752849 0 0.022765041125044357 -0.017689204960225181 0 0.022435486200351747 -0.017444827873427795 0 0.022610937134831227 -0.017585944709752849 0 0.022663525193527316 -0.017628698406934085 0 0.022275467654403421 -0.017455127522152079 0 0.022435486200351747 -0.017444827873427795 0 0.022610937134831227 -0.017585944709752849 0 0.022435486200351747 -0.017444827873427795 0 0.022663525193527316 -0.017628698406934085 0 0.022533256769675006 -0.017530218340850258 0 0.022892225427545734 -0.017836917538650167 0 0.022765041125044357 -0.017689204960225181 0 0.022663525193527316 -0.017628698406934085 0 0.022892225427545734 -0.017836917538650167 0 0.022727359059175639 -0.017724544836410071 0 0.022828101789366756 -0.01789672678755122 0 0.022892225427545734 -0.017836917538650167 0 0.022663525193527316 -0.017628698406934085 0 0.022727359059175639 -0.017724544836410071 0 0.022727359059175639 -0.017724544836410071 0 0.022663478481398359 -0.017689066867543044 0 0.022828101789366756 -0.01789672678755122 0 0.022663525193527316 -0.017628698406934085 0 0.022727359059175639 -0.017724544836410071 0 0.022533256769675006 -0.017530218340850258 0 0.022727359059175639 -0.017724544836410071 0 0.022663478481398359 -0.017689066867543044 0 0.022533256769675006 -0.017530218340850258 0 0.022663478481398359 -0.017689066867543044 0 0.022828101789366756 -0.01789672678755122 0 0.022611145309557882 -0.017660855060333928 0 0.02096230181767262 -0.017615023954410305 0 0.020500929238193914 -0.019362079259783102 0 0.022496366175350974 -0.01734188120459031 0 0.022450350283556041 -0.017472849089400156 0 0.022518945206156406 -0.017610517177056265 0 0.022496366175350974 -0.01734188120459031 0 0.022327792320941661 -0.017229482100968675 0 0.022450350283556041 -0.017472849089400156 0 0.022327792320941661 -0.017229482100968675 0 0.022450350283556041 -0.017472849089400156 0 0.022533256769675006 -0.017530218340850258 0 0.022450350283556041 -0.017472849089400156 0 0.022533256769675006 -0.017530218340850258 0 0.022562542065296825 -0.017587273043427672 0 0.022663478481398359 -0.017689066867543044 0 0.022533256769675006 -0.017530218340850258 0 0.022562542065296825 -0.017587273043427672 0 0.022450350283556041 -0.017472849089400156 0 0.022611145309557882 -0.017660855060333928 0 0.022518945206156406 -0.017610517177056265 0 0.022663478481398359 -0.017689066867543044 0 0.022562542065296825 -0.017587273043427672 0 0.022611145309557882 -0.017660855060333928 0 0.020885610138875126 -0.01931345835868804 0 0.020500929238193914 -0.019362079259783102 0 0.022450350283556041 -0.017472849089400156 0 0.022562542065296825 -0.017587273043427672 0 0.022611145309557882 -0.017660855060333928 0 0.018244078156718836 -0.021465455361351693 0 0.017466022792426442 -0.021909509489202873 0 0.018311910055871079 -0.022332472967937889 0 0.018155665749780434 -0.02027231006987424 0 0.020500929238193914 -0.019362079259783102 0 0.022611145309557882 -0.017660855060333928 0 0.022597277424088416 -0.017642879177026383 0 0.022983205445305913 -0.018251595342750736 0 0.018244078156718836 -0.021465455361351693 0 0.018311910055871079 -0.022332472967937889 0 0.019188905843748931 -0.021767023177715481 0 0.020500929238193914 -0.019362079259783102 0 0.020903939035090812 -0.019904730546905922 0 0.022828101789366756 -0.01789672678755122 0 0.022611145309557882 -0.017660855060333928 0 0.022983205445305913 -0.018251595342750736 0 0.022828101789366756 -0.01789672678755122 0 0.022983205445305913 -0.018251595342750736 0 0.023134520003503668 -0.018209297899467177 0 0.022983205445305913 -0.018251595342750736 0 0.023134520003503668 -0.018209297899467177 0 0.023397132819853516 -0.018679351628263358 0 0.022892225427545734 -0.017836917538650167 0 0.023123018408454963 -0.017996875345453262 0 0.023134520003503668 -0.018209297899467177 0 0.022892225427545734 -0.017836917538650167 0 0.022828101789366756 -0.01789672678755122 0 0.023134520003503668 -0.018209297899467177 0 0.023123018408454963 -0.017996875345453262 0 0.023117832090268596 -0.017950778827426662 0 0.02341941196942756 -0.018453332047244357 0 0.023123018408454963 -0.017996875345453262 0 0.023134520003503668 -0.018209297899467177 0 0.02341941196942756 -0.018453332047244357 0 0.023134520003503668 -0.018209297899467177 0 0.02341941196942756 -0.018453332047244357 0 0.023397132819853516 -0.018679351628263358 0 0.023545029619989225 -0.018216074035882674 0 0.023397132819853516 -0.018679351628263358 0 0.024043728384772405 -0.019428155246147966 0 0.02341941196942756 -0.018453332047244357 0 0.023397132819853516 -0.018679351628263358 0 0.024043728384772405 -0.019428155246147966 0 0.024043728384772405 -0.019428155246147966 0 0.022263061120391489 -0.01944322193179172 0 0.022970882690420941 -0.018343436798669621 0 0.023247346070551702 -0.02276069166793207 0 0.024043728384772405 -0.019428155246147966 0 0.022263061120391489 -0.01944322193179172 0 0.023247346070551702 -0.02276069166793207 0 0.022263061120391489 -0.01944322193179172 0 0.020211392634970789 -0.020463519977156362 0 0.022263061120391489 -0.01944322193179172 0 0.022970882690420941 -0.018343436798669621 0 0.021558803755450683 -0.017986349863352073 0 0.02341941196942756 -0.018453332047244357 0 0.024043728384772405 -0.019428155246147966 0 0.022970882690420941 -0.018343436798669621 0 0.023117832090268596 -0.017950778827426662 0 0.02341941196942756 -0.018453332047244357 0 0.022970882690420941 -0.018343436798669621 0 0.023117832090268596 -0.017950778827426662 0 0.022970882690420941 -0.018343436798669621 0 0.02267696937668744 -0.017548991112688182 0 0.023117832090268596 -0.017950778827426662 0 0.023007248905226329 -0.017694672885465914 0 0.02267696937668744 -0.017548991112688182 0 0.022970882690420941 -0.018343436798669621 0 0.02267696937668744 -0.017548991112688182 0 0.021558803755450683 -0.017986349863352073 0 0.022919230051001174 -0.015811360089104453 0 0.021495809759789961 -0.01725246965621656 0 0.023363623699447337 -0.013943090016039784 0 0.020982113806110723 -0.014353778757661828 0 0.02159243922202557 -0.016394428113971383 0 0.023363623699447337 -0.013943090016039784 0 0.023557085224981001 -0.012102541646256364 0 0.022302466170627911 -0.012095680070939958 0 0.023363623699447337 -0.013943090016039784 0 0.020982113806110723 -0.014353778757661828 0 0.022302466170627911 -0.012095680070939958 0 0.023007248905226329 -0.017694672885465914 0 0.02267696937668744 -0.017548991112688182 0 0.02300522014484295 -0.017649743377389237 0 0.022919230051001174 -0.015811360089104453 0 0.024317960449745477 -0.014695052460489187 0 0.023363623699447337 -0.013943090016039784 0 0.023557085224981001 -0.012102541646256364 0 0.024858070340280994 -0.011868428963368234 0 0.018906550840103634 -0.013909313468450096 0 0.018757014092054432 -0.012328959555448027 0 0.017169015959570617 -0.01305075194332298 0 0.018906550840103634 -0.013909313468450096 0 0.018757014092054432 -0.012328959555448027 0 0.020426999946412529 -0.012625843849814624 0 0.020426999946412529 -0.012625843849814624 0 0.020982113806110723 -0.014353778757661828 0 0.022302466170627911 -0.012095680070939958 0 0.018906550840103634 -0.013909313468450096 0 0.020426999946412529 -0.012625843849814624 0 0.020982113806110723 -0.014353778757661828 0 0.020982113806110723 -0.014353778757661828 0 0.018691687700325078 -0.016472246863225376 0 0.02159243922202557 -0.016394428113971383 0 0.018906550840103634 -0.013909313468450096 0 0.020982113806110723 -0.014353778757661828 0 0.018691687700325078 -0.016472246863225376 0 0.018906550840103634 -0.013909313468450096 0 0.018691687700325078 -0.016472246863225376 0 0.016972181721864692 -0.015099804253116874 0 0.018691687700325078 -0.016472246863225376 0 0.02159243922202557 -0.016394428113971383 0 0.019440921010904905 -0.019173541994136418 0 0.018691687700325078 -0.016472246863225376 0 0.019440921010904905 -0.019173541994136418 0 0.016909283373204416 -0.018391903087305504 0 0.021495809759789961 -0.01725246965621656 0 0.019574571718161789 -0.019107544602417297 0 0.022263061120391489 -0.01944322193179172 0 0.021558803755450683 -0.017986349863352073 0 0.021093232094198978 -0.019127567848221283 0 0.021558803755450683 -0.017986349863352073 0 0.021093232094198978 -0.019127567848221283 0 0.019440921010904905 -0.019173541994136418 0 0.022263061120391489 -0.01944322193179172 0 0.021093232094198978 -0.019127567848221283 0 0.020211392634970789 -0.020463519977156362 0 0.021093232094198978 -0.019127567848221283 0 0.020211392634970789 -0.020463519977156362 0 0.019440921010904905 -0.019173541994136418 0 0.022442001661823533 -0.022411323783290322 0 0.020762713167715854 -0.021829779841674102 0 0.020211392634970789 -0.020463519977156362 0 0.019440921010904905 -0.019173541994136418 0 0.016909283373204416 -0.018391903087305504 0 0.025023370566907639 -0.024203578388106314 0 0.0244034216788316 -0.024421897182232949 0 0.025529916703868692 -0.024835176454678413 0 0.025616533583325888 -0.023967707964248432 0 0.025023370566907639 -0.024203578388106314 0 0.025529916703868692 -0.024835176454678413 0 0.025616533583325888 -0.023967707964248432 0 0.026533168179974885 -0.024536416278479686 0 0.025529916703868692 -0.024835176454678413 0 0.026526267990432239 -0.022737029664518082 0 0.027281800015872694 -0.023127534859198499 0 0.027281800015872694 -0.023127534859198499 0 0.022349371848048572 -0.01903473622226769 0 0.015582611684588991 -0.016417491464177945 0 0.016909283373204416 -0.018391903087305504 0 0.013218410925805451 -0.01638987158825005 0 0.020762713167715854 -0.021829779841674102 0 0.022349371848048572 -0.01903473622226769 0 0.026533168179974885 -0.024536416278479686 0 0.025529916703868692 -0.024835176454678413 0 0.026679947400671783 -0.025326533175932506 0 0.015582611684588991 -0.016417491464177945 0 0.017046949355172231 -0.016594413094543941 0 0.016909283373204416 -0.018391903087305504 0 0.018691687700325078 -0.016472246863225376 0 0.017046949355172231 -0.016594413094543941 0 0.016909283373204416 -0.018391903087305504 0 0.026127267687966828 -0.021843914018562092 0 0.025850068734450473 -0.019812517147204372 0 0.026549792946039742 -0.019326424972670404 0 0.026127267687966828 -0.021843914018562092 0 0.027398629056899621 -0.020385521524190701 0 0.026549792946039742 -0.019326424972670404 0 0.027398629056899621 -0.020385521524190701 0 0.027197684379498703 -0.018279811030651256 0 0.026549792946039742 -0.019326424972670404 0 0.027197684379498703 -0.018279811030651256 0 0.026549792946039742 -0.019326424972670404 0 0.02696284552599864 -0.018142015458678797 0 0.026549792946039742 -0.019326424972670404 0 0.0263633198549004 -0.018306280671084432 0 0.02696284552599864 -0.018142015458678797 0 0.026549792946039742 -0.019326424972670404 0 0.025907188864198051 -0.01827733688804865 0 0.0263633198549004 -0.018306280671084432 0 0.025850068734450473 -0.019812517147204372 0 0.026549792946039742 -0.019326424972670404 0 0.025907188864198051 -0.01827733688804865 0 0.026205511067699781 -0.017652284861803154 0 0.025907188864198051 -0.01827733688804865 0 0.0263633198549004 -0.018306280671084432 0 0.026205511067699781 -0.017652284861803154 0 0.0263633198549004 -0.018306280671084432 0 0.026444371163387947 -0.017759934487586976 0 0.026205511067699781 -0.017652284861803154 0 0.026444371163387947 -0.017759934487586976 0 0.026343137148929156 -0.017511011653824952 0 0.0263633198549004 -0.018306280671084432 0 0.026444371163387947 -0.017759934487586976 0 0.026606821200437451 -0.018014038291083525 0 0.022349371848048572 -0.01903473622226769 0 0.018967111893892104 -0.015100754204689469 0 0.013218410925805451 -0.01638987158825005 0 0.012273268281582098 -0.012736665761657532 0 0.013623187409731069 -0.015068602154917623 0 0.027074439635579334 -0.018172925129682434 0 0.026695288689657842 -0.017748382429054722 0 0.026568904630547709 -0.017466172502143912 0 0.026444371163387947 -0.017759934487586976 0 0.026695288689657842 -0.017748382429054722 0 0.026530272841544095 -0.017616976602927898 0 0.026444371163387947 -0.017759934487586976 0 0.026695288689657842 -0.017748382429054722 0 0.026606821200437451 -0.018014038291083525 0 0.0263633198549004 -0.018306280671084432 0 0.026606821200437451 -0.018014038291083525 0 0.02696284552599864 -0.018142015458678797 0 0.026695288689657842 -0.017748382429054722 0 0.026606821200437451 -0.018014038291083525 0 0.026831996121181964 -0.017997139541648086 0 0.026606821200437451 -0.018014038291083525 0 0.026831996121181964 -0.017997139541648086 0 0.02696284552599864 -0.018142015458678797 0 0.027074439635579334 -0.018172925129682434 0 0.026695288689657842 -0.017748382429054722 0 0.026831996121181964 -0.017997139541648086 0 0.027074439635579334 -0.018172925129682434 0 0.026831996121181964 -0.017997139541648086 0 0.02696284552599864 -0.018142015458678797 0 0.022349371848048572 -0.01903473622226769 0 0.023518441971399167 -0.019347266540886726 0 0.012273268281582098 -0.012736665761657532 0 0.013623187409731069 -0.015068602154917623 0 0.013575079900564843 -0.014081653562338144 0 0.013520831598581343 -0.013065330194669336 0 0.012273268281582098 -0.012736665761657532 0 0.013575079900564843 -0.014081653562338144 0 0.013520831598581343 -0.013065330194669336 0 0.01313929948763279 -0.012419207483575069 0 0.012273268281582098 -0.012736665761657532 0 0.01313929948763279 -0.012419207483575069 0 0.012557639906889708 -0.011320421100728631 0 0.012273268281582098 -0.012736665761657532 0 0.01313929948763279 -0.012419207483575069 0 0.012557639906889708 -0.011320421100728631 0 0.014177044150921062 -0.012555471498791135 0 0.026568904630547709 -0.017466172502143912 0 0.026432285820164075 -0.017525319548757752 0 0.026414622515644449 -0.017470942772040105 0 0.026568904630547709 -0.017466172502143912 0 0.026530272841544095 -0.017616976602927898 0 0.026432285820164075 -0.017525319548757752 0 0.026695288689657842 -0.017748382429054722 0 0.026568904630547709 -0.017466172502143912 0 0.026530272841544095 -0.017616976602927898 0 0.026444371163387947 -0.017759934487586976 0 0.026432285820164075 -0.017525319548757752 0 0.026343137148929156 -0.017511011653824952 0 0.026444371163387947 -0.017759934487586976 0 0.026530272841544095 -0.017616976602927898 0 0.026432285820164075 -0.017525319548757752 0 0.026432285820164075 -0.017525319548757752 0 0.026374698676991836 -0.017483319779971199 0 0.026414622515644449 -0.017470942772040105 0 0.026432285820164075 -0.017525319548757752 0 0.026374698676991836 -0.017483319779971199 0 0.026343137148929156 -0.017511011653824952 0 0.016972181721864692 -0.015099804253116874 0 0.015432317904272411 -0.015117144610167142 0 0.015563903391457629 -0.013838306842669118 0 0.018691687700325078 -0.016472246863225376 0 0.017046949355172231 -0.016594413094543941 0 0.016972181721864692 -0.015099804253116874 0 0.015582611684588991 -0.016417491464177945 0 0.017046949355172231 -0.016594413094543941 0 0.016972181721864692 -0.015099804253116874 0 0.015582611684588991 -0.016417491464177945 0 0.016972181721864692 -0.015099804253116874 0 0.015432317904272411 -0.015117144610167142 0 0.015582611684588991 -0.016417491464177945 0 0.013218410925805451 -0.01638987158825005 0 0.014258068552159059 -0.015866290896100307 0 0.015582611684588991 -0.016417491464177945 0 0.014258068552159059 -0.015866290896100307 0 0.014589439725321018 -0.015560854864732543 0 0.015582611684588991 -0.016417491464177945 0 0.014589439725321018 -0.015560854864732543 0 0.015432317904272411 -0.015117144610167142 0 0.013218410925805451 -0.01638987158825005 0 0.014258068552159059 -0.015866290896100307 0 0.013623187409731069 -0.015068602154917623 0 0.014258068552159059 -0.015866290896100307 0 0.014589439725321018 -0.015560854864732543 0 0.013623187409731069 -0.015068602154917623 0 0.013623187409731069 -0.015068602154917623 0 0.014414371048569465 -0.014661958363284379 0 0.013575079900564843 -0.014081653562338144 0 0.014589439725321018 -0.015560854864732543 0 0.013623187409731069 -0.015068602154917623 0 0.014414371048569465 -0.014661958363284379 0 0.014414371048569465 -0.014661958363284379 0 0.013575079900564843 -0.014081653562338144 0 0.014399051757093268 -0.013714505752315358 0 0.014414371048569465 -0.014661958363284379 0 0.015563903391457629 -0.013838306842669118 0 0.014399051757093268 -0.013714505752315358 0 0.014414371048569465 -0.014661958363284379 0 0.015432317904272411 -0.015117144610167142 0 0.015563903391457629 -0.013838306842669118 0 0.014589439725321018 -0.015560854864732543 0 0.014414371048569465 -0.014661958363284379 0 0.015432317904272411 -0.015117144610167142 0 0.015563903391457629 -0.013838306842669118 0 0.014177044150921062 -0.012555471498791135 0 0.015924462806524171 -0.012658979988402184 0 0.012557639906889708 -0.011320421100728631 0 0.014177044150921062 -0.012555471498791135 0 0.016746365776362449 -0.011216951845383611 0 0.015563903391457629 -0.013838306842669118 0 0.014399051757093268 -0.013714505752315358 0 0.014177044150921062 -0.012555471498791135 0 0.014177044150921062 -0.012555471498791135 0 0.015924462806524171 -0.012658979988402184 0 0.016746365776362449 -0.011216951845383611 0 0.013520831598581343 -0.013065330194669336 0 0.013575079900564843 -0.014081653562338144 0 0.014399051757093268 -0.013714505752315358 0 0.013520831598581343 -0.013065330194669336 0 0.014399051757093268 -0.013714505752315358 0 0.014177044150921062 -0.012555471498791135 0 0.013520831598581343 -0.013065330194669336 0 0.01313929948763279 -0.012419207483575069 0 0.014177044150921062 -0.012555471498791135 0 0.015924462806524171 -0.012658979988402184 0 0.017169015959570617 -0.01305075194332298 0 0.016746365776362449 -0.011216951845383611 0 0.015563903391457629 -0.013838306842669118 0 0.015924462806524171 -0.012658979988402184 0 0.017169015959570617 -0.01305075194332298 0 0.016972181721864692 -0.015099804253116874 0 0.015563903391457629 -0.013838306842669118 0 0.017169015959570617 -0.01305075194332298 0 0.018906550840103634 -0.013909313468450096 0 0.016972181721864692 -0.015099804253116874 0 0.017169015959570617 -0.01305075194332298 0 0.018757014092054432 -0.012328959555448027 0 0.017169015959570617 -0.01305075194332298 0 0.016746365776362449 -0.011216951845383611 0 0.015655355797224799 -0.0093817048414260879 0 0.014260367582191107 -0.0087085418713778 0 0.015947412600317554 -0.0083397824132258064 0 0.012557639906889708 -0.011320421100728631 0 0.015655355797224799 -0.0093817048414260879 0 0.014260367582191107 -0.0087085418713778 0 0.012651220154126086 -0.011261111637346671 0 0.016044426155321319 -0.010301503163074408 0 0.020192143811270043 -0.0062465137145335881 0 0.019828101942737736 -0.007678844649311658 0 0.021630402043819573 -0.0073571691710686239 0 0.019828101942737736 -0.007678844649311658 0 0.021630402043819573 -0.0073571691710686239 0 0.021399259272123251 -0.00830609576370199 0 0.020192143811270043 -0.0062465137145335881 0 0.019828101942737736 -0.007678844649311658 0 0.017920009922837089 -0.0066333391386039922 0 0.019828101942737736 -0.007678844649311658 0 0.017920009922837089 -0.0066333391386039922 0 0.018196494122325577 -0.0077764637424146323 0 0.016350674741770894 -0.0073142786026849389 0 0.017161463451347947 -0.0074974785591748368 0 0.017920009922837089 -0.0066333391386039922 0 0.018196494122325577 -0.0077764637424146323 0 0.017356787219639236 -0.007454203546559496 0 0.026507940649827613 -0.017704704194334425 0 0.026413534163734792 -0.017553140455330993 0 0.0263268116469536 -0.017442209642216076 0 0.027661863845159559 -0.012186789062407839 0 0.021699623728041774 -0.010982914405440799 0 0.026413534163734792 -0.017553140455330993 0 0.026383354209335595 -0.017490027622096633 0 0.0263268116469536 -0.017442209642216076 0 0.026374698676991836 -0.017483319779971199 0 0.026413534163734792 -0.017553140455330993 0 0.026383354209335595 -0.017490027622096633 0 0.026374698676991836 -0.017483319779971199 0 0.026383354209335595 -0.017490027622096633 0 0.026414622515644449 -0.017470942772040105 0 0.026383354209335595 -0.017490027622096633 0 0.026414622515644449 -0.017470942772040105 0 0.0263268116469536 -0.017442209642216076 0 0.012557639906889708 -0.011320421100728631 0 0.012273268281582098 -0.012736665761657532 0 0.011456677362519849 -0.0090564918959231532 0 0.026568904630547709 -0.017466172502143912 0 0.026414622515644449 -0.017470942772040105 0 0.0263268116469536 -0.017442209642216076 0 0.016350674741770894 -0.0073142786026849389 0 0.021699623728041774 -0.010982914405440799 0 0.018967111893892104 -0.015100754204689469 0 0.021699623728041774 -0.010982914405440799 0 0.012557639906889708 -0.011320421100728631 0 0.014260367582191107 -0.0087085418713778 0 0.011456677362519849 -0.0090564918959231532 0 0.020192143811270043 -0.0062465137145335881 0 0.022847253775781111 -0.0060994148574657053 0 0.021630402043819573 -0.0073571691710686239 0 0.021630402043819573 -0.0073571691710686239 0 0.022488997673488362 -0.008200184457056111 0 0.021399259272123251 -0.00830609576370199 0 0.021630402043819573 -0.0073571691710686239 0 0.023262317361553181 -0.0076379086964333091 0 0.022488997673488362 -0.008200184457056111 0 0.021699623728041774 -0.010982914405440799 0 0.02224358026166956 -0.0068083051202529324 0 0.022847253775781111 -0.0060994148574657053 0 0.021630402043819573 -0.0073571691710686239 0 0.023262317361553181 -0.0076379086964333091 0 0.02644298583533803 -0.0082691219242461596 0 0.027657639019312528 -0.0064021504732889962 0 0.022698569795174314 -0.0061165384689527624 0 0.02644298583533803 -0.0082691219242461596 0 0.022698569795174314 -0.0061165384689527624 0 0.024469150759356385 -0.0081120096812188226 0 0.022698569795174314 -0.0061165384689527624 0 0.023262317361553181 -0.0076379086964333091 0 0.024469150759356385 -0.0081120096812188226 0 0.023262317361553181 -0.0076379086964333091 0 0.024469150759356385 -0.0081120096812188226 0 0.024292521272074308 -0.0086945206287734646 0 0.02644298583533803 -0.0082691219242461596 0 0.024469150759356385 -0.0081120096812188226 0 0.025021658295085195 -0.0085429241371925667 0 0.024469150759356385 -0.0081120096812188226 0 0.025021658295085195 -0.0085429241371925667 0 0.024292521272074308 -0.0086945206287734646 0 0.024574709129581623 -0.010120583185409768 0 0.024076320224434834 -0.0095781007807390142 0 0.024907614051692239 -0.0089823713237932139 0 0.024076320224434834 -0.0095781007807390142 0 0.02337778998150104 -0.0088869091400420146 0 0.022175061819349459 -0.009500406179284793 0 0.024076320224434834 -0.0095781007807390142 0 0.024907614051692239 -0.0089823713237932139 0 0.024178816701441036 -0.0090302042458600337 0 0.025021658295085195 -0.0085429241371925667 0 0.024907614051692239 -0.0089823713237932139 0 0.024292521272074308 -0.0086945206287734646 0 0.024907614051692239 -0.0089823713237932139 0 0.024292521272074308 -0.0086945206287734646 0 0.024178816701441036 -0.0090302042458600337 0 0.023262317361553181 -0.0076379086964333091 0 0.024292521272074308 -0.0086945206287734646 0 0.02337778998150104 -0.0088869091400420146 0 0.024292521272074308 -0.0086945206287734646 0 0.024178816701441036 -0.0090302042458600337 0 0.02337778998150104 -0.0088869091400420146 0 0.024076320224434834 -0.0095781007807390142 0 0.024178816701441036 -0.0090302042458600337 0 0.02337778998150104 -0.0088869091400420146 0 0.02337778998150104 -0.0088869091400420146 0 0.022488997673488362 -0.008200184457056111 0 0.022175061819349459 -0.009500406179284793 0 0.022488997673488362 -0.008200184457056111 0 0.021399259272123251 -0.00830609576370199 0 0.022175061819349459 -0.009500406179284793 0 0.023262317361553181 -0.0076379086964333091 0 0.02337778998150104 -0.0088869091400420146 0 0.022488997673488362 -0.008200184457056111 0 0.021399259272123251 -0.00830609576370199 0 0.022175061819349459 -0.009500406179284793 0 0.020756430540759416 -0.0090829114526533982 0 0.021746001960271034 -0.011193287907630443 0 0.022175061819349459 -0.009500406179284793 0 0.023257256136575429 -0.010622135164669014 0 0.021746001960271034 -0.011193287907630443 0 0.022175061819349459 -0.009500406179284793 0 0.020267046800142935 -0.010029198514506061 0 0.024076320224434834 -0.0095781007807390142 0 0.022175061819349459 -0.009500406179284793 0 0.023257256136575429 -0.010622135164669014 0 0.024574709129581623 -0.010120583185409768 0 0.024404399966063674 -0.011651506635172719 0 0.023257256136575429 -0.010622135164669014 0 0.024574709129581623 -0.010120583185409768 0 0.024076320224434834 -0.0095781007807390142 0 0.023257256136575429 -0.010622135164669014 0 0.019222566510757561 -0.0084554554597127372 0 0.018034270099221591 -0.0084607103598304239 0 0.018549081230679668 -0.0092189095179896485 0 0.019222566510757561 -0.0084554554597127372 0 0.018034270099221591 -0.0084607103598304239 0 0.018196494122325577 -0.0077764637424146323 0 0.018034270099221591 -0.0084607103598304239 0 0.018196494122325577 -0.0077764637424146323 0 0.017149515254388084 -0.0080525997880558677 0 0.019828101942737736 -0.007678844649311658 0 0.019222566510757561 -0.0084554554597127372 0 0.018196494122325577 -0.0077764637424146323 0 0.019828101942737736 -0.007678844649311658 0 0.019222566510757561 -0.0084554554597127372 0 0.020756430540759416 -0.0090829114526533982 0 0.019828101942737736 -0.007678844649311658 0 0.021399259272123251 -0.00830609576370199 0 0.020756430540759416 -0.0090829114526533982 0 0.019222566510757561 -0.0084554554597127372 0 0.020756430540759416 -0.0090829114526533982 0 0.020267046800142935 -0.010029198514506061 0 0.019222566510757561 -0.0084554554597127372 0 0.020267046800142935 -0.010029198514506061 0 0.018549081230679668 -0.0092189095179896485 0 0.022175061819349459 -0.009500406179284793 0 0.020756430540759416 -0.0090829114526533982 0 0.020267046800142935 -0.010029198514506061 0 0.017983491061909294 -0.01004854921467699 0 0.020267046800142935 -0.010029198514506061 0 0.018549081230679668 -0.0092189095179896485 0 0.018034270099221591 -0.0084607103598304239 0 0.018549081230679668 -0.0092189095179896485 0 0.017299893993174564 -0.0088282764082437768 0 0.017983491061909294 -0.01004854921467699 0 0.018549081230679668 -0.0092189095179896485 0 0.017299893993174564 -0.0088282764082437768 0 0.017983491061909294 -0.01004854921467699 0 0.016458442619917881 -0.0089627200031705771 0 0.017299893993174564 -0.0088282764082437768 0 0.016458442619917881 -0.0089627200031705771 0 0.017299893993174564 -0.0088282764082437768 0 0.01632204903966223 -0.0083983420857627993 0 0.018034270099221591 -0.0084607103598304239 0 0.017299893993174564 -0.0088282764082437768 0 0.017149515254388084 -0.0080525997880558677 0 0.017299893993174564 -0.0088282764082437768 0 0.017149515254388084 -0.0080525997880558677 0 0.01632204903966223 -0.0083983420857627993 0 0.017149515254388084 -0.0080525997880558677 0 0.016457434151519502 -0.0079163934512438278 0 0.016856250297005833 -0.0077268368716286069 0 0.01632204903966223 -0.0083983420857627993 0 0.015769612544991835 -0.0082275554505940665 0 0.016025016614850694 -0.0080105246160365601 0 0.016457434151519502 -0.0079163934512438278 0 0.016025016614850694 -0.0080105246160365601 0 0.016309276744652858 -0.0077465142289023974 0 0.017149515254388084 -0.0080525997880558677 0 0.016457434151519502 -0.0079163934512438278 0 0.01632204903966223 -0.0083983420857627993 0 0.016457434151519502 -0.0079163934512438278 0 0.01632204903966223 -0.0083983420857627993 0 0.016025016614850694 -0.0080105246160365601 0 0.015784638204698269 -0.0084961162271103372 0 0.01632204903966223 -0.0083983420857627993 0 0.015769612544991835 -0.0082275554505940665 0 0.015784638204698269 -0.0084961162271103372 0 0.016458442619917881 -0.0089627200031705771 0 0.01632204903966223 -0.0083983420857627993 0 0.015784638204698269 -0.0084961162271103372 0 0.015548243091624132 -0.0082523351886324443 0 0.015769612544991835 -0.0082275554505940665 0 0.015548243091624132 -0.0082523351886324443 0 0.015769612544991835 -0.0082275554505940665 0 0.015542502568511935 -0.0081329531256159153 0 0.015495832105009136 -0.0080330963960033776 0 0.015542502568511935 -0.0081329531256159153 0 0.01563671973106244 -0.0080715890741397539 0 0.015769612544991835 -0.0082275554505940665 0 0.015542502568511935 -0.0081329531256159153 0 0.01563671973106244 -0.0080715890741397539 0 0.01541070049735882 -0.0080448682085580963 0 0.015443429409709117 -0.0079652069316349262 0 0.015542502568511935 -0.0081329531256159153 0 0.01541070049735882 -0.0080448682085580963 0 0.015548243091624132 -0.0082523351886324443 0 0.015542502568511935 -0.0081329531256159153 0 0.01563671973106244 -0.0080715890741397539 0 0.016025016614850694 -0.0080105246160365601 0 0.016046707698992264 -0.0078035308015660734 0 0.015769612544991835 -0.0082275554505940665 0 0.01563671973106244 -0.0080715890741397539 0 0.016025016614850694 -0.0080105246160365601 0 0.016046707698992264 -0.0078035308015660734 0 0.015841987625930257 -0.0076838934569460554 0 0.016551701968375184 -0.0077761204125976618 0 0.016025016614850694 -0.0080105246160365601 0 0.016046707698992264 -0.0078035308015660734 0 0.016309276744652858 -0.0077465142289023974 0 0.01563671973106244 -0.0080715890741397539 0 0.016046707698992264 -0.0078035308015660734 0 0.015841987625930257 -0.0076838934569460554 0 0.015482341466390444 -0.0079030395242786922 0 0.01563671973106244 -0.0080715890741397539 0 0.015841987625930257 -0.0076838934569460554 0 0.02625362596132667 -0.010254975120792965 0 0.023675895205971149 -0.01061346194448212 0 0.024858070340280994 -0.011868428963368234 0 0.023675895205971149 -0.01061346194448212 0 0.023557085224981001 -0.012102541646256364 0 0.024858070340280994 -0.011868428963368234 0 0.019635672521716219 -0.0085162442686436933 0 0.018467292819411837 -0.009483267382116042 0 0.023675895205971149 -0.01061346194448212 0 0.022302466170627911 -0.012095680070939958 0 0.020455595897958749 -0.010903286928658463 0 0.023675895205971149 -0.01061346194448212 0 0.023557085224981001 -0.012102541646256364 0 0.022302466170627911 -0.012095680070939958 0 0.020426999946412529 -0.012625843849814624 0 0.022302466170627911 -0.012095680070939958 0 0.020455595897958749 -0.010903286928658463 0 0.015655355797224799 -0.0093817048414260879 0 0.015947412600317554 -0.0083397824132258064 0 0.016551701968375184 -0.0077761204125976618 0 0.018757014092054432 -0.012328959555448027 0 0.020426999946412529 -0.012625843849814624 0 0.020455595897958749 -0.010903286928658463 0 0.016044426155321319 -0.010301503163074408 0 0.018467292819411837 -0.009483267382116042 0 0.018757014092054432 -0.012328959555448027 0 0.016746365776362449 -0.011216951845383611 0 0.020455595897958749 -0.010903286928658463 0 0.017161463451347947 -0.0074974785591748368 0 0.016558989231326933 -0.0075781994025576815 0 0.015947412600317554 -0.0083397824132258064 0 0.016551701968375184 -0.0077761204125976618 0 0.016488554170944806 -0.0076091278958216949 0 0.017920009922837089 -0.0066333391386039922 0 0.017356787219639236 -0.007454203546559496 0 0.016488554170944806 -0.0076091278958216949 0 0.018196494122325577 -0.0077764637424146323 0 0.017149515254388084 -0.0080525997880558677 0 0.017356787219639236 -0.007454203546559496 0 0.017356787219639236 -0.007454203546559496 0 0.016856250297005833 -0.0077268368716286069 0 0.016488554170944806 -0.0076091278958216949 0 0.017149515254388084 -0.0080525997880558677 0 0.017356787219639236 -0.007454203546559496 0 0.016856250297005833 -0.0077268368716286069 0 0.016457434151519502 -0.0079163934512438278 0 0.016309276744652858 -0.0077465142289023974 0 0.016488554170944806 -0.0076091278958216949 0 0.016457434151519502 -0.0079163934512438278 0 0.016856250297005833 -0.0077268368716286069 0 0.016488554170944806 -0.0076091278958216949 0 0.016046707698992264 -0.0078035308015660734 0 0.016551701968375184 -0.0077761204125976618 0 0.016309276744652858 -0.0077465142289023974 0 0.016551701968375184 -0.0077761204125976618 0 0.016309276744652858 -0.0077465142289023974 0 0.016488554170944806 -0.0076091278958216949 0 
</DataArray>
</PointData>
<CellData Scalars="region_id,cross_section_updated," Vectors="" Tensors="stress,">
<DataArray type="Float64" Name="region_id" format="ascii">
6 5 5 5 5 5 5 5 5 6 5 5 5 6 5 5 5 5 5 5 5 5 5 5 5 5 5 5 5 6 5 5 6 5 5 5 6 5 5 5 6 5 5 5 5 5 5 5 5 6 5 5 5 5 5 5 6 5 5 5 5 5 5 5 5 5 6 5 5 6 5 5 5 6 5 6 5 6 6 5 5 5 5 5 5 5 5 5 6 5 6 5 5 6 5 5 5 5 5 5 5 5 5 5 5 5 5 5 5 6 5 5 5 5 6 5 5 6 6 5 5 6 5 5 5 6 6 6 5 6 5 5 5 5 5 5 5 5 5 6 6 5 5 5 5 5 5 6 5 5 5 5 5 6 6 5 5 6 5 5 6 6 5 6 6 5 5 5 5 5 5 5 5 5 5 5 5 6 5 5 6 5 5 5 5 5 5 5 5 5 5 5 5 5 5 5 5 5 5 5 5 6 5 5 5 5 5 5 5 5 5 5 5 5 5 5 5 6 5 5 6 5 5 5 5 6 6 5 5 5 5 5 5 5 5 5 5 5 5 5 5 5 6 5 5 5 6 5 5 5 5 5 5 5 5 6 6 5 5 5 5 5 5 5 5 5 6 5 5 5 5 5 6 5 6 5 5 5 5 5 6 6 5 5 5 6 5 6 5 5 5 6 5 6 5 5 6 5 5 5 6 5 5 5 5 5 6 6 5 5 6 5 6 6 5 5 6 5 6 5 5 5 5 6 5 6 5 5 6 6 6 5 6 5 6 6 5 5 5 5 5 5 5 5 5 6 5 5 5 5 5 5 5 5 5 5 5 5 5 5 5 5 5 5 5 5 5 5 5 5 6 5 6 5 5 5 5 5 6 5 6 5 5 6 5 5 5 5 6 5 6 5 5 5 5 5 5 5 5 5 5 5 5 5 6 5 5 6 5 5 5 5 5 5 5 5 5 5 5 5 5 5 5 5 5 6 5 5 5 5 5 5 5 5 5 5 6 5 5 5 6 6 5 5 5 5 5 5 5 5 5 5 5 5 5 5 5 5 5 5 5 5 5 5 5 6 5 5 6 5 5 6 5 6 5 5 5 6 5 6 6 5 5 5 5 5 5 5 5 5 5 6 5 5 5 5 5 5 5 5 5 5 5 5 5 5 5 5 5 5 5 5 5 5 5 5 5 5 5 5 5 5 5 5 6 5 5 5 5 6 5 5 5 5 5 5 5 6 5 5 5 5 5 5 5 5 5 6 5 6 6 5 5 6 5 6 5 5 5 5 5 5 5 5 6 5 5 5 5 5 6 5 5 5 5 5 5 6 5 5 5 5 5 5 5 5 6 5 6 5 5 5 5 5 6 5 6 5 5 5 5 5 5 6 5 5 5 5 5 5 5 5 5 5 6 6 5 5 5 5 6 5 5 5 5 5 5 5 5 5 5 5 5 6 5 5 6 5 5 5 5 5 5 5 5 5 5 6 6 5 5 5 5 5 5 5 5 5 5 6 5 6 5 5 5 5 5 5 5 5 5 5 5 5 5 5 5 5 5 5 5 5 5 5 5 5 5 5 5 5 5 5 5 5 5 5 5 5 5 5 5 6 5 5 5 6 5 6 5 6 5 5 6 5 6 5 6 5 5 6 5 5 5 5 5 5 5 5 6 5 5 6 5 5 5 5 6 5 5 5 5 5 5 5 5 5 5 6 5 6 5 6 5 6 5 6 5 5 5 6 5 6 5 5 5 5 5 5 5 5 5 5 5 5 6 5 5 6 6 5 5 5 6 5 5 6 5 5 6 5 5 5 6 5 5 5 5 5 6 5 5 6 6 5 5 5 6 6 6 5 5 6 5 5 6 5 5 5 5 5 5 6 5 5 6 5 5 6 5 5 5 5 5 5 5 5 6 5 5 5 5 5 6 6 6 5 5 5 5 5 5 5 5 5 5 5 6 5 5 5 5 6 5 5 5 5 5 5 5 6 5 5 5 6 5 6 5 6 5 6 5 5 5 5 5 5 5 5 5 5 6 5 5 5 5 5 5 5 5 6 5 5 6 5 5 5 5 6 5 5 5 5 5 5 6 5 6 5 5 5 5 5 5 6 6 5 5 5 5 6 5 6 5 5 5 6 5 5 5 5 5 5 5 6 6 5 5 6 5 6 6 6 5 5 5 5 5 5 5 6 5 5 5 5 5 5 5 5 5 5 5 5 5 6 5 5 5 5 5 5 5 5 5 5 6 5 5 6 5 5 5 5 5 6 5 5 5 5 5 5 5 5 6 5 6 5 5 6 5 5 6 5 5 5 5 6 5 5 5 5 5 6 5 5 5 5 5 5 5 5 5 6 5 5 6 6 5 5 5 5 6 5 6 5 5 6 6 5 6 5 6 5 5 5 5 5 6 5 5 5 6 5 5 5 6 5 5 5 5 5 5 5 5 5 5 6 5 5 5 5 5 5 5 5 5 5 5 5 5 5 5 5 5 5 6 5 5 6 5 5 5 5 6 5 5 5 5 5 5 5 5 5 5 5 5 5 5 5 5 5 5 5 5 5 5 5 5 5 5 5 5 5 5 5 5 5 5 5 5 5 5 5 5 5 5 5 5 5 5 5 5 5 5 5 5 5 5 5 5 5 5 6 5 5 5 5 5 5 5 5 5 5 5 5 5 5 5 5 5 5 5 6 5 5 5 5 6 5 5 5 5 5 5 5 5 5 5 5 5 5 5 5 5 5 5 6 5 5 5 5 6 5 5 5 5 5 6 6 5 5 5 5 5 5 5 5 5 5 5 5 5 5 5 5 5 5 6 5 5 5 6 5 6 5 5 5 5 5 5 5 5 5 6 5 5 5 5 6 6 5 5 5 5 5 5 5 5 5 5 5 5 5 5 5 5 5 5 5 6 5 5 5 5 5 5 5 5 5 5 5 5 5 6 5 5 5 5 5 5 5 5 5 5 5 5 5 5 5 5 5 5 5 5 5 5 6 5 5 5 5 5 5 5 6 5 5 5 6 5 5 5 5 5 5 5 5 5 5 5 5 5 5 5 5 5 5 5 5 5 5 5 5 6 5 6 5 5 5 5 6 5 6 5 5 5 5 5 5 5 6 5 5 5 5 6 5 5 5 5 5 5 5 5 5 5 5 6 5 5 5 5 5 5 6 5 6 5 5 5 5 5 6 5 5 6 5 5 6 5 5 5 5 5 5 5 5 5 5 5 5 5 5 5 5 5 5 5 5 5 5 5 5 5 5 5 6 5 5 5 6 5 6 5 5 6 6 5 5 5 6 5 5 5 5 6 5 6 5 5 6 5 5 5 5 5 6 5 5 5 5 5 6 5 5 5 5 5 5 5 5 5 5 5 5 5 5 5 5 5 5 5 5 5 5 5 5 5 5 5 5 5 5 5 5 5 5 5 5 5 5 5 5 5 5 5 6 6 5 5 5 5 5 5 5 5 5 5 5 5 5 5 5 5 5 5 5 5 5 5 5 5 5 5 5 5 6 5 5 5 5 6 5 5 5 5 6 5 5 5 5 5 5 5 6 5 6 5 5 5 5 5 6 5 5 5 5 5 5 5 5 5 5 6 5 5 5 5 5 5 5 5 5 5 5 5 5 5 5 5 5 5 5 5 5 5 5 5 5 6 5 5 5 5 6 5 6 5 5 6 5 6 5 5 5 5 5 5 6 5 5 5 6 5 5 5 5 5 5 5 5 5 5 5 5 5 5 5 5 5 6 5 6 5 5 5 5 5 6 5 6 5 5 5 5 5 5 5 5 6 5 5 5 5 5 5 5 5 5 5 5 5 5 5 5 5 5 5 5 5 5 5 5 6 5 6 5 5 5 5 5 5 5 5 5 5 5 5 6 5 5 5 5 5 5 5 5 5 5 5 5 5 5 5 5 5 5 5 5 5 5 5 5 5 5 5 6 5 5 5 6 5 6 6 5 5 5 5 5 6 5 5 5 5 5 5 5 5 5 5 5 5 5 5 5 5 5 5 5 5 5 5 5 5 6 5 5 6 5 5 5 5 5 5 5 5 6 6 5 5 5 5 5 5 5 5 5 5 6 5 5 6 6 5 6 5 5 5 5 5 6 5 6 6 6 5 5 5 5 5 5 6 5 5 5 5 5 5 5 5 5 6 5 6 5 5 6 5 5 5 5 5 5 5 5 5 5 5 5 5 5 5 5 5 5 5 5 5 5 5 5 5 5 6 6 5 5 5 5 5 5 5 5 5 5 5 5 5 5 5 5 5 5 5 5 5 5 5 5 5 5 5 5 5 5 5 5 5 5 5 5 5 5 5 5 5 5 5 5 5 5 5 5 5 5 5 5 5 5 5 5 6 5 5 5 5 5 5 5 5 5 6 6 5 5 5 6 5 5 5 5 5 5 5 5 5 5 5 5 5 5 5 5 5 5 5 5 5 5 5 5 5 5 5 5 5 5 6 5 5 5 5 5 5 5 6 5 5 5 5 5 5 5 6 5 5 6 5 5 5 5 5 5 5 5 5 6 5 5 6 6 5 5 5 6 5 5 5 5 5 5 5 5 5 5 5 6 5 5 5 5 6 5 6 5 5 6 5 5 6 6 5 5 5 5 5 5 5 5 5 5 6 6 5 5 5 5 5 5 6 5 5 5 5 5 5 6 5 6 5 5 5 5 5 6 6 5 5 5 5 5 5 5 5 5 5 5 5 5 5 5 5 5 5 5 6 6 5 5 6 5 5 5 5 5 5 5 5 5 5 5 6 5 5 5 5 5 5 5 5 5 5 5 5 5 5 5 5 5 5 5 5 5 5 5 5 5 5 5 5 6 5 5 5 5 6 6 5 5 5 5 5 5 5 6 5 6 5 5 5 5 5 5 5 5 5 5 5 5 5 5 5 5 5 5 5 5 6 6 5 6 5 5 5 5 5 6 5 5 5 5 5 5 5 5 5 5 5 5 5 5 5 5 5 6 5 5 5 5 5 5 5 5 5 5 5 6 5 5 5 5 5 5 5 5 5 5 6 5 5 5 5 5 5 5 5 5 6 5 5 5 5 6 5 5 5 6 5 5 5 5 6 5 5 5 5 5 5 5 5 5 6 5 5 5 5 6 5 5 5 5 5 5 5 5 6 5 6 6 5 6 6 5 5 5 6 5 5 5 6 5 6 5 5 5 5 5 6 5 5 5 6 5 5 5 5 5 5 6 6 5 5 5 5 5 5 5 5 5 5 5 6 5 6 6 5 5 5 5 5 6 6 5 5 6 5 5 5 5 6 5 5 5 5 5 6 5 5 5 5 6 6 5 5 6 5 6 6 5 5 5 5 5 5 5 5 5 5 5 5 5 5 5 5 5 5 5 5 5 6 5 5 6 5 6 5 5 5 6 5 5 5 5 5 5 6 6 5 5 5 5 5 5 6 5 5 6 5 5 5 5 5 5 6 5 5 5 6 5 5 5 5 5 5 6 5 5 5 5 5 5 5 5 5 5 5 5 5 6 5 6 5 5 5 5 5 5 5 5 5 6 5 5 5 6 5 5 5 5 5 5 5 5 5 5 6 5 5 5 5 5 5 5 5 5 5 5 5 5 5 5 5 5 5 5 5 5 5 5 5 5 6 5 5 5 6 5 5 6 5 5 5 5 5 6 5 5 5 6 5 5 5 5 5 5 5 6 5 5 5 5 5 5 5 5 5 5 5 5 5 5 5 5 5 6 5 6 5 5 5 5 5 5 5 5 5 6 5 6 5 6 5 6 6 5 5 5 5 6 5 5 5 5 6 5 5 5 5 5 6 5 6 5 5 6 5 5 5 5 5 5 5 5 5 5 5 5 5 5 5 5 5 6 5 5 5 5 5 5 6 5 5 5 5 5 6 5 5 5 5 5 5 5 6 5 5 6 5 5 5 5 5 5 6 5 5 5 6 5 5 5 5 5 5 5 5 5 5 5 5 5 5 5 5 5 6 5 5 5 5 5 6 6 5 5 5 5 5 6 5 6 5 6 5 6 6 5 5 5 6 6 5 5 5 5 5 5 5 5 5 5 5 5 5 5 5 5 5 5 5 5 5 5 5 5 5 5 5 5 5 5 5 5 5 5 5 5 5 5 6 5 5 5 5 5 5 5 6 5 6 5 5 5 5 5 5 6 5 5 5 6 5 5 5 6 6 5 6 5 5 5 5 5 5 6 5 5 6 5 5 5 5 5 5 5 5 5 5 5 5 6 6 6 5 5 5 6 5 5 5 5 5 5 5 5 5 5 5 5 5 5 5 5 5 5 5 5 5 5 6 5 5 5 5 6 5 5 5 5 5 5 5 6 5 5 5 5 5 6 5 5 5 5 5 6 5 5 5 5 5 5 5 5 5 6 5 5 5 5 6 5 5 5 5 5 5 5 5 5 5 6 5 5 6 5 5 5 5 5 5 5 5 5 5 5 5 5 5 5 5 5 5 5 5 6 5 5 5 5 6 5 5 5 5 5 5 5 5 6 5 5 5 5 5 6 5 5 6 5 5 5 5 5 5 5 5 5 5 5 5 6 5 5 5 5 5 5 5 5 5 5 5 5 5 5 5 5 5 5 5 5 5 5 5 5 5 5 5 5 6 5 5 5 5 5 5 5 5 5 5 5 5 5 5 6 5 5 5 5 5 5 5 5 5 5 5 5 5 5 5 5 5 5 5 6 5 5 5 5 5 5 5 6 5 5 5 5 5 5 5 5 5 5 5 5 5 5 5 5 5 5 5 5 5 5 5 5 6 5 5 5 5 5 6 5 5 5 5 5 5 5 5 5 5 6 5 5 6 5 6 5 5 5 5 5 5 5 6 5 6 5 6 5 5 5 5 5 5 5 5 5 5 5 5 5 5 5 5 5 5 5 5 5 5 5 5 5 5 5 5 5 5 5 5 5 5 5 5 6 5 5 5 5 5 5 5 5 5 5 5 5 5 5 5 5 5 5 5 5 5 5 5 5 5 5 5 5 5 5 5 6 5 5 5 5 5 5 6 6 5 5 5 5 5 5 5 5 5 5 5 5 5 6 5 5 5 5 5 5 5 5 5 5 6 6 5 6 5 5 5 6 5 6 6 5 6 5 5 5 5 5 5 5 6 6 5 5 5 5 6 5 5 5 5 6 5 6 5 6 6 5 6 5 5 5 5 5 6 5 6 6 6 6 5 5 5 5 5 6 5 5 6 6 5 5 5 6 5 5 6 5 5 5 5 6 5 5 6 5 5 6 5 5 5 5 5 5 5 5 5 5 5 5 5 5 6 5 6 5 5 5 5 5 6 5 5 6 5 5 5 5 5 6 5 5 5 5 5 5 5 5 5 5 6 5 5 5 5 5 5 5 5 5 5 5 6 5 5 5 5 5 5 6 5 5 5 5 5 5 5 5 5 5 5 5 5 5 6 5 5 5 6 5 5 5 5 5 5 5 6 5 6 5 5 5 5 5 5 5 5 5 5 5 5 5 5 5 5 5 5 5 5 5 5 5 5 5 5 5 5 5 5 5 5 5 5 5 5 6 5 6 5 5 6 5 6 5 5 5 5 5 5 6 5 5 6 6 5 5 5 5 5 5 6 5 5 5 5 5 5 5 6 5 5 5 5 5 5 5 5 5 5 5 5 5 5 5 5 5 5 5 6 5 5 5 6 5 6 5 6 5 5 5 5 6 5 5 5 5 5 5 6 5 5 5 5 5 5 6 5 5 6 5 5 5 5 5 5 6 5 5 5 5 5 5 5 5 5 6 5 6 5 5 5 5 5 6 6 5 5 5 6 6 5 5 5 5 5 5 6 5 5 6 6 5 5 6 5 5 6 5 5 5 5 6 5 5 5 5 5 5 6 5 5 5 5 5 5 5 5 5 5 6 5 5 5 6 6 5 5 5 5 5 5 5 5 5 6 5 5 5 5 5 5 5 5 5 5 5 6 6 5 5 5 5 6 5 5 5 5 6 5 5 5 5 6 5 5 5 6 5 5 5 5 6 5 5 5 5 5 6 5 5 5 5 6 5 5 5 5 5 5 5 5 5 5 5 5 5 5 5 5 5 5 5 5 5 5 5 5 5 5 5 5 5 5 5 5 6 5 5 5 5 6 5 5 5 5 5 5 6 5 5 5 6 5 6 5 5 5 5 5 5 5 5 5 5 5 5 5 5 5 5 5 5 5 5 5 5 5 6 5 6 5 5 5 6 5 5 5 5 5 5 5 5 5 5 5 5 5 6 5 5 6 5 5 6 6 5 6 5 5 5 5 5 5 5 5 5 5 5 5 5 5 5 5 5 6 5 5 5 5 5 6 5 5 5 5 5 5 5 6 5 5 5 5 5 5 5 6 5 5 5 5 5 5 5 5 5 5 5 5 5 5 5 6 5 5 5 6 5 5 5 5 5 5 5 5 5 5 5 6 5 5 5 5 5 5 6 5 5 6 5 6 5 5 5 6 5 5 5 5 5 5 5 5 5 5 5 6 5 5 5 5 5 6 5 5 5 6 5 5 5 6 5 5 5 5 5 6 5 6 5 5 5 5 5 5 5 5 6 5 6 5 5 6 5 6 5 6 5 5 5 5 5 5 5 5 5 5 6 5 6 5 5 5 5 6 5 5 5 6 6 5 5 5 6 5 6 6 5 5 6 6 5 6 6 5 5 6 6 5 5 6 5 5 6 5 6 5 5 6 5 5 6 5 6 5 5 5 6 5 6 5 5 6 6 5 5 5 6 6 5 6 5 5 5 5 5 5 5 5 6 5 5 6 6 5 6 5 6 6 5 5 5 6 5 5 6 5 5 5 5 5 5 6 6 5 5 5 5 5 5 5 6 6 5 5 5 5 6 5 5 5 6 5 5 6 5 5 5 5 5 6 5 5 6 5 5 5 6 6 5 5 6 5 5 5 6 5 5 5 6 6 5 5 6 5 5 5 5 6 6 5 5 6 6 5 6 6 5 5 5 5 5 5 6 5 5 5 5 5 5 5 5 5 5 6 6 5 5 5 5 5 5 5 6 5 5 5 5 5 5 5 5 5 6 5 5 6 5 5 6 5 5 5 5 5 5 5 5 5 5 5 5 5 5 5 5 5 5 6 6 5 5 5 5 6 5 5 6 5 5 5 5 5 5 5 5 5 6 5 5 6 5 5 5 5 5 5 5 5 5 5 5 6 5 6 5 5 5 5 5 5 5 5 5 5 6 5 5 5 5 5 5 5 5 5 5 5 5 5 5 5 5 5 5 5 5 5 5 5 5 5 5 5 5 5 5 5 5 5 5 5 5 5 5 5 6 5 5 5 5 5 5 5 5 5 6 5 5 6 5 5 5 5 5 5 5 5 5 5 5 5 5 5 5 5 6 5 6 5 5 6 5 5 5 6 6 5 6 6 5 6 5 5 6 5 5 6 5 5 5 5 5 5 5 5 5 5 5 5 5 5 5 5 5 5 5 5 5 6 5 5 5 5 5 5 5 5 5 5 5 5 5 5 5 5 5 5 5 6 5 5 5 5 5 6 5 5 5 5 5 5 5 5 5 5 5 5 5 5 5 5 5 5 5 5 5 5 5 5 6 5 5 5 5 5 5 6 5 5 5 5 5 5 5 5 5 5 5 5 5 5 5 6 5 5 5 6 6 5 5 5 6 5 5 5 5 5 5 5 5 6 5 5 5 5 6 5 5 5 5 5 5 5 5 5 5 5 5 5 6 5 5 5 5 5 5 5 5 5 5 5 5 5 5 5 5 5 5 5 5 5 5 5 5 5 5 5 6 5 5 5 5 5 5 5 5 5 5 5 5 5 5 5 6 6 5 5 5 6 5 5 5 5 5 5 5 5 5 5 5 5 5 5 5 5 5 5 5 5 5 5 5 5 5 5 5 5 5 5 6 5 5 5 5 5 5 5 5 5 5 5 5 5 5 5 5 5 5 5 5 5 5 5 5 5 6 5 5 5 5 5 5 5 6 5 5 5 6 5 5 6 5 5 5 5 5 5 5 5 6 6 5 5 5 5 5 6 5 5 5 5 5 5 5 5 5 5 5 5 5 5 5 5 5 5 5 6 5 6 5 6 5 5 5 6 5 6 5 5 5 5 5 5 5 5 5 5 5 5 6 5 5 5 5 6 5 5 6 5 6 5 5 6 5 5 5 6 5 5 5 5 5 5 5 5 5 6 5 5 5 5 6 5 5 5 5 6 5 5 5 5 5 5 6 5 6 5 6 5 5 5 6 5 5 5 5 5 5 6 6 5 5 5 5 5 6 5 5 5 5 5 5 5 5 5 5 5 5 5 5 5 5 5 5 5 6 5 5 5 5 5 5 5 5 5 6 5 6 5 6 5 5 5 5 5 5 5 5 5 5 5 5 6 5 5 6 5 5 5 5 5 5 5 5 5 6 5 6 5 5 5 5 5 5 6 5 5 5 5 5 5 5 5 5 5 5 5 5 5 5 5 5 5 5 5 5 5 5 5 5 5 5 5 5 5 5 5 5 5 5 5 5 5 5 5 5 6 5 5 6 5 6 5 5 5 6 6 5 5 6 5 5 5 5 5 5 5 5 5 5 5 5 6 5 5 5 5 5 5 5 5 5 5 5 5 6 5 5 5 5 5 5 5 5 5 5 5 5 5 5 5 6 5 5 5 5 5 6 5 5 5 5 5 5 5 5 5 6 5 5 5 5 6 5 5 5 5 5 5 5 5 5 5 5 6 5 6 5 6 5 5 5 6 5 5 5 5 5 5 5 5 5 5 5 5 5 5 5 5 5 5 5 5 6 5 5 5 5 5 5 5 5 5 5 5 5 5 5 5 5 5 5 6 5 5 5 5 5 6 5 5 5 5 5 5 5 5 6 5 5 6 5 5 5 5 5 5 5 6 5 5 5 5 5 5 5 5 5 6 5 5 5 5 5 5 5 5 5 5 5 5 5 5 5 5 5 5 5 5 5 5 5 5 6 5 6 5 5 6 5 5 5 5 5 5 5 5 6 5 5 5 5 5 5 6 5 5 5 5 5 5 5 5 5 5 5 5 6 5 5 5 5 5 5 5 5 5 5 5 5 5 5 6 5 5 5 6 5 5 5 5 6 5 5 5 5 5 5 5 5 5 5 5 5 5 5 5 5 5 5 5 5 5 5 5 5 5 5 6 5 5 6 5 5 5 5 5 5 5 5 5 6 5 5 6 5 5 6 5 5 5 5 5 5 5 5 5 5 5 5 5 5 5 5 5 5 5 5 5 5 5 5 5 5 5 5 5 5 5 5 5 5 5 5 5 5 5 5 5 5 5 5 5 5 5 5 5 5 5 5 5 5 5 5 5 5 5 5 5 5 5 6 5 5 5 5 5 5 6 5 5 5 5 5 5 5 5 5 5 5 6 6 5 5 6 5 6 5 5 6 5 5 6 5 5 5 5 5 5 5 5 6 5 5 5 5 5 5 5 5 5 6 5 5 5 5 6 5 5 5 5 5 5 5 5 5 5 5 5 5 5 5 6 5 5 5 5 6 5 6 5 5 5 6 5 5 6 5 5 5 5 5 5 5 5 5 5 5 6 5 5 6 5 5 5 6 5 5 6 6 5 5 6 5 5 5 5 5 5 5 5 6 5 5 5 5 6 5 6 5 6 5 5 5 5 6 5 5 5 6 5 5 5 5 5 5 5 5 5 5 5 5 5 5 5 5 5 5 6 5 5 5 5 5 5 5 5 5 5 5 5 5 5 5 5 5 5 5 5 5 5 5 5 5 5 5 5 5 5 5 5 5 5 5 5 5 5 5 5 6 5 5 5 5 5 6 5 5 5 5 5 5 5 5 5 5 5 5 5 6 5 5 6 5 5 5 6 5 6 5 5 5 5 6 5 5 5 5 5 5 5 5 5 6 5 5 6 6 5 6 5 5 5 5 5 5 5 5 5 5 5 5 5 5 5 5 5 5 5 5 5 5 5 6 5 5 5 6 5 5 5 5 5 5 5 6 5 5 5 5 5 5 5 5 5 5 5 5 5 5 5 5 5 5 5 5 5 5 5 6 5 5 5 5 5 6 5 6 6 5 5 5 6 5 5 6 5 5 5 5 5 5 5 5 5 5 5 6 5 5 5 6 5 6 5 5 5 5 5 6 5 6 5 6 5 5 5 5 5 5 5 5 6 6 6 5 5 6 5 5 5 5 5 5 5 5 5 5 5 5 5 5 5 5 5 5 5 5 5 5 5 5 5 5 5 5 5 5 5 5 5 5 5 5 5 6 5 5 5 5 5 5 5 6 5 5 6 5 5 5 5 5 5 5 5 5 5 5 5 5 5 5 5 5 5 5 5 5 5 5 6 5 5 5 5 5 5 5 5 5 5 6 5 5 5 5 6 5 5 5 5 6 5 6 6 5 5 5 5 6 5 5 6 5 5 6 6 5 5 5 5 5 5 5 6 5 5 5 5 5 5 5 5 5 5 5 5 5 6 5 5 5 5 5 5 5 6 6 5 6 5 6 5 5 5 6 5 5 5 5 5 6 5 5 6 5 5 5 5 5 5 5 6 5 5 5 5 5 5 5 5 6 5 5 5 6 5 5 5 5 5 6 6 5 5 6 5 5 5 5 5 5 5 5 5 5 5 5 5 5 6 5 5 6 5 6 5 5 5 5 6 5 5 5 5 5 6 5 5 6 6 5 5 5 5 6 5 5 5 5 5 5 5 5 6 5 6 5 5 5 5 5 5 5 5 6 5 5 5 5 6 5 5 5 5 5 5 5 5 5 5 5 5 5 5 5 5 5 5 5 5 5 5 5 5 5 5 5 5 5 5 5 5 5 6 5 5 5 5 5 5 5 6 5 5 5 5 5 5 5 5 5 5 5 5 6 5 5 5 5 6 5 5 5 5 5 5 5 5 5 5 5 5 5 6 5 5 6 5 5 5 5 6 5 5 5 5 5 5 5 5 5 5 5 6 5 6 5 5 6 5 5 5 5 6 5 5 5 5 5 5 5 5 5 5 5 5 5 5 5 5 5 5 5 5 5 5 5 5 5 5 5 5 6 5 5 5 5 6 5 5 5 5 5 5 5 5 5 6 5 5 5 6 5 5 5 5 5 5 6 5 6 5 6 5 5 5 5 5 5 5 5 5 5 5 5 5 5 5 5 5 5 5 5 5 5 5 5 5 5 5 5 5 5 5 5 5 5 5 6 5 6 5 5 5 5 5 5 5 5 6 5 5 5 5 5 5 5 5 5 5 5 5 6 5 5 5 5 5 5 5 5 5 5 5 5 5 6 5 5 6 5 5 5 5 6 5 5 5 5 6 5 5 5 5 5 6 6 5 6 5 5 6 5 5 5 5 6 5 6 5 5 5 5 5 5 5 5 6 5 5 5 5 6 5 5 5 5 5 5 5 5 5 5 5 5 5 5 5 5 5 5 5 5 5 5 6 5 5 5 5 5 5 5 5 5 5 5 5 5 5 5 5 5 5 5 5 5 6 5 5 5 5 5 5 5 6 5 6 5 5 5 5 5 5 5 5 5 5 5 5 5 5 5 5 5 5 5 5 5 5 5 5 5 5 6 5 5 5 5 5 6 5 6 5 5 5 5 6 6 6 5 6 5 5 5 6 5 5 5 5 6 5 6 5 5 5 5 6 5 5 5 6 6 6 5 6 5 6 5 5 6 5 5 5 5 5 5 5 5 5 5 6 5 6 5 6 5 5 5 5 6 5 5 5 5 6 5 5 5 5 5 5 5 5 5 5 6 5 6 5 5 6 5 5 6 5 5 5 5 5 6 5 5 5 5 5 5 5 5 5 5 5 5 6 5 5 5 6 5 5 5 5 5 6 5 5 5 5 5 5 5 5 5 5 5 5 5 5 5 5 5 5 5 5 5 6 5 5 5 5 6 5 5 5 6 5 6 5 5 6 5 6 5 5 5 5 5 5 6 5 5 5 5 6 5 6 5 5 5 5 5 5 5 6 5 5 5 5 5 5 5 6 5 5 5 5 5 5 5 5 5 5 5 5 5 5 5 5 5 6 5 5 5 6 5 5 5 5 5 5 5 5 5 5 5 5 5 5 6 5 5 5 5 5 5 5 5 5 5 5 5 5 5 5 5 5 5 5 5 5 5 5 5 5 5 5 6 5 6 5 5 5 6 5 5 5 6 5 5 6 6 5 5 5 5 5 5 5 5 6 5 5 6 5 5 5 5 6 5 6 5 5 5 6 5 5 5 5 5 5 5 5 5 5 6 5 5 6 5 5 6 5 5 5 5 5 5 5 6 5 5 6 6 5 5 5 6 5 5 5 5 5 5 6 5 5 5 5 6 5 5 5 6 5 5 5 5 6 5 5 6 5 5 5 5 5 5 5 5 5 5 5 6 5 5 5 5 6 5 6 5 6 5 6 5 5 5 5 5 5 5 5 5 5 5 6 6 5 5 5 5 5 5 6 5 5 6 5 5 5 5 5 5 6 5 5 5 6 5 6 5 5 5 6 5 5 5 5 5 5 6 5 5 5 5 5 5 6 5 6 5 5 5 6 5 5 5 5 6 5 5 5 5 5 5 5 6 5 6 5 6 5 5 5 6 6 5 5 6 5 5 5 5 5 6 5 6 6 6 6 5 5 5 5 5 6 6 5 5 6 5 5 5 6 5 5 5 5 5 5 5 5 5 6 5 5 5 6 5 5 5 5 5 5 5 6 5 6 5 5 5 5 6 5 6 5 5 5 5 6 5 5 5 5 5 5 5 5 5 6 5 5 5 5 5 5 5 5 5 5 5 5 5 5 5 5 5 5 5 5 5 6 5 5 5 5 6 5 5 5 5 5 6 5 6 5 5 5 5 5 5 5 5 5 5 5 6 5 6 5 6 6 5 6 5 6 5 5 5 6 5 5 5 6 5 5 5 5 6 5 6 5 5 5 5 5 5 5 5 6 5 5 5 5 5 5 5 5 6 5 5 5 5 5 5 5 5 5 6 5 5 6 5 5 5 6 5 5 5 5 5 5 5 5 5 5 5 5 6 5 5 5 5 6 5 5 5 5 5 5 6 5 5 5 5 6 5 6 5 5 5 5 5 5 5 6 5 5 5 6 6 5 5 5 5 6 5 6 5 5 6 5 5 5 5 5 5 5 5 5 5 5 5 5 5 5 5 5 5 5 5 5 5 5 5 5 5 5 5 5 5 5 5 5 5 5 6 5 5 5 6 5 5 5 5 5 5 5 5 5 5 5 5 5 6 5 6 5 5 5 5 5 5 5 5 5 5 5 5 5 6 5 5 6 5 5 5 5 5 6 5 5 5 5 5 5 5 5 5 5 5 5 5 5 5 5 5 5 5 6 6 5 5 6 5 5 6 5 5 5 5 5 5 5 6 5 5 5 5 6 5 5 5 5 5 5 5 5 5 5 5 5 5 5 6 5 5 6 5 5 5 5 5 5 5 6 6 5 5 5 5 5 5 5 5 5 5 5 5 5 5 5 5 6 5 5 5 5 6 5 5 6 5 5 6 5 5 5 5 5 5 5 5 5 5 5 5 6 5 5 5 5 6 5 5 5 5 5 5 5 5 5 6 6 6 5 5 5 6 5 5 6 6 5 6 5 5 5 6 5 5 5 5 5 5 5 5 5 5 5 5 5 5 5 5 5 5 5 5 5 5 5 5 5 5 5 5 5 5 5 5 5 5 5 5 5 5 5 5 5 5 5 5 5 5 5 5 6 5 6 5 5 5 5 5 5 5 5 5 6 5 5 5 5 5 5 6 5 5 5 5 5 6 5 5 5 5 5 5 5 5 5 5 5 5 5 5 5 6 5 5 5 5 5 5 5 6 5 5 5 5 5 6 6 5 5 5 5 6 5 5 5 5 5 5 5 5 5 5 5 5 5 5 5 5 5 5 5 5 5 6 5 5 5 5 5 5 6 5 5 5 6 5 5 5 5 5 5 5 5 5 5 5 5 5 5 5 5 5 5 6 5 6 5 5 5 5 5 6 6 5 5 5 6 5 5 5 5 5 5 6 5 5 5 5 5 6 5 6 5 5 6 5 5 5 5 6 5 5 5 5 6 5 5 5 5 6 5 5 5 5 5 5 5 5 5 5 5 5 5 6 5 5 5 5 5 5 5 5 5 5 5 5 5 5 5 5 6 5 5 5 5 6 5 5 5 5 6 5 5 5 5 5 5 5 5 5 5 6 5 5 5 5 6 5 5 5 5 5 5 5 5 5 5 5 5 5 5 5 6 5 5 5 6 5 5 5 5 5 5 5 5 5 5 5 5 5 5 6 5 5 5 5 5 5 5 5 5 5 5 6 5 5 6 5 5 5 5 5 5 6 6 5 5 5 5 6 5 6 5 5 5 6 5 5 6 5 5 5 5 5 5 5 5 5 5 5 5 5 5 5 5 6 5 5 5 5 5 5 5 5 6 6 5 5 5 6 6 5 6 5 6 5 5 5 5 6 5 5 5 5 5 5 5 5 5 5 5 5 5 6 5 6 5 5 5 5 5 5 5 5 6 6 5 5 6 6 6 5 5 5 5 5 5 6 5 5 6 5 5 6 6 6 6 5 5 5 5 5 5 5 5 5 5 5 5 5 6 5 5 6 5 6 5 5 5 5 5 5 5 6 6 5 5 6 5 5 6 5 5 5 5 6 6 6 6 5 5 5 5 5 5 5 5 5 5 5 5 5 5 6 5 5 6 5 5 5 5 6 5 5 5 6 5 5 6 5 5 6 5 5 6 6 5 6 5 5 5 5 5 5 6 5 5 5 5 6 5 5 5 5 5 6 5 5 6 5 6 6 5 5 5 6 5 5 5 5 5 6 5 5 5 6 5 5 5 6 5 5 5 5 5 5 5 6 5 5 5 5 5 6 5 5 5 5 5 5 5 6 5 6 6 5 5 6 5 5 5 5 5 5 6 5 5 5 5 5 5 6 5 5 5 5 5 5 6 5 6 5 6 5 5 6 5 5 5 5 6 6 6 6 5 5 5 5 5 5 5 5 6 5 5 5 6 5 6 5 5 5 5 5 5 5 5 5 5 5 5 5 5 5 5 6 5 6 5 5 5 5 5 5 5 5 6 5 5 5 5 5 6 5 5 6 5 5 5 5 5 5 6 6 5 5 6 5 5 5 5 5 5 5 5 5 5 5 6 6 5 5 5 5 6 5 5 5 5 5 5 5 5 6 5 5 5 5 6 5 5 5 5 5 5 6 5 6 5 6 5 5 5 5 5 5 5 5 5 5 5 5 5 5 5 5 5 5 6 5 5 5 5 5 5 5 5 5 5 5 5 5 5 5 5 5 6 6 5 5 5 5 5 5 5 5 5 5 5 5 5 5 5 5 5 5 5 5 5 5 5 5 5 5 5 5 5 5 5 5 5 5 5 5 5 5 5 5 5 5 5 5 5 6 5 6 5 5 5 5 5 5 5 6 5 5 5 6 5 6 6 6 5 6 6 5 5 6 6 6 5 5 5 5 5 6 5 6 6 5 5 5 5 5 5 5 6 5 5 6 5 5 6 6 5 5 5 5 5 5 6 5 5 6 6 5 5 6 5 5 5 6 5 5 5 5 6 5 5 5 6 5 5 6 5 5 5 5 5 5 5 5 5 5 5 5 5 5 5 5 5 5 5 6 6 5 5 5 6 5 5 5 5 6 5 5 5 5 5 6 6 5 5 5 5 5 5 5 5 5 6 5 5 5 5 5 5 5 5 5 5 5 5 5 5 5 5 5 5 5 5 5 5 5 5 5 5 5 6 5 6 6 5 5 5 5 5 5 5 5 5 5 5 5 5 5 5 5 5 5 5 5 5 5 5 5 5 5 5 6 5 5 6 5 5 6 5 5 6 5 6 5 5 5 5 5 5 5 6 5 5 5 5 5 5 5 5 5 5 5 5 6 5 6 5 6 5 5 5 5 5 6 5 5 5 5 6 5 5 6 5 5 5 5 5 5 5 5 6 5 5 5 5 5 5 6 5 5 5 5 6 5 5 5 6 5 5 5 5 5 5 5 5 5 5 5 5 5 5 5 5 5 5 6 5 6 5 5 5 6 5 5 5 5 5 5 5 5 5 5 5 5 5 5 5 5 5 5 5 6 5 5 5 6 5 5 5 6 5 5 5 5 5 5 5 5 5 5 5 5 5 5 5 6 5 5 5 5 6 5 5 6 5 5 5 5 5 5 6 5 6 5 6 6 6 5 5 5 6 6 5 5 5 5 5 5 5 6 5 5 5 6 5 6 5 5 5 5 5 5 5 5 5 6 5 5 5 5 5 5 5 5 6 5 5 5 5 6 5 5 5 5 5 5 5 5 5 5 5 5 5 5 5 5 5 5 5 5 5 6 6 5 5 5 5 5 5 5 5 6 5 5 5 5 5 5 5 5 5 5 6 5 5 5 5 5 5 6 5 5 5 5 5 6 5 6 5 5 6 6 5 5 5 5 5 5 5 5 5 5 5 5 5 5 5 5 5 5 5 5 5 5 5 5 5 5 5 5 5 5 5 5 5 5 5 5 5 5 5 5 5 5 5 5 5 5 5 5 6 6 5 5 6 5 5 5 5 5 6 6 5 5 6 6 5 5 5 5 5 5 5 5 5 5 6 5 5 5 5 5 5 5 5 5 5 5 5 5 5 5 6 5 5 5 5 5 5 5 5 5 5 5 5 5 6 5 6 6 6 5 5 5 5 5 5 5 5 6 6 5 5 5 5 6 5 5 5 5 5 5 5 5 6 5 5 5 5 5 5 5 5 5 5 5 5 5 5 5 5 5 6 5 5 5 5 5 5 6 5 5 6 5 5 5 5 5 5 5 5 5 5 5 5 5 5 5 5 5 5 6 5 5 5 6 5 5 6 5 6 6 5 5 6 5 5 5 6 5 5 6 5 6 6 5 5 5 5 6 5 5 5 5 5 5 6 5 6 5 5 5 6 5 5 5 5 6 5 6 6 5 5 5 5 5 6 5 6 5 6 5 6 6 5 5 5 5 5 5 5 6 5 6 5 5 6 5 5 6 5 5 5 5 5 5 5 5 5 5 5 5 5 5 5 5 5 5 5 5 5 5 5 5 5 5 5 5 5 5 5 6 5 5 5 5 5 5 5 5 5 5 5 5 5 5 5 5 5 5 5 5 5 5 5 6 5 5 5 5 5 6 6 5 5 5 5 5 5 5 5 5 5 5 5 5 5 5 5 5 5 5 5 5 6 5 5 5 5 5 5 5 5 5 5 5 5 5 6 5 6 5 5 5 6 5 5 5 5 5 5 5 5 6 5 6 5 5 5 5 5 6 5 5 5 5 5 5 5 5 5 5 5 6 5 5 5 5 5 5 5 5 5 5 5 6 5 5 5 5 5 5 5 5 6 5 5 5 5 5 5 5 5 5 5 5 5 5 5 5 5 5 5 5 5 5 5 5 5 5 5 6 5 5 6 5 5 5 5 5 5 5 5 5 5 5 5 5 5 5 5 5 5 5 5 5 5 5 5 5 5 5 5 6 5 6 5 6 5 5 5 5 5 6 5 5 5 5 6 5 5 5 6 5 5 5 5 5 5 5 5 5 5 5 5 5 5 5 5 5 5 6 6 6 5 5 5 5 5 5 5 5 5 5 5 5 5 6 5 5 5 5 5 5 5 5 5 5 5 5 6 5 5 6 5 5 5 5 5 5 5 5 5 5 5 5 5 5 5 5 5 5 5 5 5 6 6 5 5 5 5 5 5 5 5 5 5 5 5 5 5 6 5 5 6 5 5 5 5 6 5 5 5 5 5 5 6 5 5 5 5 5 5 5 5 5 5 5 5 5 5 5 5 5 5 6 5 5 5 5 5 6 5 5 5 5 5 5 5 5 5 5 5 5 5 5 5 5 5 5 5 5 5 5 5 5 5 5 5 5 6 5 6 5 5 5 5 6 6 5 5 5 5 5 5 5 5 5 5 5 5 5 5 5 5 5 5 5 5 5 5 5 5 5 5 5 5 5 5 5 5 5 5 5 6 5 5 5 5 6 5 5 5 5 5 5 5 5 5 5 5 6 5 5 5 5 5 5 5 5 5 5 5 5 5 5 5 5 5 6 6 5 6 5 5 5 5 5 5 5 5 5 5 6 5 5 5 5 5 5 5 5 5 5 5 5 5 5 5 5 5 6 5 5 5 5 6 5 5 5 5 5 5 5 5 5 5 5 5 5 5 5 5 5 5 5 5 5 5 5 5 5 5 5 5 5 5 5 5 5 5 5 5 5 5 5 5 5 5 5 5 5 5 5 5 5 5 5 5 5 5 5 5 5 5 5 5 5 5 5 5 5 5 5 5 5 5 5 5 5 5 5 5 5 5 5 5 5 6 5 5 5 5 5 5 5 6 5 5 6 5 5 5 5 5 5 5 5 5 5 5 5 6 5 6 5 6 5 5 5 5 5 5 5 5 6 5 5 5 5 5 5 5 5 5 6 5 5 5 5 5 5 5 5 5 5 5 5 5 5 5 5 5 5 5 5 5 6 5 5 5 5 5 5 5 5 5 5 5 5 6 5 5 5 5 5 6 5 5 6 5 5 5 5 6 6 5 5 6 5 5 5 5 5 5 5 6 6 5 5 5 5 5 5 5 5 5 5 5 5 6 5 5 5 5 6 5 5 5 5 5 5 5 5 6 5 5 5 5 6 5 5 5 5 6 5 5 5 5 5 5 5 6 5 5 5 5 5 6 5 5 5 6 5 5 5 5 5 6 5 5 5 5 5 5 5 5 5 5 5 5 5 5 6 5 5 6 5 5 5 5 5 5 5 5 5 5 5 5 5 5 5 5 5 5 5 5 5 6 5 5 6 5 5 6 5 5 5 5 5 5 5 5 5 5 5 5 5 5 5 5 5 5 5 5 5 5 5 5 5 5 5 5 5 5 6 5 5 5 5 6 5 5 6 5 6 5 5 5 5 6 5 6 5 5 6 5 6 5 6 6 5 5 6 5 6 5 6 5 5 6 5 5 5 5 5 5 6 5 6 5 5 6 6 5 5 6 5 6 5 5 6 5 5 6 5 5 6 6 6 5 6 5 5 5 5 5 5 5 5 6 5 5 5 5 5 5 5 6 5 5 5 5 5 5 5 5 5 5 5 5 5 5 6 5 5 5 5 5 5 5 5 5 5 5 5 5 5 5 5 5 5 5 6 5 5 5 5 5 5 5 5 5 5 5 5 5 5 5 5 5 5 5 5 5 5 5 5 5 5 5 5 5 5 5 6 5 5 5 6 5 6 6 5 6 5 5 5 6 5 5 5 5 6 6 6 5 5 5 5 5 5 5 5 5 5 5 5 5 5 5 5 5 6 5 5 5 5 5 5 5 5 5 6 5 5 5 6 5 5 5 5 5 5 5 5 5 5 5 5 6 5 5 6 5 5 5 5 5 5 5 5 5 5 5 5 5 5 5 5 5 5 5 5 5 5 6 5 5 5 5 5 5 5 5 5 5 5 5 5 5 5 5 5 5 6 5 5 5 5 5 5 5 6 5 5 5 5 6 5 5 5 5 5 5 5 5 5 5 5 5 5 5 5 5 5 5 5 5 5 5 5 5 5 5 5 5 5 5 5 5 5 5 5 6 6 5 5 5 5 6 5 6 5 5 5 5 5 6 5 5 5 5 5 5 5 5 6 6 5 5 5 5 6 5 5 5 5 5 5 5 5 5 5 5 5 5 5 5 5 5 5 5 5 5 6 5 5 5 5 5 5 6 5 5 6 5 5 5 5 5 5 5 5 5 6 5 5 5 5 5 5 5 5 6 5 5 5 5 5 5 5 5 5 5 5 5 5 5 5 5 5 6 5 5 6 5 5 5 5 5 5 5 5 5 5 5 5 5 5 5 5 5 5 5 5 5 5 5 5 5 5 5 5 5 6 5 6 5 5 5 5 5 5 5 5 5 5 5 5 5 5 5 5 5 5 5 5 5 5 6 5 5 5 6 5 5 5 5 5 5 5 5 5 5 5 5 6 5 5 5 6 6 5 5 6 5 5 5 5 5 5 5 5 5 6 5 5 5 5 5 5 5 5 5 5 5 5 5 6 5 6 5 5 5 5 5 5 5 5 5 5 5 5 5 5 5 5 5 5 5 5 5 5 5 5 5 5 5 5 5 6 5 5 5 5 5 5 6 5 5 5 5 5 5 5 5 5 5 5 5 5 5 5 5 6 5 6 5 5 5 5 5 5 5 6 5 5 5 6 5 5 5 5 6 5 5 5 5 5 5 6 5 5 5 5 6 5 6 5 5 5 5 5 5 5 5 6 6 5 5 5 6 6 5 5 5 5 5 5 5 6 6 5 6 6 5 5 5 5 6 5 6 5 5 5 5 5 5 6 5 5 5 5 6 5 5 5 5 6 5 5 5 5 5 6 5 5 6 5 5 5 5 6 5 5 5 5 5 5 5 5 5 6 6 5 5 5 5 5 5 5 5 5 5 5 5 5 6 5 6 5 5 5 5 5 5 5 5 5 5 5 5 5 5 5 5 5 5 5 5 5 6 5 5 5 5 5 5 5 5 5 5 5 5 5 5 5 5 5 5 5 5 5 5 5 5 5 5 6 5 5 5 5 5 5 5 5 6 5 6 5 5 5 5 5 5 6 5 5 5 5 5 5 5 5 5 5 5 5 5 5 5 5 5 5 5 5 5 5 5 5 5 5 6 5 5 5 5 5 5 5 5 6 5 5 6 5 5 6 5 5 5 5 5 6 5 5 5 5 5 5 5 5 5 6 5 5 5 5 5 5 5 5 5 5 5 5 5 5 5 6 5 5 5 5 5 5 5 5 6 5 5 5 5 5 5 5 5 5 5 5 5 5 5 5 5 5 5 6 5 6 5 6 5 5 6 6 5 5 5 5 5 5 5 5 5 5 5 5 5 5 6 5 5 5 5 5 5 6 5 5 5 6 5 5 5 5 5 5 5 5 5 5 5 5 6 5 5 5 5 6 6 6 5 5 5 5 5 5 5 6 5 5 6 5 6 5 6 5 5 5 5 5 6 5 5 5 5 5 5 5 5 5 5 5 5 5 5 5 5 5 5 5 5 6 5 5 5 6 5 6 6 6 5 5 5 5 5 6 5 5 5 5 5 5 5 5 5 5 5 5 5 5 5 5 5 5 5 5 5 5 5 5 5 5 6 5 5 6 5 5 5 5 5 5 5 5 6 5 6 5 5 5 5 5 5 5 5 6 5 5 5 5 6 5 5 6 5 5 6 5 5 5 6 5 5 5 5 5 5 5 5 5 5 5 5 5 5 5 5 5 5 5 5 6 5 5 5 5 5 5 6 5 5 5 5 5 6 5 5 5 5 5 6 5 6 6 5 5 5 5 5 5 5 5 5 5 5 5 6 5 5 5 5 6 5 6 6 5 5 5 6 5 5 5 5 5 5 5 5 5 5 5 5 5 5 5 5 5 5 5 5 5 5 6 5 6 5 5 6 5 5 6 5 5 6 5 5 5 6 6 5 5 5 5 5 5 5 6 5 5 5 5 5 5 5 5 6 5 5 5 5 5 5 5 6 5 5 5 6 5 6 6 5 5 5 6 5 5 5 5 5 5 5 5 5 5 5 5 5 5 5 5 5 5 5 5 5 5 6 5 5 6 5 5 5 6 5 5 5 5 5 5 5 6 6 5 5 6 5 5 5 5 5 5 5 5 5 5 5 5 5 5 5 5 5 5 5 5 5 5 5 5 5 5 5 5 5 5 5 5 5 5 5 6 5 5 5 5 5 5 5 6 5 5 6 5 5 6 5 5 5 5 5 5 5 5 5 5 5 5 5 5 5 5 5 5 5 6 5 5 5 5 6 5 5 5 5 5 5 5 5 5 5 6 5 5 5 5 6 5 5 5 5 6 6 5 6 5 5 5 5 5 5 5 5 5 5 5 5 5 5 6 5 5 5 5 5 5 5 5 5 6 5 5 5 5 5 5 5 5 5 5 5 5 5 5 5 5 5 5 5 5 5 5 5 5 5 5 5 5 5 5 5 5 5 5 5 5 5 5 5 5 5 6 5 5 5 5 6 5 5 6 5 5 5 5 5 5 6 6 5 5 5 5 6 5 5 5 5 5 5 5 5 5 5 5 5 5 5 5 5 5 5 5 5 5 5 5 5 5 5 5 5 5 5 5 5 5 5 5 5 5 5 5 5 5 5 5 5 5 5 5 5 5 5 5 5 5 5 5 5 5 5 5 5 5 6 5 5 5 5 5 6 5 6 5 5 5 5 5 5 5 5 5 
</DataArray>
<DataArray type="Float64" Name="stress" NumberOfComponents="9" format="ascii">
13.677729937014533 -5.36105392609403 0 -5.36105392609403 -0.53167513253557019 0 0 0 0 -11.829625372731877 -3429.2214280397588 0 -3429.2214280397588 1411.8305032326534 0 0 0 0 359.15753635484725 -141.69505625568854 0 -141.69505625568854 3.7902886684132682 0 0 0 0 563.88694432307966 -147.11920496012317 0 -147.11920496012317 -1852.6261618065405 0 0 0 0 -0.78515565215994454 -664.4525578665756 0 -664.4525578665756 -719.70383552010753 0 0 0 0 200.72353688538897 414.42106356691784 0 414.42106356691784 -832.3212661993748 0 0 0 0 -253.6180503606156 175.2902823301265 0 175.2902823301265 402.5632839458558 0 0 0 0 54.396133546295459 -663.72415106232802 0 -663.72415106232802 1072.4088109962395 0 0 0 0 0.33596654687426053 -772.97096199658699 0 -772.97096199658699 844.20867408346021 0 0 0 0 -3.854009342868153 -1.1290992396862691 0 -1.1290992396862691 3.0365475134665871 0 0 0 0 -67.688552837920724 -646.7852830370357 0 -646.7852830370357 1653.8950872161513 0 0 0 0 -382.245764258696 -563.65711649753212 0 -563.65711649753212 1654.4964646462467 0 0 0 0 -394.88515166609432 -774.87927420716733 0 -774.87927420716733 2608.4256647139737 0 0 0 0 3.2838205747648885 -2.3085581682052236 0 -2.3085581682052236 2.8060198059455956 0 0 0 0 1.3961426096297382 -1396.8468204013195 0 -1396.8468204013195 1683.1381989051733 0 0 0 0 1444.0460672630288 -1528.0111421039182 0 -1528.0111421039182 1535.1402331953577 0 0 0 0 1983.8385418336838 -2303.1340498784266 0 -2303.1340498784266 2023.2994145275297 0 0 0 0 564.53502314569778 -415.45500562351663 0 -415.45500562351663 1583.9633818150614 0 0 0 0 917.13291758704872 -1821.352163464675 0 -1821.352163464675 2162.7303141968368 0 0 0 0 493.43213631749677 -780.32563837098496 0 -780.32563837098496 -273.64685779434512 0 0 0 0 -39.666676100889163 -550.67804204244021 0 -550.67804204244021 1205.6170537578 0 0 0 0 73.814003940467956 -284.32712406088831 0 -284.32712406088831 1790.1646794738554 0 0 0 0 743.89894997856391 -1711.2917768142597 0 -1711.2917768142597 4475.6247978276078 0 0 0 0 1198.3650379239989 -754.77990495163249 0 -754.77990495163249 1507.4136273634795 0 0 0 0 454.99933543564111 -929.38458575206459 0 -929.38458575206459 1883.0423676376085 0 0 0 0 34.941119375114795 -6.9253402612521313 0 -6.9253402612521313 61.031548620769172 0 0 0 0 856.69652956087521 -1458.856911173214 0 -1458.856911173214 785.1298917530803 0 0 0 0 1192.7703971693409 -603.29116838361369 0 -603.29116838361369 139.90797612308234 0 0 0 0 -325.71763618200202 -66.659178862370027 0 -66.659178862370027 2055.3543045606093 0 0 0 0 -2.6330947361663561 -1.699270147109587 0 -1.699270147109587 0.3611118966139486 0 0 0 0 -38.557396790472012 -791.70376929964323 0 -791.70376929964323 36.899152432815754 0 0 0 0 99.264632934166002 275.55694499131641 0 275.55694499131641 925.37683000087418 0 0 0 0 33.509699722895789 -12.790482970199037 0 -12.790482970199037 -1.2971722063561195 0 0 0 0 339.75284259271575 414.25245542007178 0 414.25245542007178 -1364.9195225796866 0 0 0 0 -487.95277763233753 -351.23236057271424 0 -351.23236057271424 284.71063321431211 0 0 0 0 -248.4116429239948 -14.580598860993632 0 -14.580598860993632 -5.5889826294369414 0 0 0 0 35.586591250379001 -17.237162207141097 0 -17.237162207141097 -0.18914646708041127 0 0 0 0 1006.3683064376528 -588.99921778583666 0 -588.99921778583666 -138.79167887997755 0 0 0 0 26.148784222627 -45.590975024970248 0 -45.590975024970248 -7.7251176481222501 0 0 0 0 787.56281896495784 -939.62014134271521 0 -939.62014134271521 -440.87451221278025 0 0 0 0 15.769630638434307 -12.157321030465283 0 -12.157321030465283 2.2771662307853502 0 0 0 0 999.68567244601581 -2984.572332630305 0 -2984.572332630305 4320.0051497861787 0 0 0 0 755.67772800037346 -2218.0787220129641 0 -2218.0787220129641 3249.8791541622631 0 0 0 0 1952.4166424498981 -2486.8700683052521 0 -2486.8700683052521 1625.3806957596098 0 0 0 0 391.99945151084103 -1193.1614099195285 0 -1193.1614099195285 1795.4275274858701 0 0 0 0 597.64154767672244 -517.75701304555878 0 -517.75701304555878 752.62119251451804 0 0 0 0 2331.2008871732687 -3281.2183778040235 0 -3281.2183778040235 2951.9146516161563 0 0 0 0 1615.5484664551914 -1623.8667917025159 0 -1623.8667917025159 -825.94769121975696 0 0 0 0 2307.1342413655511 -3378.8217530514157 0 -3378.8217530514157 2797.3431953761756 0 0 0 0 4.4272440314545065 -6.1418343511299156 0 -6.1418343511299156 -1.9616356929794847 0 0 0 0 2427.321789890826 -1728.464337219461 0 -1728.464337219461 1154.8123898040794 0 0 0 0 130.69948845337058 -65.006749013264198 0 -65.006749013264198 -320.69120041829592 0 0 0 0 -95.340855395872495 -346.65750412761554 0 -346.65750412761554 691.29554681896116 0 0 0 0 1853.9181329513885 -1078.2262331414458 0 -1078.2262331414458 262.863522927546 0 0 0 0 162.90031791246565 201.45995925765828 0 201.45995925765828 -17.879377937992103 0 0 0 0 644.82279719394865 -377.75966160395183 0 -377.75966160395183 -422.59603964981216 0 0 0 0 -4.5159091051926907 -38.449633581069577 0 -38.449633581069577 -23.357588011702518 0 0 0 0 3739.4632468784257 -1312.1399427383803 0 -1312.1399427383803 1700.6840759245715 0 0 0 0 221.74273445144354 -1908.0493703084649 0 -1908.0493703084649 1738.1508400163639 0 0 0 0 1454.9646881262888 -3091.8579578217323 0 -3091.8579578217323 2860.9531520447636 0 0 0 0 -554.50971255070181 -395.87622569223458 0 -395.87622569223458 3022.0043124139847 0 0 0 0 353.58265039174694 -1002.4399200492226 0 -1002.4399200492226 539.04478424252011 0 0 0 0 536.01338094033417 317.37583723224816 0 317.37583723224816 -399.8923789622495 0 0 0 0 4178.9402558732836 -3267.6613122975832 0 -3267.6613122975832 2423.4925148031107 0 0 0 0 5704.5897531687515 -2114.2640022542 0 -2114.2640022542 736.77990566656808 0 0 0 0 -307.13544518344861 211.48205402645544 0 211.48205402645544 860.71318009535025 0 0 0 0 -2.5858151632242397 -11.754051912864583 0 -11.754051912864583 41.570565789058151 0 0 0 0 4088.6054853004316 -2004.9027445894026 0 -2004.9027445894026 741.94428927038098 0 0 0 0 3686.5039603260375 -383.64893437784485 0 -383.64893437784485 358.78532076167176 0 0 0 0 8.2010071410063574 -13.315254428971741 0 -13.315254428971741 4.4168273166170025 0 0 0 0 2384.7196080850845 -566.51806526610017 0 -566.51806526610017 -325.37497334036743 0 0 0 0 270.70879136282019 158.9030368487438 0 158.9030368487438 217.94874651753344 0 0 0 0 -175.47161186746962 -33.79740355823742 0 -33.79740355823742 -29.308616675087251 0 0 0 0 -0.15517786127540489 -56.054084806561889 0 -56.054084806561889 -5.9440728561924061 0 0 0 0 50.84411780157825 -46.736625708406791 0 -46.736625708406791 2.4068713984452188 0 0 0 0 -2.1370390866938149 -46.122458566324866 0 -46.122458566324866 7.821158216439926 0 0 0 0 -309.21217183495173 -340.30583752633538 0 -340.30583752633538 -430.85944771720096 0 0 0 0 18.297117792255335 -66.466200845463163 0 -66.466200845463163 -40.493819492646992 0 0 0 0 -36.205071865524303 -55.948342614053473 0 -55.948342614053473 -15.511411804375314 0 0 0 0 -132.79737784087774 152.10733995304327 0 152.10733995304327 -178.72568416136346 0 0 0 0 -382.21834762368235 167.0670319711935 0 167.0670319711935 247.31407635667711 0 0 0 0 -104.3079612624424 -76.710488358810835 0 -76.710488358810835 7.3040452389395796 0 0 0 0 -37.997108786905301 -240.24880108279831 0 -240.24880108279831 180.6071423839021 0 0 0 0 -115.519469981984 -87.890733226769953 0 -87.890733226769953 -3.5435714009072399 0 0 0 0 25.037726597569417 -141.22419076215738 0 -141.22419076215738 29.615137315620814 0 0 0 0 28.112909798655892 -133.8527191920366 0 -133.8527191920366 17.647694996820064 0 0 0 0 -108.7028744246345 -116.64944498731347 0 -116.64944498731347 61.089805250332574 0 0 0 0 1429.9774174317572 -334.82957877412991 0 -334.82957877412991 212.477354585375 0 0 0 0 16.247040932275183 -9.0358712473509115 0 -9.0358712473509115 -15.277817762151699 0 0 0 0 172.75933282327605 -109.07547009749396 0 -109.07547009749396 28.310301504214294 0 0 0 0 -9.4538973753660684 -61.13101196100618 0 -61.13101196100618 13.744804103528793 0 0 0 0 -140.36178270429809 -88.28638946436331 0 -88.28638946436331 61.247555523528717 0 0 0 0 -102.92557844729163 -91.010284650270478 0 -91.010284650270478 -1.7935865487597766 0 0 0 0 -2.89870419471589 -10.292228096787845 0 -10.292228096787845 10.010811848349931 0 0 0 0 178.04814599550446 -85.851066235987673 0 -85.851066235987673 -10.062475905884639 0 0 0 0 -67.587655691750115 19.334186817082809 0 19.334186817082809 259.7312014013703 0 0 0 0 -85.386865387519265 -68.097944044598989 0 -68.097944044598989 262.57017763007025 0 0 0 0 -28.968805421209254 -9.8877588202012703 0 -9.8877588202012703 145.50550292730622 0 0 0 0 -82.100284494592415 -120.77571746487502 0 -120.77571746487502 114.40819351148093 0 0 0 0 279.75892731704334 -174.55622236507679 0 -174.55622236507679 -1.0916630306164734 0 0 0 0 -447.92794361918641 -244.51558040837699 0 -244.51558040837699 1223.7803944565821 0 0 0 0 237.58515590999741 -373.77680322439119 0 -373.77680322439119 109.15356764645549 0 0 0 0 47.996553432531073 -179.65515035253338 0 -179.65515035253338 43.216082278988324 0 0 0 0 214.49521326221293 -82.70731785069438 0 -82.70731785069438 -33.958186902105808 0 0 0 0 145.2364735257579 -179.27761361033481 0 -179.27761361033481 8.6512356123857899 0 0 0 0 89.187213514436735 -177.87774229774368 0 -177.87774229774368 12.991184774204157 0 0 0 0 115.81434366905887 -120.90998439783289 0 -120.90998439783289 1.165114915027516 0 0 0 0 162.02603863058903 -153.15319593288586 0 -153.15319593288586 -4.6799147493002238 0 0 0 0 136.86583604294719 -152.70964604166147 0 -152.70964604166147 2.5986282312951516 0 0 0 0 -10.726442629679227 -7.4183359348308215 0 -7.4183359348308215 -3.1819299068469036 0 0 0 0 -93.094374603882898 -44.380408260047261 0 -44.380408260047261 -2.8532833069330081 0 0 0 0 -112.65660630550701 -37.739219430513913 0 -37.739219430513913 -0.68968101701466367 0 0 0 0 -95.94888898532372 -57.716390640853206 0 -57.716390640853206 6.6997526483901311 0 0 0 0 -60.498532957048155 -55.226133120770101 0 -55.226133120770101 -6.4420410660095513 0 0 0 0 -21.277270623455635 -48.992453190432627 0 -48.992453190432627 -11.331367104933008 0 0 0 0 -119.934176877141 -73.332349430129398 0 -73.332349430129398 1.1834233083645813 0 0 0 0 -41.973278675930487 -40.940094867521111 0 -40.940094867521111 -5.4982028848025948 0 0 0 0 -9.5681670280910414 -3.6788309996016721 0 -3.6788309996016721 0.04381977494892908 0 0 0 0 -30.256404748845185 -51.723558522870178 0 -51.723558522870178 19.390706645903606 0 0 0 0 -125.1436363919056 -15.809497133217519 0 -15.809497133217519 34.47440005914541 0 0 0 0 -95.664247842039913 -70.189894911804004 0 -70.189894911804004 -6.5123199512599967 0 0 0 0 -18.767979055125267 -5.2015080859428693 0 -5.2015080859428693 10.032041910448186 0 0 0 0 -44.477577327356357 -28.61008359485561 0 -28.61008359485561 -13.528240182087757 0 0 0 0 -0.099283533480047481 -41.952248718078408 0 -41.952248718078408 -10.721577039803378 0 0 0 0 -25.867820379442549 -52.122905418613129 0 -52.122905418613129 1.9699568841606379 0 0 0 0 -16.758981764212283 -25.550107966116627 0 -25.550107966116627 -2.1215154108502361 0 0 0 0 -9.8403278432426617 -32.427702804770888 0 -32.427702804770888 -8.3867886972946621 0 0 0 0 -32.520897857032082 -32.082323088105689 0 -32.082323088105689 -12.951809608277301 0 0 0 0 -8.2848853758478072 -46.198888427643396 0 -46.198888427643396 17.271417648684292 0 0 0 0 -17.767466520616225 -26.535059282020967 0 -26.535059282020967 -18.320506012925506 0 0 0 0 80.90919720949023 -129.65303323772241 0 -129.65303323772241 -0.97860995700466447 0 0 0 0 99.015798020729562 -54.018556352799351 0 -54.018556352799351 -31.371025300868496 0 0 0 0 84.230115315876901 -140.23962689885229 0 -140.23962689885229 25.756482078635599 0 0 0 0 86.154545305224019 -136.71986531068978 0 -136.71986531068978 8.8473108294710983 0 0 0 0 51.116732391528785 -169.41148488144245 0 -169.41148488144245 75.439131130813621 0 0 0 0 12.303885336208623 -96.448215608892497 0 -96.448215608892497 9.9468898938575876 0 0 0 0 209.49922491662437 69.185290821667877 0 69.185290821667877 -155.87983462337434 0 0 0 0 153.31304409500444 91.257104561431333 0 91.257104561431333 -60.658876589950523 0 0 0 0 -20.520371883554617 -108.50843214621273 0 -108.50843214621273 41.228443892323412 0 0 0 0 -3.9872457435058095 -10.99543602196065 0 -10.99543602196065 -14.635150675693723 0 0 0 0 -9.8252674939064804 -36.728016793620498 0 -36.728016793620498 -36.208995132751596 0 0 0 0 102.94308488577371 -97.797281689330703 0 -97.797281689330703 -89.312467767333146 0 0 0 0 95.564865247637499 -88.629418050317327 0 -88.629418050317327 -177.41300482992665 0 0 0 0 32.691721421520924 -94.69525896452069 0 -94.69525896452069 -89.627037959930021 0 0 0 0 71.370204901671968 -77.104295966477366 0 -77.104295966477366 -94.954587327316403 0 0 0 0 94.284764845389873 -98.141055607702583 0 -98.141055607702583 -78.534568001923617 0 0 0 0 99.736717834835872 -91.198162174725439 0 -91.198162174725439 -70.537183894775808 0 0 0 0 10.975899352025749 -3.5599980222229419 0 -3.5599980222229419 -13.188576902593383 0 0 0 0 35.776132269587833 -81.788169381237822 0 -81.788169381237822 69.615422227885574 0 0 0 0 102.69563108868169 -43.746318360834266 0 -43.746318360834266 -70.206359298841562 0 0 0 0 7.2040219702175818 -33.682262024420197 0 -33.682262024420197 -17.82797761191614 0 0 0 0 13.252674096522242 -56.473041588569686 0 -56.473041588569686 -24.118191528788884 0 0 0 0 8.379889886098681 -45.522712595004123 0 -45.522712595004123 -47.670981497882167 0 0 0 0 -24.544733324963829 -41.273697750326846 0 -41.273697750326846 -15.707921694273921 0 0 0 0 -7.9929865180071999 -46.626035905941777 0 -46.626035905941777 -44.902149706961382 0 0 0 0 -5.0241713078867178 -102.73894091163675 0 -102.73894091163675 46.817219212942291 0 0 0 0 -77.601480799377896 -4.68869454486412 0 -4.68869454486412 -85.549266349873506 0 0 0 0 -6.3366158002773716 -31.035409514053612 0 -31.035409514053612 -28.95352427092439 0 0 0 0 1.2097485263948329 -82.10726127892849 0 -82.10726127892849 -31.203369490343903 0 0 0 0 9.2756969523616135 -71.855083456437569 0 -71.855083456437569 -23.82491616893094 0 0 0 0 9.2333911645990838 -38.034707851322651 0 -38.034707851322651 -43.950341629021892 0 0 0 0 3.0598445401150229 -31.627061760372555 0 -31.627061760372555 -37.676959786036093 0 0 0 0 162.57951304837479 238.96510264720564 0 238.96510264720564 -888.68943038063298 0 0 0 0 -47.082065607973476 -59.251445327889883 0 -59.251445327889883 4.4504090093735442 0 0 0 0 -47.999676838106865 -50.43087844010617 0 -50.43087844010617 11.861632200329211 0 0 0 0 194.2198458223902 -11.577221419785928 0 -11.577221419785928 -19.253187367809005 0 0 0 0 -63.886913765498321 -56.048596825290588 0 -56.048596825290588 16.490729482655297 0 0 0 0 -2.3220099066238618 -126.27002630135394 0 -126.27002630135394 25.832561717393219 0 0 0 0 21.699595650956326 -73.135944425208436 0 -73.135944425208436 140.86217014523572 0 0 0 0 117.18744195462205 -138.34632323418919 0 -138.34632323418919 4.2274639160459628 0 0 0 0 246.73699907698028 -16.63694437985032 0 -16.63694437985032 -298.92956042173319 0 0 0 0 -60.761073527595727 -259.96975910205219 0 -259.96975910205219 75.416553798408131 0 0 0 0 45.588016416117171 -201.56104131011762 0 -201.56104131011762 -223.02450075151864 0 0 0 0 64.878832716800389 -147.40731239645538 0 -147.40731239645538 -183.19363060159958 0 0 0 0 70.502654643671121 -84.968546386560774 0 -84.968546386560774 9.3671900910558179 0 0 0 0 139.33966314667487 -109.99688267804959 0 -109.99688267804959 55.770604081786587 0 0 0 0 -1.6866296505904756 -118.64035087673255 0 -118.64035087673255 4.9427673791360576 0 0 0 0 0.061666781490216316 -57.595944826670177 0 -57.595944826670177 10.966220373445822 0 0 0 0 90.959881305301678 -66.85409181248906 0 -66.85409181248906 58.029161329119233 0 0 0 0 138.30321747422568 -31.283368672571669 0 -31.283368672571669 18.408549890114955 0 0 0 0 -1.7152421706507823 -4.2840585120455899 0 -4.2840585120455899 -8.8791206369153883 0 0 0 0 1119.4144599901483 -582.45943858554529 0 -582.45943858554529 228.55574740719749 0 0 0 0 1149.7149863424384 -668.14283527166845 0 -668.14283527166845 322.73860244700336 0 0 0 0 213.96284813086095 -106.45982778061989 0 -106.45982778061989 11.196468056747108 0 0 0 0 1275.2204232976474 -891.14656127653689 0 -891.14656127653689 420.58926804113435 0 0 0 0 1347.9493210329092 -648.67156408027222 0 -648.67156408027222 131.68913910242554 0 0 0 0 889.59916266649088 -1013.7645439270564 0 -1013.7645439270564 641.28605965297902 0 0 0 0 1046.5687953610905 -718.9463631444014 0 -718.9463631444014 298.74581101618242 0 0 0 0 752.84622445848072 -489.23639004495635 0 -489.23639004495635 254.27628682877548 0 0 0 0 593.50913891443633 -817.3914547880704 0 -817.3914547880704 514.59601905970339 0 0 0 0 371.30886403790282 -598.69079045729768 0 -598.69079045729768 299.70199919157312 0 0 0 0 343.65669123941916 -827.51680284487884 0 -827.51680284487884 627.80738895106606 0 0 0 0 -0.36894772690720856 -894.62312704088254 0 -894.62312704088254 913.90215945574164 0 0 0 0 339.81337596436788 -860.53613232056523 0 -860.53613232056523 625.29427659720568 0 0 0 0 631.9042003818904 -815.71615084200312 0 -815.71615084200312 512.5411902111482 0 0 0 0 434.59700991331192 -977.51738259762351 0 -977.51738259762351 741.19285360035428 0 0 0 0 631.2085796106112 -1009.6484556808209 0 -1009.6484556808209 742.73300591481711 0 0 0 0 259.81161844224698 -1068.3599508021507 0 -1068.3599508021507 1024.2496747335754 0 0 0 0 0.15432010377844563 -915.11818544579728 0 -915.11818544579728 159.5306816855973 0 0 0 0 -187.85518394863175 -561.91003942050338 0 -561.91003942050338 1085.2565899000474 0 0 0 0 183.05497167900467 -1382.2769477074326 0 -1382.2769477074326 2530.1158645726537 0 0 0 0 3.3471065411196719 -2.2704604136682605 0 -2.2704604136682605 1.9361223946513917 0 0 0 0 1569.5587913278141 -1490.569227655702 0 -1490.569227655702 871.29053930468217 0 0 0 0 2103.3504670257389 -1865.7837072396214 0 -1865.7837072396214 1314.8931693529521 0 0 0 0 2382.3200497645594 -1082.1950299813179 0 -1082.1950299813179 321.03743228191161 0 0 0 0 1990.5386741366092 -976.02752628405142 0 -976.02752628405142 459.47537225447013 0 0 0 0 1449.6115048152278 -1265.0073448939729 0 -1265.0073448939729 875.31980905623641 0 0 0 0 1394.7536692868744 -897.21272990503348 0 -897.21272990503348 439.77755191552569 0 0 0 0 1425.6058148863629 -714.65852924772457 0 -714.65852924772457 381.02997749723727 0 0 0 0 1933.4601761848608 -1238.8722619366017 0 -1238.8722619366017 568.76918347016908 0 0 0 0 1873.9822439475683 -752.57330268944497 0 -752.57330268944497 142.30683037222479 0 0 0 0 1549.8719268750137 -831.79202937101945 0 -831.79202937101945 261.82580560306087 0 0 0 0 1455.9821714001446 -952.29970909161057 0 -952.29970909161057 378.32571523656952 0 0 0 0 1070.6264234795235 -1292.0681939877613 0 -1292.0681939877613 926.45687200191969 0 0 0 0 625.36667231004685 -976.42672342551759 0 -976.42672342551759 702.70171100503649 0 0 0 0 50.305410898505215 -92.11726947011266 0 -92.11726947011266 -50.767714944850013 0 0 0 0 -1.3938604025170207 -69.640597176730807 0 -69.640597176730807 -37.507644336204976 0 0 0 0 -24.521273342600793 -34.614130194439213 0 -34.614130194439213 -38.34605256462109 0 0 0 0 59.029691553562316 -203.73917211338949 0 -203.73917211338949 50.150768653082196 0 0 0 0 30.27965161629254 -95.998231765872333 0 -95.998231765872333 164.07385126355803 0 0 0 0 -13.077503050549581 -38.051107590783943 0 -38.051107590783943 -38.797141977341511 0 0 0 0 41.472656982135959 29.630001511177397 0 29.630001511177397 -179.75209411914693 0 0 0 0 147.85325901667966 -214.61945664939412 0 -214.61945664939412 48.96339246025309 0 0 0 0 -60.14007077649876 -338.59396790710889 0 -338.59396790710889 434.55163185016136 0 0 0 0 47.099216112228987 -88.553834700999005 0 -88.553834700999005 228.72716341825435 0 0 0 0 -13.413519784150594 -31.75772424081444 0 -31.75772424081444 -18.063686044074188 0 0 0 0 -1.558734819216653 -28.407752164487903 0 -28.407752164487903 -49.032722534243675 0 0 0 0 170.75455212722045 -340.81202291157297 0 -340.81202291157297 116.22284248397045 0 0 0 0 194.77779853229731 -249.1367492282734 0 -249.1367492282734 -11.726655652695626 0 0 0 0 115.95218799935537 -267.90501912879699 0 -267.90501912879699 -11.708099895011401 0 0 0 0 125.00921351888974 -324.45492993164953 0 -324.45492993164953 -0.16501748163136654 0 0 0 0 238.4415153626469 -283.18724758785538 0 -283.18724758785538 -20.546448974651867 0 0 0 0 -95.803506617499806 -169.66897338037961 0 -169.66897338037961 -62.779736277399934 0 0 0 0 75.11160637762805 -329.03327341154181 0 -329.03327341154181 16.960611294620321 0 0 0 0 -14.424404561217671 -318.90996041986728 0 -318.90996041986728 26.353831580650876 0 0 0 0 -182.84526158487279 -121.99969990331738 0 -121.99969990331738 -145.2497260978198 0 0 0 0 -270.5451120181242 -209.28821153111494 0 -209.28821153111494 42.695960041339276 0 0 0 0 -601.20765497675166 -89.973419984249631 0 -89.973419984249631 -0.086197885204455815 0 0 0 0 -211.11901280462189 -286.24519881131346 0 -286.24519881131346 -87.322607460402651 0 0 0 0 -458.33443621074548 -248.19205195276299 0 -248.19205195276299 34.942227202700451 0 0 0 0 -259.770031297674 104.77625555773193 0 104.77625555773193 -63.977737702109152 0 0 0 0 -510.31332657289749 -132.39689612917573 0 -132.39689612917573 97.606424072233494 0 0 0 0 -1.5327398880841088 -2.6964386365684447 0 -2.6964386365684447 -1.5056283711288643 0 0 0 0 -241.41371675957635 -128.35332047245174 0 -128.35332047245174 -54.432449156462098 0 0 0 0 -175.9858293505531 -145.50516565602447 0 -145.50516565602447 104.90447228625999 0 0 0 0 -351.19720334895828 -85.068850518160616 0 -85.068850518160616 111.27099654298218 0 0 0 0 -5.0995905249178293 -2.5053167904089264 0 -2.5053167904089264 -1.0409084484797972 0 0 0 0 593.85967761287975 479.82816302198626 0 479.82816302198626 -263.91655101248762 0 0 0 0 -194.33734504957101 -264.55430001955392 0 -264.55430001955392 564.46334119851235 0 0 0 0 -34.582571422150068 -297.44365402001131 0 -297.44365402001131 330.1060503951303 0 0 0 0 -252.77384537368198 -558.06768239573285 0 -558.06768239573285 56.965872821259836 0 0 0 0 -623.10349880753347 -327.80427655520907 0 -327.80427655520907 620.82449587783776 0 0 0 0 15.248480068039498 81.295585584106448 0 81.295585584106448 324.77231157619826 0 0 0 0 35.205930316882814 -157.90517025952613 0 -157.90517025952613 22.345110392663628 0 0 0 0 -267.20201788378472 -62.563926850256394 0 -62.563926850256394 654.65190754482865 0 0 0 0 -20.950537618612827 -44.376683046601215 0 -44.376683046601215 -39.500819852543572 0 0 0 0 -6.5403559706115697 -12.452556603889121 0 -12.452556603889121 8.638113714115434 0 0 0 0 584.3289780293926 -239.03524597853539 0 -239.03524597853539 88.468880939333758 0 0 0 0 -266.50951405870728 -7.6608431031636428 0 -7.6608431031636428 340.9184963245516 0 0 0 0 -343.04565141024068 -203.84665771323489 0 -203.84665771323489 312.21979074918454 0 0 0 0 34.39238279942947 -90.621576367862872 0 -90.621576367862872 111.20180816615175 0 0 0 0 -84.169842812640127 -169.10050267641782 0 -169.10050267641782 70.416064257442486 0 0 0 0 -10.053311097541155 2.7396682266517018 0 2.7396682266517018 10.24462986245635 0 0 0 0 -6.1555345882225083 -12.01155951499095 0 -12.01155951499095 19.271838783228304 0 0 0 0 -222.35429845932231 -5.7827500586681708 0 -5.7827500586681708 250.65851706202375 0 0 0 0 -21.483721981494455 1.0056577259965707 0 1.0056577259965707 126.12213372108818 0 0 0 0 -19.851296686367562 -3.6680258522872862 0 -3.6680258522872862 -1.398118645621409 0 0 0 0 -2.7743509919309872 1.0723101140793005 0 1.0723101140793005 -4.4786853891855571 0 0 0 0 21.941339145472739 26.536466558289248 0 26.536466558289248 -24.912852004286833 0 0 0 0 14.167356603215012 44.753616086845796 0 44.753616086845796 13.266033102583606 0 0 0 0 6.4950969308847561 -16.348644704543403 0 -16.348644704543403 -44.700492739793845 0 0 0 0 44.876750797557179 5.4606055385811487 0 5.4606055385811487 -0.14956102913856739 0 0 0 0 -5.2775462521536838 -5.498628516987651 0 -5.498628516987651 1.1686703616277896 0 0 0 0 -9.8322809995879652 -2.5763991027051816 0 -2.5763991027051816 30.252631170653331 0 0 0 0 2.2678564037946956 0.090930973967942919 0 0.090930973967942919 -0.12394739705121083 0 0 0 0 -27.998082777296077 -1.3491762727644527 0 -1.3491762727644527 25.48887829449086 0 0 0 0 10.839023617401836 11.826135568015161 0 11.826135568015161 -21.921462019792671 0 0 0 0 -31.657774964412965 11.891461195898955 0 11.891461195898955 19.59127017337596 0 0 0 0 219.90707191888578 -370.31704160041409 0 -370.31704160041409 602.49183181012631 0 0 0 0 -22.123441090952838 -46.000578872452024 0 -46.000578872452024 -12.623506211217318 0 0 0 0 -4.6456675881794212 -1.8054687765980475 0 -1.8054687765980475 8.4739178361184031 0 0 0 0 6.3964643819032574 -10.714187519843193 0 -10.714187519843193 -2.7977365193073354 0 0 0 0 878.2555663934836 -676.91210891146329 0 -676.91210891146329 3.6872264251345905 0 0 0 0 -39.623266677775973 -98.587035715430829 0 -98.587035715430829 71.548657375518815 0 0 0 0 -130.61096001273836 24.648181573720649 0 24.648181573720649 120.03401021211903 0 0 0 0 -29.137062922564354 -17.301613973312328 0 -17.301613973312328 5.7839786612776294 0 0 0 0 -21.160746408299019 -24.930860468790343 0 -24.930860468790343 67.072517341242929 0 0 0 0 -7.3788290438331643 -10.203124059938432 0 -10.203124059938432 8.3155428850343469 0 0 0 0 -9.0233620764374791 -136.21182927685732 0 -136.21182927685732 155.80656365717005 0 0 0 0 16.086890299542574 -84.022296586583252 0 -84.022296586583252 63.227126977275475 0 0 0 0 15.074239491310436 -83.230127673807146 0 -83.230127673807146 74.242366982158273 0 0 0 0 -43.01784521834692 -29.129620249854355 0 -29.129620249854355 56.874184931692582 0 0 0 0 26.95300302853866 -116.34616788775747 0 -116.34616788775747 53.382179817661381 0 0 0 0 20.150141703873942 -41.229942682319091 0 -41.229942682319091 -15.009161408640267 0 0 0 0 131.92675430891541 108.72516159661245 0 108.72516159661245 -156.81367283751024 0 0 0 0 37.40195890155519 -71.171227910919697 0 -71.171227910919697 65.595597698105848 0 0 0 0 -33.488281444127281 -32.015517619659306 0 -32.015517619659306 53.233389879122001 0 0 0 0 14.417798860682524 -70.824667828972451 0 -70.824667828972451 79.348390420665964 0 0 0 0 37.143640542257344 -59.890713780558144 0 -59.890713780558144 57.129278575695935 0 0 0 0 15.094283079815796 -71.909001230829745 0 -71.909001230829745 66.512947176594025 0 0 0 0 -13.613310215754097 -10.767159388213884 0 -10.767159388213884 9.9901966701626179 0 0 0 0 11.877819649384037 -44.776993901356036 0 -44.776993901356036 51.131380492442986 0 0 0 0 45.781146852634265 -54.590960720081057 0 -54.590960720081057 84.075232737304759 0 0 0 0 -38.342432553195977 -56.010624268034007 0 -56.010624268034007 14.861954986277851 0 0 0 0 -38.434125363946805 -52.071424308465794 0 -52.071424308465794 2.09507160189969 0 0 0 0 4.4068699323906912 -73.358844168848009 0 -73.358844168848009 66.50803926043227 0 0 0 0 2.3461990915928084 -44.963274616751853 0 -44.963274616751853 34.549858471055842 0 0 0 0 -17.812850847903292 -32.675510567285876 0 -32.675510567285876 13.700551711959349 0 0 0 0 -8.4907992553878557 -76.917509220598731 0 -76.917509220598731 11.61616081037937 0 0 0 0 -6.2910751928284299 -68.817169735084462 0 -68.817169735084462 15.118174246643321 0 0 0 0 -20.291080221471191 -47.427975826218102 0 -47.427975826218102 24.456804759602448 0 0 0 0 -19.937618698590086 -55.982915607484756 0 -55.982915607484756 17.517091501591494 0 0 0 0 -15.783497826302494 -60.980742132380996 0 -60.980742132380996 -16.417143241859719 0 0 0 0 -20.407492599526421 -39.322588056964292 0 -39.322588056964292 -13.655113997696247 0 0 0 0 -2.3597183906204009 -74.571406727000777 0 -74.571406727000777 12.513029228131927 0 0 0 0 -241.86587519785826 -95.253576983373932 0 -95.253576983373932 259.4906515739749 0 0 0 0 -7.9769760481639906 -3.4409783375084118 0 -3.4409783375084118 6.5675722049531515 0 0 0 0 -17.75070379095996 -8.0136391999112675 0 -8.0136391999112675 28.674306067507132 0 0 0 0 -38.947628495315669 -55.495186816055167 0 -55.495186816055167 -28.487051505530147 0 0 0 0 43.516741550236475 -56.89048828128216 0 -56.89048828128216 -413.3057509252103 0 0 0 0 -29.745295875434749 -45.88868615677552 0 -45.88868615677552 -134.81283589256054 0 0 0 0 -33.42640529547225 -23.753485093992822 0 -23.753485093992822 -71.942531729320763 0 0 0 0 -4.7346197873266647 -19.90087365961881 0 -19.90087365961881 -41.804000861800887 0 0 0 0 3.5010864085277689 -6.3535950400144614 0 -6.3535950400144614 -7.6271756327922304 0 0 0 0 -25.983887755210162 -50.100741636539169 0 -50.100741636539169 -28.349488916923292 0 0 0 0 -18.631532740575395 -42.203456328613299 0 -42.203456328613299 -4.1156820084334527 0 0 0 0 -14.747529871398001 -49.933576499570336 0 -49.933576499570336 7.9713168701709947 0 0 0 0 -13.02371122148179 -47.46340603232602 0 -47.46340603232602 7.2318937549716793 0 0 0 0 -9.5467418570178353 -47.375119957787035 0 -47.375119957787035 -6.1171667606916742 0 0 0 0 -5.7283891086034942 -53.029339337557303 0 -53.029339337557303 -4.326829684651841 0 0 0 0 -21.800092874837333 -39.24021320326824 0 -39.24021320326824 15.356229430763278 0 0 0 0 -16.248381883542606 -47.552719821078426 0 -47.552719821078426 19.508468829881167 0 0 0 0 -4.1974345721428961 -52.062047101575324 0 -52.062047101575324 -35.866197424660726 0 0 0 0 -6.812766099232249 -60.87753145750321 0 -60.87753145750321 -14.87279148993548 0 0 0 0 -19.163010990741157 -34.687036397241897 0 -34.687036397241897 -23.594994162630059 0 0 0 0 6.852631302120983 -31.233928503890755 0 -31.233928503890755 4.1041716650750857 0 0 0 0 5.2737940072911442 -69.41145832175971 0 -69.41145832175971 -12.420295878096567 0 0 0 0 4.214609383529023 -66.57656849480918 0 -66.57656849480918 28.295610644832777 0 0 0 0 -4.5080396852863487 -65.535876753332559 0 -65.535876753332559 -12.10089216598135 0 0 0 0 -27.679809743543956 -67.740960949437522 0 -67.740960949437522 -59.241228872197098 0 0 0 0 4.7121464661322534 -74.699309324158094 0 -74.699309324158094 -125.5692964555783 0 0 0 0 4.8245751398499124 -33.676966754763271 0 -33.676966754763271 -75.792082322821443 0 0 0 0 -3.3937318448734004 -11.175706880334474 0 -11.175706880334474 -110.19357155251782 0 0 0 0 -2.963630763515539 -27.894686711992108 0 -27.894686711992108 -26.28726314927917 0 0 0 0 30.526039591626613 -24.438238507362257 0 -24.438238507362257 -105.10393186302099 0 0 0 0 3.374608050501422 -1.110198346486758 0 -1.110198346486758 -10.167591677475485 0 0 0 0 -30.478938486252446 -140.59779846695892 0 -140.59779846695892 -32.01698111926089 0 0 0 0 -40.186708846813417 -134.26806893892717 0 -134.26806893892717 -35.602539062630967 0 0 0 0 9.8930391579633579 -155.8238638908515 0 -155.8238638908515 -26.779769839718938 0 0 0 0 8.2144991928944364 -105.87691247835755 0 -105.87691247835755 -36.069834494363022 0 0 0 0 -29.365510325471405 -76.198590180218162 0 -76.198590180218162 -39.120147046363854 0 0 0 0 1.0144858181520249 -75.097908142266533 0 -75.097908142266533 -45.59517664455052 0 0 0 0 -87.578568767057732 -84.454365466888703 0 -84.454365466888703 -40.340302895410787 0 0 0 0 -86.483297994855093 -32.252452955908666 0 -32.252452955908666 -66.421877722124918 0 0 0 0 -20.555934904201422 -45.7642659998819 0 -45.7642659998819 -26.928414324414916 0 0 0 0 -7.6545574993360788 -39.799454660154879 0 -39.799454660154879 -42.79081945062353 0 0 0 0 -3.2591691735433415 -54.910397034953348 0 -54.910397034953348 -36.996396415721392 0 0 0 0 -6.4913979155389825 -39.265167599034612 0 -39.265167599034612 -53.512877002809546 0 0 0 0 -3.9025464065125561 -44.306545770981757 0 -44.306545770981757 -40.725597611512057 0 0 0 0 -0.55144535520958016 -48.325294900343579 0 -48.325294900343579 -31.29317177485791 0 0 0 0 -1.8987217070607585 -49.559934134220384 0 -49.559934134220384 -30.983746525424067 0 0 0 0 -2.2973161328591232 -43.56371537895393 0 -43.56371537895393 -27.712772409577155 0 0 0 0 -10.31505901311175 -49.480333733910811 0 -49.480333733910811 -21.347262372408295 0 0 0 0 -15.671501616510795 -51.579181951179635 0 -51.579181951179635 -21.095751881657634 0 0 0 0 0.42466514697298408 -56.629037303573568 0 -56.629037303573568 -20.924799116517988 0 0 0 0 15.14837464941229 -55.473292181392026 0 -55.473292181392026 -20.251750783163516 0 0 0 0 6.9172332489433757 -40.352332859763919 0 -40.352332859763919 -17.310266335407505 0 0 0 0 59.09033364617062 -103.20706410774437 0 -103.20706410774437 10.394493590967613 0 0 0 0 -36.139297934685601 -69.344526829067036 0 -69.344526829067036 73.01262689390569 0 0 0 0 -109.00400724653446 -154.50504269765224 0 -154.50504269765224 207.68640973932634 0 0 0 0 -20.602217850462949 -42.283709738911057 0 -42.283709738911057 -27.008471025508157 0 0 0 0 135.0539185344096 219.79701087907597 0 219.79701087907597 58.854917638243933 0 0 0 0 -4.0542131800606001 -1.7612161720313111 0 -1.7612161720313111 -2.0740477993464879 0 0 0 0 3.0352261261141393 -95.737715221785038 0 -95.737715221785038 -148.64854250225471 0 0 0 0 33.670530887404311 -37.877770561746729 0 -37.877770561746729 -45.27853247927851 0 0 0 0 -136.14036038108316 -266.02689065241429 0 -266.02689065241429 -110.08720734147937 0 0 0 0 -179.73263283205415 -466.02471292510927 0 -466.02471292510927 55.510171293601161 0 0 0 0 73.320711397798732 52.551416782560409 0 52.551416782560409 28.546696813340532 0 0 0 0 -15.440272432384489 -40.242935467837157 0 -40.242935467837157 -37.37645884541314 0 0 0 0 21.299455541477073 -88.017665190680418 0 -88.017665190680418 27.775630882024416 0 0 0 0 -36.652248072079743 -94.098761844085118 0 -94.098761844085118 9.0175949031915366 0 0 0 0 -5.8499706168004195 45.360381176556984 0 45.360381176556984 -213.26712905910244 0 0 0 0 31.122126318339724 -113.08826399352984 0 -113.08826399352984 59.211209582630545 0 0 0 0 -30.822310843201819 -50.083490277960621 0 -50.083490277960621 -39.490684035192714 0 0 0 0 -345.29916445984418 41.997400317119173 0 41.997400317119173 260.27728958523949 0 0 0 0 -175.37263948809414 -138.66149868830689 0 -138.66149868830689 147.64576302503701 0 0 0 0 84.036891299758281 -62.738714369806985 0 -62.738714369806985 60.897449811251136 0 0 0 0 -18.016376838328142 -173.98408686602124 0 -173.98408686602124 398.37830955765094 0 0 0 0 -6.2059828718786685 -45.350831261273434 0 -45.350831261273434 -13.560909564661046 0 0 0 0 10.166079041024204 -59.569636731190258 0 -59.569636731190258 10.806541653044405 0 0 0 0 -7.1296774543148729 -28.051007167634339 0 -28.051007167634339 -32.976457992369319 0 0 0 0 -6.4096894654067 -37.538814174076833 0 -37.538814174076833 -6.5269400439283345 0 0 0 0 -17.780422476229433 -52.393242259262479 0 -52.393242259262479 -24.048144636064535 0 0 0 0 -16.150650146009866 -47.18766590229643 0 -47.18766590229643 -10.564997676250641 0 0 0 0 -7.2574495003500488 -47.926872985321097 0 -47.926872985321097 -20.186806510828319 0 0 0 0 -5.861972521408461 -46.166418910193897 0 -46.166418910193897 -23.944242575293174 0 0 0 0 -8.4664212824427523 -44.364136197516927 0 -44.364136197516927 -21.78996476897737 0 0 0 0 -9.8118915621889755 -50.482416389728314 0 -50.482416389728314 -26.348796056779975 0 0 0 0 -11.516214665258303 -47.8183410733036 0 -47.8183410733036 -19.313138449753751 0 0 0 0 -7.4081733816710766 -48.603527937710169 0 -48.603527937710169 -30.102489819255425 0 0 0 0 -5.4650377463258337 -51.176807866737363 0 -51.176807866737363 -32.035188710964576 0 0 0 0 -7.6540958551777294 -57.236387802862737 0 -57.236387802862737 -41.193256126173992 0 0 0 0 -3.5197196637891466 -53.175435179347005 0 -53.175435179347005 -48.474238070666615 0 0 0 0 -15.219798554797308 -55.20103603442476 0 -55.20103603442476 -32.924041293394112 0 0 0 0 10.971371006339369 -42.118951869731852 0 -42.118951869731852 -18.4560924076915 0 0 0 0 -2.4297018272045534 -53.879671178932767 0 -53.879671178932767 -48.036737365997396 0 0 0 0 60.399033321300521 -115.36967234854819 0 -115.36967234854819 -88.662776864039188 0 0 0 0 -0.82317846749904788 -22.499870839003304 0 -22.499870839003304 19.969524219157435 0 0 0 0 -11.772044313242077 -56.653376707054122 0 -56.653376707054122 -38.056068704379868 0 0 0 0 -69.273514564587458 -197.59092269333132 0 -197.59092269333132 -149.52722398879996 0 0 0 0 29.587607791312621 65.888387435836194 0 65.888387435836194 73.55732322635231 0 0 0 0 -17.081070686253952 -112.86491543425655 0 -112.86491543425655 -11.988674552463635 0 0 0 0 38.082001533868606 -137.25702304568404 0 -137.25702304568404 -317.97257566472399 0 0 0 0 111.52546099179017 -60.868179967994365 0 -60.868179967994365 -323.91711378554464 0 0 0 0 143.43378045286227 -56.494380517062382 0 -56.494380517062382 -575.06087830082652 0 0 0 0 133.2294008340541 -296.94242678032606 0 -296.94242678032606 -618.66166811670701 0 0 0 0 40.196362044647685 -218.75330063945148 0 -218.75330063945148 -476.08635187377513 0 0 0 0 61.329321064666146 -336.11221690333332 0 -336.11221690333332 -118.95378546993015 0 0 0 0 16.374715998943429 -389.29979722773714 0 -389.29979722773714 -319.78864260276896 0 0 0 0 264.35737550204794 -341.02112920243235 0 -341.02112920243235 348.54914265059779 0 0 0 0 353.30519129536697 161.96259180855122 0 161.96259180855122 -345.48901529736759 0 0 0 0 49.93351842762786 -541.55955888947938 0 -541.55955888947938 316.30596099956892 0 0 0 0 88.398338243918261 -399.83043234087381 0 -399.83043234087381 509.81957048858749 0 0 0 0 188.45803748782782 -224.55555583312525 0 -224.55555583312525 576.33353271363012 0 0 0 0 11.687084137935017 -271.15936164539016 0 -271.15936164539016 633.47955762837591 0 0 0 0 4.5280956906817664 3.3008711325972229 0 3.3008711325972229 -0.57107397724149322 0 0 0 0 245.05141468602233 -105.64937847956026 0 -105.64937847956026 -802.82332583477546 0 0 0 0 115.63698152419238 117.60437164035829 0 117.60437164035829 -599.24154933305545 0 0 0 0 113.8411907697955 -83.765656662466426 0 -83.765656662466426 -417.8312558347825 0 0 0 0 78.993196493393043 21.961251365901262 0 21.961251365901262 -390.90901564483647 0 0 0 0 -56.471126689219091 27.546106261070236 0 27.546106261070236 -17.396563128953858 0 0 0 0 96.577303933692747 -65.933345652818389 0 -65.933345652818389 -93.685341261856593 0 0 0 0 20.865640433468798 -39.178049855676363 0 -39.178049855676363 -100.29125817787281 0 0 0 0 -311.6461035425782 -87.583888911436588 0 -87.583888911436588 26.152033314705477 0 0 0 0 -26.099123659718316 -64.87496818794898 0 -64.87496818794898 22.554721140499169 0 0 0 0 -0.58099732213304378 200.69715581204582 0 200.69715581204582 -510.98839910826791 0 0 0 0 -5.5790799699686744 -4.0694303776222256 0 -4.0694303776222256 2.6413504509185373 0 0 0 0 -303.16441088472493 -27.977209501761536 0 -27.977209501761536 -662.74723585644097 0 0 0 0 -14.131779922623537 105.87209445745975 0 105.87209445745975 38.171850751354214 0 0 0 0 35.870812950015534 -1.5141123632056406 0 -1.5141123632056406 -29.477982565771526 0 0 0 0 3.2674584150281305 2.1011382588481808 0 2.1011382588481808 -0.95499783145997696 0 0 0 0 11.561622897094225 0.70472327696418802 0 0.70472327696418802 0.53239768461486392 0 0 0 0 37.296886042444385 -33.967168075876543 0 -33.967168075876543 -697.58816667901556 0 0 0 0 7.5417286668598535 -58.298427921743496 0 -58.298427921743496 599.31116897166066 0 0 0 0 30.277279400022962 -6.5945164992044738 0 -6.5945164992044738 200.87354192860221 0 0 0 0 58.860642637213459 -179.59815005941073 0 -179.59815005941073 199.39062856115197 0 0 0 0 107.3283784299565 -75.773043769280775 0 -75.773043769280775 116.92019975472067 0 0 0 0 152.04323122553615 0.62028476420528023 0 0.62028476420528023 300.43684954328637 0 0 0 0 11.958116021953174 -143.01780177946785 0 -143.01780177946785 606.63208883005791 0 0 0 0 25.134199267660733 -222.45155853281904 0 -222.45155853281904 297.28717705150484 0 0 0 0 184.14744386321399 -44.484889866194862 0 -44.484889866194862 77.566779404027329 0 0 0 0 182.35810328507796 -227.22797775251092 0 -227.22797775251092 269.08374905243545 0 0 0 0 102.87246484249772 -107.87351282771124 0 -107.87351282771124 -132.02761188523436 0 0 0 0 -44.439458167343219 -61.559766487138404 0 -61.559766487138404 99.853329421472154 0 0 0 0 86.028932180008269 -91.406483820777794 0 -91.406483820777794 -67.925983243312658 0 0 0 0 57.096345316593215 -157.65445495898894 0 -157.65445495898894 61.67937552712101 0 0 0 0 229.45026172007056 -126.12936954231191 0 -126.12936954231191 -233.03763581288149 0 0 0 0 94.282325845779269 -126.12978827323968 0 -126.12978827323968 -101.94582456104763 0 0 0 0 187.63874974753708 -186.3767312716227 0 -186.3767312716227 -200.06959200763595 0 0 0 0 60.443437372989138 -212.06162581985654 0 -212.06162581985654 -187.7557081019695 0 0 0 0 67.126665441930527 -79.284717323163932 0 -79.284717323163932 80.778430035144993 0 0 0 0 121.21327083573851 -149.59983491660387 0 -149.59983491660387 -89.783380669701728 0 0 0 0 141.69964725343561 -247.35794731152691 0 -247.35794731152691 198.30379119184727 0 0 0 0 6.5769319932805956 -56.455676909876274 0 -56.455676909876274 177.38779343573333 0 0 0 0 60.946434788987972 -61.753404220085031 0 -61.753404220085031 81.971903196619678 0 0 0 0 31.229860602167577 -10.174195078144702 0 -10.174195078144702 0.4900770088399895 0 0 0 0 -37.335764181447303 -46.861511684217476 0 -46.861511684217476 -3.5003064454067498 0 0 0 0 -28.667021224769996 -88.596331337910669 0 -88.596331337910669 -28.714224001285402 0 0 0 0 3.2470339475696761 -11.779256407086095 0 -11.779256407086095 2.9605936490321483 0 0 0 0 35.989704539551894 -41.922869459651338 0 -41.922869459651338 1.4489124531537527 0 0 0 0 -8.8446058971676393 3.8432152785189828 0 3.8432152785189828 79.550436086319678 0 0 0 0 45.240451731385519 -14.76436104697931 0 -14.76436104697931 1.2887551982528578 0 0 0 0 68.961511566179979 -68.378726996823389 0 -68.378726996823389 -41.162277356018421 0 0 0 0 3.9114254554747561 -8.9590092070578322 0 -8.9590092070578322 0.025404249238036414 0 0 0 0 47.902586683758273 -40.050868645255832 0 -40.050868645255832 67.373753415096871 0 0 0 0 168.60796715262404 -47.287683833004849 0 -47.287683833004849 -14.264692230555738 0 0 0 0 35.578860735156923 -41.579385396408725 0 -41.579385396408725 15.109766913839849 0 0 0 0 -0.32699382506257013 -2.0154788338899152 0 -2.0154788338899152 0.46212133216674545 0 0 0 0 73.849074674733856 -39.263304738336956 0 -39.263304738336956 -30.766069011968284 0 0 0 0 48.014751367747408 -25.659933911321467 0 -25.659933911321467 0.19796982753734227 0 0 0 0 4.8133582575426921 -11.496884822529339 0 -11.496884822529339 0.81579646011813622 0 0 0 0 -152.06748761637573 -76.20454074528061 0 -76.20454074528061 15.561225420588016 0 0 0 0 -75.31457743034116 -109.10356130120999 0 -109.10356130120999 10.808999797140132 0 0 0 0 -33.212646966814646 -128.57998139777192 0 -128.57998139777192 -36.887999330712773 0 0 0 0 12.120899741115863 -8.515128399758396 0 -8.515128399758396 -56.218156325609925 0 0 0 0 -47.734282733894361 -39.791735032165889 0 -39.791735032165889 -51.639290785962658 0 0 0 0 -283.30805612038967 -82.865212444747158 0 -82.865212444747158 -35.581812072807224 0 0 0 0 -373.23178268676565 -164.88450530463888 0 -164.88450530463888 -6.0738132050755667 0 0 0 0 -74.214394671253103 -86.016136408654347 0 -86.016136408654347 -104.7032260789274 0 0 0 0 -206.15753690167912 -217.85783503485982 0 -217.85783503485982 -119.61208985291159 0 0 0 0 -3.1228918674751185 -184.99588347793906 0 -184.99588347793906 -116.21166783154786 0 0 0 0 -3.5673657621968289 -2.1457993948100551 0 -2.1457993948100551 0.54166585992687999 0 0 0 0 -220.34919640071166 -171.73756246927223 0 -171.73756246927223 22.798276816331054 0 0 0 0 96.716873986537394 -86.931464307856913 0 -86.931464307856913 -128.69620399378982 0 0 0 0 35.328339113228139 -156.34681455005921 0 -156.34681455005921 -284.13513726463134 0 0 0 0 -64.809378411438956 -32.880783737946331 0 -32.880783737946331 -246.67356708544685 0 0 0 0 -142.24944962382142 -144.84655268072675 0 -144.84655268072675 -138.4522667234487 0 0 0 0 -16.420333011818002 -73.851688051341625 0 -73.851688051341625 -154.1399369376195 0 0 0 0 -27.032885815533518 -67.505068783591923 0 -67.505068783591923 -107.25455044187765 0 0 0 0 8.6924789779877756 -52.026176498911809 0 -52.026176498911809 -119.93107037698064 0 0 0 0 -54.556807871260389 -91.814202719872355 0 -91.814202719872355 -100.24868505741324 0 0 0 0 -32.300298885424127 -126.98504131227764 0 -126.98504131227764 -181.88502329293988 0 0 0 0 -23.729688458130113 -99.526832300696697 0 -99.526832300696697 -139.22279638262989 0 0 0 0 9.3807712662965059 -58.711663974799194 0 -58.711663974799194 -101.38777410711191 0 0 0 0 28.65515601203515 -30.543136064465216 0 -30.543136064465216 -74.698294415521559 0 0 0 0 12.708401355717797 -84.976778335472773 0 -84.976778335472773 -87.755947126061983 0 0 0 0 31.609307120757876 -23.778409526425094 0 -23.778409526425094 -41.403412783894964 0 0 0 0 7.7141122518041811 -78.494933631743152 0 -78.494933631743152 33.64179390877689 0 0 0 0 10.36571891440326 -72.900997397297942 0 -72.900997397297942 -35.125103982180008 0 0 0 0 27.119929338425209 -144.36327390618044 0 -144.36327390618044 9.0003932313484256 0 0 0 0 35.720282251960725 -142.80831087605691 0 -142.80831087605691 -68.035093578764645 0 0 0 0 28.937414766842267 -139.09742066248509 0 -139.09742066248509 -70.054739399369282 0 0 0 0 -55.494956409696897 -123.76918143136572 0 -123.76918143136572 -81.421057456868766 0 0 0 0 2.4088105613627704 -69.383602205405623 0 -69.383602205405623 -106.16174787543423 0 0 0 0 30.462127329061332 -84.446046894343453 0 -84.446046894343453 -80.645824505038036 0 0 0 0 71.477973298235156 -38.319038831668877 0 -38.319038831668877 20.091136385213758 0 0 0 0 -80.966352691972133 -147.49003305646283 0 -147.49003305646283 -56.795971220984939 0 0 0 0 -43.807325646062964 -166.73873485255899 0 -166.73873485255899 36.325446388664204 0 0 0 0 137.17223467028816 -92.837696602005963 0 -92.837696602005963 -44.749425553833134 0 0 0 0 49.264118699873507 -171.47771277131687 0 -171.47771277131687 -3.7166340230032802 0 0 0 0 -36.501973299367819 -139.32488840577571 0 -139.32488840577571 -9.3555934260257345 0 0 0 0 -36.417472781969991 -97.512356082792394 0 -97.512356082792394 3.9928729542189103 0 0 0 0 -38.315428096908818 -75.084189268148748 0 -75.084189268148748 -80.422725329306559 0 0 0 0 79.134135084539594 23.685014840699296 0 23.685014840699296 -16.091505450100613 0 0 0 0 3.5704418369297173 -0.44037168961748563 0 -0.44037168961748563 -1.775304547355006 0 0 0 0 55.023944011242293 -188.66606718487833 0 -188.66606718487833 -54.667574445906212 0 0 0 0 14.97457740320533 -158.57816030871254 0 -158.57816030871254 -77.265836164700886 0 0 0 0 -43.478599019319518 -149.90636423750766 0 -149.90636423750766 -51.452185540102278 0 0 0 0 -77.310128335695481 -19.976344592403166 0 -19.976344592403166 -7.794752963774954 0 0 0 0 1.5956424197230206 -1.0909014938178387 0 -1.0909014938178387 -2.4264984085612014 0 0 0 0 -98.052765981963603 -135.94066502568785 0 -135.94066502568785 -89.182597816921771 0 0 0 0 17.785626702370791 -133.88193459890499 0 -133.88193459890499 -116.26932126507018 0 0 0 0 -85.82374765840359 -65.90695498570858 0 -65.90695498570858 -66.828619089243148 0 0 0 0 -127.00952741025685 -113.71661330330244 0 -113.71661330330244 -62.574372608440171 0 0 0 0 -49.57313290208549 -106.25802929158635 0 -106.25802929158635 -62.373054405870789 0 0 0 0 -66.337271589916782 -153.48889342476286 0 -153.48889342476286 -184.11320734829496 0 0 0 0 -60.599245477613294 -89.78338259911834 0 -89.78338259911834 -84.581082539815725 0 0 0 0 19.777135835941131 -20.926425898168816 0 -20.926425898168816 -26.743945465891514 0 0 0 0 63.231302225598483 16.184358624399465 0 16.184358624399465 19.387577560089994 0 0 0 0 -74.316529234918562 -84.566369704492899 0 -84.566369704492899 227.2506266058117 0 0 0 0 -61.93091179075418 -529.05176532554469 0 -529.05176532554469 -114.28595069201765 0 0 0 0 -37.277263901254628 -41.216293909878004 0 -41.216293909878004 49.373752110208443 0 0 0 0 -105.94194078681176 -176.87168804496832 0 -176.87168804496832 -31.426467469835188 0 0 0 0 9.6967509227542905 -9.5281890592850687 0 -9.5281890592850687 -116.84835233235026 0 0 0 0 29.626375348314468 -48.28243968030074 0 -48.28243968030074 -80.30639673328551 0 0 0 0 14.531316745356889 13.31477310171249 0 13.31477310171249 -9.6927141638734611 0 0 0 0 -2.9229582562693395 -54.002728980805841 0 -54.002728980805841 14.016096437437227 0 0 0 0 2.6434772805318119 -19.730644979759731 0 -19.730644979759731 -24.557524534926316 0 0 0 0 -27.380827258915815 -37.492984082649855 0 -37.492984082649855 -23.074629752969486 0 0 0 0 2.0373591419833517 -17.575280621929736 0 -17.575280621929736 -17.669053345831969 0 0 0 0 -1.6825920251096704 -18.67200801819245 0 -18.67200801819245 -18.927205895106539 0 0 0 0 -9.3472839200985618 -14.434500376330107 0 -14.434500376330107 -13.039974128405447 0 0 0 0 -25.350039964754615 -43.344811905659981 0 -43.344811905659981 -70.92979998102237 0 0 0 0 -32.089442848156025 -38.840782298093458 0 -38.840782298093458 -16.624247127469275 0 0 0 0 -19.580902164700092 -41.820061831043859 0 -41.820061831043859 -20.793447937860037 0 0 0 0 22.93719878451725 -25.058959046280819 0 -25.058959046280819 -4.0611901816768423 0 0 0 0 -24.916894151341694 -82.117913700794816 0 -82.117913700794816 -93.55883796744456 0 0 0 0 -82.644779776026553 -152.41718225853765 0 -152.41718225853765 -47.20781983488996 0 0 0 0 -122.40865189032047 -128.86830849454418 0 -128.86830849454418 41.931097225835401 0 0 0 0 -46.876143756322563 -65.120032893093594 0 -65.120032893093594 -18.004832236976654 0 0 0 0 6.0051110013737343 -36.20756081613581 0 -36.20756081613581 -26.545543655345682 0 0 0 0 2.6567170656053349 -28.623232818470569 0 -28.623232818470569 -41.07572227489436 0 0 0 0 -48.350446476993966 -59.086358380855017 0 -59.086358380855017 -4.6494954283552943 0 0 0 0 -23.876571265045641 -28.095464645231914 0 -28.095464645231914 -17.870897210668772 0 0 0 0 0.53345212514265938 -4.0037063382564018 0 -4.0037063382564018 -4.560356338600343 0 0 0 0 45.145976487896405 -6.8512360483327939 0 -6.8512360483327939 -16.109746699211428 0 0 0 0 -22.863741548379039 10.932360962301573 0 10.932360962301573 40.018937988046673 0 0 0 0 86.782064337661723 -125.12420002155341 0 -125.12420002155341 -50.888159788082476 0 0 0 0 -80.201275798492134 -25.29703556325785 0 -25.29703556325785 91.374407355906442 0 0 0 0 88.565123227337608 -131.82313221810637 0 -131.82313221810637 -142.99627055445671 0 0 0 0 32.909389077371145 -15.604627762389356 0 -15.604627762389356 2.4328661455677008 0 0 0 0 -125.47096378887363 -86.475256128258479 0 -86.475256128258479 101.62184710821111 0 0 0 0 -10.867155976375216 -58.967853347250639 0 -58.967853347250639 -77.873052962293514 0 0 0 0 -20.567623138325871 -83.358444920839247 0 -83.358444920839247 -62.888509542337488 0 0 0 0 -14.648590990229422 -61.580228141627231 0 -61.580228141627231 -32.479423760411009 0 0 0 0 9.3703952505529742 -55.11527315999956 0 -55.11527315999956 -67.590403460664675 0 0 0 0 -30.361114406019624 -58.733920780003245 0 -58.733920780003245 -45.931596985748911 0 0 0 0 -0.0021764302361759746 -17.285409663293116 0 -17.285409663293116 0.55065982382006951 0 0 0 0 7.9663323688259879 -26.398671532740082 0 -26.398671532740082 -43.538200956158107 0 0 0 0 -4.5648858568129072 -32.912688966521273 0 -32.912688966521273 -1.6851590131373086 0 0 0 0 -17.265049224622089 -109.1665031740938 0 -109.1665031740938 -105.18189269901632 0 0 0 0 26.577954465690709 -42.063331808984913 0 -42.063331808984913 -103.64732476116842 0 0 0 0 72.513801683751353 -87.883054949164205 0 -87.883054949164205 -18.757359390267084 0 0 0 0 79.40817820088705 14.954636378031864 0 14.954636378031864 -16.993073718952019 0 0 0 0 -30.143658751214389 -49.622566409620049 0 -49.622566409620049 -20.19490683838012 0 0 0 0 -98.587565467582863 -186.23792232822984 0 -186.23792232822984 -136.86015985739868 0 0 0 0 8.7849917775065478 -5.4030428385922633 0 -5.4030428385922633 2.8442671240830109 0 0 0 0 -108.82767565677977 -100.7811311187337 0 -100.7811311187337 -64.243071884062374 0 0 0 0 40.797131582149717 -24.676583140439313 0 -24.676583140439313 -18.559708412107025 0 0 0 0 -20.846738099806316 -27.584979021426761 0 -27.584979021426761 -73.905801122768025 0 0 0 0 11.445898134741583 -119.15406751713272 0 -119.15406751713272 -183.84169175250645 0 0 0 0 30.396916675541434 -21.801260173802802 0 -21.801260173802802 -26.168803144010781 0 0 0 0 -154.95222866462791 -222.70395304446993 0 -222.70395304446993 -208.58548067917945 0 0 0 0 -204.03403179930319 -145.44475184709518 0 -145.44475184709518 -87.396224126881862 0 0 0 0 57.153800691930627 -14.715525261191885 0 -14.715525261191885 -16.360172317126064 0 0 0 0 29.947717709437711 -57.177499782211271 0 -57.177499782211271 -59.548715720684413 0 0 0 0 3.2071272447655161 -2.1945521261835808 0 -2.1945521261835808 0.095054685701988717 0 0 0 0 538.32227222133952 247.29356583732624 0 247.29356583732624 -141.39129732278343 0 0 0 0 101.31124903306772 37.404086475740769 0 37.404086475740769 146.94921240059921 0 0 0 0 110.55197095361655 -131.44911830553974 0 -131.44911830553974 -54.860938173002069 0 0 0 0 -192.44808328807994 -345.8580705471395 0 -345.8580705471395 -129.62891629594378 0 0 0 0 -32.00800461183826 -177.38384764233342 0 -177.38384764233342 -63.355003268545261 0 0 0 0 246.06051503613708 -23.371306641023693 0 -23.371306641023693 -168.88147727697833 0 0 0 0 11.281384023170091 -15.143807944528845 0 -15.143807944528845 3.730614243569466 0 0 0 0 423.47523471643217 118.34473663421522 0 118.34473663421522 -7.7725578598037828 0 0 0 0 682.24316034727963 -98.75648561743219 0 -98.75648561743219 -511.10289401188129 0 0 0 0 224.94369278887461 -361.62961417897895 0 -361.62961417897895 -263.29039567046129 0 0 0 0 210.74345797808019 -325.1817924858999 0 -325.1817924858999 -486.25135999538907 0 0 0 0 -539.12117635557661 -25.243159758039837 0 -25.243159758039837 -388.01996188354497 0 0 0 0 -108.70160445438523 -189.36555498617236 0 -189.36555498617236 75.174895680280315 0 0 0 0 -119.57456451692269 -141.46922392714805 0 -141.46922392714805 -40.828584999280679 0 0 0 0 -510.11977274140736 -260.53103613231053 0 -260.53103613231053 -36.436865592313552 0 0 0 0 -31.951328033370373 -108.78353102724395 0 -108.78353102724395 -238.71483825235373 0 0 0 0 -71.498656628158642 -37.060229652075805 0 -37.060229652075805 6.6395407800409885 0 0 0 0 -1.4461545929570718 -4.0454515494607861 0 -4.0454515494607861 0.53531186268586595 0 0 0 0 28.224905217491141 -12.39310748965422 0 -12.39310748965422 -0.75298639699808945 0 0 0 0 -237.52171239439031 -31.667385218295976 0 -31.667385218295976 8.5268040843966446 0 0 0 0 20.459292541607283 10.232052826703693 0 10.232052826703693 -11.441746400882948 0 0 0 0 -10.366339015716221 -156.58249456534577 0 -156.58249456534577 -69.118308228782553 0 0 0 0 -97.169756521670934 -82.811345846153927 0 -82.811345846153927 -15.121308150897676 0 0 0 0 29.698443917798429 -14.802462821248106 0 -14.802462821248106 0.96532183131317595 0 0 0 0 33.15971990766775 -34.220345447879481 0 -34.220345447879481 -78.607875317637081 0 0 0 0 35.220132972266583 -21.410620529735752 0 -21.410620529735752 -76.578501672658604 0 0 0 0 10.095093509698927 -23.797086255794056 0 -23.797086255794056 -75.092862407026587 0 0 0 0 35.271663844061628 -46.304866950407842 0 -46.304866950407842 -57.673922070058325 0 0 0 0 -11.286098207907344 -75.841251739002473 0 -75.841251739002473 -112.67049940135075 0 0 0 0 23.824885997819365 -45.16879455934577 0 -45.16879455934577 -123.02375680415116 0 0 0 0 -20.522662699062494 -143.73028058032469 0 -143.73028058032469 -139.13017542077705 0 0 0 0 -48.437556828575907 -65.200184723802522 0 -65.200184723802522 -112.24528498835934 0 0 0 0 41.166753276847885 -125.65530802817921 0 -125.65530802817921 -159.2808443854592 0 0 0 0 16.23445170501418 -10.908485920350415 0 -10.908485920350415 -67.505375722837925 0 0 0 0 18.835865594020106 -55.104514954516901 0 -55.104514954516901 -166.72946650382437 0 0 0 0 16.284587705384183 -35.712060907690102 0 -35.712060907690102 -27.272169586145537 0 0 0 0 16.930371950828231 1.8617447067797031 0 1.8617447067797031 0.82318106345315911 0 0 0 0 303.71794877229695 -18.951125553011479 0 -18.951125553011479 1.1474903152011393 0 0 0 0 9.2027768775187724 -54.670731017427443 0 -54.670731017427443 210.48948347829355 0 0 0 0 4.5352116531020954 -0.9429426258749416 0 -0.9429426258749416 -0.27719515840055209 0 0 0 0 123.64563353141421 -318.747595075758 0 -318.747595075758 102.67866433247809 0 0 0 0 7.3716994479036657 -28.973090789880189 0 -28.973090789880189 -92.154045003739157 0 0 0 0 261.77037945739767 -261.00250976302152 0 -261.00250976302152 118.42519337295744 0 0 0 0 317.99177560891985 -334.13345476550057 0 -334.13345476550057 197.70508810501997 0 0 0 0 299.90770750448428 -180.95308959347312 0 -180.95308959347312 174.24284069851637 0 0 0 0 361.80191921331425 -171.03351775936517 0 -171.03351775936517 -97.15173336463522 0 0 0 0 344.00246837389932 -139.71477721814517 0 -139.71477721814517 -151.96224843683922 0 0 0 0 358.35818651649606 -362.30975459276306 0 -362.30975459276306 -20.79659592952703 0 0 0 0 306.83861705426534 -240.72826326946142 0 -240.72826326946142 200.30326915937621 0 0 0 0 574.37986919277319 -718.32217537187353 0 -718.32217537187353 586.95505660402341 0 0 0 0 2.7346223083640098 1.0213026440538044 0 1.0213026440538044 0.84013005085266812 0 0 0 0 9.346414470428158 2.3252440404155408 0 2.3252440404155408 0.4913481939628106 0 0 0 0 24.018293948509381 -61.797292988072513 0 -61.797292988072513 -201.26978717023849 0 0 0 0 11.419716616928781 -51.431535911436185 0 -51.431535911436185 -194.91102675516595 0 0 0 0 41.70625629506435 -102.44505134931595 0 -102.44505134931595 -248.17903028136061 0 0 0 0 195.73320164264805 95.634280244958063 0 95.634280244958063 -605.67809944357214 0 0 0 0 528.0529003354095 -199.03544186852014 0 -199.03544186852014 -346.5181909181556 0 0 0 0 242.19082538463408 -63.476476535681286 0 -63.476476535681286 -83.663203285257623 0 0 0 0 381.98824557478656 -193.99677917367808 0 -193.99677917367808 -4.3976206471052137 0 0 0 0 196.57629514147993 -256.91274511666325 0 -256.91274511666325 103.08213899083785 0 0 0 0 322.50071096472675 -290.5177952205413 0 -290.5177952205413 54.54630183653353 0 0 0 0 -189.78831627118052 -169.17289746515598 0 -169.17289746515598 140.45179319786257 0 0 0 0 5.2521862325843074 -2.3474870825095451 0 -2.3474870825095451 1.1318440284788096 0 0 0 0 -135.89085729268118 18.324154202848149 0 18.324154202848149 -44.615331575507298 0 0 0 0 -6.6870611319308466 -15.614537988210174 0 -15.614537988210174 -2.4198379721887022 0 0 0 0 -80.367016498363228 -43.127451022985042 0 -43.127451022985042 14.595675557997311 0 0 0 0 -79.703962044164655 -69.409998136641661 0 -69.409998136641661 -42.167614030331606 0 0 0 0 93.357318525428127 -164.57589386986001 0 -164.57589386986001 89.831433319981443 0 0 0 0 142.4330240542331 -179.18567302288284 0 -179.18567302288284 24.721480765976594 0 0 0 0 -18.005722201385652 9.7200398737586511 0 9.7200398737586511 6.5957377591985278 0 0 0 0 121.83801234957355 -306.6010026967997 0 -306.6010026967997 189.73331489765405 0 0 0 0 148.53491328704695 -314.17481964390754 0 -314.17481964390754 181.7699872858866 0 0 0 0 148.51254169855383 -300.87285677733234 0 -300.87285677733234 222.73521111096488 0 0 0 0 0.16149809282796923 -221.57190149653616 0 -221.57190149653616 394.78745174570213 0 0 0 0 0.10857695540471468 -399.94326315720537 0 -399.94326315720537 291.31474327651813 0 0 0 0 162.55780561684514 -377.13447889859526 0 -377.13447889859526 261.89784442973905 0 0 0 0 275.50910527462838 -408.19606178373942 0 -408.19606178373942 167.82468409748981 0 0 0 0 237.1971800862957 -363.21089354007927 0 -363.21089354007927 199.66463060973911 0 0 0 0 153.20591337538644 -341.10025667232367 0 -341.10025667232367 135.75374672110775 0 0 0 0 309.61214338161551 -441.22469631492373 0 -441.22469631492373 147.45397314870206 0 0 0 0 376.28295810327108 -383.21420746819786 0 -383.21420746819786 197.83893047517631 0 0 0 0 104.60054058246169 -481.73942834736408 0 -481.73942834736408 313.34670630066103 0 0 0 0 308.03683656899375 -598.60240428615361 0 -598.60240428615361 370.7683446658848 0 0 0 0 0.57160502853920325 -566.69585992832708 0 -566.69585992832708 435.46442522175494 0 0 0 0 567.98254237475339 -590.35538844708935 0 -590.35538844708935 232.69221102914889 0 0 0 0 592.8425975850987 -590.58130443416303 0 -590.58130443416303 197.9481316926649 0 0 0 0 608.87117158144247 -479.79533384031674 0 -479.79533384031674 -133.97602027849643 0 0 0 0 366.36388665431878 -264.50685674096167 0 -264.50685674096167 304.00664439810498 0 0 0 0 133.04783213901101 -559.41780199636923 0 -559.41780199636923 170.2166881938756 0 0 0 0 555.13059551158221 -120.89680230634985 0 -120.89680230634985 -89.395446867283681 0 0 0 0 343.58137760273166 -349.40165984176383 0 -349.40165984176383 176.05175565404352 0 0 0 0 -71.282263490225887 -80.891088477772428 0 -80.891088477772428 11.312936283473391 0 0 0 0 -138.08714832534315 -196.86364304424205 0 -196.86364304424205 100.13473109446932 0 0 0 0 -137.29491183097707 -112.14139981070184 0 -112.14139981070184 51.524798985279631 0 0 0 0 -63.287618354894221 -141.83932501224626 0 -141.83932501224626 57.774724657763727 0 0 0 0 -92.678683080361225 -274.91550568159437 0 -274.91550568159437 234.26659160591953 0 0 0 0 68.551010906056035 -397.38852350371599 0 -397.38852350371599 -157.52171870847815 0 0 0 0 39.413238544482738 -331.39257786568487 0 -331.39257786568487 75.427192505987477 0 0 0 0 4.1598190510412678 -255.24861054679786 0 -255.24861054679786 -57.271295235608704 0 0 0 0 -65.491329483804293 -247.97336524556158 0 -247.97336524556158 130.56941644796461 0 0 0 0 -42.606003836765012 -176.70836422987486 0 -176.70836422987486 36.949673031747807 0 0 0 0 51.679778270306997 -183.05215802212479 0 -183.05215802212479 10.881012845784426 0 0 0 0 125.92198021733202 -177.17967438614869 0 -177.17967438614869 -90.350692894819076 0 0 0 0 204.44283870662912 -93.604718703110848 0 -93.604718703110848 -162.4601870700717 0 0 0 0 -0.86794767353757152 -3.0155815384823654 0 -3.0155815384823654 -2.096699937975842 0 0 0 0 131.35327441070694 -251.87432236214227 0 -251.87432236214227 -228.39933700579422 0 0 0 0 92.393221521488158 -50.098943362751015 0 -50.098943362751015 -22.616939411145722 0 0 0 0 112.75613637731294 -73.776151711426792 0 -73.776151711426792 -49.271204080578173 0 0 0 0 -8.179564916268486 -62.550174906444852 0 -62.550174906444852 7.4020929483583586 0 0 0 0 116.92279744810003 -108.28759432536935 0 -108.28759432536935 -27.840128728072159 0 0 0 0 -10.452146751857981 -27.780898535041615 0 -27.780898535041615 -30.239210375477256 0 0 0 0 81.915715674549574 -50.468804736356105 0 -50.468804736356105 10.424208313299459 0 0 0 0 2.6104872568687085 -12.786392343518116 0 -12.786392343518116 -0.60418706332342254 0 0 0 0 -163.10742489925178 -157.18819369561243 0 -157.18819369561243 -19.56136528243951 0 0 0 0 110.3535719425272 -53.554273545079923 0 -53.554273545079923 -34.087004079192411 0 0 0 0 31.440232465204133 -16.880938156696516 0 -16.880938156696516 -23.783189949332169 0 0 0 0 31.990777270222679 -40.297254791532396 0 -40.297254791532396 -12.978719094069675 0 0 0 0 1.6438780306114609 -22.694662502280835 0 -22.694662502280835 -39.638161825915233 0 0 0 0 36.503921488388187 -52.39289796676826 0 -52.39289796676826 -25.873828307878284 0 0 0 0 -8.0875454711339856 -34.014127791334545 0 -34.014127791334545 -8.7151682421185512 0 0 0 0 50.850603962273453 -48.23522200325533 0 -48.23522200325533 -32.224689704151388 0 0 0 0 31.789871857254184 -90.798862101797567 0 -90.798862101797567 -8.6432709753862582 0 0 0 0 15.438710523910094 -44.587067427593041 0 -44.587067427593041 -36.396268655073754 0 0 0 0 -3.9976786174520385 -90.438900298613589 0 -90.438900298613589 11.834729686874198 0 0 0 0 20.952908452076372 -106.22774502125685 0 -106.22774502125685 1.8179675926803611 0 0 0 0 23.196745203837054 -93.129385122669191 0 -93.129385122669191 2.4064385939273052 0 0 0 0 70.674302168772556 -80.665068018090096 0 -80.665068018090096 -2.3638179561239667 0 0 0 0 35.331205311503595 -90.574246027262177 0 -90.574246027262177 2.0416901117714588 0 0 0 0 35.253606001380831 -106.65796784960548 0 -106.65796784960548 1.8256431628933569 0 0 0 0 22.789084617397748 -117.42637821630706 0 -117.42637821630706 -7.415339571016375 0 0 0 0 -13.627175154149541 -41.145308407210791 0 -41.145308407210791 -39.183142250680248 0 0 0 0 11.79033078101944 -23.224691639911569 0 -23.224691639911569 -24.281331619330871 0 0 0 0 -45.684017702020356 -37.035071359707217 0 -37.035071359707217 -18.257142965041567 0 0 0 0 23.137906158975966 -40.699479600283667 0 -40.699479600283667 -41.997394010890275 0 0 0 0 11.712379526755598 -33.490056404488683 0 -33.490056404488683 -16.73136892799991 0 0 0 0 -1.5252717830589972 -67.218532301514642 0 -67.218532301514642 -37.095289331133245 0 0 0 0 4.6350350025750231 -63.272067168312788 0 -63.272067168312788 -38.917886993036518 0 0 0 0 11.414842236365075 -57.524701877024199 0 -57.524701877024199 -38.316163658739242 0 0 0 0 -5.1061053046032612 -56.45827080824165 0 -56.45827080824165 -30.164327597929514 0 0 0 0 -2.57375273409491 -26.317811913145164 0 -26.317811913145164 -32.793266889787589 0 0 0 0 -73.214323721666005 -76.116089129463944 0 -76.116089129463944 0.011498680367367342 0 0 0 0 100.35640411137138 -88.117332002031617 0 -88.117332002031617 -96.475361030788918 0 0 0 0 16.819127100963669 -70.161799071738642 0 -70.161799071738642 -39.098723412287654 0 0 0 0 30.884055814065505 -46.246471029895474 0 -46.246471029895474 -29.715806370848441 0 0 0 0 10.711403152323328 -61.877772094718239 0 -61.877772094718239 -27.810038216923203 0 0 0 0 10.476772455334867 -75.574485650756969 0 -75.574485650756969 -46.645701333342004 0 0 0 0 12.951660053076921 -60.160633919222164 0 -60.160633919222164 -50.497192849412386 0 0 0 0 -21.915249116456835 -63.897371860588464 0 -63.897371860588464 -35.096112665829423 0 0 0 0 -23.776381158328149 -40.308149165412033 0 -40.308149165412033 -27.526994310988812 0 0 0 0 -21.393772513823933 -42.316769661549188 0 -42.316769661549188 -33.953872645914089 0 0 0 0 4.6370183469302297 -37.070209867459909 0 -37.070209867459909 -29.449875629174613 0 0 0 0 -22.947068222529197 -65.020199590548145 0 -65.020199590548145 -32.518130438373191 0 0 0 0 -11.744999093724658 -19.871703319615872 0 -19.871703319615872 -13.274583701222994 0 0 0 0 -44.186777100039762 -56.307323687895405 0 -56.307323687895405 -38.257447866912116 0 0 0 0 0.12388122517572242 -42.626969088757605 0 -42.626969088757605 -28.481568389435679 0 0 0 0 -2.8971794669341762 -34.65198976235115 0 -34.65198976235115 -18.248232787307643 0 0 0 0 -8.9802636321341112 -35.227200611190298 0 -35.227200611190298 -33.923773440401703 0 0 0 0 -16.448242478876637 -30.470099335845589 0 -30.470099335845589 -15.046987430439913 0 0 0 0 -23.154149291657887 -45.965690956562412 0 -45.965690956562412 -26.392030744675608 0 0 0 0 -5.0201908439339604 -67.947088000415533 0 -67.947088000415533 -60.379410152658238 0 0 0 0 -1.8522963765353779 -59.602269447015715 0 -59.602269447015715 -43.763602694350993 0 0 0 0 -26.597648555688011 -54.128421353434931 0 -54.128421353434931 -48.39074213305139 0 0 0 0 -15.880095851021593 -10.904536192089395 0 -10.904536192089395 -5.2105925821270063 0 0 0 0 -0.99338545167120174 -61.934002908848925 0 -61.934002908848925 -49.885105412002304 0 0 0 0 -5.7369167087198605 -33.611042202509367 0 -33.611042202509367 -29.553685900350175 0 0 0 0 1.9179565412923694 -47.394085776475549 0 -47.394085776475549 -48.543079010481961 0 0 0 0 24.939649861531507 -48.196185750759469 0 -48.196185750759469 -24.450856639479753 0 0 0 0 1.0641758183191996 -56.690161942096893 0 -56.690161942096893 -29.476215348084224 0 0 0 0 28.414033396969899 -47.357149557661614 0 -47.357149557661614 -48.211446993605932 0 0 0 0 8.2087531082215719 -48.137700412306003 0 -48.137700412306003 -42.243164935229288 0 0 0 0 15.258230382984038 -58.804956198786385 0 -58.804956198786385 -50.929992561679683 0 0 0 0 14.500904373519006 -64.094138193864637 0 -64.094138193864637 -41.033957326668315 0 0 0 0 22.766063612769358 -46.271465642443218 0 -46.271465642443218 -34.452903005134431 0 0 0 0 33.316530938784126 -47.964062074795947 0 -47.964062074795947 -41.660412257275311 0 0 0 0 33.748246233634745 -43.012284322514915 0 -43.012284322514915 -7.0442355086706812 0 0 0 0 42.95375734710251 -26.69967410627396 0 -26.69967410627396 -10.461160265759645 0 0 0 0 122.00334998458857 28.277606664647465 0 28.277606664647465 -334.19185046192433 0 0 0 0 24.027363699604706 -3.2919999136136653 0 -3.2919999136136653 -16.754518394314346 0 0 0 0 -10.246510838936956 9.4439147978482652 0 9.4439147978482652 -140.11247537036252 0 0 0 0 33.006696112221107 -15.627285997004947 0 -15.627285997004947 -14.474015936037176 0 0 0 0 7.7348587051053812 -4.4846912830414638 0 -4.4846912830414638 -11.680057556358975 0 0 0 0 -1.5290571877713379 -33.890418514245027 0 -33.890418514245027 -31.01491384907915 0 0 0 0 -1.9184505965167773 -65.205897108640784 0 -65.205897108640784 -59.435835614705866 0 0 0 0 -4.0658372790057911 -36.237990673014792 0 -36.237990673014792 -24.771864466853003 0 0 0 0 -16.833730726226349 -1.3839462156593072 0 -1.3839462156593072 -43.464493488747394 0 0 0 0 8.2621240597384542 -33.952236197283085 0 -33.952236197283085 -24.429777008420203 0 0 0 0 10.831302440084983 -68.962275639307336 0 -68.962275639307336 7.3027987039313302 0 0 0 0 50.384402605435753 -49.608577053542831 0 -49.608577053542831 -35.240671555809968 0 0 0 0 -4.9643956119013808 -21.94546269192989 0 -21.94546269192989 -34.106692932700582 0 0 0 0 66.6137345682655 -44.973540141974809 0 -44.973540141974809 -36.679409964344813 0 0 0 0 29.401825474724319 -47.895668848177593 0 -47.895668848177593 -3.5965006267069839 0 0 0 0 -7.9778232824254864 -26.203391431698293 0 -26.203391431698293 -9.7175148657033503 0 0 0 0 60.986838011449436 -21.309440235680086 0 -21.309440235680086 -43.176829559954058 0 0 0 0 56.160381243251322 -16.17074310110911 0 -16.17074310110911 -9.0958156927351865 0 0 0 0 -83.217053705651779 -61.322474590848287 0 -61.322474590848287 76.143715881495154 0 0 0 0 0.45495404982278131 -22.613822758423325 0 -22.613822758423325 2.2162387375709613 0 0 0 0 -34.445991088694427 -40.82210399563337 0 -40.82210399563337 -17.789130663673859 0 0 0 0 -149.95585080154706 -112.08829467634496 0 -112.08829467634496 -39.863144108065171 0 0 0 0 -44.271685128755053 -132.38492383429912 0 -132.38492383429912 -115.21340210198287 0 0 0 0 244.14606911345618 -216.59819294112822 0 -216.59819294112822 8.9769027253751119 0 0 0 0 -37.194776777165316 -135.46352266092288 0 -135.46352266092288 -13.659729429302388 0 0 0 0 -11.537940241898015 -50.8517241006017 0 -50.8517241006017 -34.019563996092273 0 0 0 0 54.851601925804971 -113.96132159640524 0 -113.96132159640524 -41.429385402676417 0 0 0 0 92.155486072093481 -64.148933988104545 0 -64.148933988104545 -24.815302294711728 0 0 0 0 2.7453539888741716 -27.552729409579342 0 -27.552729409579342 -45.910415449467365 0 0 0 0 23.494693157073613 -37.830650872049858 0 -37.830650872049858 -45.540046650029922 0 0 0 0 13.345904864931072 -47.937420891987131 0 -47.937420891987131 -55.377002258450375 0 0 0 0 55.284934916591737 -23.009556627563143 0 -23.009556627563143 -24.356394958158489 0 0 0 0 -297.58975869498681 8.1781704032910056 0 8.1781704032910056 -80.369052765447123 0 0 0 0 -28.909611042040154 -55.40842479884202 0 -55.40842479884202 -26.889020487450125 0 0 0 0 -15.883571922941911 -37.931946602845244 0 -37.931946602845244 -43.677771603430784 0 0 0 0 10.577265582924154 -45.622990500994845 0 -45.622990500994845 -45.69069118577076 0 0 0 0 -280.62527295196014 -280.08508273249731 0 -280.08508273249731 255.7097897537169 0 0 0 0 -261.18534166738391 97.736297838130895 0 97.736297838130895 -65.302437543054111 0 0 0 0 5.8982080565951662 -5.3860590849408254 0 -5.3860590849408254 -4.8959409889092029 0 0 0 0 -185.31912268453743 -115.48517780342809 0 -115.48517780342809 -53.623630900150602 0 0 0 0 -387.56340586087026 -366.06419373138851 0 -366.06419373138851 916.72168882969709 0 0 0 0 3.2166740508929763 -3.0464098042435523 0 -3.0464098042435523 0.39695132392124322 0 0 0 0 765.27823950933816 -410.77259858694379 0 -410.77259858694379 -531.30098203346279 0 0 0 0 213.61492506474315 551.54978412154924 0 551.54978412154924 -505.17955588310724 0 0 0 0 -185.894834019884 147.91921036447457 0 147.91921036447457 -592.09414071384526 0 0 0 0 85.452864667255199 -219.28291892811831 0 -219.28291892811831 165.84329007505221 0 0 0 0 284.09911879629362 136.16509837428748 0 136.16509837428748 -853.07563050932004 0 0 0 0 148.58579169167206 -698.74943473450548 0 -698.74943473450548 -509.66703446690371 0 0 0 0 5.4430789914405988 -3.2975750305935776 0 -3.2975750305935776 -1.4850213625952335 0 0 0 0 52.300945799215697 -15.867410593793466 0 -15.867410593793466 -113.8348348827858 0 0 0 0 -125.81989913817119 -86.026284265548497 0 -86.026284265548497 40.405540897001629 0 0 0 0 31.586613400971999 -29.860402457677225 0 -29.860402457677225 -33.512967453080606 0 0 0 0 -56.432492240877764 -111.8364860607744 0 -111.8364860607744 -81.001591903914232 0 0 0 0 76.67106394548523 -41.332172397882033 0 -41.332172397882033 -89.669884989045386 0 0 0 0 10.847762133348199 -38.053117878528766 0 -38.053117878528766 -60.817506623946826 0 0 0 0 4.0858187185367569 -78.542086957368156 0 -78.542086957368156 -79.423016615735833 0 0 0 0 -24.768518127079005 -33.311612247733137 0 -33.311612247733137 -69.130671084752976 0 0 0 0 -80.075919583643554 -70.250392299491068 0 -70.250392299491068 -47.734636445637079 0 0 0 0 -8.2508737692478462 -65.262712311458017 0 -65.262712311458017 -52.684263361486956 0 0 0 0 -10.25852602624218 -102.0630414566549 0 -102.0630414566549 -131.71436799940238 0 0 0 0 32.60691730279359 -178.63593438549287 0 -178.63593438549287 -25.6853996393329 0 0 0 0 181.56502753753011 494.11362577472755 0 494.11362577472755 -57.081141834089067 0 0 0 0 -47.559022551140515 -132.82459037887747 0 -132.82459037887747 -34.136209776552278 0 0 0 0 6.1784285976811475 -2.696164372191717 0 -2.696164372191717 1.9266146657445802 0 0 0 0 121.739946296977 -58.246376904873614 0 -58.246376904873614 -17.838685414571955 0 0 0 0 274.57349237964081 5.1478588302343269 0 5.1478588302343269 105.97198094341002 0 0 0 0 98.443407736820518 -169.15953645474292 0 -169.15953645474292 2.1693504897248204 0 0 0 0 44.544038027313945 -50.462940752713621 0 -50.462940752713621 -104.2404319687671 0 0 0 0 0.0030909394263289869 -86.638107395487168 0 -86.638107395487168 -98.915929071277787 0 0 0 0 14.99714433874678 -39.963971305427833 0 -39.963971305427833 -67.087753097961112 0 0 0 0 6.792299814877282 -20.463116272934592 0 -20.463116272934592 -5.3403657702874341 0 0 0 0 9.2284830921576315 -20.785605447285832 0 -20.785605447285832 -34.912809030975367 0 0 0 0 63.469535311232903 -0.27305109533335781 0 -0.27305109533335781 -44.095154026490491 0 0 0 0 45.054300775009324 -53.614654267157675 0 -53.614654267157675 -55.175871521518275 0 0 0 0 33.565875664600753 -3.1872582690211857 0 -3.1872582690211857 -3.4407883697422221 0 0 0 0 17.553538800464594 17.416643831515103 0 17.416643831515103 -29.526476759885554 0 0 0 0 5.5565161253762199 -72.653835956720286 0 -72.653835956720286 77.758654424833367 0 0 0 0 51.358345718355849 16.559540752783505 0 16.559540752783505 -67.188485916118225 0 0 0 0 -104.68684198892151 51.114930522940995 0 51.114930522940995 41.517119827156421 0 0 0 0 43.288478279886476 -60.252109136741637 0 -60.252109136741637 -58.150357392868273 0 0 0 0 -17.458933477248138 56.415016125394231 0 56.415016125394231 -52.556828476292139 0 0 0 0 -33.073046489035733 -72.461974962602199 0 -72.461974962602199 -16.234836786556116 0 0 0 0 -7.6307546563912183 -47.223078610681114 0 -47.223078610681114 -108.78922822770937 0 0 0 0 38.680435900707266 -18.235024026433337 0 -18.235024026433337 -33.6485830067016 0 0 0 0 -48.57809202442877 -194.7704626115883 0 -194.7704626115883 -46.745962059882004 0 0 0 0 88.157806375573273 36.181688729076996 0 36.181688729076996 4.5663413534766732 0 0 0 0 71.975679170544026 -127.9039778878323 0 -127.9039778878323 -4.9421982021549411 0 0 0 0 169.73899903299753 -188.50363804411245 0 -188.50363804411245 -127.96129091237526 0 0 0 0 3.3520611555813957 -0.07756861309112395 0 -0.07756861309112395 -0.20720305496502078 0 0 0 0 -25.501171634357888 -78.468337941558275 0 -78.468337941558275 13.158586896934139 0 0 0 0 -28.794929727980161 -24.49455254766724 0 -24.49455254766724 -48.533000317205733 0 0 0 0 -22.883869860961568 -41.087114444482722 0 -41.087114444482722 -21.491216753763581 0 0 0 0 22.549008327216143 -58.830210801468638 0 -58.830210801468638 -21.623973605510287 0 0 0 0 -11.116968493530294 -24.482918243345921 0 -24.482918243345921 -45.11490102973039 0 0 0 0 -17.046313938175444 -23.474762332050886 0 -23.474762332050886 -33.517719129089983 0 0 0 0 -38.544243206677493 -48.244460386085848 0 -48.244460386085848 -31.901360684925749 0 0 0 0 -17.96832352290761 -27.020500434607158 0 -27.020500434607158 -34.143181411720562 0 0 0 0 -38.071978532359935 -28.688795529560593 0 -28.688795529560593 -39.904397291786154 0 0 0 0 -1.8635195338283665 -46.554136550716066 0 -46.554136550716066 -57.905406615587708 0 0 0 0 -21.551653869595611 -53.901423315790453 0 -53.901423315790453 -64.004700721809058 0 0 0 0 -0.7513350569412296 -11.204656868400441 0 -11.204656868400441 -10.317809616664988 0 0 0 0 -32.195269961608574 -40.008015373929084 0 -40.008015373929084 -41.602202461597699 0 0 0 0 -19.047041219363479 -31.469876000915093 0 -31.469876000915093 -39.17297201420169 0 0 0 0 77.349926536437124 -121.92096964072334 0 -121.92096964072334 -140.51875362991996 0 0 0 0 -20.686197179646712 -34.462677721304829 0 -34.462677721304829 -43.192497886099829 0 0 0 0 -35.55514771520393 -31.073223882322054 0 -31.073223882322054 -52.414650758364587 0 0 0 0 1.7083783594102329 -8.5297668901528994 0 -8.5297668901528994 -9.2004858368648996 0 0 0 0 -22.910921375078033 -55.278264612016756 0 -55.278264612016756 -97.043667875390383 0 0 0 0 -37.206041431505582 -42.947132151060941 0 -42.947132151060941 -57.572851132137203 0 0 0 0 14.223423843795899 -18.243680698189564 0 -18.243680698189564 -90.165779983093671 0 0 0 0 -50.286370170259033 -1.980517058789701 0 -1.980517058789701 29.501810017396565 0 0 0 0 -17.896949628775474 14.467828705397551 0 14.467828705397551 -21.449005215294164 0 0 0 0 -42.454041840930586 -20.012822477197915 0 -20.012822477197915 -27.121570250528748 0 0 0 0 -41.019298578074086 -15.705580981953972 0 -15.705580981953972 -60.185349526291247 0 0 0 0 188.84997684240807 -219.48173846252757 0 -219.48173846252757 53.754647551628295 0 0 0 0 90.939388094382593 -59.741401753590253 0 -59.741401753590253 -48.907743343996117 0 0 0 0 4.4146379050362157 -164.28282155671332 0 -164.28282155671332 210.87920931824465 0 0 0 0 5.2380196031608648 0.5243701326124004 0 0.5243701326124004 -0.97111975154626862 0 0 0 0 -43.556100347312167 -30.279168552906413 0 -30.279168552906413 -60.884859484096523 0 0 0 0 -30.082410430244636 -15.493117809943215 0 -15.493117809943215 -49.54802874243785 0 0 0 0 -58.057900068626623 -83.29769257625594 0 -83.29769257625594 -84.454405190102989 0 0 0 0 71.054376595289796 -63.481221216672566 0 -63.481221216672566 -110.94899761751003 0 0 0 0 0.14682993386668386 -61.141805108763947 0 -61.141805108763947 -37.786645225234679 0 0 0 0 15.02726794037153 -82.456040338802268 0 -82.456040338802268 -8.2040300310727616 0 0 0 0 54.769004096764547 -12.21261957306524 0 -12.21261957306524 -20.338113938363676 0 0 0 0 -13.278856392222224 -30.130335190297046 0 -30.130335190297046 -16.125735440760764 0 0 0 0 3.5535454524539603 -0.28107690549883557 0 -0.28107690549883557 -2.7989016570531362 0 0 0 0 -60.686670565817622 -42.542400126272696 0 -42.542400126272696 -47.377065427630441 0 0 0 0 -7.8150601859379094 -23.216121218109038 0 -23.216121218109038 -30.355113434987288 0 0 0 0 -2.4184615776851501 -6.703521845600207 0 -6.703521845600207 -9.7894251256953737 0 0 0 0 15.910495944641298 -9.1396731893037213 0 -9.1396731893037213 -41.170121527546144 0 0 0 0 -21.77620673495403 -15.21839691756395 0 -15.21839691756395 -35.105025766795734 0 0 0 0 -0.015934887953335419 -50.114546044374947 0 -50.114546044374947 -68.272010763452272 0 0 0 0 -0.85150323665584438 -40.896932320250926 0 -40.896932320250926 -74.380421462083177 0 0 0 0 1.5761264384416052 -2.5751305464767711 0 -2.5751305464767711 -1.6873195845023758 0 0 0 0 -84.872693030629307 -63.69817056359534 0 -63.69817056359534 -33.746567791295092 0 0 0 0 35.165009006566834 -16.562343860610781 0 -16.562343860610781 -36.683122389422351 0 0 0 0 -29.241594772094686 -10.836637361629982 0 -10.836637361629982 -10.669135641794128 0 0 0 0 12.531444010804989 -41.435672731699015 0 -41.435672731699015 -48.573450151558063 0 0 0 0 -20.203681344690267 -33.972140041940293 0 -33.972140041940293 -11.900932355334248 0 0 0 0 15.229777085987735 -32.867791004832725 0 -32.867791004832725 -19.581336295290384 0 0 0 0 -10.602131046551079 -16.240240471534747 0 -16.240240471534747 -18.708874640034281 0 0 0 0 0.037673617793188896 -8.2017089595301513 0 -8.2017089595301513 2.6939176219311776 0 0 0 0 -1.3392247681478295 -5.4011109551401546 0 -5.4011109551401546 -3.6431798781846396 0 0 0 0 -0.97223075428337324 -12.660165343313565 0 -12.660165343313565 -6.6930383203798556 0 0 0 0 -12.22955345378432 -35.117434956027864 0 -35.117434956027864 -34.78090502370469 0 0 0 0 -12.577892211338622 -34.287655281616026 0 -34.287655281616026 -22.822362678249192 0 0 0 0 41.771876215119846 -22.212990517222352 0 -22.212990517222352 -27.559815367094416 0 0 0 0 -21.165885805647122 -44.545034137347102 0 -44.545034137347102 -44.337655995834211 0 0 0 0 -21.284829726311727 -44.11670975198831 0 -44.11670975198831 -20.164899226692796 0 0 0 0 -14.858144689642359 -22.569894102579099 0 -22.569894102579099 -29.033758338178643 0 0 0 0 -4.5963033167338097 -9.2783620846662416 0 -9.2783620846662416 -5.9157192182106826 0 0 0 0 -18.799566842601052 -40.111478380058543 0 -40.111478380058543 -11.866227772989077 0 0 0 0 9.2960124272358371 -19.047247762195184 0 -19.047247762195184 -21.160876718629652 0 0 0 0 -52.017496351269074 -26.421992466999654 0 -26.421992466999654 -11.676946182687971 0 0 0 0 188.30497176968493 -149.37713037847425 0 -149.37713037847425 -25.539304911664658 0 0 0 0 0.81664030661750076 -1.8772638536265127 0 -1.8772638536265127 -16.506197273328439 0 0 0 0 -59.333752227912555 -74.629257760583414 0 -74.629257760583414 -39.499923778654193 0 0 0 0 1.3207327005933109 -0.54689452731962263 0 -0.54689452731962263 0.39291099785833694 0 0 0 0 138.03395890358661 -10.308729646509164 0 -10.308729646509164 -35.415605661954032 0 0 0 0 25.209700632869499 -19.566131763678641 0 -19.566131763678641 -74.634029105487571 0 0 0 0 -82.501091394558898 -221.5944886825564 0 -221.5944886825564 59.735222396893732 0 0 0 0 2.8038543431257494 -22.18522909564112 0 -22.18522909564112 -20.470267930992854 0 0 0 0 7.1202549633671879 -35.986643142864523 0 -35.986643142864523 -12.673223449106445 0 0 0 0 -227.27647062111646 -208.80702157831547 0 -208.80702157831547 310.93826091280425 0 0 0 0 218.22885958445841 93.98524005580839 0 93.98524005580839 -1309.529040171612 0 0 0 0 46.06226328613775 190.22142608498825 0 190.22142608498825 -415.60768459010797 0 0 0 0 0.076192100590560585 -8.3889141365107207 0 -8.3889141365107207 -10.891915636504564 0 0 0 0 9.8075241872211336 -31.672509946913124 0 -31.672509946913124 -20.080795033154573 0 0 0 0 17.445587176000117 -22.525920933308953 0 -22.525920933308953 -10.964566843351349 0 0 0 0 1.0625860007395005 -15.478203497912119 0 -15.478203497912119 -5.7278727598364725 0 0 0 0 13.860612294058683 -18.41947785843827 0 -18.41947785843827 -21.344701082448747 0 0 0 0 -0.0098881026569870301 -8.9304484023887198 0 -8.9304484023887198 -5.9337778550980147 0 0 0 0 4.6510293245628418 -11.584490740599904 0 -11.584490740599904 -12.86749443532608 0 0 0 0 -3.1378462377472829 -7.2827466613533431 0 -7.2827466613533431 -8.2672971108776494 0 0 0 0 -404.6691973619163 -147.99984625147408 0 -147.99984625147408 571.52632203124449 0 0 0 0 2.7164578828876529 2.4776898380990957 0 2.4776898380990957 -10.739259189370287 0 0 0 0 -1.7425783803907962 2.7261138949154002 0 2.7261138949154002 -3.0343247271516134 0 0 0 0 -2.8535226087952879 -2.9130127236085457 0 -2.9130127236085457 -2.8822789633876766 0 0 0 0 0.023948434100020677 -7.5464981903314765 0 -7.5464981903314765 -10.714293228957104 0 0 0 0 401.29806830857706 -18.319193680008539 0 -18.319193680008539 -3277.0086878018046 0 0 0 0 522.13359717844287 -542.65235097125696 0 -542.65235097125696 -3490.5252719734453 0 0 0 0 0.89430236924090423 -673.69860711471665 0 -673.69860711471665 -2738.3827200561173 0 0 0 0 114.81058427781682 -928.47074011076802 0 -928.47074011076802 -1713.4603571859207 0 0 0 0 -1313.2636249704519 214.15532302188876 0 214.15532302188876 -2494.9019035620222 0 0 0 0 -1083.302372046699 -995.12927879522977 0 -995.12927879522977 -2733.0213788226683 0 0 0 0 3.4773498306000192 1.7396066091617683 0 1.7396066091617683 -23.629714820813632 0 0 0 0 -273.49236996049876 736.0565922687847 0 736.0565922687847 -1094.5254487320635 0 0 0 0 -596.96470452361245 -971.272393366502 0 -971.272393366502 -2346.1025352510151 0 0 0 0 509.70984592246259 -352.51730004036165 0 -352.51730004036165 -3712.2239437869575 0 0 0 0 413.44150509034807 304.03203398293408 0 304.03203398293408 -3431.996797901309 0 0 0 0 361.57953293914034 202.44972885956304 0 202.44972885956304 -1342.7934792627402 0 0 0 0 741.92176542066682 -224.12309056768183 0 -224.12309056768183 -2670.9400542195144 0 0 0 0 731.22828655573085 -722.2306348714352 0 -722.2306348714352 -2290.467099201207 0 0 0 0 485.94645039079478 -611.77170148971345 0 -611.77170148971345 -2128.0335075733383 0 0 0 0 341.80496715461777 -198.95543062372053 0 -198.95543062372053 -2410.7243225937164 0 0 0 0 -258.40704067140177 -1130.2356067188593 0 -1130.2356067188593 -1704.5874786903951 0 0 0 0 -71.843427970779885 -465.06797535600072 0 -465.06797535600072 455.93762642680667 0 0 0 0 1083.1772622583085 115.81621191745944 0 115.81621191745944 -1355.5295754657127 0 0 0 0 1486.1570373531176 -559.60290685717291 0 -559.60290685717291 -2278.0766343512478 0 0 0 0 -9.6743068873733762 -16.204849476575447 0 -16.204849476575447 -17.083168917698799 0 0 0 0 934.14383728069515 -741.46029356514009 0 -741.46029356514009 301.52056891094253 0 0 0 0 690.98514345493459 -1487.6515611123559 0 -1487.6515611123559 473.5855795382962 0 0 0 0 40.510574649750197 -145.9090393208844 0 -145.9090393208844 455.61599554793793 0 0 0 0 -14.320344698207919 -454.61948872220091 0 -454.61948872220091 351.42212747166195 0 0 0 0 128.40519794233842 -148.66670791082652 0 -148.66670791082652 45.169446185404013 0 0 0 0 205.16274159625755 97.656595413107425 0 97.656595413107425 527.01011614032996 0 0 0 0 -0.13367758044383043 -537.94541712554292 0 -537.94541712554292 -914.72742610136629 0 0 0 0 209.12404352739395 100.46572937513156 0 100.46572937513156 -1553.1285384657349 0 0 0 0 -1660.021048636263 -376.41119898697161 0 -376.41119898697161 185.92958283642292 0 0 0 0 857.72566141202697 -502.98693143135461 0 -502.98693143135461 -1493.4753685659525 0 0 0 0 -4.0194760132085747 -6.3640627034208421 0 -6.3640627034208421 -3.5295728904301455 0 0 0 0 -2381.207056186151 -1700.2360930902455 0 -1700.2360930902455 -642.94018799543846 0 0 0 0 -227.31497467045847 -910.31319472832911 0 -910.31319472832911 -376.1778413641623 0 0 0 0 -0.45110730681521183 -4.2639652837150095 0 -4.2639652837150095 -17.125566478771994 0 0 0 0 1635.8145959495425 -484.78273464190704 0 -484.78273464190704 -744.4116692994703 0 0 0 0 21.381396881348337 -1484.6074119350906 0 -1484.6074119350906 -1600.2346734964231 0 0 0 0 -380.61798200644262 -814.81660074524461 0 -814.81660074524461 -209.8101179176665 0 0 0 0 775.19600436171459 -224.23691606212014 0 -224.23691606212014 -191.09781943295548 0 0 0 0 -371.23063581011229 -992.7444203342011 0 -992.7444203342011 552.39903384703666 0 0 0 0 -4.5339872055318153 -8.6595557782580954 0 -8.6595557782580954 -10.822120200581026 0 0 0 0 -326.82735538184352 -1251.6375036474692 0 -1251.6375036474692 -1388.1952979128127 0 0 0 0 -207.29196089397738 -1561.4071380201294 0 -1561.4071380201294 -921.58789106596123 0 0 0 0 -7.8074035882891621 -385.57151940570748 0 -385.57151940570748 -1373.226185241203 0 0 0 0 -216.1267215423577 -697.61628894766636 0 -697.61628894766636 -1354.2850362804584 0 0 0 0 -303.36691585698281 -114.49157132512028 0 -114.49157132512028 -577.21474588649289 0 0 0 0 -225.09939117943941 -331.57701621892784 0 -331.57701621892784 -265.17627707057363 0 0 0 0 165.95548621914349 36.126309003066126 0 36.126309003066126 -389.81692963487967 0 0 0 0 -293.17261627560947 -618.15311344144448 0 -618.15311344144448 -652.32545942590968 0 0 0 0 -0.23470971251002748 -10.196600375665156 0 -10.196600375665156 -45.848247995114988 0 0 0 0 149.1509900605954 -30.498136944863717 0 -30.498136944863717 -222.73020069582344 0 0 0 0 2.7363601141032543 -10.240131652699404 0 -10.240131652699404 -67.239764450085943 0 0 0 0 -5.5548915397885139 81.01306323423978 0 81.01306323423978 65.559743828305727 0 0 0 0 -3.4334349995551747 155.75204472441146 0 155.75204472441146 -157.81110933346645 0 0 0 0 4.3776494157765455 -0.48723194851894291 0 -0.48723194851894291 -16.204095822631075 0 0 0 0 4.9929320779768318 -33.166381348820138 0 -33.166381348820138 -87.571824291057055 0 0 0 0 11.114138782635564 -14.667047306027598 0 -14.667047306027598 -76.933782576064914 0 0 0 0 2.16084855355626 -7.9713342626638166 0 -7.9713342626638166 -66.142552322546877 0 0 0 0 0.68155216591162571 0.88566524061753016 0 0.88566524061753016 -33.393785132075493 0 0 0 0 -8.678433809283888 -2.9291689698938086 0 -2.9291689698938086 -31.827432353753409 0 0 0 0 -44.350382128679485 -257.23917315814015 0 -257.23917315814015 -498.72677372558428 0 0 0 0 -14.554906059041969 -20.381213542361365 0 -20.381213542361365 -92.602265392689333 0 0 0 0 1.1477447594823502 3.7197804129849636 0 3.7197804129849636 -12.329910550398921 0 0 0 0 -155.44588660418231 163.39755557246917 0 163.39755557246917 126.90562215923819 0 0 0 0 -14.025079716615437 25.074390111980392 0 25.074390111980392 -97.435407081189624 0 0 0 0 113.70261144975666 -105.22748541972396 0 -105.22748541972396 -28.535501530546753 0 0 0 0 -150.00984522604267 -101.92985976867567 0 -101.92985976867567 123.88711789644003 0 0 0 0 38.650856456399197 -58.603705886711396 0 -58.603705886711396 -71.160538066742447 0 0 0 0 -5.593403289944149 -29.282721539078466 0 -29.282721539078466 -23.939604908714216 0 0 0 0 -29.117757118649024 4.4924811302225862 0 4.4924811302225862 -73.348858600431413 0 0 0 0 123.57201257601264 -23.160182409891604 0 -23.160182409891604 -76.817430514813168 0 0 0 0 2.949579907435691 -65.579777242190175 0 -65.579777242190175 -35.505819518199132 0 0 0 0 14.324143373349216 -82.757896900904598 0 -82.757896900904598 -39.778482197871199 0 0 0 0 12.325311713779229 -71.453647838618053 0 -71.453647838618053 -37.079779308995057 0 0 0 0 8.4243428741574462 -85.840601038408749 0 -85.840601038408749 -20.490804631146602 0 0 0 0 66.422201179695548 -74.861264762395876 0 -74.861264762395876 -39.928325177552324 0 0 0 0 41.226866444558937 -13.121905707356067 0 -13.121905707356067 -192.21143507414763 0 0 0 0 29.632187205455125 -22.843824374840779 0 -22.843824374840779 -74.880835306539666 0 0 0 0 4.7064326327222794 -11.303356930959154 0 -11.303356930959154 -71.002030701207772 0 0 0 0 21.572315371071454 -15.999528522163018 0 -15.999528522163018 -60.340544326594681 0 0 0 0 1.9617055514681851 2.5870594508980957 0 2.5870594508980957 -104.67780793153906 0 0 0 0 5.4400683306880069 -14.300367343727117 0 -14.300367343727117 -20.379994667023709 0 0 0 0 -9.4858291233059049 -37.748551783161787 0 -37.748551783161787 -30.559546015370049 0 0 0 0 13.224894251223304 -24.19285986644536 0 -24.19285986644536 -65.655349957867656 0 0 0 0 -14.309855823877115 -23.076481168167334 0 -23.076481168167334 -65.193909228495613 0 0 0 0 -38.721142583337496 -14.932077979369751 0 -14.932077979369751 -110.3060228137183 0 0 0 0 -141.0888099773947 -80.019688513295478 0 -80.019688513295478 -48.03287784501299 0 0 0 0 34.214576281704211 -20.490478744548781 0 -20.490478744548781 -44.536681953864843 0 0 0 0 54.161514699982945 -18.25180637539961 0 -18.25180637539961 -47.374725639354438 0 0 0 0 6.4059037564346131 -25.627958851300349 0 -25.627958851300349 -25.360334012070709 0 0 0 0 73.241225213554344 -34.524513370050663 0 -34.524513370050663 -33.153135726730397 0 0 0 0 51.118380975211039 -45.045366726219072 0 -45.045366726219072 -49.466549718286842 0 0 0 0 6.6645973927698492 -57.141435611972938 0 -57.141435611972938 -54.375701351897249 0 0 0 0 48.187697678437871 -29.481979536951798 0 -29.481979536951798 -83.437394823775861 0 0 0 0 9.0063975126819287 -24.3609005752486 0 -24.3609005752486 -109.95558729681898 0 0 0 0 44.070436048160659 -23.939967351454499 0 -23.939967351454499 -76.73267660240387 0 0 0 0 62.733290483578457 -24.599509153001463 0 -24.599509153001463 -127.91766960842324 0 0 0 0 48.246466326484608 -25.111432812950284 0 -25.111432812950284 -48.334626085209962 0 0 0 0 73.235916805133456 -13.843115582815244 0 -13.843115582815244 -127.46691404210333 0 0 0 0 67.745311668302747 23.14091127758104 0 23.14091127758104 -162.86688775908397 0 0 0 0 148.58820452850341 -43.786193050076918 0 -43.786193050076918 -137.23899595551484 0 0 0 0 54.16610571424826 -53.033778917231714 0 -53.033778917231714 -153.13521466969533 0 0 0 0 120.73369471741898 -60.813218310149978 0 -60.813218310149978 -140.20230932035611 0 0 0 0 44.8037187888105 -44.06610443281788 0 -44.06610443281788 -24.002160599103835 0 0 0 0 103.66842740395805 -76.911546744509678 0 -76.911546744509678 -75.797887597298541 0 0 0 0 -115.28970806901634 -145.10337457318292 0 -145.10337457318292 21.805501879479834 0 0 0 0 77.605314593136427 -128.46275795182322 0 -128.46275795182322 -136.47183632861652 0 0 0 0 74.103389149129868 -58.999981446822176 0 -58.999981446822176 34.333637133760192 0 0 0 0 -105.07265358283985 -180.97466837580805 0 -180.97466837580805 19.250058312096371 0 0 0 0 -49.498881637489831 -156.74490688168908 0 -156.74490688168908 -54.072240837234858 0 0 0 0 17.673405730273771 -246.87302916982605 0 -246.87302916982605 -129.92940536457252 0 0 0 0 61.211141581323261 -47.483227459677138 0 -47.483227459677138 37.307288347800451 0 0 0 0 148.56870992582117 -110.21512729383539 0 -110.21512729383539 -137.81461033494134 0 0 0 0 43.264683619803691 -115.22297702475507 0 -115.22297702475507 -96.101889543092426 0 0 0 0 229.90181523407227 -186.71985548216389 0 -186.71985548216389 -69.875945648151742 0 0 0 0 14.349978725997062 -107.10438090146863 0 -107.10438090146863 -49.226435770318972 0 0 0 0 13.671050629196543 -133.95931994245078 0 -133.95931994245078 151.43752011241736 0 0 0 0 116.56088014184206 -169.8827641810517 0 -169.8827641810517 162.31076375801376 0 0 0 0 433.92662406078307 -243.64023064409068 0 -243.64023064409068 13.25700149709462 0 0 0 0 111.04809100444982 -144.18820668444846 0 -144.18820668444846 332.57696321863341 0 0 0 0 237.31528825977875 64.001635774915826 0 64.001635774915826 -38.609994541641441 0 0 0 0 88.32810680445948 -181.57155764302351 0 -181.57155764302351 185.68597239766586 0 0 0 0 0.79767087054761987 -8.0309139376937679 0 -8.0309139376937679 -12.679302828900298 0 0 0 0 22.525635050755227 15.886807057232986 0 15.886807057232986 -40.653277681834439 0 0 0 0 183.32004034004422 38.663310078863077 0 38.663310078863077 -91.613022607273308 0 0 0 0 228.70470576999651 -96.955114752947622 0 -96.955114752947622 -131.74774772879988 0 0 0 0 181.37401892694106 -85.602322728511979 0 -85.602322728511979 -79.54537772935555 0 0 0 0 447.85189250686744 -12.171099504463882 0 -12.171099504463882 -306.82393556879833 0 0 0 0 364.72645740563712 -121.68860157610015 0 -121.68860157610015 -273.39754550222642 0 0 0 0 380.7255272789771 -65.845228144134126 0 -65.845228144134126 -83.467255898115127 0 0 0 0 362.82479498811881 -6.2163715669612429 0 -6.2163715669612429 -198.18224685013956 0 0 0 0 426.45607968313561 25.755776193227575 0 25.755776193227575 -183.70033758551472 0 0 0 0 266.70304968823075 -148.45051428240117 0 -148.45051428240117 -93.428047850236908 0 0 0 0 441.52399771010823 -72.946281372095655 0 -72.946281372095655 -64.858974381222652 0 0 0 0 70.744993573520333 -227.97199671132694 0 -227.97199671132694 -12.03037511823004 0 0 0 0 66.956122515453899 -52.839474454709489 0 -52.839474454709489 -108.99352859259943 0 0 0 0 9.550706606998574 -298.53421317209813 0 -298.53421317209813 -116.30604511613001 0 0 0 0 -41.96876169078314 -164.41206805059346 0 -164.41206805059346 -66.901330470725497 0 0 0 0 -69.222525987959671 -102.4397215055269 0 -102.4397215055269 176.21874923425594 0 0 0 0 -56.062009338173084 -27.922395137952066 0 -27.922395137952066 229.36667723460687 0 0 0 0 200.57125681968319 -113.44759560139937 0 -113.44759560139937 -176.33229198601521 0 0 0 0 48.603304309267116 -36.860236184819996 0 -36.860236184819996 27.11523924885018 0 0 0 0 178.51067709372546 18.012455776854097 0 18.012455776854097 -72.688737676116943 0 0 0 0 423.94580790305918 155.79956440960086 0 155.79956440960086 1.7196300012637948 0 0 0 0 31.973004583713788 -23.815722416389228 0 -23.815722416389228 18.385965174993579 0 0 0 0 -40.230708878043515 -147.79296431269313 0 -147.79296431269313 257.25310574838295 0 0 0 0 423.894135951637 73.149088161063034 0 73.149088161063034 -72.253340565988765 0 0 0 0 283.49697638895304 -597.18306526786432 0 -597.18306526786432 1552.6587614711152 0 0 0 0 51.794081406747864 -9.9245137397706458 0 -9.9245137397706458 665.03652089776006 0 0 0 0 11.199292346745324 -8.2142131796241742 0 -8.2142131796241742 8.0025998315230122 0 0 0 0 50.689469801691303 -107.29027559660722 0 -107.29027559660722 273.56568277653787 0 0 0 0 -42.540075773813442 -28.293932701124277 0 -28.293932701124277 513.10772368311427 0 0 0 0 -76.256155116330774 -147.58071395039269 0 -147.58071395039269 326.68962267277311 0 0 0 0 -73.895902606113737 -79.758543924834669 0 -79.758543924834669 315.39060965591761 0 0 0 0 -69.499529580341914 -271.24311895507674 0 -271.24311895507674 331.37623016493762 0 0 0 0 44.765208246055408 -498.60176574353136 0 -498.60176574353136 243.13058094802 0 0 0 0 -76.4599511603883 -276.09290602003762 0 -276.09290602003762 454.02123510800084 0 0 0 0 -26.485235754516907 -364.88617311034795 0 -364.88617311034795 606.96939860932412 0 0 0 0 37.939870165591856 -339.47495537253872 0 -339.47495537253872 496.95126326806894 0 0 0 0 47.061954660413903 -537.14255215904905 0 -537.14255215904905 646.46665118961209 0 0 0 0 570.78837173846841 -782.42875046276185 0 -782.42875046276185 532.85202023358033 0 0 0 0 562.26701763064557 -420.3217829910609 0 -420.3217829910609 592.38594908566301 0 0 0 0 219.59416377487287 -681.15333166365963 0 -681.15333166365963 1110.0058266619471 0 0 0 0 548.18568096085846 -383.5099843102368 0 -383.5099843102368 64.812363389966777 0 0 0 0 306.91468055372388 -280.27885403324626 0 -280.27885403324626 23.365339791492715 0 0 0 0 307.14253826132676 -128.35547051283376 0 -128.35547051283376 167.48207307655412 0 0 0 0 -40.858859047984879 -140.55938114889886 0 -140.55938114889886 266.30639556028336 0 0 0 0 -39.984805491571024 -139.39935376654512 0 -139.39935376654512 191.26091775161035 0 0 0 0 150.59856554136059 -198.03709450359202 0 -198.03709450359202 211.30991519130475 0 0 0 0 -9.2312585524668975 -256.47997029883709 0 -256.47997029883709 120.48700281374022 0 0 0 0 -89.050938566069817 -435.80537553841987 0 -435.80537553841987 185.90554661835995 0 0 0 0 -46.825630794417521 -269.08498654860068 0 -269.08498654860068 202.8978176042308 0 0 0 0 -278.67022583531798 -598.82797927543015 0 -598.82797927543015 -93.261182741976313 0 0 0 0 221.08392298038234 -360.27208677538783 0 -360.27208677538783 -64.013399167151874 0 0 0 0 233.30729970402899 -302.80547916047362 0 -302.80547916047362 148.85921691449994 0 0 0 0 -351.56796734152886 -1805.6052575550184 0 -1805.6052575550184 -1476.3938945301943 0 0 0 0 222.71938804231468 -903.91677804404526 0 -903.91677804404526 -310.11834604861906 0 0 0 0 -1092.4983093738192 -1340.1973843100563 0 -1340.1973843100563 -380.7374035683788 0 0 0 0 -866.86412063739408 -1743.9602476770006 0 -1743.9602476770006 338.82017588164672 0 0 0 0 -2187.4520402777489 -1452.1344797365537 0 -1452.1344797365537 360.91357323384 0 0 0 0 -1314.7931438893938 -785.94753589733682 0 -785.94753589733682 -265.60826171216468 0 0 0 0 -412.42869411813444 -814.57430804192063 0 -814.57430804192063 -135.42626025868526 0 0 0 0 -636.71998354683456 -584.19242507151375 0 -584.19242507151375 -95.334215979002693 0 0 0 0 -1176.2769919493439 -962.9329265833403 0 -962.9329265833403 -111.62604640585914 0 0 0 0 -526.00240327372558 -574.2579886294418 0 -574.2579886294418 -11.851673678356747 0 0 0 0 -27.17650078709994 -478.46886418465374 0 -478.46886418465374 -157.8869065171184 0 0 0 0 185.00442947010379 -706.6478670633719 0 -706.6478670633719 83.36805472089145 0 0 0 0 -33.435627140243014 -380.9235019064281 0 -380.9235019064281 -84.341952252452757 0 0 0 0 -413.23685251559073 -701.96134800432992 0 -701.96134800432992 -112.60764882774129 0 0 0 0 -617.17074494723056 -670.83337516736538 0 -670.83337516736538 167.028768566699 0 0 0 0 66.355750628816168 -358.70316886280034 0 -358.70316886280034 121.18721014358925 0 0 0 0 -658.98840250801004 -558.51217313781217 0 -558.51217313781217 -162.28317012015759 0 0 0 0 -248.05260651552817 -853.06163550867404 0 -853.06163550867404 -131.45510703981927 0 0 0 0 -925.34679330913059 -986.01493296947046 0 -986.01493296947046 -279.1975543780818 0 0 0 0 -1610.6805334619421 -870.83884310025314 0 -870.83884310025314 -130.91019606233658 0 0 0 0 -1122.0142337441794 -786.03763134756628 0 -786.03763134756628 -260.12971503242807 0 0 0 0 -1601.0900362779576 -1114.1906945716578 0 -1114.1906945716578 -167.58437345428683 0 0 0 0 -1014.7325844035222 -963.96419389075527 0 -963.96419389075527 -155.78554089055251 0 0 0 0 -624.6591511244842 -626.57238607062391 0 -626.57238607062391 -88.641642190184939 0 0 0 0 621.4401796063903 -690.87552785754133 0 -690.87552785754133 8.6819663657406636 0 0 0 0 549.62974036481683 -550.0799192456584 0 -550.0799192456584 -254.99853068551056 0 0 0 0 410.20917729246321 -616.12825491009835 0 -616.12825491009835 372.65258335158433 0 0 0 0 436.31720121765466 -685.91573034511703 0 -685.91573034511703 187.31122973132733 0 0 0 0 155.67920543964283 -607.65529374562539 0 -607.65529374562539 172.21802118181949 0 0 0 0 28.905971490159573 -489.8632154201905 0 -489.8632154201905 -14.437471246149471 0 0 0 0 211.53003639032249 -670.02044092560664 0 -670.02044092560664 -184.12967795115037 0 0 0 0 28.345002980568097 -525.48367012345443 0 -525.48367012345443 278.33223670849657 0 0 0 0 1558.4039291892332 -416.2713479347849 0 -416.2713479347849 -274.19027813071625 0 0 0 0 0.24505772013546157 -2.9395801173507721 0 -2.9395801173507721 -0.92908823324139433 0 0 0 0 337.49659492172941 -590.28039823270956 0 -590.28039823270956 -110.15830034371265 0 0 0 0 -1219.3331382377914 -653.87485061831069 0 -653.87485061831069 103.62195692095156 0 0 0 0 279.95877263068542 -705.36398576378679 0 -705.36398576378679 -117.71418756938147 0 0 0 0 141.04724246769911 -322.6900409516029 0 -322.6900409516029 -185.74944189619237 0 0 0 0 568.37037483586755 -531.57905326922628 0 -531.57905326922628 -46.139147175660582 0 0 0 0 608.30646629455441 -716.32404527570725 0 -716.32404527570725 -292.67511771285035 0 0 0 0 693.26079308980479 -598.48044983950331 0 -598.48044983950331 -221.56843697534168 0 0 0 0 833.24710841433262 -672.13254617753228 0 -672.13254617753228 684.85029968961317 0 0 0 0 550.2284261729219 -828.11215687777803 0 -828.11215687777803 636.22555227692669 0 0 0 0 557.41931982416008 -587.07409692923432 0 -587.07409692923432 626.17264759098907 0 0 0 0 575.66946041150368 -757.36739497542044 0 -757.36739497542044 658.58208594258758 0 0 0 0 727.52531473226554 -660.39939300749029 0 -660.39939300749029 295.85345320811439 0 0 0 0 623.34395597781986 -665.37699561993213 0 -665.37699561993213 0.55234938862531635 0 0 0 0 606.76993297009176 -591.95622507041116 0 -591.95622507041116 306.32523333308563 0 0 0 0 346.08480570731626 -491.67347001181861 0 -491.67347001181861 225.09586596722511 0 0 0 0 454.90905857514736 -771.99289566669631 0 -771.99289566669631 603.01651372302877 0 0 0 0 558.34360267083684 -729.34291803723499 0 -729.34291803723499 226.84350883975441 0 0 0 0 629.61267989512999 -436.07404952781326 0 -436.07404952781326 86.072886978150564 0 0 0 0 -205.70718470762222 -429.74917596265186 0 -429.74917596265186 230.58588585072539 0 0 0 0 0.15404936367967537 -9.2444960445064055 0 -9.2444960445064055 -1.2919238602663938 0 0 0 0 530.01510400486893 -477.0711786050623 0 -477.0711786050623 -349.26446022350501 0 0 0 0 -402.62864531844389 -500.40449498727412 0 -500.40449498727412 -81.647187963718352 0 0 0 0 -690.21560442161717 -1424.1625356996265 0 -1424.1625356996265 10.068685722326336 0 0 0 0 -1766.1034308758603 -920.09542216894829 0 -920.09542216894829 162.46265354908974 0 0 0 0 -0.058965384687926115 -5.4808634980147133 0 -5.4808634980147133 -0.37781634452612423 0 0 0 0 -82.241875952822738 -840.00945525271891 0 -840.00945525271891 295.60482220424547 0 0 0 0 -62.55332965785783 -827.09740005261119 0 -827.09740005261119 -91.197401223245834 0 0 0 0 195.7548754739546 -1068.4490887330376 0 -1068.4490887330376 68.038957026420121 0 0 0 0 401.7638117779934 -851.21272466932533 0 -851.21272466932533 -692.13739978580634 0 0 0 0 682.04119421435462 -1455.0357294680534 0 -1455.0357294680534 96.976300191812129 0 0 0 0 1744.1618697045656 -901.82153469166997 0 -901.82153469166997 23.58308100469003 0 0 0 0 601.19463204983003 -881.84301727527713 0 -881.84301727527713 421.58710812696518 0 0 0 0 366.38498596400314 -867.34439119184026 0 -867.34439119184026 532.71992297232464 0 0 0 0 405.82786398527969 -759.92498035156586 0 -759.92498035156586 817.29026861926832 0 0 0 0 638.40940204579965 -1068.5540191322179 0 -1068.5540191322179 489.53945922393905 0 0 0 0 348.93619655549264 -772.18611279796892 0 -772.18611279796892 194.86207430307695 0 0 0 0 394.19433716165076 -1260.5235419704441 0 -1260.5235419704441 -177.75980234292729 0 0 0 0 196.13131161745696 -893.2885475796902 0 -893.2885475796902 -250.74295987422556 0 0 0 0 -40.801264377223561 -393.6039052260312 0 -393.6039052260312 -904.79543151506823 0 0 0 0 -724.32271421153564 -1058.1684780853866 0 -1058.1684780853866 -993.81836371978716 0 0 0 0 193.4796192890999 -676.15954293270579 0 -676.15954293270579 -1444.4916419157307 0 0 0 0 -230.92382601636928 -1259.7133992042 0 -1259.7133992042 -30.264402095548576 0 0 0 0 -153.62004271438127 -1073.2352935002923 0 -1073.2352935002923 344.83123991880348 0 0 0 0 -0.67633694608366568 -8.3363186248133871 0 -8.3363186248133871 -2.5837572948064533 0 0 0 0 107.46664772482472 58.933273302038288 0 58.933273302038288 -2093.0602469144351 0 0 0 0 -40.732580405776389 -989.10006281303322 0 -989.10006281303322 -1619.0754524278491 0 0 0 0 -191.74846797285136 -798.98433012480382 0 -798.98433012480382 -1501.0028418343063 0 0 0 0 2.4934601623499475 -106.01275276510751 0 -106.01275276510751 -655.59715327537924 0 0 0 0 2.3023223255026721 -2.0341027109923715 0 -2.0341027109923715 -2.6099144549370976 0 0 0 0 583.98139369596538 -1152.8557497750753 0 -1152.8557497750753 1080.4184327394541 0 0 0 0 220.36822858957748 214.90597033278937 0 214.90597033278937 -83.25596148273371 0 0 0 0 590.06025246415811 -671.46970722601964 0 -671.46970722601964 1048.1543532467622 0 0 0 0 -925.13339738801005 -1157.444419729487 0 -1157.444419729487 -1274.2285715579801 0 0 0 0 -1597.1524529217422 -277.04601629366152 0 -277.04601629366152 261.44236072201693 0 0 0 0 -3.5499148721467009 -9.9521560688605888 0 -9.9521560688605888 10.820901396571951 0 0 0 0 6.0046115786031891 -20.618507203851436 0 -20.618507203851436 21.683473035326642 0 0 0 0 -21.997669934702571 -23.612673247185739 0 -23.612673247185739 12.73281421498541 0 0 0 0 -1170.0799524050672 -908.69037051270425 0 -908.69037051270425 -336.38762088504154 0 0 0 0 -703.22883487500076 -729.1248865425132 0 -729.1248865425132 -564.81968204790246 0 0 0 0 -1434.4580768774686 -1043.3303305692543 0 -1043.3303305692543 -311.60471897340904 0 0 0 0 -1146.9546174042407 -829.89665126911677 0 -829.89665126911677 -202.86585234236918 0 0 0 0 -418.24002754942921 -897.4479287924587 0 -897.4479287924587 -500.4704679995366 0 0 0 0 -15.014799665572355 -779.40494957757983 0 -779.40494957757983 -149.51304380487545 0 0 0 0 -353.32505370813305 -635.38176888589715 0 -635.38176888589715 -159.90668827163427 0 0 0 0 -280.27505244770146 -1210.3898812653424 0 -1210.3898812653424 -352.95940361215435 0 0 0 0 -413.7431680772861 -996.78055284817401 0 -996.78055284817401 -567.9606186107776 0 0 0 0 -565.05470430759306 -1347.4331136650981 0 -1347.4331136650981 -955.21661546395808 0 0 0 0 -1036.2596224389381 -427.75354776825588 0 -427.75354776825588 -765.46513951089582 0 0 0 0 -406.45454331936344 -934.60832215360824 0 -934.60832215360824 -201.34306171040589 0 0 0 0 13.673891689206357 -1201.4111715350027 0 -1201.4111715350027 -105.29225901871314 0 0 0 0 -623.87844339305593 -919.55548376760544 0 -919.55548376760544 137.34165968170601 0 0 0 0 -526.96512549759063 -1290.154955235892 0 -1290.154955235892 859.31610038014696 0 0 0 0 -388.16975859980448 -369.41123437626266 0 -369.41123437626266 925.41764636101118 0 0 0 0 339.35128525413165 1297.0016803752183 0 1297.0016803752183 2271.9077665482218 0 0 0 0 0.14878880103823633 -3.4932816410422021 0 -3.4932816410422021 20.266567234941135 0 0 0 0 829.01703068288043 -1444.7421772624439 0 -1444.7421772624439 822.00006369824496 0 0 0 0 -680.72768360373448 -452.08278505298085 0 -452.08278505298085 228.30533534592905 0 0 0 0 -176.24485912060481 -382.57529108118069 0 -382.57529108118069 118.21406535976894 0 0 0 0 -2.2760079658185361 -20.488280548487126 0 -20.488280548487126 47.087982446498025 0 0 0 0 122.55634468224162 20.046262852545624 0 20.046262852545624 242.79102970873055 0 0 0 0 -5.1001983456638982 -27.11418700804375 0 -27.11418700804375 -3.741658146984344 0 0 0 0 -112.26833487404656 -28.836793628697478 0 -28.836793628697478 756.59800842540426 0 0 0 0 -241.03926528338343 277.92499976864747 0 277.92499976864747 731.67064559293226 0 0 0 0 -623.99721208860865 393.8619686171769 0 393.8619686171769 1781.1877095434018 0 0 0 0 -284.75323045260302 259.53103184660904 0 259.53103184660904 1831.2616004796355 0 0 0 0 -615.30447787391313 205.94049129978248 0 205.94049129978248 1474.813819757137 0 0 0 0 -123.57350410369691 -362.79774470603525 0 -362.79774470603525 2053.9755114831969 0 0 0 0 -763.41650338537875 267.64783948705008 0 267.64783948705008 3324.0886355470857 0 0 0 0 -483.75391068618046 -2225.4239785391906 0 -2225.4239785391906 2713.9496647113883 0 0 0 0 419.2344142727452 -293.19817693089726 0 -293.19817693089726 180.28194303767668 0 0 0 0 -9.7368892880614908 -16.00500669592315 0 -16.00500669592315 -2.5497666192091981 0 0 0 0 -55.572187561585451 -593.10039466291505 0 -593.10039466291505 -290.05556891128413 0 0 0 0 325.4907534787344 -378.55326038925432 0 -378.55326038925432 241.49560951762942 0 0 0 0 157.90804359369213 -728.65042067551144 0 -728.65042067551144 979.94938187015237 0 0 0 0 -481.23253618497984 -266.4244134220566 0 -266.4244134220566 2137.6236542210913 0 0 0 0 -3.0863474073594155 -3.9369457081888299 0 -3.9369457081888299 3.3719917121409893 0 0 0 0 -3.8379148559568712 -21.729345192773735 0 -21.729345192773735 12.133071032214282 0 0 0 0 -8.6165163001132896 -32.675794455957657 0 -32.675794455957657 17.885525863889143 0 0 0 0 515.71014684219699 -311.49812357665132 0 -311.49812357665132 121.69392598892955 0 0 0 0 473.43663254479179 -330.18704043332309 0 -330.18704043332309 192.4527234350121 0 0 0 0 509.37181483930181 -456.00761880038112 0 -456.00761880038112 270.28081416811074 0 0 0 0 1276.5542213876324 -356.16565294310294 0 -356.16565294310294 -6.4492436700629696 0 0 0 0 622.0975232450437 -329.84844982663617 0 -329.84844982663617 15.713007080347779 0 0 0 0 229.91785780133796 -715.48483702020803 0 -715.48483702020803 159.27683709379289 0 0 0 0 713.14989564215284 -512.96109021955181 0 -512.96109021955181 25.457724547899488 0 0 0 0 212.61314168407989 -687.30142293549898 0 -687.30142293549898 235.01166736337564 0 0 0 0 467.11535803819424 -576.29295196560088 0 -576.29295196560088 38.452407497342165 0 0 0 0 309.00049500892055 -644.42126277487478 0 -644.42126277487478 262.80006327006959 0 0 0 0 -144.91723199444823 -824.35585671824174 0 -824.35585671824174 109.37920141223367 0 0 0 0 -526.17643250095716 -709.70098777286876 0 -709.70098777286876 263.89375933493739 0 0 0 0 209.46036586172704 -458.94814825029243 0 -458.94814825029243 201.7992072923862 0 0 0 0 -285.14137154538184 -567.57174091719503 0 -567.57174091719503 241.02721325474158 0 0 0 0 307.01288924945402 -957.76684648493074 0 -957.76684648493074 174.76788166467986 0 0 0 0 192.51299604904489 -940.84104557787487 0 -940.84104557787487 1048.0347242082416 0 0 0 0 312.42313566515804 -428.10938222587083 0 -428.10938222587083 558.81609932813626 0 0 0 0 -475.68122861768643 -1844.4522276638777 0 -1844.4522276638777 1334.4160823127613 0 0 0 0 -0.54601435216210348 -1.0250717970845216 0 -1.0250717970845216 -0.63915337334403333 0 0 0 0 1460.0579172897742 1931.5804238595476 0 1931.5804238595476 -65.27986834172043 0 0 0 0 140.28861159051667 -2245.9379187046375 0 -2245.9379187046375 -518.78363194980216 0 0 0 0 -586.61935342816287 -1455.3111781191997 0 -1455.3111781191997 166.5789354453245 0 0 0 0 -510.65540826604411 -1498.305319126426 0 -1498.305319126426 -328.40575946474564 0 0 0 0 -1213.5326022510999 -762.9224211105593 0 -762.9224211105593 -72.246244461657625 0 0 0 0 -741.33466222618881 -1383.1702302598947 0 -1383.1702302598947 -639.85800450994054 0 0 0 0 -693.14087326273147 -1193.3676361444518 0 -1193.3676361444518 -284.08382626032039 0 0 0 0 -2889.6575327170285 -1713.0166680866323 0 -1713.0166680866323 -243.04709790848801 0 0 0 0 -1385.8578868247896 -1231.5583781644359 0 -1231.5583781644359 -607.41585064292258 0 0 0 0 -3861.6637638969842 -1454.4789821679824 0 -1454.4789821679824 385.90318895938026 0 0 0 0 -374.15625974102295 -539.12848050678167 0 -539.12848050678167 -41.133113872534295 0 0 0 0 -872.84453657318954 -1087.5801412272722 0 -1087.5801412272722 97.936164033837485 0 0 0 0 1.9109009656240232 -548.32851319996439 0 -548.32851319996439 284.84423328284061 0 0 0 0 3.4959032996706583 -11.23794347019944 0 -11.23794347019944 1.8379276520762353 0 0 0 0 2779.7446147567971 -1330.9942342438949 0 -1330.9942342438949 463.26219674021331 0 0 0 0 -0.79679306840989739 -1939.7922664417279 0 -1939.7922664417279 727.05849650126174 0 0 0 0 -209.98014153349504 -1544.8919879930636 0 -1544.8919879930636 -98.572518001985372 0 0 0 0 11.547108716200455 -1727.7318450681657 0 -1727.7318450681657 51.211351073787228 0 0 0 0 -17.727594602188219 -1526.9419870764091 0 -1526.9419870764091 76.293938448390691 0 0 0 0 -727.3572329878225 -504.12378420578261 0 -504.12378420578261 216.76120005281155 0 0 0 0 -535.30068512742582 -1795.0568428702454 0 -1795.0568428702454 335.69626210858905 0 0 0 0 -1115.4226925052208 -1367.6908696316334 0 -1367.6908696316334 364.77179226780572 0 0 0 0 -193.32617305812892 -1327.2195746231737 0 -1327.2195746231737 346.00851717322939 0 0 0 0 -115.37849832877873 -1175.222672439083 0 -1175.222672439083 51.397503511436298 0 0 0 0 -163.94349449685797 -984.38041867158961 0 -984.38041867158961 206.11746177900204 0 0 0 0 -34.7066766926946 -902.18721127185972 0 -902.18721127185972 242.51376890499705 0 0 0 0 168.44390400580596 -1058.0643594872263 0 -1058.0643594872263 79.859635553798853 0 0 0 0 120.94243850005296 -1221.8938983665535 0 -1221.8938983665535 -422.2869999508639 0 0 0 0 388.71624457048165 -630.14720075659216 0 -630.14720075659216 -72.618674831627686 0 0 0 0 242.47201827412573 -1630.2882400122751 0 -1630.2882400122751 -1211.7720774367335 0 0 0 0 2.6349457356627681 -1925.527761543764 0 -1925.527761543764 -266.31708531126651 0 0 0 0 267.47441729542334 -1463.0588892550077 0 -1463.0588892550077 -93.277940577377194 0 0 0 0 -128.07014261320001 -877.90568820252156 0 -877.90568820252156 -292.83640239861461 0 0 0 0 120.63472287973855 -377.77047954761838 0 -377.77047954761838 -827.15914468346091 0 0 0 0 1773.5473200411507 -707.15017551131132 0 -707.15017551131132 -1373.3928632348416 0 0 0 0 1066.4802988789161 -938.92438456459604 0 -938.92438456459604 -1350.990717352819 0 0 0 0 -1.9828400688603409 -6.9667634608281332 0 -6.9667634608281332 -5.5081968817910081 0 0 0 0 0.05166344700314069 -72.127326052032018 0 -72.127326052032018 119.4057126445914 0 0 0 0 1220.6548276026879 -32.22081691791891 0 -32.22081691791891 -775.50318475616587 0 0 0 0 -359.6364758026175 -980.08059208246959 0 -980.08059208246959 646.87613692592458 0 0 0 0 -487.42034837505344 -519.99192049654516 0 -519.99192049654516 837.05956998202964 0 0 0 0 282.72374328056321 -877.70158560052823 0 -877.70158560052823 532.13618551120089 0 0 0 0 241.39905816488317 -424.0295002526218 0 -424.0295002526218 335.42032831099232 0 0 0 0 0.27173494124144781 -72.333606344367581 0 -72.333606344367581 119.32310575758311 0 0 0 0 -6.2094921793840996 -12.734972423202066 0 -12.734972423202066 -9.3991459806926088 0 0 0 0 505.31516709258722 -357.14985382910254 0 -357.14985382910254 -12.52342331419004 0 0 0 0 465.14050413430959 -506.01118657899497 0 -506.01118657899497 87.493429933858351 0 0 0 0 367.39287411642727 -958.74892494545111 0 -958.74892494545111 -491.69407589927323 0 0 0 0 -5.6536404211892659 -7.5728514067990034 0 -7.5728514067990034 -5.9724232887552589 0 0 0 0 845.58422658902418 -493.76117004716252 0 -493.76117004716252 -272.22806875403239 0 0 0 0 -97.099145742089604 -396.41265759164889 0 -396.41265759164889 868.01923476794764 0 0 0 0 576.93828552274135 -197.91447656737773 0 -197.91447656737773 257.66776969714374 0 0 0 0 113.85000832933292 -404.61197384716979 0 -404.61197384716979 138.20499840056982 0 0 0 0 475.77906674810856 -209.80020013608964 0 -209.80020013608964 99.495106056758232 0 0 0 0 330.0257144679781 -172.75307791127398 0 -172.75307791127398 267.40900567132599 0 0 0 0 318.32130259635596 -444.1601869083571 0 -444.1601869083571 256.52406211478228 0 0 0 0 541.6731566232047 -205.6360551082671 0 -205.6360551082671 495.34142311829964 0 0 0 0 267.16520213441981 -159.84485631623284 0 -159.84485631623284 -78.502524007064494 0 0 0 0 393.44739192540146 -539.66406643009486 0 -539.66406643009486 -554.16848526358626 0 0 0 0 -187.26856460390263 -440.44755098300993 0 -440.44755098300993 -1054.7575027466191 0 0 0 0 146.79486734089733 -981.59073976984928 0 -981.59073976984928 -388.91410679822548 0 0 0 0 -1433.9270176393329 -1690.6998411052264 0 -1690.6998411052264 -110.19240843954867 0 0 0 0 -311.39834345431882 -1447.2117460639984 0 -1447.2117460639984 -57.379302098209337 0 0 0 0 3040.9593340613355 -1736.90900565437 0 -1736.90900565437 959.41172614461175 0 0 0 0 -97.664164383386378 -1790.6315963571687 0 -1790.6315963571687 494.0522879604323 0 0 0 0 3097.0961503799044 -1822.843149679471 0 -1822.843149679471 475.04200417622269 0 0 0 0 836.98131195252063 -324.76393308363549 0 -324.76393308363549 72.179132754157763 0 0 0 0 1124.3763609643356 -393.18903627814416 0 -393.18903627814416 1321.729948013759 0 0 0 0 703.95541095745284 -907.35025336848594 0 -907.35025336848594 704.49087190428691 0 0 0 0 839.98427238977456 -639.83164271595979 0 -639.83164271595979 684.24540217586764 0 0 0 0 1695.9872495176678 -1453.9124109004297 0 -1453.9124109004297 1243.5994508542651 0 0 0 0 1556.0493909893848 -245.04615910884422 0 -245.04615910884422 2.2572305617848087 0 0 0 0 1526.5256155896463 -904.23430910434411 0 -904.23430910434411 349.25839670955975 0 0 0 0 -0.035512310533649227 -6.4083224880168643 0 -6.4083224880168643 2.5022176632368698 0 0 0 0 -3434.4513561979984 -752.95982232985079 0 -752.95982232985079 341.50668625291655 0 0 0 0 -5.8152915222360662 -3.0577489740813633 0 -3.0577489740813633 4.7380733904414853 0 0 0 0 3762.6541858122509 -589.21064333132199 0 -589.21064333132199 45.449120951801888 0 0 0 0 -1839.7701294166254 -652.89198053267774 0 -652.89198053267774 -387.18570585654015 0 0 0 0 -1645.9432088707035 -938.5487324233718 0 -938.5487324233718 -165.90028330088171 0 0 0 0 -34.286793470411794 -25.129933109125886 0 -25.129933109125886 13.266643091997139 0 0 0 0 1.8824178338651834 -17.803254023049504 0 -17.803254023049504 6.8567028673728814 0 0 0 0 1275.6121454516924 -364.59544428466904 0 -364.59544428466904 24.747625805339339 0 0 0 0 -1.0693200043036768 -9.1512604492472462 0 -9.1512604492472462 14.593954754098391 0 0 0 0 739.28952395530359 -563.60705823779972 0 -563.60705823779972 217.09512711034222 0 0 0 0 757.80341638023674 -778.6508687523974 0 -778.6508687523974 180.34883896822885 0 0 0 0 322.77721286588348 -566.15379496980859 0 -566.15379496980859 320.04639934047555 0 0 0 0 398.84489753221715 -462.13677082099821 0 -462.13677082099821 442.77459472634291 0 0 0 0 678.27861792591284 -806.57818860304906 0 -806.57818860304906 737.55916609974793 0 0 0 0 558.1941687340659 -1207.3979987632572 0 -1207.3979987632572 1237.0708388352014 0 0 0 0 1349.3538906476533 -852.30936763380566 0 -852.30936763380566 242.41982494912952 0 0 0 0 2.382818577186427 2.1904142155647968 0 2.1904142155647968 2.2791230922656789 0 0 0 0 325.23018500758189 -439.43556214677528 0 -439.43556214677528 450.41126033873297 0 0 0 0 975.05633328661497 -272.55260240104474 0 -272.55260240104474 261.86069794998639 0 0 0 0 370.62309108778572 24.968711645857184 0 24.968711645857184 -1751.2492407326001 0 0 0 0 653.46817515892326 -518.02805237125767 0 -518.02805237125767 436.55276760459356 0 0 0 0 -4.7202571562958155 -0.6324801026902378 0 -0.6324801026902378 -0.77961198768218454 0 0 0 0 457.84671003854601 -857.10663625068128 0 -857.10663625068128 286.32443304618982 0 0 0 0 937.56449213811356 -593.63813557121284 0 -593.63813557121284 -656.44036986712217 0 0 0 0 613.27023701962025 -178.44739887721335 0 -178.44739887721335 -426.32062463666762 0 0 0 0 628.36281817008421 -278.78268329571256 0 -278.78268329571256 -245.27117101647718 0 0 0 0 670.33416598441181 -497.13729190418917 0 -497.13729190418917 -129.36981206780911 0 0 0 0 413.14815254819405 -265.41544174954765 0 -265.41544174954765 195.72735102194133 0 0 0 0 727.4090849818167 -644.23803070744543 0 -644.23803070744543 241.78079649919073 0 0 0 0 439.50300777166558 -259.07965397609678 0 -259.07965397609678 32.566346979234027 0 0 0 0 287.87321291128319 -227.78067963366357 0 -227.78067963366357 26.755239327139861 0 0 0 0 622.80165880788991 -202.96760235188231 0 -202.96760235188231 -57.92440900884958 0 0 0 0 86.025287831533205 -117.56462290188279 0 -117.56462290188279 -315.95476371669048 0 0 0 0 18.160646872845717 -9.8300668846077208 0 -9.8300668846077208 -10.416358401645041 0 0 0 0 315.95827236628975 -265.42632896260011 0 -265.42632896260011 109.42957631682748 0 0 0 0 176.21546206971107 4.698361079481856 0 4.698361079481856 -158.89598029611989 0 0 0 0 453.13119401595759 -378.06359167513688 0 -378.06359167513688 509.46687685924348 0 0 0 0 -553.56876584311067 116.29222653166971 0 116.29222653166971 118.24045802886667 0 0 0 0 -173.68338606350153 105.53129008574047 0 105.53129008574047 117.86830118081207 0 0 0 0 153.76276117767702 48.225694834942715 0 48.225694834942715 22.358742682515413 0 0 0 0 7.1056934185419749 -6.0120634524544183 0 -6.0120634524544183 -6.3254467223331261 0 0 0 0 147.77875907619273 -223.44420807290118 0 -223.44420807290118 -22.2676792577995 0 0 0 0 -30.605193109143954 -64.693530748874309 0 -64.693530748874309 -30.413520321750269 0 0 0 0 0.81835390400146935 -284.49096509974822 0 -284.49096509974822 -4.8425711257696094 0 0 0 0 -334.34304553409311 -249.21914755890748 0 -249.21914755890748 -41.250880924510966 0 0 0 0 -25.570390087814303 -95.945563905650033 0 -95.945563905650033 -18.098606467707214 0 0 0 0 103.49785771442839 -148.83471323020876 0 -148.83471323020876 2.4184946492323434 0 0 0 0 111.4735160944183 -104.99201984450201 0 -104.99201984450201 75.964285543857841 0 0 0 0 -42.807171968229724 -60.267830456204749 0 -60.267830456204749 -17.880791582372979 0 0 0 0 -34.41485951692448 -67.829290002579 0 -67.829290002579 -31.029415393695672 0 0 0 0 -31.994072699038952 -42.577479728917751 0 -42.577479728917751 -7.9646766337318695 0 0 0 0 13.528898452576996 -41.021033308084967 0 -41.021033308084967 -43.576617498875748 0 0 0 0 43.689053604728542 -32.574005725342431 0 -32.574005725342431 -57.87464714498492 0 0 0 0 79.380905804391659 -103.24964463563447 0 -103.24964463563447 -120.15403302330378 0 0 0 0 -2.8707180528859624 -3.9242385186015047 0 -3.9242385186015047 -6.3485762940309431 0 0 0 0 108.18117305428132 -174.13533183844038 0 -174.13533183844038 38.007293970607861 0 0 0 0 342.9125747336002 -205.57691053665167 0 -205.57691053665167 -241.78656470472197 0 0 0 0 450.08726662293338 -389.71564509834752 0 -389.71564509834752 -28.054719016968193 0 0 0 0 521.30285669634395 -514.54654452039631 0 -514.54654452039631 -46.675913733583002 0 0 0 0 559.2371319423255 -462.49171032290997 0 -462.49171032290997 2.4655514207479428 0 0 0 0 1148.0947018940933 387.37567673890021 0 387.37567673890021 -918.80454556037557 0 0 0 0 937.59487140911369 -299.78443760201435 0 -299.78443760201435 -227.31433962759786 0 0 0 0 679.56274821893749 -751.87625570371665 0 -751.87625570371665 -172.03328277603578 0 0 0 0 693.75234106306016 -610.8088831040227 0 -610.8088831040227 -615.32444795406218 0 0 0 0 565.06405892683688 -551.51794415705444 0 -551.51794415705444 516.41118869944239 0 0 0 0 656.09298703727109 -778.23149150601512 0 -778.23149150601512 137.44114158514822 0 0 0 0 657.50369245469483 -615.90903952823464 0 -615.90903952823464 8.2045566251990749 0 0 0 0 642.87337711400323 -623.11192817145911 0 -623.11192817145911 50.24473293774281 0 0 0 0 416.29807169790001 -542.17444372935097 0 -542.17444372935097 175.44666031453926 0 0 0 0 706.504245560649 -698.8235842747772 0 -698.8235842747772 82.870994178545516 0 0 0 0 605.56327760676504 -346.94019381200269 0 -346.94019381200269 -111.33334252127327 0 0 0 0 775.89596958736729 -626.8363813384849 0 -626.8363813384849 58.230163736105169 0 0 0 0 1248.9301044893 -543.01190046380907 0 -543.01190046380907 -76.504608223768173 0 0 0 0 309.02909914231532 -43.864651746147047 0 -43.864651746147047 122.99707634879451 0 0 0 0 -134.27350631131412 -35.94371389938533 0 -35.94371389938533 124.40042928244134 0 0 0 0 472.61093941249055 -435.00770973381464 0 -435.00770973381464 -53.933703520620838 0 0 0 0 66.055864318303065 -192.88182593162969 0 -192.88182593162969 -26.389618519706801 0 0 0 0 90.661679877764982 -247.23085802294736 0 -247.23085802294736 77.960492363930825 0 0 0 0 344.6717849852721 -434.69528690438727 0 -434.69528690438727 324.18064540790215 0 0 0 0 160.43509219140833 -153.71356604219056 0 -153.71356604219056 38.458525010302623 0 0 0 0 541.34858407704269 -434.68327272677607 0 -434.68327272677607 -27.930196245493789 0 0 0 0 15.905017091170521 -83.802774269019665 0 -83.802774269019665 12.77869795094557 0 0 0 0 -9.9053335021573901 -61.013153998989516 0 -61.013153998989516 16.650458069898477 0 0 0 0 -66.330499108240474 -143.44149943573348 0 -143.44149943573348 235.38344385468281 0 0 0 0 33.647588737527258 -83.164853682706962 0 -83.164853682706962 69.966945141736232 0 0 0 0 45.100765541661531 -8.7429918878769968 0 -8.7429918878769968 -199.54840272801221 0 0 0 0 -1.0758478738143822 -5.1265540733207295 0 -5.1265540733207295 -4.5902905572342778 0 0 0 0 92.74367111481115 -103.33056405677826 0 -103.33056405677826 -182.49561970248305 0 0 0 0 -26.735364124893721 -46.497738592500646 0 -46.497738592500646 -44.841911785699004 0 0 0 0 -14.332215198061022 -79.272838573735498 0 -79.272838573735498 -42.165978526481922 0 0 0 0 40.876799052697606 -121.11605440645144 0 -121.11605440645144 -5.0674566990419407 0 0 0 0 19.336010772763871 -3.0078106378680189 0 -3.0078106378680189 -11.875364992813983 0 0 0 0 13.394121199738322 -66.753066609486751 0 -66.753066609486751 -18.229552474701038 0 0 0 0 -10.480545733607869 -89.070989421827107 0 -89.070989421827107 -59.596112016701227 0 0 0 0 -13.438849726698209 -82.43870183252784 0 -82.43870183252784 -70.287303371493181 0 0 0 0 50.754877424322331 -43.659720042939625 0 -43.659720042939625 -263.76015878363432 0 0 0 0 2.8386318919967124 -5.1265762623970197 0 -5.1265762623970197 -1.613176072989436 0 0 0 0 147.28926952377151 -184.20465088654873 0 -184.20465088654873 898.43410790508551 0 0 0 0 -15.867714247404365 -46.654872193624215 0 -46.654872193624215 -58.398000405647053 0 0 0 0 365.27102816618572 -367.33910429254593 0 -367.33910429254593 548.05879121697399 0 0 0 0 15.52999840452685 -38.46129089918486 0 -38.46129089918486 -65.744495841568096 0 0 0 0 4.0494154755659224 -9.9045000589551702 0 -9.9045000589551702 -6.6977102845259004 0 0 0 0 -17.066173957959109 -44.200130761269975 0 -44.200130761269975 -28.176275696485845 0 0 0 0 -19.411202425863522 -23.16519268248026 0 -23.16519268248026 -27.033123754488624 0 0 0 0 -309.83241969470691 -605.71522770882984 0 -605.71522770882984 2025.4558006686611 0 0 0 0 509.11486806892208 -816.46770643928176 0 -816.46770643928176 -2236.4089730933988 0 0 0 0 13.98403153555671 -10.255693708718308 0 -10.255693708718308 1.5999150191778111 0 0 0 0 -134.57646004616254 19.60513649230802 0 19.60513649230802 1440.6386784526476 0 0 0 0 99.528468467469793 -82.473421791441979 0 -82.473421791441979 207.84321151191921 0 0 0 0 129.36337125493083 -93.052356516837335 0 -93.052356516837335 49.737366659388954 0 0 0 0 -13.666313355897728 -89.179857032092514 0 -89.179857032092514 143.85126422843791 0 0 0 0 -33.926554431076511 -31.159490702350695 0 -31.159490702350695 9.9150154604033105 0 0 0 0 -15.808985030456 -8.7077057426584332 0 -8.7077057426584332 -4.4733210400517454 0 0 0 0 2.8959617517830338 707.61427967529198 0 707.61427967529198 -261.59300161015381 0 0 0 0 113.99167291452613 -28.93778417240901 0 -28.93778417240901 -1003.676867103718 0 0 0 0 -146.70574497029884 -22.923861610779568 0 -22.923861610779568 -867.01010337979096 0 0 0 0 783.54640211336664 -1938.5566010059574 0 -1938.5566010059574 442.09851705002006 0 0 0 0 -109.13762130195391 -88.278519599803985 0 -88.278519599803985 386.2448886098573 0 0 0 0 -6.5092789663074058 -3.8920288273229389 0 -3.8920288273229389 3.6904327938027102 0 0 0 0 -177.78811218091505 -1083.0781459679442 0 -1083.0781459679442 -962.17074439198404 0 0 0 0 -69.240013432485284 -683.90177982880959 0 -683.90177982880959 47.659555368740257 0 0 0 0 -23.424270178416918 -397.82191115898331 0 -397.82191115898331 -577.8338622803567 0 0 0 0 29.731550868877093 -327.87385597953744 0 -327.87385597953744 -754.82541615570881 0 0 0 0 -133.6911552529964 -172.09136279539825 0 -172.09136279539825 -692.35265483242893 0 0 0 0 272.34993358346401 -257.27273938822782 0 -257.27273938822782 -737.77538145761355 0 0 0 0 125.44981109503715 -403.29692507464551 0 -403.29692507464551 -503.10564597358825 0 0 0 0 231.78271257883171 -394.37093095353339 0 -394.37093095353339 -791.63695745561017 0 0 0 0 177.77215597235772 -544.6578881084879 0 -544.6578881084879 -708.15168646473739 0 0 0 0 230.28859684435884 -651.66290189456549 0 -651.66290189456549 -1190.992024371546 0 0 0 0 161.01957117343409 -387.32654230066146 0 -387.32654230066146 -585.63662861784542 0 0 0 0 269.14719159964443 -403.23603565740541 0 -403.23603565740541 -981.18560020868972 0 0 0 0 168.8807621974338 -185.47667961959496 0 -185.47667961959496 -338.17491977305872 0 0 0 0 166.89907836525163 -389.79479681266002 0 -389.79479681266002 -413.02238929100531 0 0 0 0 317.9585518315871 -286.97362173934198 0 -286.97362173934198 -652.7496149028002 0 0 0 0 247.44938992547395 -329.21027286283152 0 -329.21027286283152 -22.543611419720037 0 0 0 0 211.85442215111834 -377.42117660107033 0 -377.42117660107033 -196.95070908076195 0 0 0 0 159.21315334049268 -204.03265656545534 0 -204.03265656545534 81.852972965158187 0 0 0 0 288.31343507073689 -60.437703482527013 0 -60.437703482527013 -1829.5738937312472 0 0 0 0 -232.18450145806128 -216.69236171267357 0 -216.69236171267357 -846.04150420032329 0 0 0 0 300.64920012460789 -350.36143867305509 0 -350.36143867305509 -1095.241567121328 0 0 0 0 111.92468105265289 -646.24451679792583 0 -646.24451679792583 -1103.6101462754013 0 0 0 0 183.43084828418796 -364.30086016955829 0 -364.30086016955829 -998.84473507236817 0 0 0 0 148.47768138552055 -266.43793570338676 0 -266.43793570338676 -556.1492759145076 0 0 0 0 239.87273632305732 -132.24656104230098 0 -132.24656104230098 32.351426079001612 0 0 0 0 435.61918991839775 -505.25047727825677 0 -505.25047727825677 -296.28325080267768 0 0 0 0 -9.4522071157771279 -247.85377014758342 0 -247.85377014758342 -440.35138906794236 0 0 0 0 330.1965299462172 -158.83016043697353 0 -158.83016043697353 -319.75342785828889 0 0 0 0 81.655830250959298 -677.44509439037847 0 -677.44509439037847 -357.3672749001089 0 0 0 0 193.05943863598986 -439.53027179808623 0 -439.53027179808623 -195.49132123146046 0 0 0 0 123.4955129405862 -457.03856803577901 0 -457.03856803577901 380.90200609450039 0 0 0 0 475.90263453053194 -659.15643723890571 0 -659.15643723890571 494.28373867703522 0 0 0 0 623.52280736525336 -973.86359733663232 0 -973.86359733663232 1145.5150455474868 0 0 0 0 143.05110322783003 -281.3030784800203 0 -281.3030784800203 305.72444758800521 0 0 0 0 738.76710574496383 -94.038621737139806 0 -94.038621737139806 340.77200957782043 0 0 0 0 96.486109811230563 -326.91152914473423 0 -326.91152914473423 1179.1697997382435 0 0 0 0 695.91080580098787 -828.53167123189633 0 -828.53167123189633 532.8656084876784 0 0 0 0 782.17560734919243 -222.76605685537925 0 -222.76605685537925 -9.5085562875137839 0 0 0 0 198.20177556990529 -304.34715922216492 0 -304.34715922216492 345.71998224487834 0 0 0 0 -43.194108614676225 -285.33553783196021 0 -285.33553783196021 511.48295647362283 0 0 0 0 -55.941637784198974 -233.457009019 0 -233.457009019 1272.3676119494603 0 0 0 0 -30.474051880650222 -309.50924536173898 0 -309.50924536173898 1498.29620787555 0 0 0 0 223.00900613417616 277.5108957363409 0 277.5108957363409 376.70810029191489 0 0 0 0 -0.50882651956536051 -8.9999197005081513 0 -8.9999197005081513 -0.035339448077980506 0 0 0 0 -2.1821051411393597 -6.6598136110681168 0 -6.6598136110681168 0.95233140327970389 0 0 0 0 357.90812938927411 -286.97375085044951 0 -286.97375085044951 78.798231570059215 0 0 0 0 122.58506500178919 -315.39974986590005 0 -315.39974986590005 381.41705010884107 0 0 0 0 150.99638109424995 -366.53504203127432 0 -366.53504203127432 364.75093933249991 0 0 0 0 172.31781667367613 -80.227942355945743 0 -80.227942355945743 156.67732942825478 0 0 0 0 112.07639532652684 -420.26812031120244 0 -420.26812031120244 598.29824974420399 0 0 0 0 98.005843486201229 -327.20580478259905 0 -327.20580478259905 443.62602806923678 0 0 0 0 176.08903221477158 -387.7814241930123 0 -387.7814241930123 389.18789320354881 0 0 0 0 334.13302004226716 -527.26291724145631 0 -527.26291724145631 435.21675234340546 0 0 0 0 651.87389393451667 -312.40874807823184 0 -312.40874807823184 218.03854195692429 0 0 0 0 715.97429715238468 -438.06076079130253 0 -438.06076079130253 415.85848881340644 0 0 0 0 691.9659359938878 -71.598646803196061 0 -71.598646803196061 -10.440074317080871 0 0 0 0 778.75917236851092 -311.41226637349791 0 -311.41226637349791 -32.720836034956847 0 0 0 0 1187.8808789503018 -155.18814664761749 0 -155.18814664761749 -36.50860535141328 0 0 0 0 322.15989597973385 -270.58368785208222 0 -270.58368785208222 218.18121348611112 0 0 0 0 434.63764712428383 -242.69401548048882 0 -242.69401548048882 -296.75561319567714 0 0 0 0 354.28170201336616 -114.38202727208659 0 -114.38202727208659 -124.1759605286552 0 0 0 0 663.45857930705097 -274.41103752911295 0 -274.41103752911295 -367.72445068824891 0 0 0 0 683.31117169691515 -73.840299972976311 0 -73.840299972976311 -268.32455427609784 0 0 0 0 795.17151204851325 -263.08571441369759 0 -263.08571441369759 -472.03766824111426 0 0 0 0 358.03835002797132 -504.52871963530356 0 -504.52871963530356 -700.34637717876467 0 0 0 0 463.17383419628459 -73.218826698170687 0 -73.218826698170687 -560.75772772520122 0 0 0 0 43.929541364290344 -310.27485323722885 0 -310.27485323722885 -303.45688116856093 0 0 0 0 716.05137183321983 31.489557063693255 0 31.489557063693255 -78.763713955011553 0 0 0 0 307.93643118310138 -54.150221642404176 0 -54.150221642404176 -91.752958556353406 0 0 0 0 803.79880042445438 -217.21353504491708 0 -217.21353504491708 -232.07329098192076 0 0 0 0 723.94292592595593 -158.54391134310754 0 -158.54391134310754 -275.11539634371002 0 0 0 0 885.45490348801832 12.854271883050387 0 12.854271883050387 -158.84003651647799 0 0 0 0 874.34430469199651 -170.43662732171197 0 -170.43662732171197 -230.35692402559471 0 0 0 0 14.693273128663229 -19.819750198144654 0 -19.819750198144654 4.4305958495553028 0 0 0 0 836.9015924250416 34.856391711103697 0 34.856391711103697 -136.14308003651331 0 0 0 0 785.3898935169891 14.376990720579215 0 14.376990720579215 1.9875631698305369 0 0 0 0 -1001.7902431117618 -345.19033932990669 0 -345.19033932990669 0.65388769175115158 0 0 0 0 1331.5866653218145 240.79424896834644 0 240.79424896834644 -1.715384290913093 0 0 0 0 9.9167175428194412 -16.112607669623927 0 -16.112607669623927 5.2686751235360845 0 0 0 0 1094.7876419292661 -22.044726088203333 0 -22.044726088203333 44.1304499697344 0 0 0 0 -906.48892868370785 -636.91243790260842 0 -636.91243790260842 85.289277468689761 0 0 0 0 325.02200383083982 -10.237492240948995 0 -10.237492240948995 -59.821218323530047 0 0 0 0 393.48086903143121 -40.154571756692349 0 -40.154571756692349 -171.49183031038774 0 0 0 0 0.60493698986632971 -6.2229804089311642 0 -6.2229804089311642 -12.143204852596959 0 0 0 0 -39.703156823510653 -187.64223167014643 0 -187.64223167014643 -431.38197092328846 0 0 0 0 336.62029705115492 -13.05512110105883 0 -13.05512110105883 -101.19509571996969 0 0 0 0 202.82695459930983 -181.929795938815 0 -181.929795938815 -154.77021078935559 0 0 0 0 55.550962866927875 -150.45571043705104 0 -150.45571043705104 -222.80381148477318 0 0 0 0 129.80870399543346 -80.41810924920901 0 -80.41810924920901 -35.91571906495119 0 0 0 0 52.847362150394474 -147.4293574516505 0 -147.4293574516505 -10.232899260141494 0 0 0 0 -582.0216516277651 -57.67462761160732 0 -57.67462761160732 -26.62863592564463 0 0 0 0 -14.157997441688792 -8.4899018272219564 0 -8.4899018272219564 -19.457275070544448 0 0 0 0 0.55246968412393471 -167.05768788977366 0 -167.05768788977366 -94.597646560935573 0 0 0 0 -20.681196037835569 -45.718105307833191 0 -45.718105307833191 -77.806970349579629 0 0 0 0 -542.41637646846357 10.324993114714744 0 10.324993114714744 89.248515746907458 0 0 0 0 -193.87607630388084 -65.016335532240191 0 -65.016335532240191 -135.24258348589865 0 0 0 0 -449.34360844894763 22.433817676282615 0 22.433817676282615 641.00193960803153 0 0 0 0 -636.47376881899982 -301.04969938727845 0 -301.04969938727845 97.189067737170774 0 0 0 0 -402.83322735761521 -984.42981269101688 0 -984.42981269101688 661.8536602568438 0 0 0 0 -2.0362310575754208 2.5226161551122743 0 2.5226161551122743 -2.9432555537439953 0 0 0 0 -332.45976397854974 -248.77161338199858 0 -248.77161338199858 -56.153349695698125 0 0 0 0 -297.54130815260578 -184.64253485399604 0 -184.64253485399604 25.98434144428029 0 0 0 0 -175.26636588141264 -129.56159323856991 0 -129.56159323856991 -277.36806841372163 0 0 0 0 -208.31105490823393 -55.825995779638106 0 -55.825995779638106 9.1772792287729317 0 0 0 0 130.23791117031942 -66.503140459049973 0 -66.503140459049973 -207.82071638106208 0 0 0 0 -289.60180744599347 -270.57455235156522 0 -270.57455235156522 -66.483755844608822 0 0 0 0 -400.18002480390714 -168.29710577076094 0 -168.29710577076094 24.801600664126454 0 0 0 0 -678.26222065335605 -25.969643663072929 0 -25.969643663072929 -43.757318276362639 0 0 0 0 -103.68689813869423 -230.44860181946933 0 -230.44860181946933 -93.511308995972286 0 0 0 0 -489.31277288588899 -541.15224518781724 0 -541.15224518781724 -206.57209625815813 0 0 0 0 1.6145506540962629 -2.1946552846902989 0 -2.1946552846902989 -0.91980014575962876 0 0 0 0 -126.95912849041633 -220.43650276825974 0 -220.43650276825974 -724.93047463577386 0 0 0 0 -625.14804862363962 -461.4541734673403 0 -461.4541734673403 -22.434195225228905 0 0 0 0 -407.15964404906845 -361.06241364150992 0 -361.06241364150992 -74.462996075610135 0 0 0 0 -451.21664845940541 -323.07714940744336 0 -323.07714940744336 -82.136310331798086 0 0 0 0 -440.41688933776459 -408.16736091114944 0 -408.16736091114944 -212.9647987345561 0 0 0 0 -528.17483632345102 -409.66951153411355 0 -409.66951153411355 5.7057185181038221 0 0 0 0 -428.92108606224065 -397.90773951079791 0 -397.90773951079791 -39.740409031415766 0 0 0 0 -432.11604271578835 -391.04145613612491 0 -391.04145613612491 -54.350420621907688 0 0 0 0 -491.5462155569985 -412.77478434015757 0 -412.77478434015757 -44.67953443472652 0 0 0 0 -444.00800191992312 -490.5939252575954 0 -490.5939252575954 -145.69903206763775 0 0 0 0 -266.24277229550353 -361.11610959320387 0 -361.11610959320387 -76.411516110045341 0 0 0 0 -532.4004454773094 -447.15293609130094 0 -447.15293609130094 -20.767793655077185 0 0 0 0 -515.88110497393063 -427.6548495641 0 -427.6548495641 -26.127544496295741 0 0 0 0 -534.55408215330681 -449.5472473382506 0 -449.5472473382506 7.1207519380368467 0 0 0 0 -568.68312815602985 -431.37745466203705 0 -431.37745466203705 -2.4946735625344445 0 0 0 0 -113.86713257995143 -336.58105782380517 0 -336.58105782380517 -88.705861894046393 0 0 0 0 32.53764933385537 -304.4319379262688 0 -304.4319379262688 -150.91866479930104 0 0 0 0 -302.89956318556506 -258.49268319205112 0 -258.49268319205112 -48.38530472047205 0 0 0 0 -338.55151746298361 -405.58737119054058 0 -405.58737119054058 -77.063022436581377 0 0 0 0 -194.93865394573368 -417.0584797653155 0 -417.0584797653155 -116.80638897171593 0 0 0 0 -39.664556967356475 -242.5719523011594 0 -242.5719523011594 -80.372378165623559 0 0 0 0 437.25444440396677 -92.668239036094747 0 -92.668239036094747 -169.38200532476185 0 0 0 0 61.973799254963524 -196.39835044807546 0 -196.39835044807546 -45.059876068815356 0 0 0 0 335.07358525817108 -132.14757065428967 0 -132.14757065428967 -170.9851156382847 0 0 0 0 301.72142461248586 -40.761690566696643 0 -40.761690566696643 -116.62103509482768 0 0 0 0 -16.818830094128117 -48.18611293840614 0 -48.18611293840614 -73.065303029407701 0 0 0 0 544.97869723475742 -77.635145512074359 0 -77.635145512074359 -17.104582053527338 0 0 0 0 -1033.9938555995104 -285.60776160292335 0 -285.60776160292335 600.85683295617309 0 0 0 0 135.12786108507862 -378.3258768622477 0 -378.3258768622477 -1369.3033588982635 0 0 0 0 158.95692144393979 -561.46393659146815 0 -561.46393659146815 -620.78010569622984 0 0 0 0 -0.08010349343960943 -3.8388321311918787 0 -3.8388321311918787 -4.8597921122269696 0 0 0 0 327.41654591344013 -0.61647654193757262 0 -0.61647654193757262 108.84064969971223 0 0 0 0 -24.588371213134359 -47.983266966207118 0 -47.983266966207118 -75.761429927811051 0 0 0 0 254.30725328196058 -292.44969561221706 0 -292.44969561221706 -200.91751945217038 0 0 0 0 29.902868348392076 -77.96825967424229 0 -77.96825967424229 12.575938572855193 0 0 0 0 -20.522836686200208 -16.756191728258997 0 -16.756191728258997 -5.6696867947842335 0 0 0 0 81.013445760643663 -198.3041185332354 0 -198.3041185332354 -40.13221280748985 0 0 0 0 30.87427291502371 -4.6831716099376379 0 -4.6831716099376379 -7.723586203328729 0 0 0 0 175.95860675923177 -153.74876297984156 0 -153.74876297984156 -906.41952926879821 0 0 0 0 128.86653997321264 -128.24004553953318 0 -128.24004553953318 -180.27091594974263 0 0 0 0 33.594322486387682 -285.11625637727047 0 -285.11625637727047 -19.931408308031678 0 0 0 0 119.26016716529557 -325.15388954775017 0 -325.15388954775017 -164.24634879665791 0 0 0 0 175.7206294239877 -241.40886710377708 0 -241.40886710377708 -468.94967793022079 0 0 0 0 6.2944831535132835 -104.34822760969496 0 -104.34822760969496 70.888936543036834 0 0 0 0 20.010136361593538 -2.7165388174073684 0 -2.7165388174073684 -3.3037816655888577 0 0 0 0 108.31622924377734 -15.315453325458293 0 -15.315453325458293 -105.86633261726729 0 0 0 0 -9.8246910239759018 -349.71256968057924 0 -349.71256968057924 495.11697911935516 0 0 0 0 65.250571831493289 29.227842704198338 0 29.227842704198338 -214.75935103501524 0 0 0 0 8.7044204683083422 -4.1717693461507963 0 -4.1717693461507963 -2.5345529688675263 0 0 0 0 209.08445052507523 -190.1586435371064 0 -190.1586435371064 -193.01994792632468 0 0 0 0 273.48778860874154 -130.68160935365813 0 -130.68160935365813 -44.863963743086515 0 0 0 0 -288.12145069285179 -257.11195167083133 0 -257.11195167083133 -71.109049665049497 0 0 0 0 -38.283413179407944 -4.8100635022274218 0 -4.8100635022274218 -200.60941729762635 0 0 0 0 -358.452323568672 -238.79448524474992 0 -238.79448524474992 -45.304601895935775 0 0 0 0 -398.62557129291963 -214.05859061974297 0 -214.05859061974297 37.97748906230845 0 0 0 0 -595.67495988463634 -332.34111639259208 0 -332.34111639259208 68.214390370323599 0 0 0 0 -525.27014106359547 -303.7060654117131 0 -303.7060654117131 59.847056074599095 0 0 0 0 -174.32543905446073 152.44246914120595 0 152.44246914120595 290.55577647445898 0 0 0 0 -319.80378674500389 -122.24185866844346 0 -122.24185866844346 182.78280171207007 0 0 0 0 -534.38155795126386 -200.19418849013675 0 -200.19418849013675 189.52222061638895 0 0 0 0 -85.992923540004995 -85.280184911123797 0 -85.280184911123797 28.593614151250222 0 0 0 0 -88.211869229393415 -93.803932300645329 0 -93.803932300645329 84.280023183891899 0 0 0 0 529.43233322770902 -485.0927507645697 0 -485.0927507645697 419.601820734184 0 0 0 0 137.81111196940765 -17.329338833318616 0 -17.329338833318616 -135.66426474251784 0 0 0 0 357.01721105758043 -47.429971622988887 0 -47.429971622988887 1.5184632700620568 0 0 0 0 254.0023171587236 -336.84383133236224 0 -336.84383133236224 142.4743216700283 0 0 0 0 -0.41707702634576549 -3.3225339575473498 0 -3.3225339575473498 2.2577812150002003 0 0 0 0 -54.554607548576314 -104.5497300262723 0 -104.5497300262723 82.513527280447306 0 0 0 0 -6.4175278883832902 -12.832693564935994 0 -12.832693564935994 -9.5015825425770899 0 0 0 0 81.893003218308877 -79.717464395549996 0 -79.717464395549996 157.61987988122564 0 0 0 0 -33.130727141229727 -33.970482126543175 0 -33.970482126543175 -46.463545821210573 0 0 0 0 -13.205278650544642 0.69660469063182973 0 0.69660469063182973 -6.9997065808674961 0 0 0 0 168.36560752087098 -74.876917689125548 0 -74.876917689125548 -55.497652548581755 0 0 0 0 133.41327926969461 -171.99569848118563 0 -171.99569848118563 12.905889749679773 0 0 0 0 -21.627910383614761 -14.652708749716297 0 -14.652708749716297 -0.47727431509214568 0 0 0 0 61.620351344376104 -134.74432438488657 0 -134.74432438488657 43.090356421853357 0 0 0 0 12.306389420714737 -6.0587379447479606 0 -6.0587379447479606 -11.203720368981287 0 0 0 0 592.65611534110212 -497.91434319783912 0 -497.91434319783912 445.79724527156213 0 0 0 0 644.12411263525428 -699.32105038014743 0 -699.32105038014743 498.30376917403191 0 0 0 0 656.48134350590408 -469.19416413494127 0 -469.19416413494127 68.127551360932557 0 0 0 0 689.71384258840408 -598.22590076881716 0 -598.22590076881716 415.95012993214823 0 0 0 0 644.25912408556906 -583.11059019967252 0 -583.11059019967252 422.89463301941942 0 0 0 0 742.31619089037122 -643.41645316995891 0 -643.41645316995891 37.307306834347401 0 0 0 0 766.29056008957377 -939.68424397529202 0 -939.68424397529202 835.63377194370332 0 0 0 0 118.24196640055743 23.578293329257576 0 23.578293329257576 128.1144243865856 0 0 0 0 5.4389715813986186 -3.956421183645773 0 -3.956421183645773 -7.2262888949443322 0 0 0 0 606.56481790889666 -689.96222068403949 0 -689.96222068403949 812.46628350477113 0 0 0 0 830.55647575759212 -629.14254235212138 0 -629.14254235212138 -404.9967063184813 0 0 0 0 823.92325488137431 -654.54717104628617 0 -654.54717104628617 -272.23082618900298 0 0 0 0 759.00442941112487 -578.53482573040333 0 -578.53482573040333 -118.61916045878388 0 0 0 0 748.99083205861098 -538.21251258488701 0 -538.21251258488701 -9.6709346728448509 0 0 0 0 722.22104497581313 -649.55893883707267 0 -649.55893883707267 -215.28337955792085 0 0 0 0 585.17709009149985 -374.45570601971576 0 -374.45570601971576 -33.442897340701165 0 0 0 0 811.4070549520693 -527.54431839780409 0 -527.54431839780409 -227.11491660272623 0 0 0 0 651.8665764524485 -456.32746115882765 0 -456.32746115882765 -41.57411227612829 0 0 0 0 823.82327769877156 -698.8469911672837 0 -698.8469911672837 -392.02023187002033 0 0 0 0 758.06335671088891 -545.92822301724482 0 -545.92822301724482 -707.2092962106799 0 0 0 0 804.41367706794699 -481.99448636211946 0 -481.99448636211946 -519.84884920823242 0 0 0 0 816.76978293537104 -682.28083175767915 0 -682.28083175767915 -284.3560924002486 0 0 0 0 603.38591254075436 -662.73527019561516 0 -662.73527019561516 -632.57305448870102 0 0 0 0 50.457477479489171 -391.92346445411386 0 -391.92346445411386 -606.52897655018023 0 0 0 0 150.42262351890531 -757.26195977984753 0 -757.26195977984753 -803.5356494565749 0 0 0 0 436.05248214944731 -395.12255448810174 0 -395.12255448810174 -535.93581744746734 0 0 0 0 654.46157065493389 -413.86096323411766 0 -413.86096323411766 -619.51961728060269 0 0 0 0 440.32516667456366 -401.30362892281482 0 -401.30362892281482 -311.96331847915644 0 0 0 0 454.8791022473597 -75.410902268882637 0 -75.410902268882637 -119.9524068333194 0 0 0 0 79.806350764803938 107.10427631193124 0 107.10427631193124 -15.357652136401157 0 0 0 0 435.45205557675035 -215.71792911941611 0 -215.71792911941611 -601.51891220285324 0 0 0 0 496.4173605600663 -436.3938527233986 0 -436.3938527233986 -826.20359288817781 0 0 0 0 2.3770865459676997 -0.28857298748313553 0 -0.28857298748313553 -3.0227161317137217 0 0 0 0 -170.26781244015729 -399.51764791264577 0 -399.51764791264577 -1036.9184292065474 0 0 0 0 -4.4239206739007386 -4.0854741681182531 0 -4.0854741681182531 -3.7278644186109915 0 0 0 0 -778.58170422038529 -288.61456964979516 0 -288.61456964979516 204.94764657246742 0 0 0 0 -450.83857200888451 -29.445823869173182 0 -29.445823869173182 335.50736046225211 0 0 0 0 -811.43632845924003 -288.1726768885419 0 -288.1726768885419 261.41064642887068 0 0 0 0 -771.23943580896594 -388.27868619131914 0 -388.27868619131914 147.86389283312565 0 0 0 0 -708.39875147006387 -409.79038923784901 0 -409.79038923784901 33.074043849177542 0 0 0 0 -1076.9529225604201 -695.55605181965439 0 -695.55605181965439 -28.622395041627897 0 0 0 0 -575.70987778334529 -865.79628011914065 0 -865.79628011914065 -1016.3190353955979 0 0 0 0 -735.35491236321104 -874.72850642876256 0 -874.72850642876256 -804.84593061966279 0 0 0 0 -885.02239659754923 -48.329965045418248 0 -48.329965045418248 -548.30646065950714 0 0 0 0 -424.39209837878298 -515.81326501893818 0 -515.81326501893818 -507.01387621239701 0 0 0 0 -125.09243153693387 -592.4942853800876 0 -592.4942853800876 -533.83951788357354 0 0 0 0 -482.98643917404843 -439.98239051871496 0 -439.98239051871496 -507.99881202584584 0 0 0 0 -1.6376949480108465 -1.8482052184178883 0 -1.8482052184178883 -3.1926199900790664 0 0 0 0 132.23020530926442 -93.601219124702766 0 -93.601219124702766 -9.6719052450498566 0 0 0 0 42.38678959623212 -184.56773958504982 0 -184.56773958504982 -481.82969894997257 0 0 0 0 89.835674247668067 -60.885217355752502 0 -60.885217355752502 148.71182580224558 0 0 0 0 720.88667376988451 -265.11294103730324 0 -265.11294103730324 85.859886384291713 0 0 0 0 664.38794721923477 -195.8989515986832 0 -195.8989515986832 -5.8954021759418538 0 0 0 0 518.64231359391124 -436.91331584904947 0 -436.91331584904947 193.03829900985147 0 0 0 0 959.45066994562512 -592.45872441535175 0 -592.45872441535175 -60.888323656832654 0 0 0 0 1213.9077397215005 -447.94591300944376 0 -447.94591300944376 72.737768705212147 0 0 0 0 1144.307062441876 -1077.0243437279441 0 -1077.0243437279441 560.26868912467762 0 0 0 0 777.98306153641897 -653.0381720678397 0 -653.0381720678397 224.81933569283501 0 0 0 0 653.66832828163751 -669.4024828206966 0 -669.4024828206966 -760.88647715475736 0 0 0 0 674.16751962766011 -870.00406492011302 0 -870.00406492011302 -274.16350398712166 0 0 0 0 213.97306899845626 -723.70216007768761 0 -723.70216007768761 -78.759556838467688 0 0 0 0 851.04569850734333 -907.36022321560404 0 -907.36022321560404 -67.385842329455045 0 0 0 0 835.51352978633076 -675.66237094089774 0 -675.66237094089774 -282.02310908692743 0 0 0 0 767.75753137405991 -723.1397956179444 0 -723.1397956179444 -73.375374214867406 0 0 0 0 750.87608423559868 -838.07516037010555 0 -838.07516037010555 362.81852731957315 0 0 0 0 913.92899271751958 -1018.5457561011121 0 -1018.5457561011121 168.13384700061215 0 0 0 0 747.7322810125479 -676.03818683045756 0 -676.03818683045756 708.91745640604495 0 0 0 0 749.16953855082102 -749.74476896434862 0 -749.74476896434862 23.492950384124924 0 0 0 0 672.31081781160901 -697.3263597351779 0 -697.3263597351779 293.43429352772546 0 0 0 0 850.07736459202715 -718.07532766312215 0 -718.07532766312215 -276.28954735575462 0 0 0 0 241.00414222727704 -48.529981332878378 0 -48.529981332878378 -206.40691919174606 0 0 0 0 153.58614235302957 -141.86526339501143 0 -141.86526339501143 -151.94271467191265 0 0 0 0 461.70092639077484 -237.53257608772674 0 -237.53257608772674 -123.15407299213257 0 0 0 0 231.08821258918033 -32.568554646126358 0 -32.568554646126358 -158.02701615681872 0 0 0 0 142.29607400157693 -156.29361976771133 0 -156.29361976771133 -39.637743796987706 0 0 0 0 -45.199227097386824 -68.175121308509262 0 -68.175121308509262 -40.898941731105523 0 0 0 0 54.986403478425927 -225.21610410756784 0 -225.21610410756784 -77.283770406776966 0 0 0 0 184.70695208775578 -162.48032037554549 0 -162.48032037554549 44.456603477614408 0 0 0 0 -175.5788237619563 -31.752535726795031 0 -31.752535726795031 101.67775629728567 0 0 0 0 -21.862422073358658 -17.166907606438755 0 -17.166907606438755 -9.0979784357134861 0 0 0 0 181.81176878631049 -213.13955419446961 0 -213.13955419446961 68.040843819131624 0 0 0 0 -2.6680616138719699 -35.144331978811415 0 -35.144331978811415 -2.072457066123043 0 0 0 0 109.49103236655523 -62.556277593613174 0 -62.556277593613174 -81.819190650076962 0 0 0 0 -263.7198958634981 133.12582957639461 0 133.12582957639461 -131.68794312896534 0 0 0 0 293.72635550949599 -239.57314958971108 0 -239.57314958971108 20.566994587999034 0 0 0 0 209.63092809126101 -373.77677922552994 0 -373.77677922552994 -129.70180251410056 0 0 0 0 354.7566661475721 -15.430503744133603 0 -15.430503744133603 -126.3933703190778 0 0 0 0 316.96745881062816 -373.19632884890234 0 -373.19632884890234 177.64136301192957 0 0 0 0 14.46256281232877 -15.051894692440086 0 -15.051894692440086 -22.62204417376655 0 0 0 0 608.18350388856925 -157.27172159326437 0 -157.27172159326437 -164.01422775722676 0 0 0 0 -242.89960004473687 -317.87486308426742 0 -317.87486308426742 -62.123760422724445 0 0 0 0 33.305766513622075 -256.15911670281184 0 -256.15911670281184 -280.58643099602705 0 0 0 0 -84.225982714411202 -251.56274672919943 0 -251.56274672919943 -216.7467198304912 0 0 0 0 79.824599589512218 -116.07632478762571 0 -116.07632478762571 109.65351417645979 0 0 0 0 -728.95062804134795 -631.38182124436685 0 -631.38182124436685 -150.56512426486006 0 0 0 0 -392.37448246986605 -472.45580074000827 0 -472.45580074000827 -392.46345784711411 0 0 0 0 -251.35833555240788 -377.44457463701542 0 -377.44457463701542 -227.22793363590972 0 0 0 0 -392.25788355857367 -462.52653949323576 0 -462.52653949323576 -278.33487006218456 0 0 0 0 -81.518434985569911 -286.78866685470894 0 -286.78866685470894 -565.40645803483494 0 0 0 0 -479.40329987017321 0.35876105707211536 0 0.35876105707211536 -925.1388913149076 0 0 0 0 -102.94569628572208 103.58192988268456 0 103.58192988268456 -216.68641936343556 0 0 0 0 -199.8933573182585 -232.09469679493122 0 -232.09469679493122 -749.36433601014869 0 0 0 0 -614.59683177036641 -230.91521179375377 0 -230.91521179375377 -430.80323604569639 0 0 0 0 -147.08692652785976 -43.415602695467896 0 -43.415602695467896 -367.41562248460286 0 0 0 0 -104.95510672316595 -131.33795917787938 0 -131.33795917787938 -421.32049702652512 0 0 0 0 -32.866171410001698 -102.41196438233055 0 -102.41196438233055 -376.78558930524741 0 0 0 0 111.19876852839661 52.314205571256025 0 52.314205571256025 -244.78155982191436 0 0 0 0 159.28310310086817 -67.501388863529428 0 -67.501388863529428 -166.44649199876039 0 0 0 0 34.132375505243544 97.245169324128256 0 97.245169324128256 -230.20479908000925 0 0 0 0 60.646871544682654 30.320421450060167 0 30.320421450060167 -77.401290785241144 0 0 0 0 -116.10646689514397 95.452111734042774 0 95.452111734042774 17.002104486822645 0 0 0 0 -164.637284546101 -124.91777610475765 0 -124.91777610475765 -373.73246845346875 0 0 0 0 1.1281911667765598 132.20305627117943 0 132.20305627117943 -207.67299710443694 0 0 0 0 1.731444165896562 -10.047356925649481 0 -10.047356925649481 -5.4034717179502252 0 0 0 0 40.612852250662399 28.886856344201533 0 28.886856344201533 39.863521272673097 0 0 0 0 27.091613143442373 -53.495772053687688 0 -53.495772053687688 62.231420670529587 0 0 0 0 32.694495499038425 -13.672166269058764 0 -13.672166269058764 3.3124279869267141 0 0 0 0 27.68701006428455 6.4425882919335891 0 6.4425882919335891 -31.53351892963201 0 0 0 0 -7.7012121734733228 47.2633746061083 0 47.2633746061083 -78.099188481985095 0 0 0 0 91.839670031738933 -67.086649448679054 0 -67.086649448679054 -62.095620034247986 0 0 0 0 69.478168254850971 12.149694092327309 0 12.149694092327309 -110.16262548359009 0 0 0 0 72.968708620828693 29.80010347174175 0 29.80010347174175 -134.46998053836433 0 0 0 0 121.79347099252482 -65.022031822893041 0 -65.022031822893041 -79.43432726197716 0 0 0 0 140.79847777218674 -80.672839774969361 0 -80.672839774969361 -75.664627338786886 0 0 0 0 26.351692855991132 -80.780998833812191 0 -80.780998833812191 -52.528853560987045 0 0 0 0 27.421073764493343 -22.372460337136761 0 -22.372460337136761 0.088452606299519232 0 0 0 0 46.745861381568602 -26.660742531286992 0 -26.660742531286992 -0.26475544418076957 0 0 0 0 111.3819473037729 -76.673626050232997 0 -76.673626050232997 -62.718537884647048 0 0 0 0 15.292514265995123 -66.166500466817524 0 -66.166500466817524 -88.759798172864976 0 0 0 0 45.577946239427547 -63.908195569216332 0 -63.908195569216332 -58.801512652795282 0 0 0 0 12.685302049918391 -39.756062972943255 0 -39.756062972943255 -30.572753480933898 0 0 0 0 16.569493755105213 -66.983047245268608 0 -66.983047245268608 26.385944230856694 0 0 0 0 8.9019498541965731 -98.221338812085378 0 -98.221338812085378 64.808982122925954 0 0 0 0 28.469863478945626 -69.854061235270365 0 -69.854061235270365 26.754890084088402 0 0 0 0 -9.1610230033475091 -61.556886186789598 0 -61.556886186789598 47.224612256381079 0 0 0 0 21.399817891368002 -65.848617850762821 0 -65.848617850762821 -6.6353946411982179 0 0 0 0 38.001884335390059 -30.023187870919628 0 -30.023187870919628 -34.357958291016075 0 0 0 0 33.912603619641601 -27.123306016427598 0 -27.123306016427598 17.86362013192096 0 0 0 0 32.295496729646402 -31.807165446190083 0 -31.807165446190083 -19.527533897994545 0 0 0 0 21.113806342458702 -21.458039865359751 0 -21.458039865359751 13.795267803921888 0 0 0 0 16.294713328719212 -11.889007941397352 0 -11.889007941397352 -4.0880103909599583 0 0 0 0 13.99313520180533 -8.6596929735889034 0 -8.6596929735889034 -2.5782299872205741 0 0 0 0 23.469492580137739 -19.623313584345397 0 -19.623313584345397 10.359241191468755 0 0 0 0 22.141629948115252 -11.507459008220049 0 -11.507459008220049 -0.50533923377314416 0 0 0 0 121.18486614782887 -116.81566603993451 0 -116.81566603993451 -54.812653773979036 0 0 0 0 169.48138129003928 -1705.0630582085614 0 -1705.0630582085614 2044.8685475513803 0 0 0 0 997.2911851032186 -1423.5055806957098 0 -1423.5055806957098 2037.6754717048971 0 0 0 0 2117.2200678108929 -2021.3903414768029 0 -2021.3903414768029 2041.932002484702 0 0 0 0 -1259.1241469677188 -1409.5782919162493 0 -1409.5782919162493 2416.1508253046122 0 0 0 0 -9.0805258193418013 -15.874764591499883 0 -15.874764591499883 11.705718086172354 0 0 0 0 12.298693987657316 -19.375407844552683 0 -19.375407844552683 16.548884904157603 0 0 0 0 2.9344396808722877 -9.815661117834523 0 -9.815661117834523 6.1211611075670831 0 0 0 0 8.6749113309149095 -18.762262305727905 0 -18.762262305727905 7.8793101446821154 0 0 0 0 -0.18174523830859357 -0.37157021730690332 0 -0.37157021730690332 -0.12208381341825714 0 0 0 0 -207.3225786890398 -1489.7458399834468 0 -1489.7458399834468 1736.6194420999709 0 0 0 0 2009.0199926617352 -516.18739607831776 0 -516.18739607831776 1884.1291536823337 0 0 0 0 1015.9944909005135 201.49925021292438 0 201.49925021292438 725.62894010142918 0 0 0 0 1093.2993894292449 -1856.005442665446 0 -1856.005442665446 1483.2179149423473 0 0 0 0 2598.5371551090357 -2979.4607883502686 0 -2979.4607883502686 2077.7789232913728 0 0 0 0 451.82700297435076 -1622.627161716824 0 -1622.627161716824 3779.5488765755872 0 0 0 0 3.6849476916921162 -15.173331211917315 0 -15.173331211917315 24.407471255427673 0 0 0 0 -4105.5098823124063 -1253.2564123310867 0 -1253.2564123310867 1984.4721145745143 0 0 0 0 -605.70388275677396 -2559.9572835666486 0 -2559.9572835666486 2284.6908776760101 0 0 0 0 -1763.713230663845 304.97741457749771 0 304.97741457749771 -39.351950039839721 0 0 0 0 4617.009758886752 -1322.6880860357032 0 -1322.6880860357032 371.61863606567204 0 0 0 0 1524.3210067152104 -53.088948689686731 0 -53.088948689686731 -142.29793926247476 0 0 0 0 1349.0037394125684 -1569.5585121930708 0 -1569.5585121930708 1540.2648276345371 0 0 0 0 1294.9481639211954 -1206.6327402464885 0 -1206.6327402464885 1122.4839802822307 0 0 0 0 -249.02304353625641 -209.4751956572145 0 -209.4751956572145 932.35091113895032 0 0 0 0 1502.356192174906 -1707.7870269058949 0 -1707.7870269058949 1457.4755796110894 0 0 0 0 -0.58104792780764569 0.21348905331120704 0 0.21348905331120704 6.0714123400454696 0 0 0 0 -234.2653060282712 126.35219616656485 0 126.35219616656485 31.198009870873648 0 0 0 0 -24.266913133301273 -13.467530212755662 0 -13.467530212755662 -4.2082460425349808 0 0 0 0 -56.871755289757857 -54.963575546022184 0 -54.963575546022184 97.736163804303942 0 0 0 0 648.59013066702573 -878.06997812240797 0 -878.06997812240797 1713.9944730197385 0 0 0 0 -7.2917123102252219 2.7415086125432993 0 2.7415086125432993 16.201687321877621 0 0 0 0 1533.7836609826263 -1720.5570407449904 0 -1720.5570407449904 1409.1025048770243 0 0 0 0 1973.2843846425349 -1505.0121600179677 0 -1505.0121600179677 1209.4627137109856 0 0 0 0 688.2770949423284 -591.23594016047991 0 -591.23594016047991 804.5979238727441 0 0 0 0 596.89091826872755 -557.60889962888291 0 -557.60889962888291 854.65797274158467 0 0 0 0 894.85972681593194 -300.9115694615416 0 -300.9115694615416 753.57310756470542 0 0 0 0 704.00706379713665 -990.53803854768012 0 -990.53803854768012 1302.6849043643997 0 0 0 0 573.72378538247722 -177.31420915739091 0 -177.31420915739091 1690.0461234736722 0 0 0 0 584.86410483007785 -228.92751634189881 0 -228.92751634189881 1315.8045068187894 0 0 0 0 595.23469651363848 171.49461628427525 0 171.49461628427525 1192.6324528037724 0 0 0 0 586.77948660965922 54.812163080830032 0 54.812163080830032 1526.8086352145051 0 0 0 0 749.5139787105727 85.882303814811166 0 85.882303814811166 2232.7467741683504 0 0 0 0 1042.8437737616623 -755.76170441711793 0 -755.76170441711793 2123.1508568244317 0 0 0 0 759.67265900678467 -153.87758205007231 0 -153.87758205007231 1454.2218088103964 0 0 0 0 713.49306121221161 -658.62903182111404 0 -658.62903182111404 1204.8512390254182 0 0 0 0 710.82471841992719 -645.1903461383996 0 -645.1903461383996 2368.5756423937783 0 0 0 0 929.50692880776478 -823.35526459505672 0 -823.35526459505672 862.52597494694783 0 0 0 0 1816.0484094708372 -1038.1442848317965 0 -1038.1442848317965 598.51746827937313 0 0 0 0 1229.2181588979729 -1396.5212508113036 0 -1396.5212508113036 1472.113840154896 0 0 0 0 1355.1935890807072 -959.67786215458182 0 -959.67786215458182 756.8619524725982 0 0 0 0 2187.5580817302107 -2586.8921095959558 0 -2586.8921095959558 3276.9225041651007 0 0 0 0 1063.3563417004916 -607.35123793798994 0 -607.35123793798994 2049.5693688911051 0 0 0 0 1261.9760527029284 -47.568757457516767 0 -47.568757457516767 3624.8417913693047 0 0 0 0 2357.5076920404535 -481.23183487419374 0 -481.23183487419374 2127.5799913762676 0 0 0 0 1186.3829802617547 -1943.4158611193398 0 -1943.4158611193398 4216.4746041132521 0 0 0 0 3732.9039655388187 -1547.0352601412469 0 -1547.0352601412469 -520.4400671676558 0 0 0 0 1128.8338450332812 568.73000466003941 0 568.73000466003941 323.22271281965368 0 0 0 0 9.9209607844924221 -4.7423577452791044 0 -4.7423577452791044 1.5569178410771727 0 0 0 0 1.0631140455730588 -4.9401500585189382 0 -4.9401500585189382 0.35836229866023217 0 0 0 0 984.89445785713906 268.17606792393053 0 268.17606792393053 -170.12593020821805 0 0 0 0 41.477802405599505 184.27469540587481 0 184.27469540587481 -135.68652372952783 0 0 0 0 408.32381876379077 -767.89150489914118 0 -767.89150489914118 2778.4642793044259 0 0 0 0 -52.261146601747896 -734.88518353047857 0 -734.88518353047857 1698.3827798394195 0 0 0 0 1320.095145487212 -626.65065179380872 0 -626.65065179380872 1703.7305313358593 0 0 0 0 223.4270093646046 -1544.4184093021859 0 -1544.4184093021859 2427.259654569898 0 0 0 0 -276.95032409796841 -322.12490041656019 0 -322.12490041656019 984.37984737138504 0 0 0 0 -837.35744781226094 -722.59733708399654 0 -722.59733708399654 1025.8133981677602 0 0 0 0 -546.26440807199106 -808.48651524341676 0 -808.48651524341676 187.10758090598858 0 0 0 0 -515.20746782245988 -694.5042077295584 0 -694.5042077295584 -696.00650791267708 0 0 0 0 17.584442262916127 -111.68426230208979 0 -111.68426230208979 97.074866502074656 0 0 0 0 529.78579238658858 -488.54692775596823 0 -488.54692775596823 162.72549998629256 0 0 0 0 -44.546011306920263 -410.52344050647343 0 -410.52344050647343 1149.3276317705531 0 0 0 0 576.65567257543808 234.54807090608938 0 234.54807090608938 1117.7510526632923 0 0 0 0 1422.6269985665804 -387.67929884479815 0 -387.67929884479815 -53.707045093551642 0 0 0 0 1252.6157110936838 612.1621205842057 0 612.1621205842057 262.5993345173838 0 0 0 0 1228.5383295917636 573.92160118367883 0 573.92160118367883 1354.7548554969235 0 0 0 0 519.74339257381507 -403.6556680322492 0 -403.6556680322492 1474.7403865641013 0 0 0 0 1408.953547954181 -335.65003608414099 0 -335.65003608414099 671.00805282993952 0 0 0 0 568.19855828773143 -243.72459808533858 0 -243.72459808533858 -372.43112463570287 0 0 0 0 565.81357257378841 110.9406026297188 0 110.9406026297188 -178.9243091140379 0 0 0 0 392.92510082424269 -154.49076394441545 0 -154.49076394441545 -74.093522556867356 0 0 0 0 491.18101130542709 -283.52345487383855 0 -283.52345487383855 -337.56274213897086 0 0 0 0 -40.535231430578278 -494.83609005874951 0 -494.83609005874951 -320.27403148255576 0 0 0 0 -553.15162788185989 -463.33774897388867 0 -463.33774897388867 -131.00805606129506 0 0 0 0 -508.78282774014224 -631.98225943109537 0 -631.98225943109537 -196.38268529521338 0 0 0 0 11.502206188721175 -765.24136427057101 0 -765.24136427057101 -286.8903186767111 0 0 0 0 1.3699508763165795 -204.15473857221241 0 -204.15473857221241 103.91212936555712 0 0 0 0 -940.90920463637303 -787.97767798707491 0 -787.97767798707491 -230.26034189235543 0 0 0 0 -628.79843414472816 -622.18598497520611 0 -622.18598497520611 -277.92661612173833 0 0 0 0 -661.57738707780663 -502.71764101775352 0 -502.71764101775352 -151.39091382502011 0 0 0 0 -840.57635754006333 -605.79110389922425 0 -605.79110389922425 -140.86598676383073 0 0 0 0 -1037.6235347793554 -457.60561150125113 0 -457.60561150125113 12.26374300938005 0 0 0 0 -918.57999433694931 -372.18232462816013 0 -372.18232462816013 48.693593891145611 0 0 0 0 -944.6267103542923 -265.9280869144095 0 -265.9280869144095 -165.46045752783903 0 0 0 0 -420.00732776979567 -169.1628748644232 0 -169.1628748644232 -579.58620792105285 0 0 0 0 -384.03376335777284 -295.78537430120195 0 -295.78537430120195 -281.8186317067466 0 0 0 0 -475.65196706365896 -438.38261395192285 0 -438.38261395192285 -233.59889491688227 0 0 0 0 -174.73787937151792 -373.68397908586485 0 -373.68397908586485 -252.39558841503276 0 0 0 0 -555.06380679033464 -366.82033146172762 0 -366.82033146172762 -139.65527715556073 0 0 0 0 348.82076356995094 -130.32296747708142 0 -130.32296747708142 -329.11479415277608 0 0 0 0 12.562993030620419 -286.27412060740721 0 -286.27412060740721 -302.29332751091169 0 0 0 0 -9.1461289637372829 -236.0357346426581 0 -236.0357346426581 -376.99951889835211 0 0 0 0 311.75884959929681 -202.97621059333051 0 -202.97621059333051 -388.36968601362423 0 0 0 0 309.46475390536943 -148.95451033901008 0 -148.95451033901008 -151.11583788701864 0 0 0 0 995.07798286971229 -813.36563498560645 0 -813.36563498560645 284.71921667836796 0 0 0 0 923.24284614061617 -781.06712881469502 0 -781.06712881469502 391.19578400679529 0 0 0 0 1114.8748290468429 -952.73735645812849 0 -952.73735645812849 363.67875665589054 0 0 0 0 1024.7615283033556 -1066.4121505720505 0 -1066.4121505720505 561.31177861605829 0 0 0 0 991.09689317242191 -931.90383739114077 0 -931.90383739114077 538.18850670138636 0 0 0 0 980.69403550819698 -995.63523574392093 0 -995.63523574392093 1093.1563260049879 0 0 0 0 892.73349794603564 -1035.5205615500709 0 -1035.5205615500709 637.77338013899498 0 0 0 0 1230.0681973310784 -586.68001144247319 0 -586.68001144247319 138.74474512910092 0 0 0 0 1460.510745741296 -1108.8653541805379 0 -1108.8653541805379 420.86324887456431 0 0 0 0 1853.4226409267212 -1188.0386070101067 0 -1188.0386070101067 641.10515928013047 0 0 0 0 -2164.0677610889325 -893.95501977337881 0 -893.95501977337881 -45.47019317003469 0 0 0 0 8.4051063324453068 -37.431200449398212 0 -37.431200449398212 54.444237386693842 0 0 0 0 656.60757100024421 -361.45833355359628 0 -361.45833355359628 375.02246220481538 0 0 0 0 849.26742077647941 -198.57020583089979 0 -198.57020583089979 -75.238812156025233 0 0 0 0 883.52062323954306 -625.42102780912865 0 -625.42102780912865 314.49382499305648 0 0 0 0 952.02034004510642 -514.11120692691475 0 -514.11120692691475 72.166801730341831 0 0 0 0 310.47632099647399 -97.511375899387531 0 -97.511375899387531 141.04485434100206 0 0 0 0 284.65166054462043 -393.95589562171801 0 -393.95589562171801 303.8261451587241 0 0 0 0 21.919453213189627 -120.91227379714928 0 -120.91227379714928 149.72088776346936 0 0 0 0 -1331.7673800051052 -707.51834290993793 0 -707.51834290993793 25.442993044523973 0 0 0 0 70.906444680484128 67.812428652621747 0 67.812428652621747 164.38736965249518 0 0 0 0 10.501333635197803 -44.505933937777684 0 -44.505933937777684 60.839273140471128 0 0 0 0 -0.82694146806943536 -1.5128454005224086 0 -1.5128454005224086 2.478908087257409 0 0 0 0 -156.63029306370663 -2.1804824806622491 0 -2.1804824806622491 75.494665684147549 0 0 0 0 -303.51877391025118 226.2521587581773 0 226.2521587581773 52.408408088071155 0 0 0 0 261.57140857839113 -113.06636303846062 0 -113.06636303846062 -102.9079573770905 0 0 0 0 -2.8391957027156707 -2.959147615838063 0 -2.959147615838063 0.33561264563060433 0 0 0 0 -248.99076878358028 -215.74929655664528 0 -215.74929655664528 211.26633499571562 0 0 0 0 604.67723800771637 -443.95304039321127 0 -443.95304039321127 379.78822399193177 0 0 0 0 679.35447280250082 -537.43064923279053 0 -537.43064923279053 413.59685495946542 0 0 0 0 827.0126588078856 -600.71092751092215 0 -600.71092751092215 192.80814718776674 0 0 0 0 698.1663102194434 -598.24812299038967 0 -598.24812299038967 360.42788835111332 0 0 0 0 825.17014621198177 -758.04678266163683 0 -758.04678266163683 481.39282923990868 0 0 0 0 890.1338816326388 -818.66105689409233 0 -818.66105689409233 534.99864888190859 0 0 0 0 619.86029271248844 -518.93721908850785 0 -518.93721908850785 537.27018114918155 0 0 0 0 696.37116221165343 -455.13044058435116 0 -455.13044058435116 622.76106110813998 0 0 0 0 701.97459493613314 -740.73550858260387 0 -740.73550858260387 926.7430793033127 0 0 0 0 494.39940748536901 -700.7148364481036 0 -700.7148364481036 1332.1418385901052 0 0 0 0 1071.4545214133104 -1027.1041966919001 0 -1027.1041966919001 1641.2374864772519 0 0 0 0 2506.0505717114793 -2544.852454069307 0 -2544.852454069307 1553.3771238692279 0 0 0 0 2094.1985798129317 -1569.6801884183515 0 -1569.6801884183515 1383.869833422541 0 0 0 0 2069.152027974982 -1229.183221154999 0 -1229.183221154999 908.49971704729251 0 0 0 0 2826.8343199412411 -797.06636358633659 0 -797.06636358633659 1179.1780540623658 0 0 0 0 2046.7590856765146 -1072.1061383002548 0 -1072.1061383002548 1125.5923659637119 0 0 0 0 1244.4095728638567 -1071.5764326849385 0 -1071.5764326849385 1227.6510409693656 0 0 0 0 1235.4812009902234 -1129.341224929929 0 -1129.341224929929 1023.3547965392718 0 0 0 0 1262.4071729523057 -923.94834832862762 0 -923.94834832862762 793.91836073502782 0 0 0 0 2031.2220555289459 -1047.8169099165789 0 -1047.8169099165789 509.26327748504264 0 0 0 0 951.75490907447966 -1123.9162117879459 0 -1123.9162117879459 1107.1682748713429 0 0 0 0 826.14904476351694 -891.67598101557087 0 -891.67598101557087 723.13066568034264 0 0 0 0 875.03771136733849 -866.38285966250078 0 -866.38285966250078 672.71727133123932 0 0 0 0 838.81425925227268 -1860.1719623026802 0 -1860.1719623026802 1606.1099088140327 0 0 0 0 1988.764133246621 -2236.4653723270749 0 -2236.4653723270749 1173.1133090903822 0 0 0 0 1976.9871317130728 -2296.7903721055991 0 -2296.7903721055991 1547.4914906788108 0 0 0 0 2424.1548315667483 -2108.5351925540308 0 -2108.5351925540308 1211.0637133104392 0 0 0 0 1736.5002759246272 -2412.0884332664755 0 -2412.0884332664755 1760.9758677152277 0 0 0 0 -15353.565573239381 7309.1800936396685 0 7309.1800936396685 -5644.4717349821221 0 0 0 0 -18.919012430407065 -11.323011588211347 0 -11.323011588211347 27.878779781188939 0 0 0 0 4167.0477389284679 -2985.0952432883059 0 -2985.0952432883059 885.65897113796382 0 0 0 0 2422.9269351837552 -3414.9465377458637 0 -3414.9465377458637 2841.9864704566135 0 0 0 0 5917.4398513603201 -2715.5484856641197 0 -2715.5484856641197 515.44762764137704 0 0 0 0 4771.8153158452187 -1014.2107788935245 0 -1014.2107788935245 624.7397684330499 0 0 0 0 2118.5195096346724 -1232.9388549254363 0 -1232.9388549254363 760.7798291743602 0 0 0 0 -2440.3105943721512 2505.2942497377226 0 2505.2942497377226 -2115.5185789889802 0 0 0 0 -1677.3557901209933 -1661.9840374062333 0 -1661.9840374062333 5449.5843540378191 0 0 0 0 -34.813579099614763 -40.234006903799184 0 -40.234006903799184 98.613961494449228 0 0 0 0 -10806.717820456914 -3652.1383033558777 0 -3652.1383033558777 9223.5527249069128 0 0 0 0 1606.1446555823863 -1787.519082042927 0 -1787.519082042927 3483.3658162018728 0 0 0 0 845.56969528908849 -936.0192110921198 0 -936.0192110921198 704.99634790986602 0 0 0 0 1669.6414088085262 -1752.4407226084495 0 -1752.4407226084495 1527.6522153128171 0 0 0 0 77.268660647780052 -983.1919039022323 0 -983.1919039022323 1249.1578269940292 0 0 0 0 485.6686424915697 -889.31882401213443 0 -889.31882401213443 1329.6080713960982 0 0 0 0 193.74061583374714 -127.24186280139838 0 -127.24186280139838 -1143.2173554448345 0 0 0 0 11.44264267411009 -10.862248853699697 0 -10.862248853699697 23.088691332901305 0 0 0 0 124.29554105441184 127.44481131054999 0 127.44481131054999 -418.4320245624258 0 0 0 0 -424.36175273046933 -272.77419789616761 0 -272.77419789616761 281.12261221368681 0 0 0 0 109.48296196790645 -25.497237909538313 0 -25.497237909538313 -90.131132729854897 0 0 0 0 468.77706748012952 -164.29555041063031 0 -164.29555041063031 -380.04060490523989 0 0 0 0 3153.42709332492 -742.38110626338676 0 -742.38110626338676 -2838.5319468593952 0 0 0 0 1555.161238615075 89.146380762080298 0 89.146380762080298 554.32069891158608 0 0 0 0 641.49135887432658 -1830.9715188511182 0 -1830.9715188511182 -1706.2364181611629 0 0 0 0 229.02049312231748 -437.11495093670965 0 -437.11495093670965 -106.13901059840919 0 0 0 0 489.02710880279005 -241.06307824235773 0 -241.06307824235773 -703.94853965038783 0 0 0 0 24.966460303428008 -142.1752741932778 0 -142.1752741932778 -32.644246440875577 0 0 0 0 958.8896407883517 -1787.3984439076776 0 -1787.3984439076776 2260.1267788936093 0 0 0 0 228.32560315955743 245.62255273367919 0 245.62255273367919 -1495.3997637310531 0 0 0 0 -2.3746598889028441 3.7922261353485709 0 3.7922261353485709 -2.6405251219894978 0 0 0 0 -7.4024155499133713 526.41539672519536 0 526.41539672519536 -1275.6857252547998 0 0 0 0 61.262248980034201 65.536024542234372 0 65.536024542234372 -82.542814474172701 0 0 0 0 -15.711694587049209 -11.391655292843907 0 -11.391655292843907 -14.932346577454524 0 0 0 0 46.151498635309011 10.228639259876843 0 10.228639259876843 -99.39620622037819 0 0 0 0 1184.9870373858794 -975.08355974355072 0 -975.08355974355072 492.80603124708432 0 0 0 0 1027.0449742827186 -1081.8116573646184 0 -1081.8116573646184 586.87121971007946 0 0 0 0 884.98862538399408 -832.76692520765209 0 -832.76692520765209 447.3866202910549 0 0 0 0 -39.955526692734011 -54.44366687622253 0 -54.44366687622253 121.93559482466081 0 0 0 0 -1654.9243056477546 -341.966411587724 0 -341.966411587724 922.90724884559313 0 0 0 0 1123.4177453524535 -747.36355504331368 0 -747.36355504331368 440.19726389065545 0 0 0 0 1098.3822438624193 -767.04359768437644 0 -767.04359768437644 424.85438663679997 0 0 0 0 784.82570363851119 -410.05797891006841 0 -410.05797891006841 109.40664594362534 0 0 0 0 709.82612018118198 -850.78501517207474 0 -850.78501517207474 602.35995554855617 0 0 0 0 555.58660774535383 -622.21149229757066 0 -622.21149229757066 354.84358142932251 0 0 0 0 644.33658841600845 -1125.9854518965258 0 -1125.9854518965258 883.61834203076432 0 0 0 0 225.60926954674869 -68.868943392842993 0 -68.868943392842993 139.23655420181967 0 0 0 0 294.39408231206471 -632.23206032913367 0 -632.23206032913367 553.18879838124849 0 0 0 0 35.463460492865124 -91.397824029936601 0 -91.397824029936601 138.79767542373702 0 0 0 0 32.52894863106485 -124.53899616040871 0 -124.53899616040871 130.23623468167807 0 0 0 0 -21.724573048680384 -26.121927968479376 0 -26.121927968479376 5.530100377262599 0 0 0 0 77.618518218794634 -54.613555739490039 0 -54.613555739490039 29.417059416384291 0 0 0 0 51.538338978403772 -60.219563636946987 0 -60.219563636946987 118.58991799826981 0 0 0 0 132.28436684882399 -84.63468003710841 0 -84.63468003710841 48.68842217155543 0 0 0 0 169.28287521585298 -148.69904467910601 0 -148.69904467910601 82.456460777235407 0 0 0 0 10.001494990586174 -22.026427435839565 0 -22.026427435839565 11.568941550857005 0 0 0 0 91.393134333200578 -381.3721735946383 0 -381.3721735946383 573.82542887485397 0 0 0 0 -33.925448557784868 -70.193621133786849 0 -70.193621133786849 113.27271976804352 0 0 0 0 73.027828377555124 -87.816681144704489 0 -87.816681144704489 48.976213254623872 0 0 0 0 -20.471078964509729 -277.91466444902471 0 -277.91466444902471 80.347046283568488 0 0 0 0 110.95032337669321 -41.978400811599563 0 -41.978400811599563 -46.665707603315163 0 0 0 0 86.814534944094703 -76.838421970098807 0 -76.838421970098807 19.706456561361847 0 0 0 0 17.004866878869507 -56.217175703379326 0 -56.217175703379326 52.032258196859402 0 0 0 0 76.276141075519106 -24.708895098328625 0 -24.708895098328625 -70.629270452911015 0 0 0 0 3.7569948846859296 -20.729944155337719 0 -20.729944155337719 4.9110560284656941 0 0 0 0 -93.954578083343222 -47.123153752114376 0 -47.123153752114376 48.375225581406994 0 0 0 0 5.1014244930338464 -57.416631779682575 0 -57.416631779682575 -43.439742562906758 0 0 0 0 -2.7621864157663367 -22.684011325503889 0 -22.684011325503889 10.226873625422741 0 0 0 0 -5.381243118630664 -76.871524298703662 0 -76.871524298703662 21.13056474809855 0 0 0 0 12.345548949742806 -2.8408596866029256 0 -2.8408596866029256 9.8126962407113751 0 0 0 0 14.661243892633138 -11.862166517951664 0 -11.862166517951664 -32.941605647320102 0 0 0 0 -27.257549539594038 -16.021637818375893 0 -16.021637818375893 12.679415944063294 0 0 0 0 1.9730630452177138 21.905830060244625 0 21.905830060244625 -45.841566087361571 0 0 0 0 643.73191961614066 251.14169495452734 0 251.14169495452734 469.98661641388298 0 0 0 0 16.076918076014408 -38.522897498818566 0 -38.522897498818566 -74.939002287759649 0 0 0 0 5.9282755402787108 -11.261299544149075 0 -11.261299544149075 -13.6024070662681 0 0 0 0 29.854977361073537 8.0922690764119523 0 8.0922690764119523 -1.4617858592301793 0 0 0 0 47.698740402596741 -42.295804021507138 0 -42.295804021507138 -157.40492554122466 0 0 0 0 343.34772065143443 -841.05526599497762 0 -841.05526599497762 514.0434586498086 0 0 0 0 131.09817761475279 -941.93053898505059 0 -941.93053898505059 804.41570461499214 0 0 0 0 698.94648559040797 -983.53630672575309 0 -983.53630672575309 570.63509328091459 0 0 0 0 363.79474669946649 -752.58800356430947 0 -752.58800356430947 730.50817595370791 0 0 0 0 -432.34610271334532 -698.19160181418556 0 -698.19160181418556 785.93158003649296 0 0 0 0 6.7787187394839359 -8.8569959937943636 0 -8.8569959937943636 -0.30784549689605001 0 0 0 0 571.22211570659783 -699.89779504666058 0 -699.89779504666058 276.29058820223872 0 0 0 0 58.232268490974093 -457.2024799097353 0 -457.2024799097353 452.26025979025508 0 0 0 0 978.27399491278629 -997.87581163607319 0 -997.87581163607319 320.33942713147553 0 0 0 0 591.45881939090032 -683.85641745493922 0 -683.85641745493922 81.147439794504862 0 0 0 0 257.606592233642 -378.88577657321366 0 -378.88577657321366 304.00364312837155 0 0 0 0 15.699254143033158 -38.527809095670904 0 -38.527809095670904 343.14892861008593 0 0 0 0 0.23777786437482007 -13.957506582233705 0 -13.957506582233705 -11.361756072028768 0 0 0 0 120.61827139548768 -270.62017197557907 0 -270.62017197557907 230.43236445926777 0 0 0 0 -21.25511041079568 -23.686791637046646 0 -23.686791637046646 -16.513589300250786 0 0 0 0 30.138006771936489 -29.553139650430239 0 -29.553139650430239 -47.578668223395653 0 0 0 0 -24.887951851109392 -37.829908143154171 0 -37.829908143154171 -48.765261965032551 0 0 0 0 42.184970642527333 -92.62259900664867 0 -92.62259900664867 19.200685672363761 0 0 0 0 47.638448633799271 -87.681127419775294 0 -87.681127419775294 22.480644779085424 0 0 0 0 40.697498455818277 -64.343723841477185 0 -64.343723841477185 10.82411582349232 0 0 0 0 4.0918328958683503 -3.4628760741558011 0 -3.4628760741558011 -6.7111245502701848 0 0 0 0 -9.8136406985778066 -9.6857461568245284 0 -9.6857461568245284 7.8108516284474092 0 0 0 0 54.536918596713804 -60.249194775100477 0 -60.249194775100477 -48.344327484650421 0 0 0 0 44.146227928969893 -67.577121449925471 0 -67.577121449925471 -49.025317659310531 0 0 0 0 39.331168795157282 -83.337654725710308 0 -83.337654725710308 -30.894800315723842 0 0 0 0 -5.7172866749497189 -44.350126931680279 0 -44.350126931680279 -15.233015639831137 0 0 0 0 39.013422480871668 -90.316187043717946 0 -90.316187043717946 -62.106006045250979 0 0 0 0 23.289868581872724 -65.425247148155904 0 -65.425247148155904 -2.3297715054213768 0 0 0 0 23.351483078833553 -90.663884719178895 0 -90.663884719178895 101.20216978852113 0 0 0 0 49.275886159293805 -46.572401138154419 0 -46.572401138154419 7.4821401811423129 0 0 0 0 35.381012318583089 -69.59355410887656 0 -69.59355410887656 54.334800042963252 0 0 0 0 8.4299522708461154 -4.467531289512408 0 -4.467531289512408 19.840457817485003 0 0 0 0 74.044341958164296 -37.123337809689474 0 -37.123337809689474 -7.6524815221418976 0 0 0 0 -8.7316094335965317 -21.295083200415093 0 -21.295083200415093 -10.31522845238942 0 0 0 0 38.768848971703846 -39.737288194006396 0 -39.737288194006396 -40.648244924363098 0 0 0 0 -356.30925632870276 223.37075838148121 0 223.37075838148121 482.06546285031254 0 0 0 0 1959.2676755492066 -786.97866214932219 0 -786.97866214932219 705.85419414775242 0 0 0 0 6.9238433597602125 -107.7069766409204 0 -107.7069766409204 198.31529275877256 0 0 0 0 -206.94446807155327 -181.95596154178929 0 -181.95596154178929 231.43285957830449 0 0 0 0 -331.56317592491177 348.18981839230401 0 348.18981839230401 118.97624443627501 0 0 0 0 13.820407036811957 231.08090523398459 0 231.08090523398459 -202.87343431291811 0 0 0 0 -47.049481261083969 -67.100410378095049 0 -67.100410378095049 63.99951536374116 0 0 0 0 40.028275322308573 -36.65414115647711 0 -36.65414115647711 20.201200564341747 0 0 0 0 -78.825302836943592 -263.62453337991155 0 -263.62453337991155 -12.272229372042148 0 0 0 0 209.4287486378571 -132.00245602422046 0 -132.00245602422046 -279.61317273731765 0 0 0 0 25.543666826352563 -5.1655456863598381 0 -5.1655456863598381 0.32746355664773574 0 0 0 0 559.72925534739625 168.05945140571384 0 168.05945140571384 -142.51821794287207 0 0 0 0 1587.4985597888081 -217.73540802360185 0 -217.73540802360185 -234.38959412523354 0 0 0 0 932.39241719145502 -688.04768012338172 0 -688.04768012338172 8.7717877199393115 0 0 0 0 1994.3867173191538 -1433.1373374331051 0 -1433.1373374331051 568.05237264480093 0 0 0 0 1777.8874894102482 -1130.4034881843672 0 -1130.4034881843672 168.35507469056756 0 0 0 0 708.6050641634647 -1070.5989840768489 0 -1070.5989840768489 1067.7408905824341 0 0 0 0 307.40173399253399 917.8062200696113 0 917.8062200696113 3258.5925410114305 0 0 0 0 1326.1208493244776 -1698.4648906466609 0 -1698.4648906466609 1666.0970203501201 0 0 0 0 1018.9353150809156 -2015.1919413327123 0 -2015.1919413327123 1324.8522403242059 0 0 0 0 842.63839734079374 -1739.8529443314928 0 -1739.8529443314928 1204.4696567366418 0 0 0 0 1021.1544626762552 -1385.2171648693493 0 -1385.2171648693493 1776.625290188671 0 0 0 0 14.547148969578899 3.7432159010608288 0 3.7432159010608288 2.5482213884696847 0 0 0 0 319.15873563430068 318.4400386001289 0 318.4400386001289 -71.235316208250879 0 0 0 0 1658.754784243516 -503.58696551663616 0 -503.58696551663616 -135.89012904316405 0 0 0 0 1038.2717176029546 292.01154005705939 0 292.01154005705939 -144.08575722665046 0 0 0 0 22.533194491988979 -109.5228885271099 0 -109.5228885271099 -106.22792184621176 0 0 0 0 -65.349599256271176 -56.041747495042728 0 -56.041747495042728 50.30822818339584 0 0 0 0 250.78812278089026 94.161494448435406 0 94.161494448435406 83.603084886462057 0 0 0 0 23.109270136723353 -66.237273790861764 0 -66.237273790861764 76.416130176156003 0 0 0 0 282.63579932689754 -63.728774105853518 0 -63.728774105853518 19.337337034521624 0 0 0 0 47.48309884860646 28.62388408165134 0 28.62388408165134 70.811398048304909 0 0 0 0 392.14815562866352 -58.109956295287702 0 -58.109956295287702 32.116278974932357 0 0 0 0 342.81247674102633 51.061907044160762 0 51.061907044160762 45.098106788524547 0 0 0 0 722.57542319214554 -109.84155071892746 0 -109.84155071892746 -138.51469382880168 0 0 0 0 641.82644546647498 -253.99049838406609 0 -253.99049838406609 -129.80070652294228 0 0 0 0 469.2247406295719 -628.59648693695272 0 -628.59648693695272 105.80560202576271 0 0 0 0 832.94834412827549 -1073.5957341425838 0 -1073.5957341425838 761.58850838648505 0 0 0 0 -38.603475259387778 -236.90690987302878 0 -236.90690987302878 1218.4415458845197 0 0 0 0 -222.96389850769629 -238.68343697399359 0 -238.68343697399359 634.49993913136859 0 0 0 0 132.23300668528282 -527.31535925893786 0 -527.31535925893786 383.91971064417885 0 0 0 0 153.90281049761325 -494.88797292100207 0 -494.88797292100207 269.01753762178123 0 0 0 0 264.93467148841592 -366.68800480455593 0 -366.68800480455593 -228.8066824678026 0 0 0 0 524.43265825312483 -462.22314266524518 0 -462.22314266524518 -298.14148401265629 0 0 0 0 686.52997489321569 -267.96642709544813 0 -267.96642709544813 -178.72704379677089 0 0 0 0 466.56824681176295 -206.54941132989734 0 -206.54941132989734 -739.25274946345598 0 0 0 0 264.21031636000407 -388.9305604856072 0 -388.9305604856072 -236.85794994567459 0 0 0 0 -5.5090941437156289 38.785010327730561 0 38.785010327730561 46.130784622097053 0 0 0 0 302.13048596074441 -237.73380676974375 0 -237.73380676974375 84.617899522323569 0 0 0 0 550.51487849217665 -315.8325452455756 0 -315.8325452455756 -16.912267536488798 0 0 0 0 447.24422373798734 -184.40450097583016 0 -184.40450097583016 -158.50693671537738 0 0 0 0 -2.9953657657263051 -3.4060165939650346 0 -3.4060165939650346 -3.5690369156017852 0 0 0 0 410.4762746203487 -357.4499580538286 0 -357.4499580538286 125.43453387830323 0 0 0 0 347.71016520052217 -357.00244605549597 0 -357.00244605549597 -1015.0899516685031 0 0 0 0 -258.64481225068448 1159.0046132784701 0 1159.0046132784701 -1384.0434072910612 0 0 0 0 251.18358249708581 251.81045709209229 0 251.81045709209229 -32.999947158008581 0 0 0 0 3.4178215509140841 6.7354861160516037 0 6.7354861160516037 -13.473102761830091 0 0 0 0 152.29318562746084 -31.56660423558013 0 -31.56660423558013 -60.275348305432964 0 0 0 0 -404.08585748965743 -68.811258444386112 0 -68.811258444386112 -622.49760206084466 0 0 0 0 321.6111703863171 -471.23072145464903 0 -471.23072145464903 295.38507336685143 0 0 0 0 1401.4673202336708 -1430.893201714629 0 -1430.893201714629 -188.01691622945145 0 0 0 0 987.30091350177827 -1297.3558767088107 0 -1297.3558767088107 -280.79645078157046 0 0 0 0 1611.8628593946669 -2150.7131859554429 0 -2150.7131859554429 815.8276019388577 0 0 0 0 946.13473265892208 -970.47195276351704 0 -970.47195276351704 109.42118746774941 0 0 0 0 476.20436511137632 -215.98113328183172 0 -215.98113328183172 -1243.3217503391643 0 0 0 0 11.166315189552684 -21.858377828787027 0 -21.858377828787027 -0.78330698636766272 0 0 0 0 -41.803467156119041 197.83302431564061 0 197.83302431564061 -414.90378041420627 0 0 0 0 187.58183389902996 -69.308242078113352 0 -69.308242078113352 9.9067252246551618 0 0 0 0 262.13431102311006 -186.11240239310064 0 -186.11240239310064 -44.558249675254046 0 0 0 0 -133.73339911903713 213.86612156183764 0 213.86612156183764 -76.58245329678175 0 0 0 0 814.92108836820989 -622.50606424428406 0 -622.50606424428406 -1709.1332458295456 0 0 0 0 496.40737957959391 1029.0402488691725 0 1029.0402488691725 -2301.9217309088272 0 0 0 0 176.01492159907866 30.740904900700116 0 30.740904900700116 -1280.6096734762177 0 0 0 0 334.39213590495274 -28.079288946399174 0 -28.079288946399174 -392.98161829646415 0 0 0 0 962.86605636022796 -937.44149908829786 0 -937.44149908829786 122.63769911382224 0 0 0 0 528.69373821794397 -1134.0965533813196 0 -1134.0965533813196 2247.3255171188939 0 0 0 0 2646.4390517309039 -592.22731653522351 0 -592.22731653522351 2205.5538483390974 0 0 0 0 -151.49980552473789 -1987.1890156135123 0 -1987.1890156135123 1771.7193830059223 0 0 0 0 447.80617979148246 -1502.6889254404432 0 -1502.6889254404432 2159.3900262492898 0 0 0 0 2104.0797317347242 -3187.7309849291523 0 -3187.7309849291523 3366.724499146716 0 0 0 0 458.80394227759643 -1456.9508760118551 0 -1456.9508760118551 1764.6234145294293 0 0 0 0 1117.0280880703322 -763.17953058085095 0 -763.17953058085095 405.62764808862266 0 0 0 0 2102.6705657538005 -1677.4006761483834 0 -1677.4006761483834 1249.7021454414789 0 0 0 0 202.00183583401667 -1099.4239562382936 0 -1099.4239562382936 1931.114583857343 0 0 0 0 931.72644066452267 -1259.5364841289775 0 -1259.5364841289775 1419.4384474459221 0 0 0 0 -284.65466297972762 -217.48217367788129 0 -217.48217367788129 -62.139798008654907 0 0 0 0 -121.27267613368713 -5.4766451142531878 0 -5.4766451142531878 44.098607629799517 0 0 0 0 -134.64993010461535 27.989202699827729 0 27.989202699827729 -173.79573161141889 0 0 0 0 -31.241534729812731 -41.960822738402968 0 -41.960822738402968 48.507193735431713 0 0 0 0 -22.518206326634235 11.167192763423209 0 11.167192763423209 55.589767002983137 0 0 0 0 1583.6461505786865 -461.76202034603193 0 -461.76202034603193 262.62248693357742 0 0 0 0 -12.606067608268226 -1.7301667243342109 0 -1.7301667243342109 18.60179572152785 0 0 0 0 5037.5949395221614 -1501.4895500550483 0 -1501.4895500550483 344.48669163253135 0 0 0 0 51.921314677518239 -137.84871861284773 0 -137.84871861284773 -70.248085886831177 0 0 0 0 -568.90725950700471 -435.81944054769701 0 -435.81944054769701 2441.2478073383099 0 0 0 0 -605.86204911265304 251.50260324781266 0 251.50260324781266 758.93066758383065 0 0 0 0 2287.2261589718455 -2980.1925470054884 0 -2980.1925470054884 3852.0826714299183 0 0 0 0 -4.2456277924938632 2.2385795649836382 0 2.2385795649836382 23.510885819087008 0 0 0 0 2469.1528872344206 -3274.6048516573719 0 -3274.6048516573719 3279.3122998486506 0 0 0 0 2100.1766373341197 -1245.7399909744636 0 -1245.7399909744636 2233.5903287974907 0 0 0 0 1202.3104686715742 -1161.1969156688538 0 -1161.1969156688538 644.04692847459228 0 0 0 0 1607.3887690131987 -2171.9028592481027 0 -2171.9028592481027 1304.944788582332 0 0 0 0 2237.7108627839443 -932.74781844938843 0 -932.74781844938843 165.2410949471232 0 0 0 0 863.02930279629618 -2190.87616403211 0 -2190.87616403211 2525.6872887124919 0 0 0 0 1906.9811716215117 -2532.0774776052785 0 -2532.0774776052785 1433.4941022691928 0 0 0 0 1191.2402011316706 -1983.2983185122152 0 -1983.2983185122152 1278.1535941698676 0 0 0 0 1222.5741314656282 -2229.6275441808516 0 -2229.6275441808516 1411.3247877491085 0 0 0 0 1511.5349386629969 -2116.2966994503076 0 -2116.2966994503076 1444.1669932913301 0 0 0 0 438.64498136185284 -1491.7931245797372 0 -1491.7931245797372 1384.1393990332335 0 0 0 0 1024.6445585837682 -304.98595210281928 0 -304.98595210281928 385.26158708773733 0 0 0 0 3564.8111936294417 -1371.2813692019699 0 -1371.2813692019699 369.51829940942116 0 0 0 0 2672.9766548316438 -954.71089927566936 0 -954.71089927566936 367.98818606484565 0 0 0 0 1416.2924747674188 -1618.2750181740121 0 -1618.2750181740121 923.8918689598504 0 0 0 0 3100.9415366107278 -2005.3907861623375 0 -2005.3907861623375 993.74520296332776 0 0 0 0 5938.7958442008166 -3985.3199663137857 0 -3985.3199663137857 706.60924923876883 0 0 0 0 -17.449495246688503 -12.084047642850166 0 -12.084047642850166 34.191717000617061 0 0 0 0 -16707.8055455617 6395.3798967115763 0 6395.3798967115763 -3488.2782002228778 0 0 0 0 2325.0358889053314 -2810.2811817066686 0 -2810.2811817066686 1682.9433942216929 0 0 0 0 2541.7879882303623 -1860.359925033631 0 -1860.359925033631 1334.1028270864335 0 0 0 0 862.16687382759119 -2058.340155237951 0 -2058.340155237951 4299.9753847267712 0 0 0 0 1623.1478895935197 -667.6949864912267 0 -667.6949864912267 520.01355855665315 0 0 0 0 3716.6157454958739 -4826.5303685739182 0 -4826.5303685739182 2855.9523927538685 0 0 0 0 -1154.5438105745925 -7400.6804312828208 0 -7400.6804312828208 5284.1780973331188 0 0 0 0 1666.9631763119323 -563.22485165401849 0 -563.22485165401849 198.47314632637244 0 0 0 0 -1582.4298489173093 414.89424557347775 0 414.89424557347775 1870.9048417059821 0 0 0 0 -137.29624827056614 1126.2854564303598 0 1126.2854564303598 -798.14120591374012 0 0 0 0 1666.0723465837727 -582.98003595087721 0 -582.98003595087721 601.4934149585406 0 0 0 0 -32.963624905316522 -36.806571597260422 0 -36.806571597260422 72.790568739086339 0 0 0 0 190.01652700964132 -337.12467044961159 0 -337.12467044961159 1173.1642427295228 0 0 0 0 -4565.2665943459233 226.64550425488869 0 226.64550425488869 2974.797665286329 0 0 0 0 471.28045308502169 -921.37031036229746 0 -921.37031036229746 452.82231815596606 0 0 0 0 533.62572329144859 -375.26514128469171 0 -375.26514128469171 699.62095024287555 0 0 0 0 515.4828390267794 -83.525546617376676 0 -83.525546617376676 230.9534375434996 0 0 0 0 443.12510926457617 -565.85984793005991 0 -565.85984793005991 142.99395879981239 0 0 0 0 8.2590010863932548 0.9368212569897878 0 0.9368212569897878 1042.7118454642514 0 0 0 0 1105.3592491224699 -1064.2797792420461 0 -1064.2797792420461 1321.4958805780916 0 0 0 0 161.40427006686514 -2772.9667061014406 0 -2772.9667061014406 1701.4123797551219 0 0 0 0 -1228.574085918106 -186.07120726727771 0 -186.07120726727771 293.26546265973229 0 0 0 0 -1.7058358705712351 -6.1375526172971888 0 -6.1375526172971888 -14.618520646472035 0 0 0 0 21.801268489600261 32.413563269977658 0 32.413563269977658 -97.731016074547369 0 0 0 0 351.73756114837306 -505.91330807238774 0 -505.91330807238774 -32.079129012112389 0 0 0 0 390.2762258518851 -85.314765165341669 0 -85.314765165341669 23.177903053874616 0 0 0 0 339.3932523994863 -319.95427506681381 0 -319.95427506681381 192.23674776827829 0 0 0 0 48.941224697329744 -335.36527295414271 0 -335.36527295414271 -114.4673744666361 0 0 0 0 9.0530450342339464 -273.88395545692401 0 -273.88395545692401 361.68521856766893 0 0 0 0 465.7062562388528 -357.48069893602042 0 -357.48069893602042 -82.167991437476303 0 0 0 0 -123.94141734587902 -67.606126528444292 0 -67.606126528444292 17.417123336832447 0 0 0 0 445.35809051935939 -487.87867000431424 0 -487.87867000431424 433.95979374573653 0 0 0 0 -14.030876842813242 -24.264369513392708 0 -24.264369513392708 -20.624252661937703 0 0 0 0 603.73389438885351 -151.08747450880401 0 -151.08747450880401 226.20181868354121 0 0 0 0 421.27379983702849 -526.66396837402863 0 -526.66396837402863 542.19384304412233 0 0 0 0 660.7875715060909 -502.06596215621175 0 -502.06596215621175 195.35603541248565 0 0 0 0 -157.96474074361504 47.712970565971773 0 47.712970565971773 -26.234776379267714 0 0 0 0 -33.2392214147117 -44.492654635715311 0 -44.492654635715311 71.422542860466507 0 0 0 0 76.314934490550741 173.16443589532264 0 173.16443589532264 37.184106425571372 0 0 0 0 698.81042650330346 -1205.6995634363921 0 -1205.6995634363921 -449.56279824728358 0 0 0 0 -562.85254591239936 127.36636795868253 0 127.36636795868253 151.55719449691605 0 0 0 0 -10.293753365494432 -21.323129140224907 0 -21.323129140224907 -34.285548140230077 0 0 0 0 63.934455310714839 -129.87062135469023 0 -129.87062135469023 -93.671984606526166 0 0 0 0 -814.77999136554899 315.40656227867476 0 315.40656227867476 292.19494217473039 0 0 0 0 -360.79545760448673 19.895692973485893 0 19.895692973485893 229.67993276128982 0 0 0 0 314.25777920635301 -722.41103733657474 0 -722.41103733657474 169.76087774876987 0 0 0 0 -15.227724703371827 -30.342818630161361 0 -30.342818630161361 -47.214765874323291 0 0 0 0 -236.13468010100769 -31.654451328586219 0 -31.654451328586219 45.962342832113791 0 0 0 0 -108.1575667338675 -293.56651117770343 0 -293.56651117770343 193.17482361039583 0 0 0 0 207.49480941651564 -318.29358722211691 0 -318.29358722211691 -35.177050856516871 0 0 0 0 171.72035907141253 -233.25820964927334 0 -233.25820964927334 -125.41477502618363 0 0 0 0 60.378792752395384 -300.68760757259224 0 -300.68760757259224 75.860716517476249 0 0 0 0 140.23154174856427 -378.23110182473192 0 -378.23110182473192 114.55323969313758 0 0 0 0 216.89813137216697 -476.2402267182697 0 -476.2402267182697 314.60146298143809 0 0 0 0 220.13502045461064 -337.49263794740546 0 -337.49263794740546 133.44566525568735 0 0 0 0 299.73620078536624 -284.39910808670538 0 -284.39910808670538 61.846227193436789 0 0 0 0 -25.382594194463756 -39.361495787641154 0 -39.361495787641154 -53.729751135927756 0 0 0 0 -29.760748711662018 -264.66657437041249 0 -264.66657437041249 96.723181495439349 0 0 0 0 4.3120628486158239 123.59595808097129 0 123.59595808097129 26.745379303378286 0 0 0 0 58.241061030581477 -6.5896260172776238 0 -6.5896260172776238 -125.01997667917021 0 0 0 0 1345.8173950131168 -485.39457789108747 0 -485.39457789108747 149.90654330572579 0 0 0 0 -3.9243748658625677 -7.6479659490603495 0 -7.6479659490603495 -0.57678800241522765 0 0 0 0 488.80929741467116 -422.33895854405273 0 -422.33895854405273 92.17584953536425 0 0 0 0 571.89079651834618 -315.62143141640991 0 -315.62143141640991 161.32817648912896 0 0 0 0 410.88487976031684 -529.63318887911737 0 -529.63318887911737 209.59460688028776 0 0 0 0 342.17206025681298 -220.16667566233718 0 -220.16667566233718 197.20983126039937 0 0 0 0 191.67123182198702 -386.98015792114529 0 -386.98015792114529 183.29931003869569 0 0 0 0 139.07914654034539 -286.55777765324456 0 -286.55777765324456 -35.379686879651217 0 0 0 0 197.12155547595466 -253.1926710891712 0 -253.1926710891712 -29.892653158109169 0 0 0 0 478.93906660442008 -377.47363751026205 0 -377.47363751026205 13.6161741631513 0 0 0 0 5.3096621492194203 -0.641810433522636 0 -0.641810433522636 -1.8909959868248052 0 0 0 0 51.931585448004626 34.820111285564053 0 34.820111285564053 -64.546817278322123 0 0 0 0 0.93913745403662574 -26.165271625691716 0 -26.165271625691716 -26.479697605649989 0 0 0 0 6.6681738959677972 -2.9090356177851504 0 -2.9090356177851504 -4.2843613865070722 0 0 0 0 9.1501315630630415 -32.156641444835259 0 -32.156641444835259 -9.1161175578927214 0 0 0 0 5.8148564485054166 -26.009049505905722 0 -26.009049505905722 -0.94969780771856449 0 0 0 0 -7.1577515830039147 -23.393928388083225 0 -23.393928388083225 -18.667213664747692 0 0 0 0 50.777679226717737 -100.65486220548337 0 -100.65486220548337 118.8352245082242 0 0 0 0 -4.4934529777628995 -60.854217562573467 0 -60.854217562573467 -50.755108584584377 0 0 0 0 19.855589337958008 -112.18808803954744 0 -112.18808803954744 -92.132288305612747 0 0 0 0 6.222053634461389 -39.6834136081998 0 -39.6834136081998 7.4252343776397538 0 0 0 0 22.392457111651311 -133.62543619388452 0 -133.62543619388452 -107.32990991771658 0 0 0 0 444.68093179044081 -823.09264084150345 0 -823.09264084150345 555.10706230504729 0 0 0 0 -167.78404434330878 51.812038031239354 0 51.812038031239354 40.971260188875021 0 0 0 0 -12.085143698940904 -12.005395890824389 0 -12.005395890824389 12.31997403592834 0 0 0 0 -31.824940365637303 -70.454625526363088 0 -70.454625526363088 865.73189317433571 0 0 0 0 -2.5107034365731664 -13.437015358702027 0 -13.437015358702027 -6.7792685010170715 0 0 0 0 612.04384367633611 236.16146320753614 0 236.16146320753614 -288.41339859401342 0 0 0 0 344.03814906025764 -398.46885135581852 0 -398.46885135581852 208.91967931235558 0 0 0 0 913.43356461539224 -740.58594590840585 0 -740.58594590840585 210.11651284225809 0 0 0 0 1056.4669464385515 -34.081961743890133 0 -34.081961743890133 -447.59835957169707 0 0 0 0 88.89739348020521 -404.56514993820747 0 -404.56514993820747 821.41952967079123 0 0 0 0 8.4519122962938695 -3.2282132495375393 0 -3.2282132495375393 -14.581684875015824 0 0 0 0 51.233424095507473 -134.51589863317216 0 -134.51589863317216 403.18774702415249 0 0 0 0 -162.36633009830985 145.43052051274572 0 145.43052051274572 75.192028213390586 0 0 0 0 324.19204453271232 -203.25310564398387 0 -203.25310564398387 -161.85663794799984 0 0 0 0 -8.6865931076498839 -41.492570686710252 0 -41.492570686710252 -57.949636909502743 0 0 0 0 425.76800815687602 -154.33172457323235 0 -154.33172457323235 -218.82194779169367 0 0 0 0 222.87316810195625 -190.9319109019707 0 -190.9319109019707 44.114444714068668 0 0 0 0 1044.4472396360361 -289.95888519628352 0 -289.95888519628352 -38.984267787061981 0 0 0 0 505.45083589071874 -666.09586477065022 0 -666.09586477065022 894.21081851233612 0 0 0 0 130.53544648806565 -642.62100002693114 0 -642.62100002693114 861.24520241735445 0 0 0 0 296.35805193324632 -327.19081508256932 0 -327.19081508256932 -119.96962462504598 0 0 0 0 -15.363299922047965 -34.293540573997355 0 -34.293540573997355 114.04237743669756 0 0 0 0 -16.853025489360505 -53.40555144480809 0 -53.40555144480809 115.688043156194 0 0 0 0 -243.01111952014617 -157.63115068610932 0 -157.63115068610932 237.7177798429766 0 0 0 0 -76.233801656077958 -61.18926634120362 0 -61.18926634120362 107.72203293856001 0 0 0 0 -646.77039132621212 -372.53846733497267 0 -372.53846733497267 436.64839423933881 0 0 0 0 -663.62757072978275 -418.51152553667089 0 -418.51152553667089 719.32983243226772 0 0 0 0 -353.13829656947928 71.551523827920391 0 71.551523827920391 48.51733558910928 0 0 0 0 -420.81361189119707 -80.881246335313335 0 -80.881246335313335 131.72312677973378 0 0 0 0 -336.7423506510313 -12.481020416045794 0 -12.481020416045794 37.567916325308033 0 0 0 0 -231.83824503184587 160.12676253569953 0 160.12676253569953 377.46980748308488 0 0 0 0 -396.46526779566193 -92.869149437523447 0 -92.869149437523447 -11.32714954779658 0 0 0 0 -48.96024295955749 -52.71795214123631 0 -52.71795214123631 23.592846995597938 0 0 0 0 -902.22487993183313 315.14576759844203 0 315.14576759844203 -236.30573695272324 0 0 0 0 29.258207762487189 -30.806424470658143 0 -30.806424470658143 8.73157722026626 0 0 0 0 336.88301120966207 -260.89743468223605 0 -260.89743468223605 160.05849501345074 0 0 0 0 -93.275316510349114 -123.00532425716563 0 -123.00532425716563 135.75541508748256 0 0 0 0 -36.177697499241546 -7.0143285218596674 0 -7.0143285218596674 13.028731739350775 0 0 0 0 22.961493085662369 -101.43129755843256 0 -101.43129755843256 51.057804516298347 0 0 0 0 26.449204746139003 -105.09656454117794 0 -105.09656454117794 38.146058560931124 0 0 0 0 18.698196198420192 -139.51340870737477 0 -139.51340870737477 66.777895155417355 0 0 0 0 87.038443440032097 -124.34570257290761 0 -124.34570257290761 29.353617038432276 0 0 0 0 -63.839253576850069 -174.46653936014627 0 -174.46653936014627 367.53630918049021 0 0 0 0 -4.4612122761777382 -70.10039359502538 0 -70.10039359502538 -21.759264965854612 0 0 0 0 13.248269901980155 -43.192394345379313 0 -43.192394345379313 -43.509060647680684 0 0 0 0 24.534297806555514 -119.629138440323 0 -119.629138440323 104.63888666547427 0 0 0 0 646.32464496001194 -549.33763520731372 0 -549.33763520731372 348.59548829212144 0 0 0 0 -45.94702411375421 -50.691400766286762 0 -50.691400766286762 57.379824730021767 0 0 0 0 -930.50473455289466 -1263.4420369036161 0 -1263.4420369036161 197.90447635591045 0 0 0 0 503.74100096795337 -39.420597891203215 0 -39.420597891203215 -230.74623386807798 0 0 0 0 -136.82161759880177 -94.395933192201483 0 -94.395933192201483 89.845939878669014 0 0 0 0 36.496206093104661 -101.68654237504779 0 -101.68654237504779 63.671561757335439 0 0 0 0 -34.83316976257273 -44.135568318018258 0 -44.135568318018258 48.877880420295611 0 0 0 0 1099.8381724774245 -618.54221165644594 0 -618.54221165644594 159.893021405529 0 0 0 0 836.83500977566655 -252.61027422036568 0 -252.61027422036568 160.71987065000394 0 0 0 0 366.09668940645315 -662.07159415667047 0 -662.07159415667047 819.95918309566332 0 0 0 0 483.5640134180594 -725.18455677947713 0 -725.18455677947713 792.88859933373169 0 0 0 0 1260.1261951121924 -626.8747709422023 0 -626.8747709422023 455.61652019171015 0 0 0 0 -32.681766921281003 -40.233876484911647 0 -40.233876484911647 48.875865343840871 0 0 0 0 106.90606170232604 127.59637387922703 0 127.59637387922703 -155.97044850867314 0 0 0 0 -235.97203970971077 126.02454467561984 0 126.02454467561984 99.379462697324925 0 0 0 0 -105.16671641324865 -201.81452463714959 0 -201.81452463714959 619.9833584795706 0 0 0 0 -293.43717156914408 -463.34768559500299 0 -463.34768559500299 631.45632135700725 0 0 0 0 -46.541546724586411 -67.403738275973609 0 -67.403738275973609 51.116963346541255 0 0 0 0 -49.718670811095876 -11.472074110183122 0 -11.472074110183122 102.73116339175242 0 0 0 0 -229.06289910014311 -120.60215788902315 0 -120.60215788902315 -12.552755091346626 0 0 0 0 -28.656505259534242 117.34187097218091 0 117.34187097218091 -66.727444953758095 0 0 0 0 -64.678990915408775 2.8536136683262328 0 2.8536136683262328 70.822651892882334 0 0 0 0 -333.92194929244579 61.063912682384398 0 61.063912682384398 72.724716594268102 0 0 0 0 -47.60565704983452 -99.430231868356842 0 -99.430231868356842 97.227783248561508 0 0 0 0 0.86951768949425379 -6.2238180239539247 0 -6.2238180239539247 2.3915821745482333 0 0 0 0 17.968818255272254 -242.09533741206178 0 -242.09533741206178 132.74329984813812 0 0 0 0 54.699860798784357 -80.255341426549421 0 -80.255341426549421 5.3297021157341078 0 0 0 0 364.07299231770571 -77.810265886406341 0 -77.810265886406341 -69.24474621535046 0 0 0 0 428.25134298102057 -414.60573110384212 0 -414.60573110384212 -106.32051402217803 0 0 0 0 60.758695575801539 -210.50969174749662 0 -210.50969174749662 142.99449925431873 0 0 0 0 -222.30327094785753 -63.456043804518231 0 -63.456043804518231 -107.28564700946299 0 0 0 0 -91.365804252331145 -259.38438099460473 0 -259.38438099460473 -87.768764632385228 0 0 0 0 8.0258200164171285 -300.83138668631091 0 -300.83138668631091 78.072079631416273 0 0 0 0 -333.98041347492472 -290.15913111250984 0 -290.15913111250984 246.83262495330018 0 0 0 0 -140.97962351933529 -126.60724337876309 0 -126.60724337876309 110.09096636971117 0 0 0 0 73.423552925094555 -324.88932591209687 0 -324.88932591209687 106.87072001405613 0 0 0 0 497.1122226785501 -201.01587576308611 0 -201.01587576308611 22.123890619557642 0 0 0 0 201.70170664029865 -146.37824701209365 0 -146.37824701209365 51.967475513451063 0 0 0 0 -42.308129334320256 -262.38086952857975 0 -262.38086952857975 -124.41267544104085 0 0 0 0 -68.988144207272853 -358.85649870050975 0 -358.85649870050975 -457.31461012019281 0 0 0 0 -253.65092808492773 -344.79836582323151 0 -344.79836582323151 230.48940625091018 0 0 0 0 -5.8482917907967931 -382.89073043001918 0 -382.89073043001918 -179.60550029481828 0 0 0 0 -254.99434755567199 -483.68008954392462 0 -483.68008954392462 -143.9441181914226 0 0 0 0 -452.9854784297786 -261.44724578676323 0 -261.44724578676323 -118.05420768179783 0 0 0 0 -694.36178353445575 -562.20515839256223 0 -562.20515839256223 -445.3941282607193 0 0 0 0 -1302.4107659185756 99.112904092469307 0 99.112904092469307 -2.987562771560988 0 0 0 0 17.156804653410191 -18.157170503636706 0 -18.157170503636706 8.0283322363899288 0 0 0 0 -122.58978220060817 -366.08177483279724 0 -366.08177483279724 -311.60719925979902 0 0 0 0 -787.51992212401092 -123.63992943645735 0 -123.63992943645735 472.61272009440654 0 0 0 0 15.936142550628265 -61.996801176642812 0 -61.996801176642812 56.193162716894918 0 0 0 0 -445.32682218818445 129.71860123096644 0 129.71860123096644 -22.227250991680194 0 0 0 0 0.86532178520660352 -4.7247717777414664 0 -4.7247717777414664 4.4394713992300723 0 0 0 0 187.70115344000078 -261.9770042654327 0 -261.9770042654327 -160.93666617536292 0 0 0 0 -673.49324057232297 -162.19978661020104 0 -162.19978661020104 244.24255240374259 0 0 0 0 -479.78130056762166 -202.02214402002392 0 -202.02214402002392 75.648191080366814 0 0 0 0 17.786435652655484 -64.432893700307716 0 -64.432893700307716 56.699163508518367 0 0 0 0 21.747517178868293 -71.560974698817517 0 -71.560974698817517 72.537363185154391 0 0 0 0 70.429384754434068 -92.419476837474576 0 -92.419476837474576 51.90037684541312 0 0 0 0 154.28263749877806 -84.182496602326864 0 -84.182496602326864 41.165246632532217 0 0 0 0 80.515587699104799 -79.565609501310973 0 -79.565609501310973 49.219843359693186 0 0 0 0 124.59005970375438 -107.86575450113742 0 -107.86575450113742 51.203934136374301 0 0 0 0 119.94141909407335 -112.17310703544354 0 -112.17310703544354 71.330427319839146 0 0 0 0 -3.47496928366985 -3.4386779911075962 0 -3.4386779911075962 -7.0238530118405151 0 0 0 0 -2.0206399370733408 -2.1883146752691118 0 -2.1883146752691118 14.272529900253105 0 0 0 0 140.18910761077859 -43.250373899714759 0 -43.250373899714759 -20.601864163210848 0 0 0 0 144.62898685347318 -120.36640452273787 0 -120.36640452273787 48.930529724202643 0 0 0 0 -39.870526799350046 -67.890632707141776 0 -67.890632707141776 69.896057031131932 0 0 0 0 85.074864296300802 75.393416669470753 0 75.393416669470753 -73.321659009838186 0 0 0 0 95.758224228477047 -58.338028999267408 0 -58.338028999267408 54.539609231098439 0 0 0 0 114.53327506206369 -92.867238612378969 0 -92.867238612378969 62.730292552645551 0 0 0 0 17.662184840526606 -8.7618232406848335 0 -8.7618232406848335 7.2990086508901868 0 0 0 0 58.427346877164382 -110.67413446294086 0 -110.67413446294086 36.644695808485267 0 0 0 0 -80.856093452581263 -81.911418969873921 0 -81.911418969873921 97.533364279996022 0 0 0 0 13.456054880190351 -47.504661728374131 0 -47.504661728374131 62.675258702899519 0 0 0 0 -36.572788731243236 51.740239040331289 0 51.740239040331289 -23.182142630947055 0 0 0 0 -129.11581570882117 -102.90018173164026 0 -102.90018173164026 92.060471258657344 0 0 0 0 59.740475489328674 179.78492498832384 0 179.78492498832384 -133.01092945217533 0 0 0 0 201.81360708417196 -89.763384624243372 0 -89.763384624243372 -73.789010268985294 0 0 0 0 -128.06499359769077 24.46913912340824 0 24.46913912340824 80.04394098330522 0 0 0 0 25.244305491432897 87.811765934642608 0 87.811765934642608 11.930462756317866 0 0 0 0 -1.268373098321284 -1.7507635618854636 0 -1.7507635618854636 7.4045843567893854 0 0 0 0 -4.8789513080992037 25.697603792594236 0 25.697603792594236 -115.86841589339019 0 0 0 0 -253.50356316169564 155.70231396408144 0 155.70231396408144 -1.7181497424899135 0 0 0 0 609.27305745375634 -269.79672397457398 0 -269.79672397457398 237.64104179983224 0 0 0 0 -7.5538416700769346 -8.6105872894569302 0 -8.6105872894569302 -3.9701458766360247 0 0 0 0 676.44958763369868 -263.67174555657766 0 -263.67174555657766 201.54472668257222 0 0 0 0 630.4383052162957 -235.63771595201615 0 -235.63771595201615 263.9052285146081 0 0 0 0 575.43189895848082 -241.10039646036694 0 -241.10039646036694 107.20114578901484 0 0 0 0 631.00185328091902 -309.97633471174777 0 -309.97633471174777 175.00946723065317 0 0 0 0 -212.3123321680232 87.218188356481733 0 87.218188356481733 17.624639773253875 0 0 0 0 738.84572506067343 -431.15773210552652 0 -431.15773210552652 -31.233022891185101 0 0 0 0 -13.996133689954917 -16.227905648941658 0 -16.227905648941658 -11.537046771215358 0 0 0 0 22.949618265542085 -87.63915727998392 0 -87.63915727998392 31.268344539206737 0 0 0 0 -87.155922514946724 -10.0804233936542 0 -10.0804233936542 106.55571527848588 0 0 0 0 -115.28569348248129 -65.102717587596999 0 -65.102717587596999 -1.0612200658069924 0 0 0 0 -66.373512177622615 39.765429556497111 0 39.765429556497111 34.677148233793559 0 0 0 0 -10.100974503300677 15.839042918036284 0 15.839042918036284 50.785762543520832 0 0 0 0 -46.246783553608111 -21.668585895058641 0 -21.668585895058641 19.394956050651672 0 0 0 0 -67.248024092943524 18.661443299271923 0 18.661443299271923 -33.594991852700332 0 0 0 0 -72.155100166302873 34.007948947972181 0 34.007948947972181 38.543825124143041 0 0 0 0 -147.49455379207575 -10.98016799790912 0 -10.98016799790912 23.767360445752274 0 0 0 0 -9.2294412723349524 87.746481753041735 0 87.746481753041735 -63.706897973483137 0 0 0 0 -232.54564270973788 -122.71302543629281 0 -122.71302543629281 -10.409683714377024 0 0 0 0 -234.91279966883928 19.494970533696915 0 19.494970533696915 53.103904210511246 0 0 0 0 43.130196211863222 -88.868196643092233 0 -88.868196643092233 121.32314164460695 0 0 0 0 -3.9864680211645975 -3.7046836982677007 0 -3.7046836982677007 4.0905709453718941 0 0 0 0 93.196238163334783 -89.123341986713058 0 -89.123341986713058 19.294277849397076 0 0 0 0 -1.7870066101109003 -5.0772819117118928 0 -5.0772819117118928 3.012208198163961 0 0 0 0 146.12080940483611 -61.158794778086303 0 -61.158794778086303 34.675946583098266 0 0 0 0 134.86073332099477 -102.21533621271374 0 -102.21533621271374 77.238419115419674 0 0 0 0 132.5885640106444 -99.646565651294623 0 -99.646565651294623 -45.381235989181732 0 0 0 0 114.99259296554374 -60.434635624835209 0 -60.434635624835209 43.376579063871759 0 0 0 0 82.549303433786008 -72.997950421031419 0 -72.997950421031419 -24.5494358138385 0 0 0 0 139.36639874586399 -73.133975292308605 0 -73.133975292308605 -25.590129232426989 0 0 0 0 96.014531695909682 -145.09866006040829 0 -145.09866006040829 -78.357330517646915 0 0 0 0 -228.47357037786423 -164.04776741990645 0 -164.04776741990645 36.899038477666181 0 0 0 0 -253.1801833015561 -92.418603980459011 0 -92.418603980459011 33.707471008907305 0 0 0 0 -3.4520889600248381 -1.6897441279931655 0 -1.6897441279931655 2.3242241354381576 0 0 0 0 -3.2109462522148533 -13.44066210570054 0 -13.44066210570054 -52.867067454542848 0 0 0 0 -109.86527004640084 -104.61630846458138 0 -104.61630846458138 -5.9887855074339313 0 0 0 0 6.7530126042474876 34.002015470847255 0 34.002015470847255 -5.160162762622349 0 0 0 0 10.861707545644833 -3.7125800299487821 0 -3.7125800299487821 7.2952534114243193 0 0 0 0 -53.631532929801324 -93.563031594243512 0 -93.563031594243512 -7.4717686294206942 0 0 0 0 -45.665937766512798 -89.762929192038428 0 -89.762929192038428 -45.770675822350313 0 0 0 0 55.389894439409545 -81.31891325316974 0 -81.31891325316974 -57.125580985462875 0 0 0 0 64.974334694823483 -93.054262752950308 0 -93.054262752950308 -45.82559945952471 0 0 0 0 -56.363000406312494 -163.06661329015878 0 -163.06661329015878 -48.393405353024718 0 0 0 0 129.82667935610516 -59.941710537867039 0 -59.941710537867039 -58.662393393870389 0 0 0 0 129.19448915033718 -74.33512915942265 0 -74.33512915942265 -52.785803278784442 0 0 0 0 161.89515731651045 -101.61544381760905 0 -101.61544381760905 -72.401922664023004 0 0 0 0 241.1943413506342 -120.19347764313352 0 -120.19347764313352 -73.951174739777343 0 0 0 0 181.1402312459395 -29.364529159236554 0 -29.364529159236554 -101.39637640503497 0 0 0 0 6.437913794294559 1.761837655727831 0 1.761837655727831 -1.9953316315919523 0 0 0 0 50.185890746306541 -5.8934437816478749 0 -5.8934437816478749 -102.69108593652345 0 0 0 0 252.66634073199384 -53.61062025676074 0 -53.61062025676074 -177.6698457313687 0 0 0 0 31.065783872523753 -204.87015450786566 0 -204.87015450786566 -28.879725300394057 0 0 0 0 487.27075060042262 -458.37544262667507 0 -458.37544262667507 110.57447353692987 0 0 0 0 173.19858031629701 -178.40510318544693 0 -178.40510318544693 -27.250244999158895 0 0 0 0 92.728984527784633 -161.04790411463182 0 -161.04790411463182 -25.793327702042006 0 0 0 0 54.537601029362122 -114.0600491321602 0 -114.0600491321602 -11.800614395455341 0 0 0 0 30.144568331495975 -122.96341597091305 0 -122.96341597091305 -3.3530830626987154 0 0 0 0 61.161534387312713 -98.331638488409226 0 -98.331638488409226 16.650965103417548 0 0 0 0 92.860020806088869 -92.33435513691802 0 -92.33435513691802 -17.419236540663405 0 0 0 0 88.648391328162688 -83.237750959488039 0 -83.237750959488039 8.5584507323801517 0 0 0 0 128.5429386970136 -69.935882124727868 0 -69.935882124727868 -25.950567588108242 0 0 0 0 120.56916279151847 -64.763201110417867 0 -64.763201110417867 34.291876525749103 0 0 0 0 132.9798359494016 -70.328983010083903 0 -70.328983010083903 -26.015940790407512 0 0 0 0 110.18003435090941 -63.656267530255718 0 -63.656267530255718 22.143883989221649 0 0 0 0 118.84714194136905 -91.282978058494336 0 -91.282978058494336 29.507069144203342 0 0 0 0 104.5086443835462 -84.040915340909123 0 -84.040915340909123 94.695746488228906 0 0 0 0 211.23807724987819 -126.56764926804317 0 -126.56764926804317 66.164385524418321 0 0 0 0 115.24113783691428 -97.357326357494458 0 -97.357326357494458 73.47374000815671 0 0 0 0 116.20682370681607 -90.68254928864917 0 -90.68254928864917 53.590057658265323 0 0 0 0 80.802505475228827 -104.4279672399316 0 -104.4279672399316 58.968054517674318 0 0 0 0 64.217203311280173 -69.513281858596201 0 -69.513281858596201 37.125646394830255 0 0 0 0 86.198980906825454 -70.014418386068428 0 -70.014418386068428 44.434867329211556 0 0 0 0 14.524253575262264 -63.907137709744347 0 -63.907137709744347 47.832813693254138 0 0 0 0 -541.37194464957429 -59.642084598052861 0 -59.642084598052861 -29.626536771836982 0 0 0 0 1.3891585635325683 -8.4237959387974968 0 -8.4237959387974968 13.955606716508811 0 0 0 0 -263.41786835534731 -188.4370140760584 0 -188.4370140760584 6.0129894120927929 0 0 0 0 -508.92067002456315 -129.76444117239407 0 -129.76444117239407 82.791179143323461 0 0 0 0 -295.9720337659237 -156.32332203333863 0 -156.32332203333863 -23.206461770190799 0 0 0 0 18.104645478301848 -64.990684773399721 0 -64.990684773399721 53.511299250405557 0 0 0 0 -23.546779533538938 -100.13415703927058 0 -100.13415703927058 44.007265585751156 0 0 0 0 20.213853726119851 -92.182148288156895 0 -92.182148288156895 19.198290493419336 0 0 0 0 17.497687287550676 -64.731602862615517 0 -64.731602862615517 50.760181675512413 0 0 0 0 -143.18628103637093 -118.33394016601596 0 -118.33394016601596 58.612208562979504 0 0 0 0 -43.102862808493228 -174.87889721167267 0 -174.87889721167267 48.700544689694652 0 0 0 0 31.013779345385956 -213.74425238501317 0 -213.74425238501317 66.909303756830923 0 0 0 0 -260.91772248002235 -55.24532326967892 0 -55.24532326967892 210.25805251052225 0 0 0 0 -479.69216067736852 -22.203702649334446 0 -22.203702649334446 59.341687262382038 0 0 0 0 1.7301771800229275 -10.242090129621829 0 -10.242090129621829 17.80110163138248 0 0 0 0 -290.14717438811385 -97.513024410116941 0 -97.513024410116941 -81.204254597134423 0 0 0 0 1178.2303952623552 -301.9381649538791 0 -301.9381649538791 -553.91923600710288 0 0 0 0 -722.75250548138138 144.87568774086321 0 144.87568774086321 1107.4594804931185 0 0 0 0 2.0840986510822717 -7.9541228659016241 0 -7.9541228659016241 7.8193953800487748 0 0 0 0 554.21573887417617 -387.05591983828708 0 -387.05591983828708 -345.03318233795289 0 0 0 0 700.81422443730844 -558.08101347542106 0 -558.08101347542106 -156.41814518967294 0 0 0 0 -603.26318989673018 -134.85367045136627 0 -134.85367045136627 277.95386370424239 0 0 0 0 73.198972528756713 -23.565149321020726 0 -23.565149321020726 -4.6511385927187803 0 0 0 0 356.57310534590943 -402.48628241152255 0 -402.48628241152255 114.79315695513651 0 0 0 0 -53.78751487818954 -20.219581785080663 0 -20.219581785080663 13.37950190572883 0 0 0 0 587.57885706577508 137.28924257833933 0 137.28924257833933 -47.769432791232248 0 0 0 0 13.277757839311903 -1.1383541902743293 0 -1.1383541902743293 -0.63226328403881382 0 0 0 0 42.61816686988459 -220.07757038830459 0 -220.07757038830459 832.98999106926203 0 0 0 0 327.95225046564155 -309.65677320204122 0 -309.65677320204122 -148.36150042557347 0 0 0 0 531.84285000400268 -623.09952350988169 0 -623.09952350988169 264.32594653196247 0 0 0 0 297.64819073595572 -260.11379135205607 0 -260.11379135205607 -104.06215150551725 0 0 0 0 559.77598829269118 -172.34392170319006 0 -172.34392170319006 -258.0721175790386 0 0 0 0 79.07470453804126 129.54798729095637 0 129.54798729095637 -321.65113608451566 0 0 0 0 119.93775209473824 -112.12597253836157 0 -112.12597253836157 -276.25529178239231 0 0 0 0 336.46562876451571 -288.0737059086332 0 -288.0737059086332 -182.0018868744155 0 0 0 0 236.43910471044364 -300.03081433903026 0 -300.03081433903026 -169.73656567544822 0 0 0 0 350.67090338042908 -233.18300165073924 0 -233.18300165073924 -155.39289986311996 0 0 0 0 25.32024362894299 -142.91529263115081 0 -142.91529263115081 35.718456281560066 0 0 0 0 32.962439848779468 -117.23106127054052 0 -117.23106127054052 22.051132943899574 0 0 0 0 35.268348062047153 -97.686778072973539 0 -97.686778072973539 60.474382458703076 0 0 0 0 69.480428263770591 -163.00988356671587 0 -163.00988356671587 46.882494859586586 0 0 0 0 -22.903655235772021 -86.06836503080558 0 -86.06836503080558 -6.0822280392749235 0 0 0 0 -72.717875068824469 -89.288827187541756 0 -89.288827187541756 119.89424617122859 0 0 0 0 -54.674005344731995 -142.54114544033473 0 -142.54114544033473 -43.576322977183736 0 0 0 0 -12.340956625385161 -10.238674166403733 0 -10.238674166403733 5.3301724696464987 0 0 0 0 23.483565377777268 -22.36859395974534 0 -22.36859395974534 81.835355179066028 0 0 0 0 9.4569547503125762 5.1874839931264489 0 5.1874839931264489 -4.4372654717717026 0 0 0 0 181.04717048419116 78.012473268172471 0 78.012473268172471 -639.58248672124137 0 0 0 0 -1.4479151577397715 -7.9764631265134085 0 -7.9764631265134085 237.81563694213401 0 0 0 0 -11.691126882957178 -277.53444943940849 0 -277.53444943940849 -292.32553928270136 0 0 0 0 57.896588435414742 -129.80363347717139 0 -129.80363347717139 -70.058021288961754 0 0 0 0 176.09043319723787 -466.0388583626227 0 -466.0388583626227 527.68141493112489 0 0 0 0 468.27734736796992 274.31874151252487 0 274.31874151252487 -294.74818944728395 0 0 0 0 62.862839287161478 -756.41323382192786 0 -756.41323382192786 -33.763786533803795 0 0 0 0 -60.042289097476896 -57.638555140643803 0 -57.638555140643803 102.5319724841429 0 0 0 0 22.666126480384264 -19.792514653454418 0 -19.792514653454418 -4.7858282068918925 0 0 0 0 -6.7072526035012174 -8.4904042913203455 0 -8.4904042913203455 6.3506413782183762 0 0 0 0 266.14641166653564 -235.31185744590312 0 -235.31185744590312 -780.02169424333988 0 0 0 0 18.96588616239481 -6.1162607553394963 0 -6.1162607553394963 -0.43831105046458418 0 0 0 0 -26.784094799062586 -50.87329039999895 0 -50.87329039999895 11.610674235060287 0 0 0 0 6.8343496618187629 -33.761151780689012 0 -33.761151780689012 18.89612790496659 0 0 0 0 2.1577610938547878 -22.654163663391955 0 -22.654163663391955 -5.0423604761308525 0 0 0 0 39.218096768169943 -32.307052505509603 0 -32.307052505509603 14.048637682295123 0 0 0 0 22.615349151176552 -64.84080106223584 0 -64.84080106223584 48.31455171912782 0 0 0 0 -8.7896222313866019 -559.68963697086292 0 -559.68963697086292 -469.9471204780275 0 0 0 0 -402.85449581278954 -227.41376060158655 0 -227.41376060158655 -41.89104108059837 0 0 0 0 -352.76088018752489 -129.17603224014147 0 -129.17603224014147 130.88438956528262 0 0 0 0 -343.71629884137656 -404.80996330938797 0 -404.80996330938797 450.65582836586691 0 0 0 0 -10.37236937251609 -10.340380488480164 0 -10.340380488480164 11.973189473197507 0 0 0 0 -206.16657177611341 36.436949901937624 0 36.436949901937624 40.011354469446815 0 0 0 0 -156.5091160297743 -6.489863231399795 0 -6.489863231399795 74.947643941995921 0 0 0 0 -383.41736927221791 24.944569002473145 0 24.944569002473145 158.08530891138071 0 0 0 0 -96.671086308015219 -221.66016502005368 0 -221.66016502005368 -80.505319948908436 0 0 0 0 -1.4279679186007144 -16.377070315367334 0 -16.377070315367334 6.9468355205317129 0 0 0 0 -59.479327000365629 -36.378716592667843 0 -36.378716592667843 91.561378674989101 0 0 0 0 13.139600210823119 -161.67778480879497 0 -161.67778480879497 -178.78444099449734 0 0 0 0 -87.200259140598064 -216.05522241559083 0 -216.05522241559083 -15.803621589220711 0 0 0 0 -74.275060341340577 -134.20850243293717 0 -134.20850243293717 -43.520009856205434 0 0 0 0 -102.03986038578296 -63.367836741781502 0 -63.367836741781502 192.82170655070513 0 0 0 0 0.14204096068843342 -15.86478327073813 0 -15.86478327073813 8.5488964666943303 0 0 0 0 -96.375211711070733 -111.32771616884929 0 -111.32771616884929 -12.9890081340709 0 0 0 0 14.670922755833608 -44.03976649428833 0 -44.03976649428833 15.027595773592736 0 0 0 0 -45.254126452826313 -35.359992625613813 0 -35.359992625613813 58.250579387575272 0 0 0 0 -41.949259722649003 -80.36169280995091 0 -80.36169280995091 7.4874071246304084 0 0 0 0 15.144084917822049 -51.338897366285877 0 -51.338897366285877 19.871650339170031 0 0 0 0 -61.111790591698082 -107.79917587196542 0 -107.79917587196542 -30.669774364734621 0 0 0 0 -100.56573173190554 -61.110458887938876 0 -61.110458887938876 113.64351445751163 0 0 0 0 -85.551814595273754 -81.867326592961035 0 -81.867326592961035 40.137794125796063 0 0 0 0 -79.691996709163504 -113.28886146646255 0 -113.28886146646255 -12.939659696610761 0 0 0 0 -83.918262619816232 -105.48942579750656 0 -105.48942579750656 37.048687767834053 0 0 0 0 25.784648877786822 -167.28809304247989 0 -167.28809304247989 87.581775113381809 0 0 0 0 -36.569475227330258 -77.653371772812534 0 -77.653371772812534 -38.937755440143519 0 0 0 0 -87.255304948841513 -129.71996379736811 0 -129.71996379736811 62.606090789294285 0 0 0 0 -88.044596589323191 -70.317596973043692 0 -70.317596973043692 68.871794161070284 0 0 0 0 -11.790319885752979 -84.785837938412442 0 -84.785837938412442 63.369906541527598 0 0 0 0 19.584202549092879 -164.96107225865126 0 -164.96107225865126 198.35612215457513 0 0 0 0 82.909766021068208 -81.731424325431362 0 -81.731424325431362 -26.074144680402242 0 0 0 0 262.44557624111621 -187.68401686476864 0 -187.68401686476864 28.838195611533592 0 0 0 0 -4.8691993569264014 0.98957589819656278 0 0.98957589819656278 -139.18253152738907 0 0 0 0 221.52960809017532 -166.21482272814319 0 -166.21482272814319 -60.267904162988998 0 0 0 0 -91.334829305502353 -181.71198063229167 0 -181.71198063229167 -26.574562220246207 0 0 0 0 -45.024372694224439 -171.78535864729929 0 -171.78535864729929 -238.90700537713565 0 0 0 0 9.6749916790232504 -2.1920259054273146 0 -2.1920259054273146 0.077341791598087184 0 0 0 0 -37.741870818899315 218.45242746014105 0 218.45242746014105 245.68243695873389 0 0 0 0 -364.46583608400397 -26.223221301543163 0 -26.223221301543163 205.77425533169298 0 0 0 0 220.08954449138764 127.72669193667389 0 127.72669193667389 -77.057217185662012 0 0 0 0 -269.9567526881001 -292.05914389752252 0 -292.05914389752252 457.8949499920418 0 0 0 0 342.77555489899532 -319.86407615612552 0 -319.86407615612552 398.21450992811515 0 0 0 0 279.58849718540114 -215.62087424105766 0 -215.62087424105766 570.56140556294849 0 0 0 0 3.9190887358887636 -0.71659026096320844 0 -0.71659026096320844 -0.32069209663775666 0 0 0 0 321.27890155485511 -157.48694756587793 0 -157.48694756587793 -326.35204623069149 0 0 0 0 402.64291177574887 -379.08490014042491 0 -379.08490014042491 20.131831786740804 0 0 0 0 54.920968687714776 -243.04194405958333 0 -243.04194405958333 460.56969705021038 0 0 0 0 -38.426267384245875 85.723321042893076 0 85.723321042893076 271.2440025600954 0 0 0 0 -88.656569082937494 23.70550050550446 0 23.70550050550446 126.55479717706476 0 0 0 0 2.3128102450601169 -11.890858061969155 0 -11.890858061969155 44.138688980732894 0 0 0 0 21.712105961640191 -143.92972326822201 0 -143.92972326822201 117.08612828992773 0 0 0 0 -0.1059063663087727 -77.389729980977791 0 -77.389729980977791 44.280800172069576 0 0 0 0 252.26692557580827 -135.02494834506797 0 -135.02494834506797 -118.10396025368391 0 0 0 0 214.24539934134373 -125.98699286144983 0 -125.98699286144983 -14.514416349411476 0 0 0 0 249.84361134115898 -103.68476307964374 0 -103.68476307964374 57.03796443471947 0 0 0 0 384.66577995735861 -117.267626011424 0 -117.267626011424 -36.894488831647323 0 0 0 0 -302.18506911999066 -75.498926306565409 0 -75.498926306565409 64.815031483332859 0 0 0 0 2.2269021308083161 -9.1444822075241774 0 -9.1444822075241774 27.191327836872972 0 0 0 0 -222.39193604174125 101.05147028192187 0 101.05147028192187 260.68070613009331 0 0 0 0 1061.2626396798732 -271.32363395779976 0 -271.32363395779976 7.7005030047730543 0 0 0 0 1.3968313480049517 -3.6114855962013692 0 -3.6114855962013692 9.0986363505514021 0 0 0 0 21.401132971092011 -261.02196534363611 0 -261.02196534363611 363.33828288667428 0 0 0 0 668.28750726897852 -101.73296709659917 0 -101.73296709659917 49.811599256048794 0 0 0 0 529.57631822347321 -442.37687212841047 0 -442.37687212841047 352.3475899399491 0 0 0 0 -251.0107183234868 -39.786438240938878 0 -39.786438240938878 452.32459630929952 0 0 0 0 924.41984935930304 -374.41610781680356 0 -374.41610781680356 -674.24311297877284 0 0 0 0 -374.79208446665143 -118.38795319244673 0 -118.38795319244673 453.45351587034747 0 0 0 0 44.739689842380557 -60.555814285452186 0 -60.555814285452186 25.959168616788844 0 0 0 0 -5.9606726611164049 -141.11597115641052 0 -141.11597115641052 -123.98648907486495 0 0 0 0 -27.362490324959253 -181.86270856888586 0 -181.86270856888586 0.36560171295423061 0 0 0 0 16.867749745069887 -122.72876935140812 0 -122.72876935140812 -111.61593538554735 0 0 0 0 18.834915563513078 -51.538356835804677 0 -51.538356835804677 24.423204099749128 0 0 0 0 75.085439084730751 -0.23382361442054389 0 -0.23382361442054389 -362.13281999875107 0 0 0 0 7.4269870188572895 -115.42298091240991 0 -115.42298091240991 -18.072732871820335 0 0 0 0 1.8728153049887624 -107.1066477345812 0 -107.1066477345812 -0.1450858429069857 0 0 0 0 -24.895890523770618 -13.497823872473873 0 -13.497823872473873 -43.580852054175921 0 0 0 0 -24.21974846295052 -35.812906799539633 0 -35.812906799539633 -150.80886759926216 0 0 0 0 -72.071518690099765 -27.911112292389589 0 -27.911112292389589 4.7868758625700139 0 0 0 0 -54.563619628737797 -29.874788447523315 0 -29.874788447523315 4.6273257652246684 0 0 0 0 -63.43304456021724 130.68240814886667 0 130.68240814886667 84.24636758203269 0 0 0 0 8.0853886885452084 160.74692361272901 0 160.74692361272901 -207.24536721789627 0 0 0 0 -53.232330095510406 -70.435256944867433 0 -70.435256944867433 193.28948781516738 0 0 0 0 -15.09966082776009 -74.468314208539596 0 -74.468314208539596 142.07884339064185 0 0 0 0 -81.620091514125306 -12.980884715887441 0 -12.980884715887441 96.110666580294492 0 0 0 0 -75.656154822136159 -97.049764371160563 0 -97.049764371160563 124.84237968250818 0 0 0 0 -73.969509593189287 -36.188534448097926 0 -36.188534448097926 55.833765170315928 0 0 0 0 -92.332145119704364 -78.598875943542225 0 -78.598875943542225 52.877751902808086 0 0 0 0 -86.74823082819421 -65.899584717615653 0 -65.899584717615653 29.819172681312921 0 0 0 0 -81.731613785370428 -75.225748200171438 0 -75.225748200171438 19.142981662385864 0 0 0 0 14.311582301284428 -47.532464139802109 0 -47.532464139802109 14.528202826175544 0 0 0 0 -64.519349584537849 -54.500208064629987 0 -54.500208064629987 3.1920058133273415 0 0 0 0 -77.147463059955044 -52.956899472552323 0 -52.956899472552323 3.5915339447019505 0 0 0 0 -43.273481689982873 -57.264804679020017 0 -57.264804679020017 -39.433449904754525 0 0 0 0 -27.968283742113272 -46.670329156168009 0 -46.670329156168009 -85.741979014688695 0 0 0 0 -55.093089692590183 -35.717315068559401 0 -35.717315068559401 -37.666898442112142 0 0 0 0 -13.204632908312476 -44.957761310089523 0 -44.957761310089523 16.306536065770331 0 0 0 0 0.10931041872288461 -3.4295130111966614 0 -3.4295130111966614 8.8405787437398828 0 0 0 0 -13.855985330148542 -28.74369030406524 0 -28.74369030406524 0.031719146220586844 0 0 0 0 -101.3484480438201 -19.284218234264699 0 -19.284218234264699 86.30248035468685 0 0 0 0 -22.690756273368606 -22.361985149676912 0 -22.361985149676912 -0.020066499345937992 0 0 0 0 -13.969020543717079 -27.080981497293351 0 -27.080981497293351 -4.6095020585053135 0 0 0 0 6.5023854114624555 -38.815479304932524 0 -38.815479304932524 -1.7106425405145274 0 0 0 0 -4.9980025332514799 -22.0235953647163 0 -22.0235953647163 -3.4563032059125049 0 0 0 0 -43.778772793741837 -63.432733345345241 0 -63.432733345345241 -38.960848198606982 0 0 0 0 -26.709265955729265 -44.151314425975784 0 -44.151314425975784 -15.597831552421695 0 0 0 0 -71.969107665991032 -71.971813245112571 0 -71.971813245112571 -26.865104407901526 0 0 0 0 10.880444190133826 -58.569165264245754 0 -58.569165264245754 4.3129000163358455 0 0 0 0 227.39171536832146 -94.738943898439175 0 -94.738943898439175 -68.731549031741451 0 0 0 0 18.254600756861976 -46.331261353119999 0 -46.331261353119999 -61.315589807105226 0 0 0 0 3.2070648692978594 -20.75517469523507 0 -20.75517469523507 -37.886157961842969 0 0 0 0 -55.903002527807985 -75.807105197754936 0 -75.807105197754936 -48.945681417390006 0 0 0 0 328.25210765040538 29.81646624142013 0 29.81646624142013 -110.51095357284794 0 0 0 0 0.93645853151792835 -25.941622878008275 0 -25.941622878008275 78.812240322527941 0 0 0 0 -0.24534995064743725 -4.5128048302651678 0 -4.5128048302651678 -1.5516615290640914 0 0 0 0 -3.9881360086803639 -1.2588575686027923 0 -1.2588575686027923 -0.3626202510607186 0 0 0 0 580.7544405060471 -188.44756901677465 0 -188.44756901677465 0.34710916174373424 0 0 0 0 244.8605061503622 -309.00791187008872 0 -309.00791187008872 63.516480780031998 0 0 0 0 477.43007991579361 -247.8215695831168 0 -247.8215695831168 -75.296336369792698 0 0 0 0 163.19747149413888 -162.04217903417884 0 -162.04217903417884 -90.118698507734734 0 0 0 0 45.254492527426009 -91.554890841440283 0 -91.554890841440283 7.9160735437762924 0 0 0 0 -2.4306074597989209 -83.845714376337128 0 -83.845714376337128 6.82246635653064 0 0 0 0 -26.225265142933495 -97.60133377378861 0 -97.60133377378861 11.737755690919585 0 0 0 0 -23.477249566100909 -96.908789390889069 0 -96.908789390889069 2.004548516109935 0 0 0 0 38.875739189374144 -99.185915032860066 0 -99.185915032860066 -2.7238912985776551 0 0 0 0 40.398534428441053 -99.887844462333305 0 -99.887844462333305 -23.311228877675603 0 0 0 0 31.69427082707989 -107.81673874676926 0 -107.81673874676926 -25.134067693536053 0 0 0 0 -380.90295932531353 -625.72501467830443 0 -625.72501467830443 -320.52102327966713 0 0 0 0 -81.385334226551095 -352.81993053133192 0 -352.81993053133192 -147.48989081746549 0 0 0 0 -283.42348459685377 -735.04368980923027 0 -735.04368980923027 -465.53154123722925 0 0 0 0 185.92818839382562 17.877713115027291 0 17.877713115027291 72.666507332120091 0 0 0 0 110.21562053728212 -354.23265718213224 0 -354.23265718213224 -376.55025299537738 0 0 0 0 27.712754718027554 -80.015774767904077 0 -80.015774767904077 9.2070251888362691 0 0 0 0 -19.927118230075394 -313.7010766510939 0 -313.7010766510939 -265.58584393223282 0 0 0 0 1.3769948328736064 -127.24713692422665 0 -127.24713692422665 115.50299722191994 0 0 0 0 32.253182563879818 36.594088034849847 0 36.594088034849847 123.23046016140506 0 0 0 0 -137.35779134850964 -122.05108864248905 0 -122.05108864248905 155.13093657080026 0 0 0 0 -75.984695066266795 -304.05144098248275 0 -304.05144098248275 -165.36845318289124 0 0 0 0 114.36960856967107 -129.04077771894663 0 -129.04077771894663 -60.846177008512313 0 0 0 0 -286.72405743146101 -92.775212089708475 0 -92.775212089708475 154.48694207282097 0 0 0 0 -539.09990842061598 -578.06567168563197 0 -578.06567168563197 -164.03191925604187 0 0 0 0 -404.99848896422952 -579.65724925331779 0 -579.65724925331779 -241.54134695825633 0 0 0 0 -218.89124819349581 -305.783575140842 0 -305.783575140842 -77.225326333878911 0 0 0 0 -397.06228537562083 -595.27931299364718 0 -595.27931299364718 -376.55584102838475 0 0 0 0 -566.06058499603296 -897.18992523530324 0 -897.18992523530324 -504.01205752630267 0 0 0 0 -1128.1549720342398 -971.34080066830938 0 -971.34080066830938 -441.6008715054777 0 0 0 0 -824.33201544623648 -602.30209766816552 0 -602.30209766816552 -395.74952663519798 0 0 0 0 -975.53010575725034 -962.13215498042518 0 -962.13215498042518 -967.14322005858412 0 0 0 0 -601.0784870312566 -859.08226680909138 0 -859.08226680909138 -691.42892675094481 0 0 0 0 -602.81637047689264 -700.38597189261054 0 -700.38597189261054 -271.60532850839081 0 0 0 0 -382.5169159892539 -664.51230739990569 0 -664.51230739990569 -510.11425324450829 0 0 0 0 9.1649790351984848 5.2998275133431889 0 5.2998275133431889 -387.37247655830288 0 0 0 0 -556.97596712368693 60.698092515962344 0 60.698092515962344 214.91141453897581 0 0 0 0 -105.69974795232213 183.82319723892579 0 183.82319723892579 -181.59456128042075 0 0 0 0 -4.4897855715355384 -9.645690379268359 0 -9.645690379268359 10.092071134611899 0 0 0 0 -567.89587686605228 -1005.3623324387445 0 -1005.3623324387445 -1074.459454078562 0 0 0 0 79.461152063941881 -941.18953894104197 0 -941.18953894104197 -1167.0428550345532 0 0 0 0 -674.86723677842156 -661.62351903526724 0 -661.62351903526724 16.645343954005511 0 0 0 0 -177.63588204101461 -756.74190942941277 0 -756.74190942941277 830.31551191562903 0 0 0 0 304.97835640204994 -275.01551804936025 0 -275.01551804936025 150.93028126988793 0 0 0 0 -189.39273178611165 56.371185449475888 0 56.371185449475888 802.21218973412761 0 0 0 0 441.44202633262807 -732.76896371989278 0 -732.76896371989278 973.42546505184146 0 0 0 0 -13.063119243550233 -19.750849729157764 0 -19.750849729157764 16.455883629518553 0 0 0 0 -260.11464856956445 -507.5256028395961 0 -507.5256028395961 501.72234016474977 0 0 0 0 -46.576550808080277 -37.820827910664747 0 -37.820827910664747 3.1303513936344416 0 0 0 0 74.843941170262042 -396.17739500983953 0 -396.17739500983953 1025.8195858054387 0 0 0 0 -35.640958099622821 -285.08266345655284 0 -285.08266345655284 535.2802324812219 0 0 0 0 -95.085250173611712 -284.61643080787326 0 -284.61643080787326 623.22130617807852 0 0 0 0 1.5079018304631973 19.254781524243299 0 19.254781524243299 167.81875742023112 0 0 0 0 99.930226318812203 -39.153543192740472 0 -39.153543192740472 79.872390277858358 0 0 0 0 -157.85469026860073 1.5662753450451419 0 1.5662753450451419 189.69298251692817 0 0 0 0 -15.140567177377768 -25.381350824109361 0 -25.381350824109361 79.602010074518091 0 0 0 0 198.96153335103918 -274.43183985064388 0 -274.43183985064388 384.55505962632014 0 0 0 0 -28.960488358591647 -37.471185106100165 0 -37.471185106100165 420.69081182865193 0 0 0 0 13.332316013425043 -24.821296645743132 0 -24.821296645743132 194.063762542326 0 0 0 0 -1.1029980714164074 -11.963069054322659 0 -11.963069054322659 7.9471942411773284 0 0 0 0 26.791077649715589 -113.06531917893153 0 -113.06531917893153 276.90809458342846 0 0 0 0 9.4938783329525904 -96.648957575420354 0 -96.648957575420354 118.13613545292174 0 0 0 0 174.4020735189697 -43.159567344788229 0 -43.159567344788229 150.76771389289934 0 0 0 0 50.175182972807441 -51.005806253475981 0 -51.005806253475981 16.654116974022841 0 0 0 0 24.72314073752236 -73.255234612185703 0 -73.255234612185703 114.35874936089311 0 0 0 0 35.013376615012021 -100.97503476656129 0 -100.97503476656129 288.48609228436544 0 0 0 0 32.229828229686518 -82.914140290704751 0 -82.914140290704751 109.0595551359944 0 0 0 0 -28.186592533103976 -47.091493981519307 0 -47.091493981519307 111.71007121307048 0 0 0 0 26.837964258443662 -70.571011149429978 0 -70.571011149429978 87.157204164148425 0 0 0 0 -107.60225800136323 -287.42554298821233 0 -287.42554298821233 22.809270721947541 0 0 0 0 42.026605972132529 -309.10186578330467 0 -309.10186578330467 -119.68193810098091 0 0 0 0 -18.376924465330376 -186.25247598177157 0 -186.25247598177157 75.41346249236085 0 0 0 0 174.23152583526826 -211.01500686250074 0 -211.01500686250074 -68.673990558352671 0 0 0 0 1.4548041086841152 -32.249274548331186 0 -32.249274548331186 -48.257644551169193 0 0 0 0 157.76789356867539 -27.748526359134758 0 -27.748526359134758 -186.29029981645726 0 0 0 0 33.849681214669545 -31.0056777982536 0 -31.0056777982536 -99.030981921190687 0 0 0 0 4.9419405078396039 -0.43918865323749401 0 -0.43918865323749401 -7.3508502609454567 0 0 0 0 -37.517360956873745 16.341499372094404 0 16.341499372094404 -66.665386976295849 0 0 0 0 37.670592497146572 -128.1944243560938 0 -128.1944243560938 198.46737217574628 0 0 0 0 95.966349382131739 -43.273336499234574 0 -43.273336499234574 284.3621214669547 0 0 0 0 80.484130382348667 -92.649114951738738 0 -92.649114951738738 95.696138876512123 0 0 0 0 86.535590930026956 -135.33106027661415 0 -135.33106027661415 110.31985869257187 0 0 0 0 56.692627400669153 -121.7876600320451 0 -121.7876600320451 153.77019029662188 0 0 0 0 51.258645377820358 -103.04969636685564 0 -103.04969636685564 109.35997379107994 0 0 0 0 47.935475007485365 -84.457807935934397 0 -84.457807935934397 160.76840747175447 0 0 0 0 17.42926174799868 -111.3944891516112 0 -111.3944891516112 127.77838674475788 0 0 0 0 67.455181877994619 -96.144325510249473 0 -96.144325510249473 106.71418297337368 0 0 0 0 -42.283274328598054 -35.854293486452661 0 -35.854293486452661 62.447908544621896 0 0 0 0 7.6608316382189514 -82.209368913565413 0 -82.209368913565413 84.734269566688454 0 0 0 0 29.150346759006908 -59.705543780418779 0 -59.705543780418779 18.360811546428849 0 0 0 0 -1.6133686107015421 -3.7234984943980294 0 -3.7234984943980294 8.3663046049286436 0 0 0 0 3.9165637531752679 -19.816549134423916 0 -19.816549134423916 55.894311833764249 0 0 0 0 12.308522505947622 -47.771334668097552 0 -47.771334668097552 -43.060032057233911 0 0 0 0 63.023576820771268 -260.22461742537052 0 -260.22461742537052 271.62803400955454 0 0 0 0 -149.00723233808731 -164.45524350920368 0 -164.45524350920368 132.470204182202 0 0 0 0 1.579924197126644 -0.48872435758991628 0 -0.48872435758991628 0.41811478016098391 0 0 0 0 -54.189086749247508 -236.23350357628078 0 -236.23350357628078 444.49180734859692 0 0 0 0 54.40754971550632 -26.979454094092944 0 -26.979454094092944 -280.96147621943965 0 0 0 0 -85.842563490383327 -63.060016339179128 0 -63.060016339179128 82.631247173216252 0 0 0 0 55.816226507595275 -187.34139755209617 0 -187.34139755209617 173.14326074653945 0 0 0 0 68.487250215491258 -98.567294664916972 0 -98.567294664916972 28.624752233270556 0 0 0 0 -332.71277975214161 -72.634300881441959 0 -72.634300881441959 134.72762628554483 0 0 0 0 -89.630158865758858 -85.248783114759135 0 -85.248783114759135 -21.722458061885845 0 0 0 0 -158.91552295302245 14.395328514583525 0 14.395328514583525 25.131854324301457 0 0 0 0 6.9615840725164162 -43.059325756141334 0 -43.059325756141334 31.53020004489008 0 0 0 0 27.292048462593812 -107.62329333672096 0 -107.62329333672096 23.522697053194861 0 0 0 0 20.800919206129038 -105.93330822036114 0 -105.93330822036114 94.331863716040971 0 0 0 0 -107.73592804569489 -102.73921551809326 0 -102.73921551809326 51.929706475290004 0 0 0 0 -0.77496628202061402 -53.212784509647463 0 -53.212784509647463 42.445656178117133 0 0 0 0 95.928125509883102 -73.242478083808237 0 -73.242478083808237 97.242733069759652 0 0 0 0 31.303425441328727 -81.609860892054712 0 -81.609860892054712 98.319655456885812 0 0 0 0 66.38166953806649 -112.2056692843471 0 -112.2056692843471 109.57486037988542 0 0 0 0 73.730038628986222 -104.76770466831294 0 -104.76770466831294 82.183421637528227 0 0 0 0 79.993045133989654 -92.209988206763228 0 -92.209988206763228 91.348609391621721 0 0 0 0 84.029096859376295 -95.139912448885298 0 -95.139912448885298 51.91410123641981 0 0 0 0 70.856029456524993 -71.53670164901996 0 -71.53670164901996 54.271844661423529 0 0 0 0 19.259138018260273 -91.80344811832947 0 -91.80344811832947 70.595477695940644 0 0 0 0 72.569444639342692 -82.574109555331233 0 -82.574109555331233 107.17534067531233 0 0 0 0 18.028578279837745 -60.951675464538106 0 -60.951675464538106 112.80226565637662 0 0 0 0 86.333064723112329 -61.488570751964289 0 -61.488570751964289 118.89327144133858 0 0 0 0 83.627735769015999 -91.88528690516614 0 -91.88528690516614 80.293724174407544 0 0 0 0 -234.10374401787499 2.3856343844017829 0 2.3856343844017829 136.30813509612926 0 0 0 0 151.77520188753988 -44.787606888159644 0 -44.787606888159644 94.982099981010833 0 0 0 0 21.852045393537907 -66.573530515488073 0 -66.573530515488073 108.24182470235417 0 0 0 0 117.82673756351869 -73.024343095807126 0 -73.024343095807126 121.68390175934474 0 0 0 0 113.57683599469601 -38.970061068233917 0 -38.970061068233917 115.05934649600567 0 0 0 0 106.19130046421378 -66.190628025151454 0 -66.190628025151454 86.673202923528152 0 0 0 0 39.905153822895954 -21.07524273157469 0 -21.07524273157469 113.9944400406639 0 0 0 0 64.451983896149613 -48.068480057518173 0 -48.068480057518173 111.69659561071603 0 0 0 0 65.024903887041887 -65.229345412435237 0 -65.229345412435237 93.263033732393524 0 0 0 0 -277.2293125214037 -431.60735659967759 0 -431.60735659967759 -651.59240974028944 0 0 0 0 78.375461948487015 -71.225256049712513 0 -71.225256049712513 32.086011240223492 0 0 0 0 56.572290663883905 -47.263142978154065 0 -47.263142978154065 151.48805406199608 0 0 0 0 -82.63917369414412 -582.70856334804557 0 -582.70856334804557 -941.98912253075105 0 0 0 0 -599.15911358184167 -899.98858007852687 0 -899.98858007852687 -847.58414308819192 0 0 0 0 -681.15057914923818 -698.84204128303099 0 -698.84204128303099 -1550.9422648299951 0 0 0 0 -336.26087113685389 -1044.1375083901657 0 -1044.1375083901657 -1781.1691029755748 0 0 0 0 9.7343816759765289 -14.682353151928762 0 -14.682353151928762 -5.5397051869263692 0 0 0 0 552.99252161229379 -745.08842252509203 0 -745.08842252509203 -1649.6854688609019 0 0 0 0 -187.3111518356236 5.0792099016907741 0 5.0792099016907741 36.359798735633376 0 0 0 0 -172.70365384692877 -75.84158600450246 0 -75.84158600450246 121.73536155496549 0 0 0 0 -0.84465017533511855 -52.515661546829506 0 -52.515661546829506 97.525516291490931 0 0 0 0 16.87315760958154 -92.95047158865782 0 -92.95047158865782 119.53486864648221 0 0 0 0 62.476248683315845 -65.357865702132315 0 -65.357865702132315 27.327370907708506 0 0 0 0 -261.41666397966765 -240.12841635450604 0 -240.12841635450604 41.699751610143721 0 0 0 0 75.748885026692733 -139.75782505336247 0 -139.75782505336247 -271.76301326714747 0 0 0 0 -80.761845996417833 -197.45320739762246 0 -197.45320739762246 -259.99229477881818 0 0 0 0 47.706239338343948 -186.38032343417581 0 -186.38032343417581 -593.0372756212746 0 0 0 0 -461.43531311627703 -684.56184867545016 0 -684.56184867545016 -440.2779879993177 0 0 0 0 -87.202204529943629 -303.59825194737095 0 -303.59825194737095 -242.66573271555535 0 0 0 0 -223.0449006737781 -353.13587609069873 0 -353.13587609069873 -2.0474024774739519 0 0 0 0 -612.14417207737461 -695.67252615492907 0 -695.67252615492907 -537.50198816033662 0 0 0 0 -501.80235626316158 -746.0298423771643 0 -746.0298423771643 -697.23859773998265 0 0 0 0 -9.3289266069821721 -2.5085072799435579 0 -2.5085072799435579 4.776943397648779 0 0 0 0 -504.36750751950842 -468.87319852693582 0 -468.87319852693582 -698.98862254196138 0 0 0 0 -215.89199628575443 -591.82598975235305 0 -591.82598975235305 -701.83007101799376 0 0 0 0 -334.98363661951225 -212.12852799793473 0 -212.12852799793473 -0.58099786648381269 0 0 0 0 -293.85607932943458 -852.52627199465496 0 -852.52627199465496 -1010.4986779254687 0 0 0 0 -5.6315408800129134 -2.6228292315849018 0 -2.6228292315849018 3.7364980411058184 0 0 0 0 -536.19755277330933 -523.77214891403491 0 -523.77214891403491 -435.68736264140171 0 0 0 0 -810.41044964955972 -464.61256282711838 0 -464.61256282711838 -0.2868333199803601 0 0 0 0 -934.1533459043294 -666.9081589579946 0 -666.9081589579946 -229.24323182704393 0 0 0 0 -985.56383867663726 -771.34086178236976 0 -771.34086178236976 -416.85464823065558 0 0 0 0 -777.15610077084966 -577.27335325739114 0 -577.27335325739114 -533.47460658322962 0 0 0 0 -650.12798870724691 -605.46144787376397 0 -605.46144787376397 -446.21554285958337 0 0 0 0 -710.52307608175943 -494.49796384447836 0 -494.49796384447836 -432.25469231841271 0 0 0 0 -678.1548692639949 -822.51525796361238 0 -822.51525796361238 -504.00268966695876 0 0 0 0 -868.13934782149408 -1421.7974584627518 0 -1421.7974584627518 -1368.059502805525 0 0 0 0 -823.39916084369997 -1041.537911356776 0 -1041.537911356776 -640.74025124615582 0 0 0 0 -17.210742880901648 -17.947265210268085 0 -17.947265210268085 30.490337149731204 0 0 0 0 -262.37137751804767 -1229.2241347696399 0 -1229.2241347696399 -2268.1719288191671 0 0 0 0 -632.19523617911727 -94.389628104683652 0 -94.389628104683652 -513.65492921641271 0 0 0 0 -6.4157420159991538 -1.4082649212812726 0 -1.4082649212812726 2.1022612945613446 0 0 0 0 -1060.6898871793978 -1145.7882212124241 0 -1145.7882212124241 -899.67119708068276 0 0 0 0 -839.01995734141519 -899.3698471357784 0 -899.3698471357784 -316.93510039508692 0 0 0 0 -631.63124143171217 -763.37763307848218 0 -763.37763307848218 -540.86487365265202 0 0 0 0 -606.33114417367142 -875.41272907549137 0 -875.41272907549137 -392.90681409562239 0 0 0 0 -870.40271659432892 -549.49547122879449 0 -549.49547122879449 104.26842508469417 0 0 0 0 -878.64038603927304 -774.06875767424867 0 -774.06875767424867 163.39883472121437 0 0 0 0 -758.83685999409988 -1024.6820589512972 0 -1024.6820589512972 -608.4990867045417 0 0 0 0 -870.62339434097271 -964.53420102118253 0 -964.53420102118253 -640.84803545480099 0 0 0 0 -1072.6394560898655 -789.41142220437303 0 -789.41142220437303 -318.97520070236351 0 0 0 0 -804.23407067048686 -769.20174498099732 0 -769.20174498099732 -365.57836037372545 0 0 0 0 -805.23755750193698 -833.26313604179268 0 -833.26313604179268 -350.09972433834628 0 0 0 0 -1045.0301332521699 -709.89038586689821 0 -709.89038586689821 0.34688162634847686 0 0 0 0 -694.56870562381164 -1058.6076210419124 0 -1058.6076210419124 -2.6554598820693425 0 0 0 0 -497.55237292132307 -1182.037177549857 0 -1182.037177549857 -618.27881925395923 0 0 0 0 -455.14897857437495 -1219.6429021187123 0 -1219.6429021187123 -1195.6958370853827 0 0 0 0 -609.9526933396869 -859.76937828848168 0 -859.76937828848168 -486.32900424701802 0 0 0 0 -455.40106053354066 -797.83310318833537 0 -797.83310318833537 -682.59873743290336 0 0 0 0 -514.92767219728012 -772.11119606444117 0 -772.11119606444117 -482.05579853567178 0 0 0 0 -431.47897974324133 -448.10468606935319 0 -448.10468606935319 -477.09836106003786 0 0 0 0 -784.92648039760206 -545.08290727688291 0 -545.08290727688291 -0.24462407352984883 0 0 0 0 -3.4848787245060642 -4.7067249525226487 0 -4.7067249525226487 3.9671518832642789 0 0 0 0 -322.43877823462753 -205.81484146035655 0 -205.81484146035655 -0.61907273213472003 0 0 0 0 -620.53641372070615 -652.93240465552662 0 -652.93240465552662 -906.65224015242711 0 0 0 0 -648.26021778598647 -781.25452595551542 0 -781.25452595551542 -466.78606081126782 0 0 0 0 -627.832361790508 -740.89545044478291 0 -740.89545044478291 -541.90120934602419 0 0 0 0 -3.7396557026700421 -7.2148803463064155 0 -7.2148803463064155 7.0334469757050613 0 0 0 0 -644.63073763552256 -803.75832367422481 0 -803.75832367422481 -481.23672507676383 0 0 0 0 -650.95947810778534 -840.12902225743164 0 -840.12902225743164 -397.02793553503579 0 0 0 0 -420.11972635811844 -718.12372076664178 0 -718.12372076664178 -492.31981739564981 0 0 0 0 -525.75314987478032 -725.17803166894373 0 -725.17803166894373 -497.09830118443642 0 0 0 0 -548.05453700095677 -836.6848019246172 0 -836.6848019246172 -178.3236873827118 0 0 0 0 -95.839500849579963 -449.52855884873861 0 -449.52855884873861 -337.25452910625245 0 0 0 0 -599.98403346863597 -161.05427295724076 0 -161.05427295724076 727.80795336335723 0 0 0 0 -1096.9454379163562 -1645.0155295269333 0 -1645.0155295269333 -1531.5306239655183 0 0 0 0 -7.681117360406196 -5.0823825232891409 0 -5.0823825232891409 2.5653791910777528 0 0 0 0 -613.027871248868 -994.26496959419455 0 -994.26496959419455 -1068.5099534106412 0 0 0 0 -646.60258989504655 -1190.6592656211578 0 -1190.6592656211578 -831.36714907557325 0 0 0 0 -959.72450477188386 -402.19116663672321 0 -402.19116663672321 -251.25477005037828 0 0 0 0 -624.86254031577482 -969.7037609064937 0 -969.7037609064937 -920.14780520794739 0 0 0 0 -510.66378239957794 -780.75644789143917 0 -780.75644789143917 -598.24073762038461 0 0 0 0 -12.027312743273878 -7.281709411825716 0 -7.281709411825716 4.2042248272028218 0 0 0 0 -581.9160608141483 -754.63396357832244 0 -754.63396357832244 -403.55011710770259 0 0 0 0 -430.17381708461653 -1259.6066748962912 0 -1259.6066748962912 -1685.6280931183283 0 0 0 0 -5.7418315703840861 -4.2778272694159227 0 -4.2778272694159227 1.6738484653049426 0 0 0 0 -98.84421341668849 -162.19990324406535 0 -162.19990324406535 300.97037791502953 0 0 0 0 -141.54255053012457 -490.43428203756048 0 -490.43428203756048 -844.58358503958152 0 0 0 0 -34.918040977070632 -798.24553656894568 0 -798.24553656894568 -475.31264296261361 0 0 0 0 -111.78623517652159 -953.78761967162427 0 -953.78761967162427 -440.7600863556072 0 0 0 0 149.65574288830067 -972.92000957603523 0 -972.92000957603523 -453.15053701688885 0 0 0 0 -94.97389654788833 -960.66550599509696 0 -960.66550599509696 78.206740302586695 0 0 0 0 -16.126662853903326 -807.38608697539894 0 -807.38608697539894 -215.53500421498757 0 0 0 0 -184.91026306882122 -1529.2130143108952 0 -1529.2130143108952 -354.83660076129672 0 0 0 0 -110.68020139707005 -754.44438180146244 0 -754.44438180146244 865.20688621762383 0 0 0 0 -603.99618554124572 -622.21234059342532 0 -622.21234059342532 1259.4197864332091 0 0 0 0 -2048.5002099590838 -2410.4325936993409 0 -2410.4325936993409 -242.12846552855626 0 0 0 0 -523.68775921736233 -1000.4611917102229 0 -1000.4611917102229 2150.8554520942998 0 0 0 0 -20.269060872420297 -8.4234613443279613 0 -8.4234613443279613 -3.5743939933195463 0 0 0 0 -1899.2190845575205 1212.9101150743954 0 1212.9101150743954 659.14122443104861 0 0 0 0 133.53799221594392 -1133.5949660417061 0 -1133.5949660417061 -1695.5373447795428 0 0 0 0 167.34385126169127 -157.01150740850426 0 -157.01150740850426 -102.03319395027938 0 0 0 0 -1440.0190801876797 -107.98548239449156 0 -107.98548239449156 -950.25873532023979 0 0 0 0 133.82040248339854 -1012.7120246377926 0 -1012.7120246377926 -2041.360341611653 0 0 0 0 -2094.2531241948727 -1709.7548803114041 0 -1709.7548803114041 -959.93992102508491 0 0 0 0 -288.28947436050476 -1367.6178169816703 0 -1367.6178169816703 -612.27548835558264 0 0 0 0 -162.60341091356713 -1071.1652576314937 0 -1071.1652576314937 -670.04617109270475 0 0 0 0 -112.38950478048719 -1790.3176906987428 0 -1790.3176906987428 -1039.1806206459332 0 0 0 0 90.914526727257908 -801.55069183203886 0 -801.55069183203886 -856.32630253558455 0 0 0 0 85.46711795491683 -849.70651199199347 0 -849.70651199199347 -937.94118534357403 0 0 0 0 -31.859142103283375 -884.53976334786421 0 -884.53976334786421 -810.45488169194141 0 0 0 0 -26.765485185722355 -804.48310304501501 0 -804.48310304501501 -237.38105953937338 0 0 0 0 -6.8093839621651568 -984.24429068101017 0 -984.24429068101017 -576.00058323839767 0 0 0 0 -150.79675088262047 -1258.9000499435715 0 -1258.9000499435715 -643.95812761403067 0 0 0 0 -16.925346366311715 -1073.8091896319311 0 -1073.8091896319311 -493.19884719846596 0 0 0 0 -94.443363861999387 -1274.3288728835978 0 -1274.3288728835978 -966.28840393402834 0 0 0 0 -159.58919873205559 -1134.8378302140627 0 -1134.8378302140627 -746.99894142502308 0 0 0 0 -593.30515041733679 -1036.3132660057154 0 -1036.3132660057154 -408.83686872274848 0 0 0 0 -143.67422184493989 -1183.6134049675056 0 -1183.6134049675056 -384.02810431479156 0 0 0 0 -157.97598606120505 -1114.5066141487905 0 -1114.5066141487905 -491.02047184070398 0 0 0 0 -135.75360919228115 -947.55614286414493 0 -947.55614286414493 -307.91474169591311 0 0 0 0 49.782716194247769 -1065.4720929589312 0 -1065.4720929589312 -236.4320381676589 0 0 0 0 -261.46199309551412 -969.25380944823701 0 -969.25380944823701 -141.54343161007273 0 0 0 0 -243.603206640586 -1006.461796763142 0 -1006.461796763142 -113.24784550660843 0 0 0 0 -228.24021684506079 -1083.4524770097632 0 -1083.4524770097632 -133.36478013677697 0 0 0 0 -216.9657589425824 -1099.7308351873435 0 -1099.7308351873435 -424.76758590698591 0 0 0 0 -575.11811118982223 -480.30216398753691 0 -480.30216398753691 423.90495982139691 0 0 0 0 -2.8990282494060864 -4.3473643921118423 0 -4.3473643921118423 3.9504389418641495 0 0 0 0 -491.58368949029682 -1196.4524724286966 0 -1196.4524724286966 -1216.7832500996374 0 0 0 0 -746.28184282637176 -548.39690385506219 0 -548.39690385506219 -456.35748287956812 0 0 0 0 -551.4140200224133 -1147.1675931754235 0 -1147.1675931754235 -145.98029832671455 0 0 0 0 -696.23407019523438 -832.69243043202732 0 -832.69243043202732 -0.11220100360515062 0 0 0 0 -720.64572326641792 -725.67489848646801 0 -725.67489848646801 -354.37398964756358 0 0 0 0 63.999905987385318 -1025.6391202692712 0 -1025.6391202692712 -247.2841948196583 0 0 0 0 -302.95519485104342 -866.3282205445721 0 -866.3282205445721 -454.61857387052078 0 0 0 0 -286.32883337031853 -963.71731522506889 0 -963.71731522506889 -43.709183665938326 0 0 0 0 -16.505219668852078 -1108.5134188354277 0 -1108.5134188354277 -0.32979907069238834 0 0 0 0 133.16975136324254 -930.48846466933719 0 -930.48846466933719 -129.78317513073853 0 0 0 0 383.87747845673221 -1173.5911631536292 0 -1173.5911631536292 0.2069347808137536 0 0 0 0 70.34837883050659 -1058.3263359590683 0 -1058.3263359590683 -84.353283422562527 0 0 0 0 770.34103944082199 -952.18961754317934 0 -952.18961754317934 -258.6895810564456 0 0 0 0 1583.7364025382885 -1351.4701945417037 0 -1351.4701945417037 -0.35068283950426798 0 0 0 0 4.3072921314927157 -4.5622593783439527 0 -4.5622593783439527 4.1386370987066812 0 0 0 0 2333.0828971051506 -138.16544253889697 0 -138.16544253889697 -470.28881578279834 0 0 0 0 662.56106062557046 -92.710761494181497 0 -92.710761494181497 -471.39961784449406 0 0 0 0 1290.3821781159568 -819.25530056884236 0 -819.25530056884236 -410.69493714471901 0 0 0 0 742.50390307512498 -915.02932769892504 0 -915.02932769892504 -140.75323894904432 0 0 0 0 670.70017962055863 -611.96046486160049 0 -611.96046486160049 -471.14445764081029 0 0 0 0 783.99100397433813 -855.47994377039322 0 -855.47994377039322 -261.98354664424551 0 0 0 0 493.73792848824814 -439.57001286771629 0 -439.57001286771629 -39.937471367346006 0 0 0 0 319.56933281444799 -869.81780918672303 0 -869.81780918672303 -124.64772861049278 0 0 0 0 356.49597897844797 -919.3911547560856 0 -919.3911547560856 -241.24776263434615 0 0 0 0 47.646926521063506 -1034.9080480893531 0 -1034.9080480893531 -148.84633288197801 0 0 0 0 404.94133789906846 -964.47154678692459 0 -964.47154678692459 -216.4995818494499 0 0 0 0 401.29048593766856 -957.95269356315112 0 -957.95269356315112 -191.96309919335181 0 0 0 0 -104.6703751116811 -777.21701036575541 0 -777.21701036575541 -0.43922943562938599 0 0 0 0 431.68219527711517 -906.28993560924755 0 -906.28993560924755 -245.09933474495483 0 0 0 0 215.09639673199854 -900.7187423596406 0 -900.7187423596406 103.53946613747394 0 0 0 0 -813.27748383016296 -570.46866223052348 0 -570.46866223052348 -0.64501674618291593 0 0 0 0 -224.36547947289728 -502.30513624738887 0 -502.30513624738887 -286.10571111254103 0 0 0 0 -490.40729792244383 -759.35314494204795 0 -759.35314494204795 -335.07464058034384 0 0 0 0 -272.74318579108149 -454.73557943963715 0 -454.73557943963715 -319.60882371815387 0 0 0 0 9.6722894392738823 -11.68623388122279 0 -11.68623388122279 8.8780388813523814 0 0 0 0 104.48448347597878 88.817588400306704 0 88.817588400306704 -505.80589109101857 0 0 0 0 188.58242434944623 -756.71851847501239 0 -756.71851847501239 -774.39328265894437 0 0 0 0 545.52784449782121 -592.93582528190746 0 -592.93582528190746 252.17883227425045 0 0 0 0 133.87150883657523 -562.5139851140666 0 -562.5139851140666 743.10573425090115 0 0 0 0 2054.7930225962991 -2416.222326988951 0 -2416.222326988951 1001.2890394657516 0 0 0 0 -1061.4987001893041 -1641.9648661256379 0 -1641.9648661256379 844.66157322528306 0 0 0 0 1658.4203885171737 -813.07402107235976 0 -813.07402107235976 -525.79150886565913 0 0 0 0 4.2360220803216322 -6.4059892050026122 0 -6.4059892050026122 6.38516510186696 0 0 0 0 2835.5742359172655 -1080.3267897358601 0 -1080.3267897358601 -535.45281038583198 0 0 0 0 214.29079134992116 -1552.5200755853557 0 -1552.5200755853557 519.32521515150438 0 0 0 0 230.96597561701492 -1398.5196418146234 0 -1398.5196418146234 37.462609748617979 0 0 0 0 1915.3795208836527 -1792.2835133483313 0 -1792.2835133483313 122.54822935036646 0 0 0 0 4871.2127728530249 -2978.4690227199535 0 -2978.4690227199535 1322.8293567434011 0 0 0 0 3135.1157367202832 -4232.5536832520302 0 -4232.5536832520302 1101.0957817285089 0 0 0 0 -2789.5284913139621 -1746.692763875355 0 -1746.692763875355 911.07640786509728 0 0 0 0 -1082.6473613159105 -795.15535491913761 0 -795.15535491913761 46.470190833002562 0 0 0 0 19.862726924213348 -2449.4560915838956 0 -2449.4560915838956 1079.6029015733802 0 0 0 0 -885.81203446950167 -1170.0624281135752 0 -1170.0624281135752 510.63579910833505 0 0 0 0 -465.13378841627855 -999.65009824204026 0 -999.65009824204026 306.46239353488636 0 0 0 0 -1085.5010802311299 -794.23438010332757 0 -794.23438010332757 239.50653074854199 0 0 0 0 -297.40278188896627 -911.15778661663353 0 -911.15778661663353 94.953828268291545 0 0 0 0 -529.81348266120403 -786.05884187483025 0 -786.05884187483025 213.86479971784865 0 0 0 0 -164.93320523902003 -1140.6077776050042 0 -1140.6077776050042 98.770313551780418 0 0 0 0 -23.070679532975191 -980.98148396710167 0 -980.98148396710167 278.09788884535374 0 0 0 0 -98.182193189655663 -907.45978639340319 0 -907.45978639340319 -64.957405698645744 0 0 0 0 -503.6335908869105 -703.93320305727684 0 -703.93320305727684 -201.22365548164817 0 0 0 0 -548.11418589070217 -917.16277719007121 0 -917.16277719007121 15.116780238371575 0 0 0 0 -300.94085954027105 -753.48365740196459 0 -753.48365740196459 -199.16235214662447 0 0 0 0 -561.67124098058412 -642.31940601853421 0 -642.31940601853421 -145.91605044818425 0 0 0 0 -648.98590368335135 -991.1878683039904 0 -991.1878683039904 -157.87556953533203 0 0 0 0 -1172.2594031131157 -633.86416899916367 0 -633.86416899916367 -32.123435865272768 0 0 0 0 -970.10845230554696 -305.5978669339529 0 -305.5978669339529 -484.76005157242616 0 0 0 0 -0.70099295931445127 -8.2426807425905864 0 -8.2426807425905864 3.458017702203108 0 0 0 0 -3853.7221063568686 -686.25607768476766 0 -686.25607768476766 1004.6514943468792 0 0 0 0 -2803.5331513028286 -117.19896569217235 0 -117.19896569217235 69.180104922852479 0 0 0 0 -1352.6866979776023 -404.62534524902003 0 -404.62534524902003 0.89935543978936039 0 0 0 0 -776.21777238501818 -749.74064134077344 0 -749.74064134077344 38.489376538098441 0 0 0 0 -750.14807919794112 -135.47966306058515 0 -135.47966306058515 -60.559537709224969 0 0 0 0 -4.7477237660480647 -21.730217165337059 0 -21.730217165337059 9.0076753004273655 0 0 0 0 1351.3423372998514 -690.0065442900941 0 -690.0065442900941 112.5689139480819 0 0 0 0 1868.2799229771153 -1007.2185202779438 0 -1007.2185202779438 182.92437743898336 0 0 0 0 1712.0151452501377 -755.1403699963048 0 -755.1403699963048 556.80459089310898 0 0 0 0 4945.718212697122 -1647.984213391263 0 -1647.984213391263 19.390903806866845 0 0 0 0 1422.4877847581265 -1521.1332598926274 0 -1521.1332598926274 802.0945255272527 0 0 0 0 1160.9816579537728 -1224.4120932557635 0 -1224.4120932557635 253.02653952167748 0 0 0 0 614.4037043411081 -979.70888953222311 0 -979.70888953222311 597.03700996330008 0 0 0 0 482.47415714283488 -1238.2626218796213 0 -1238.2626218796213 594.45902968693554 0 0 0 0 -62.131901059343363 -898.66834223632759 0 -898.66834223632759 -1591.7410120675577 0 0 0 0 465.1822802148381 -819.96488772005614 0 -819.96488772005614 1265.436156027441 0 0 0 0 -1.6390754386851683 -8.6641752590172985 0 -8.6641752590172985 2.2385769577059804 0 0 0 0 -910.25913121368376 -921.0553675524252 0 -921.0553675524252 -1139.0195221978065 0 0 0 0 50.419936097292521 204.44081600435311 0 204.44081600435311 -564.81898459303193 0 0 0 0 7.048553476045532 -7.3563625576752685 0 -7.3563625576752685 -3.9376898979917883 0 0 0 0 -240.14031347640048 -38.373960870088922 0 -38.373960870088922 72.799170639016666 0 0 0 0 -0.04431053590940337 -28.979661652080196 0 -28.979661652080196 9.0821918128882544 0 0 0 0 295.8145230362461 -413.10234964401752 0 -413.10234964401752 506.08122677737265 0 0 0 0 -188.29301131641841 -303.99304128346557 0 -303.99304128346557 -101.55853360742913 0 0 0 0 -537.59306314203423 -586.47007164872048 0 -586.47007164872048 454.48461298338952 0 0 0 0 -278.43994305024535 -796.16075085248303 0 -796.16075085248303 538.96915551362326 0 0 0 0 76.197764409545925 -557.1653901796235 0 -557.1653901796235 116.59203960309969 0 0 0 0 -64.974732598544506 1.8477862708459725 0 1.8477862708459725 -105.71481347097142 0 0 0 0 -269.99642241582478 -705.36355103243841 0 -705.36355103243841 -1130.5292482069781 0 0 0 0 39.750929828914877 -22.975365899582471 0 -22.975365899582471 -0.63335887411514591 0 0 0 0 106.15893458273058 -314.28693159789691 0 -314.28693159789691 321.36171175539494 0 0 0 0 21.807211475588076 -13.170605890230263 0 -13.170605890230263 1.6534054627677222 0 0 0 0 372.37519067497487 -261.87944256167248 0 -261.87944256167248 -1996.1028056482901 0 0 0 0 3.8375448718138898 -4.5484033166220286 0 -4.5484033166220286 -0.35432921395198491 0 0 0 0 -450.52605090945144 -47.520094152641832 0 -47.520094152641832 -1634.6592431354511 0 0 0 0 -532.04175870132167 -476.12158588523744 0 -476.12158588523744 895.85787828050161 0 0 0 0 -55.395976227358915 -265.99514960181841 0 -265.99514960181841 330.11575909814565 0 0 0 0 -411.17429052983789 -797.09466330380747 0 -797.09466330380747 -3.223545373766683 0 0 0 0 -316.88003035975271 -621.10769430856453 0 -621.10769430856453 72.877162193886761 0 0 0 0 287.57553032915894 -1272.4801545823429 0 -1272.4801545823429 -187.28497030128347 0 0 0 0 19.002360325757763 -1281.2179404417257 0 -1281.2179404417257 -427.09349444644795 0 0 0 0 34.59332810100932 -987.74944952760052 0 -987.74944952760052 -351.48190756437543 0 0 0 0 126.18345626452901 -1092.8141284473895 0 -1092.8141284473895 -239.36644208281359 0 0 0 0 282.36015689846499 -906.57081819481391 0 -906.57081819481391 -78.853877487170394 0 0 0 0 387.42650020075962 -918.06626535313262 0 -918.06626535313262 -189.54749691110192 0 0 0 0 393.30541372001608 -860.50466035098361 0 -860.50466035098361 370.46743873231753 0 0 0 0 330.32001475154902 -1217.3326352697695 0 -1217.3326352697695 354.44739255221793 0 0 0 0 613.68217915938317 -1004.7245484456384 0 -1004.7245484456384 103.972982332416 0 0 0 0 355.60440329161065 -1188.4065089146316 0 -1188.4065089146316 -98.675241593911778 0 0 0 0 462.3368491051333 -1514.0636365938262 0 -1514.0636365938262 -12.617183600363205 0 0 0 0 459.35242945396203 -1406.3311381682979 0 -1406.3311381682979 -190.56065038820816 0 0 0 0 418.60405148148857 -1483.9412601069562 0 -1483.9412601069562 -232.7216443842608 0 0 0 0 311.34093142920938 -1530.0852149636012 0 -1530.0852149636012 -506.52511003965628 0 0 0 0 342.38100852600655 -1422.7858390283109 0 -1422.7858390283109 -188.90346223922097 0 0 0 0 168.48376327868573 -1104.8572368623136 0 -1104.8572368623136 -417.27626914305438 0 0 0 0 -28.972493936400497 -1471.0435383079785 0 -1471.0435383079785 -240.00750250929559 0 0 0 0 233.10648770967737 -2598.6619530792877 0 -2598.6619530792877 869.68221675207315 0 0 0 0 350.15904132970536 -1520.8172900089558 0 -1520.8172900089558 -381.92724270423787 0 0 0 0 -415.90765359604484 -1269.3552055356049 0 -1269.3552055356049 2340.2820111945693 0 0 0 0 -359.61527851722349 -1289.2993810677362 0 -1289.2993810677362 1196.4831347499567 0 0 0 0 150.18980374229068 -1268.2194791340262 0 -1268.2194791340262 571.77258234074543 0 0 0 0 308.68666959726443 -1742.347616532315 0 -1742.347616532315 4.9449258515669499 0 0 0 0 140.11543052589332 -1403.818327971785 0 -1403.818327971785 -70.543770868818683 0 0 0 0 413.37739216156479 -1385.0608648127381 0 -1385.0608648127381 -175.6163015653292 0 0 0 0 -326.85200177360821 -806.38587083137827 0 -806.38587083137827 182.27032969600987 0 0 0 0 224.71951738815369 -1227.6665725642451 0 -1227.6665725642451 229.73919958657643 0 0 0 0 528.75819942839735 -556.08826990494708 0 -556.08826990494708 722.02642565497081 0 0 0 0 -185.66570803718423 -724.90170007525376 0 -724.90170007525376 1235.8280703055934 0 0 0 0 310.23299917682289 -1277.7098826289666 0 -1277.7098826289666 498.73865951485641 0 0 0 0 -438.04989203859441 -333.14192339268629 0 -333.14192339268629 650.80776850257826 0 0 0 0 3.289501655471625 -5.5887528109018092 0 -5.5887528109018092 8.2338451302591693 0 0 0 0 943.00548940528824 -400.04770111905236 0 -400.04770111905236 3.3345832994091325 0 0 0 0 -759.91398257201217 -220.79335864022141 0 -220.79335864022141 482.06417712992697 0 0 0 0 -191.96158858286071 -493.11519179902098 0 -493.11519179902098 559.66310411831364 0 0 0 0 -56.700324437988456 -779.10943901460632 0 -779.10943901460632 -72.517908481837367 0 0 0 0 -16.426739797381742 -78.736146276227373 0 -78.736146276227373 260.22306599395233 0 0 0 0 -672.39275052761877 -415.47936693323572 0 -415.47936693323572 1591.824068197122 0 0 0 0 -394.09848731327293 -837.03133882542897 0 -837.03133882542897 1658.9400293418876 0 0 0 0 -323.85654321039692 -835.85168694315507 0 -835.85168694315507 1603.5341534996114 0 0 0 0 -468.81524186642491 -715.68875534138351 0 -715.68875534138351 1514.0111428508899 0 0 0 0 -216.00821494673437 -548.06721275945165 0 -548.06721275945165 1276.5942182179861 0 0 0 0 163.67766403770111 -593.2970256407807 0 -593.2970256407807 355.15574912713782 0 0 0 0 180.82843038463761 -554.32580947373935 0 -554.32580947373935 324.55749117479718 0 0 0 0 98.806476467663742 -473.90972982635321 0 -473.90972982635321 617.21631541170063 0 0 0 0 56.943997160669824 -299.18939476755622 0 -299.18939476755622 341.26347094895027 0 0 0 0 93.632792638183219 -413.56340207849098 0 -413.56340207849098 241.29344312200556 0 0 0 0 -389.23372199922233 -1187.9683562828141 0 -1187.9683562828141 -252.592675879132 0 0 0 0 233.84811421632185 -176.54469554960087 0 -176.54469554960087 -909.48801671696128 0 0 0 0 138.83549960872915 -294.89781172385847 0 -294.89781172385847 -432.83265552541707 0 0 0 0 -821.5568258286221 -1034.7910932642371 0 -1034.7910932642371 2224.6970231265877 0 0 0 0 -59.72609124777955 -364.72408987771269 0 -364.72408987771269 880.48044705555367 0 0 0 0 -573.13348383527773 -1181.4261887801404 0 -1181.4261887801404 453.71639158219114 0 0 0 0 -912.84082920465153 -529.54665434185154 0 -529.54665434185154 104.69491601391928 0 0 0 0 -546.681325219055 -620.9720914804202 0 -620.9720914804202 -1178.4154797672527 0 0 0 0 123.27443705090991 -1200.0313399093029 0 -1200.0313399093029 -1157.5549707811006 0 0 0 0 -436.43837079362311 -1044.6766303519726 0 -1044.6766303519726 24.654822155207512 0 0 0 0 -719.46741909167031 -890.36079904472717 0 -890.36079904472717 64.99762066846597 0 0 0 0 -327.49220501499963 -934.78377660483216 0 -934.78377660483216 -41.743364181311335 0 0 0 0 -534.11713447592047 -526.16832651996447 0 -526.16832651996447 189.0590673391489 0 0 0 0 -371.2949827357279 -381.19868720465274 0 -381.19868720465274 -252.73268380960508 0 0 0 0 -123.98718294886203 -416.39704963305849 0 -416.39704963305849 -602.0197122395607 0 0 0 0 -759.8962807173466 -1001.4901615852796 0 -1001.4901615852796 -586.53821353355306 0 0 0 0 -2.9020151823932281 -9.3071030782750199 0 -9.3071030782750199 0.95751164917378162 0 0 0 0 -127.41192734282231 -964.61615619286385 0 -964.61615619286385 -2022.422725701872 0 0 0 0 -293.23594369039711 -860.85835250785749 0 -860.85835250785749 -818.91808194268378 0 0 0 0 -140.47009925273233 -620.93512408269089 0 -620.93512408269089 -810.05902261822484 0 0 0 0 -103.55010316752305 231.84454508571434 0 231.84454508571434 -702.59317935555009 0 0 0 0 433.23950537969358 -14.547400971365278 0 -14.547400971365278 -48.997307874611579 0 0 0 0 109.71328456507763 -237.35415578895481 0 -237.35415578895481 6.1935144415037939 0 0 0 0 -3.8314584850395192 -6.8602895207133372 0 -6.8602895207133372 -4.8926411818814586 0 0 0 0 -4.688347735967227 -6.9339745224059044 0 -6.9339745224059044 -3.1337811370437976 0 0 0 0 41.949558700303896 -836.82704787985313 0 -836.82704787985313 -1517.8727814169106 0 0 0 0 -598.52308152312617 -1098.440312897088 0 -1098.440312897088 -926.16259594861185 0 0 0 0 249.8648168814816 -277.1429375351363 0 -277.1429375351363 -628.69255509038339 0 0 0 0 -251.44675229166666 -400.92795328975404 0 -400.92795328975404 -447.70807807616075 0 0 0 0 -250.79801080647303 -825.72321034774359 0 -825.72321034774359 -929.92712433334964 0 0 0 0 -161.15233339045062 -212.97435444690382 0 -212.97435444690382 -143.95083758520195 0 0 0 0 -62.015843514847802 -435.5285379687266 0 -435.5285379687266 -455.56329725286923 0 0 0 0 -582.79393314960907 -177.92533196081058 0 -177.92533196081058 35.924130504528875 0 0 0 0 -230.11572303592766 -239.15065664036229 0 -239.15065664036229 -137.5988261076418 0 0 0 0 107.12307994185539 -272.79558545758482 0 -272.79558545758482 -195.25605984737922 0 0 0 0 -147.30932589237636 -266.63219026275328 0 -266.63219026275328 -188.98965601203963 0 0 0 0 -131.78562778996275 -107.02544468277483 0 -107.02544468277483 -72.598125739285024 0 0 0 0 108.1868624994604 -251.04047875829565 0 -251.04047875829565 -98.950173700988671 0 0 0 0 -2.5798574836594383 5.1185259722970073 0 5.1185259722970073 3.1212450927160944 0 0 0 0 410.03516887463775 -163.89282091655332 0 -163.89282091655332 -127.65646685363026 0 0 0 0 -74.594256740176206 -318.32314346008934 0 -318.32314346008934 -11.744251102078124 0 0 0 0 -328.81153188921235 -399.3157782670969 0 -399.3157782670969 -377.17795674284571 0 0 0 0 -49.098736999028915 -152.51682968794353 0 -152.51682968794353 -220.39746172170271 0 0 0 0 -338.7194013781409 -207.93021616748592 0 -207.93021616748592 -149.77450297943142 0 0 0 0 -283.00553531561309 -212.70718661092542 0 -212.70718661092542 -157.51965750171803 0 0 0 0 -160.72699591789569 -301.48294102808723 0 -301.48294102808723 7.5324647976231063 0 0 0 0 -195.94162302222685 -96.376684353192104 0 -96.376684353192104 -96.302166416775435 0 0 0 0 -14.265958955569658 49.721544682128297 0 49.721544682128297 -22.836834529647604 0 0 0 0 -126.97196845257895 -76.580841838380366 0 -76.580841838380366 29.728909122553887 0 0 0 0 -13.82438612310213 -17.632037305095395 0 -17.632037305095395 17.192561975692286 0 0 0 0 7.4750766058409752 -29.149980491505573 0 -29.149980491505573 25.921512954373611 0 0 0 0 -259.15494553594908 -133.86539620280382 0 -133.86539620280382 -326.07757782138651 0 0 0 0 -60.407027196530322 -77.843437740443193 0 -77.843437740443193 61.568049497560281 0 0 0 0 1555.7426046163891 -1166.3792724006689 0 -1166.3792724006689 -1831.3826949230788 0 0 0 0 -237.1736195698395 559.41880682422197 0 559.41880682422197 376.29396775270106 0 0 0 0 -147.35018756284262 -316.6102853982884 0 -316.6102853982884 -356.77159047956229 0 0 0 0 8.2388832549947608 -58.355277063868783 0 -58.355277063868783 -78.020031561680412 0 0 0 0 -234.57687289026944 -222.51653971803898 0 -222.51653971803898 -269.2471718670713 0 0 0 0 -72.021127953222333 -62.988951687357556 0 -62.988951687357556 13.199569080413347 0 0 0 0 13.426612653716674 -105.74975146458557 0 -105.74975146458557 -115.80660082262619 0 0 0 0 -141.11340076627675 -168.20792692294344 0 -168.20792692294344 -162.84889415319776 0 0 0 0 -28.603028206034153 -111.58717616949072 0 -111.58717616949072 51.919179958103399 0 0 0 0 -80.168368488593842 -151.85084773039125 0 -151.85084773039125 -71.079602044075727 0 0 0 0 -49.714115697541274 -153.54410624923185 0 -153.54410624923185 -70.985456774549675 0 0 0 0 -5.1105367894051597 -122.02660421738983 0 -122.02660421738983 -137.27317185697029 0 0 0 0 -45.90136097445793 -129.61379724150174 0 -129.61379724150174 -45.087513539358042 0 0 0 0 -62.282242667359242 -112.73198616919399 0 -112.73198616919399 -60.36220742133446 0 0 0 0 -6.5438413826050237 -131.52751635879395 0 -131.52751635879395 -51.988034066016553 0 0 0 0 -105.98796546601807 -176.35577543138061 0 -176.35577543138061 -106.57850750297075 0 0 0 0 -26.246558240916301 -89.493935633093741 0 -89.493935633093741 5.2898189536085738 0 0 0 0 -33.625485833778356 -63.668817912585268 0 -63.668817912585268 18.439821298583183 0 0 0 0 -49.619127469137311 -131.89609219366685 0 -131.89609219366685 -31.688030339893885 0 0 0 0 -48.808782042528037 -133.40747191826813 0 -133.40747191826813 -55.166004085709574 0 0 0 0 -134.93006074633604 -85.821950496102545 0 -85.821950496102545 53.195417154434836 0 0 0 0 17.735506331009674 -135.60281977886189 0 -135.60281977886189 -151.12333936504729 0 0 0 0 -16.162059681173062 -26.766923888662134 0 -26.766923888662134 -3.812758272364249 0 0 0 0 -198.09604322441737 -226.81063323043054 0 -226.81063323043054 94.50998131254164 0 0 0 0 -104.71746873726079 -40.724670217867242 0 -40.724670217867242 -52.72577016982541 0 0 0 0 -17.480207024030392 -91.436984058169855 0 -91.436984058169855 -8.3765885148313828 0 0 0 0 -16.808451343880733 -127.40495732314594 0 -127.40495732314594 -13.25354535781662 0 0 0 0 -39.220990275749031 -57.747030688818761 0 -57.747030688818761 -45.295848814995622 0 0 0 0 -32.820745235590948 -119.82246489209319 0 -119.82246489209319 -13.685231031908188 0 0 0 0 -56.296210615929297 -121.70189711221542 0 -121.70189711221542 -20.619952318036155 0 0 0 0 -67.29628491360927 -98.490674179483904 0 -98.490674179483904 -24.082608037395403 0 0 0 0 -38.618463576556735 -97.094077479446426 0 -97.094077479446426 32.932625597425783 0 0 0 0 -33.837764380623526 -88.454847000280665 0 -88.454847000280665 -34.540193669687625 0 0 0 0 -35.711193234892562 -158.78159593252349 0 -158.78159593252349 -28.405284706357634 0 0 0 0 -56.152355167036397 -160.44471942842225 0 -160.44471942842225 -51.364702495982442 0 0 0 0 -53.363937643007375 -216.16605964243354 0 -216.16605964243354 53.645645220996812 0 0 0 0 5.5599414601456374 -159.21492166942335 0 -159.21492166942335 -48.372719270526432 0 0 0 0 119.63824673404451 -215.93748764577322 0 -215.93748764577322 -159.82349881247501 0 0 0 0 -68.561366716603516 -174.21148190223539 0 -174.21148190223539 -285.22489566726472 0 0 0 0 -64.337001669044184 -149.0494698390803 0 -149.0494698390803 -206.59790681643062 0 0 0 0 -5.0945454316878624 -8.7190382247803626 0 -8.7190382247803626 -2.0951815366388971 0 0 0 0 -27.956150882135262 -139.49202572794457 0 -139.49202572794457 -149.84962653794355 0 0 0 0 18.592261009865293 -84.001167700199204 0 -84.001167700199204 -129.12571255553377 0 0 0 0 -27.831357438951699 -53.517608024438616 0 -53.517608024438616 -53.340407591775246 0 0 0 0 -21.634137975016927 -77.801532113863558 0 -77.801532113863558 -4.685720114279917 0 0 0 0 -56.725903015127642 -68.676037295510184 0 -68.676037295510184 38.927995965961024 0 0 0 0 -39.967246444983175 -132.49255395452201 0 -132.49255395452201 -20.178838780015212 0 0 0 0 -60.044680525134027 -111.23173168556605 0 -111.23173168556605 5.9258492776134517 0 0 0 0 -77.406002081610495 -108.0611792664422 0 -108.0611792664422 39.230610848535434 0 0 0 0 -46.550537502305815 -99.71286176610738 0 -99.71286176610738 -1.4417028866155306 0 0 0 0 -74.385150547357625 -102.98527212598128 0 -102.98527212598128 37.476059076660022 0 0 0 0 -66.268218869286841 -93.81179998804302 0 -93.81179998804302 93.033505757649863 0 0 0 0 -56.495770773461118 -83.260574569605524 0 -83.260574569605524 -6.4754332630545832 0 0 0 0 -47.789126550909714 -92.47292909846874 0 -92.47292909846874 -1.5323679677385371 0 0 0 0 -27.619572543471804 -38.210118216816987 0 -38.210118216816987 -39.136689297661178 0 0 0 0 -3.6025567685768323 -18.920647794037478 0 -18.920647794037478 36.08967202290961 0 0 0 0 -48.846037745292051 -96.341531867914455 0 -96.341531867914455 -5.1202530654409202 0 0 0 0 -8.7040792567172502 505.84115914080303 0 505.84115914080303 993.95659691259789 0 0 0 0 -1535.2696293541958 -3061.7359719805827 0 -3061.7359719805827 -2118.9195729989879 0 0 0 0 -84.664462404091154 -69.943961099835263 0 -69.943961099835263 72.723545268619077 0 0 0 0 101.92290786374724 219.96261044812127 0 219.96261044812127 442.13942683734786 0 0 0 0 -871.3495071905636 -983.68057099488942 0 -983.68057099488942 -354.57583175919717 0 0 0 0 -7.7541160618032876 14.822375632636977 0 14.822375632636977 29.371972254238173 0 0 0 0 -63.85869159118738 -68.426184560114052 0 -68.426184560114052 1455.276359318319 0 0 0 0 -958.61605952202808 -688.2334207508211 0 -688.2334207508211 -1085.546044297138 0 0 0 0 -993.35388361321384 -358.10698126589341 0 -358.10698126589341 -1260.3164147249918 0 0 0 0 -513.36886305176449 -240.81051523582755 0 -240.81051523582755 -1790.4995586029654 0 0 0 0 -62.684962084350943 -91.515128594402867 0 -91.515128594402867 -21.457972815216607 0 0 0 0 -1597.3833411319138 -1091.8140961747558 0 -1091.8140961747558 535.17010348030453 0 0 0 0 200.1242546313224 -61.1075438925036 0 -61.1075438925036 246.4721101790783 0 0 0 0 -10.952220510430237 -14.576349448325857 0 -14.576349448325857 -22.309250981205508 0 0 0 0 -478.53556480722182 317.61396531708306 0 317.61396531708306 1290.0812000443693 0 0 0 0 -1543.2384388570354 -849.800986357699 0 -849.800986357699 445.79691549253039 0 0 0 0 14.872247188848618 -29.547992535814785 0 -29.547992535814785 28.402549679719499 0 0 0 0 405.40488723904127 334.92270529622328 0 334.92270529622328 -303.7323040949409 0 0 0 0 -539.98933898477753 -755.61515223494825 0 -755.61515223494825 -63.458162924231146 0 0 0 0 -655.18701426925691 -961.58590275145252 0 -961.58590275145252 -331.45984372774467 0 0 0 0 -1001.6326651755135 480.74620269914158 0 480.74620269914158 -1104.5962638579949 0 0 0 0 18.988659694159651 412.0966014461228 0 412.0966014461228 597.23216932895593 0 0 0 0 232.45782464227523 -1701.0853924981348 0 -1701.0853924981348 -3392.3060769860167 0 0 0 0 -8.4990891758643556 -670.06714947639557 0 -670.06714947639557 -35.310134032450151 0 0 0 0 234.22071715829952 -151.91773616491992 0 -151.91773616491992 -72.876965982635738 0 0 0 0 193.21306599038053 -24.836119687033715 0 -24.836119687033715 -336.16645964703639 0 0 0 0 126.5790499599716 -298.71203462847188 0 -298.71203462847188 252.09380093187792 0 0 0 0 139.08594471777906 -389.40248872957454 0 -389.40248872957454 680.38208665663842 0 0 0 0 257.43840797853682 -1293.698083516063 0 -1293.698083516063 899.34735102028935 0 0 0 0 309.42520635425171 -509.84717557003023 0 -509.84717557003023 -334.12986631317654 0 0 0 0 -57.28602808335927 -185.97513054531737 0 -185.97513054531737 98.06987693865085 0 0 0 0 8.9663235143910001 -13.703743315991346 0 -13.703743315991346 23.798095615424359 0 0 0 0 -8.1170946718411869 -103.57151580733625 0 -103.57151580733625 36.579097955509496 0 0 0 0 -1.7457396938649481 -10.886095890550735 0 -10.886095890550735 11.072697536423846 0 0 0 0 -13.139099524694757 28.812860776328307 0 28.812860776328307 44.371075904957252 0 0 0 0 -995.67495390120894 -1608.8123025020759 0 -1608.8123025020759 709.34555568697397 0 0 0 0 14.445912820505328 -20.121142349904403 0 -20.121142349904403 -48.052680220891489 0 0 0 0 18.213470550312195 -51.170156657004554 0 -51.170156657004554 38.777905418275623 0 0 0 0 -140.70457409091614 -48.795797184153344 0 -48.795797184153344 1100.2362683493229 0 0 0 0 6.7212952236031498 -14.917496041135053 0 -14.917496041135053 12.27671534981377 0 0 0 0 -987.04181914457149 15.729657881514868 0 15.729657881514868 1444.8725051654183 0 0 0 0 -786.14406090794364 -1612.253253814677 0 -1612.253253814677 -4740.6722737669479 0 0 0 0 -0.055180265228713665 -6.0766381090203936 0 -6.0766381090203936 3.2965275079930052 0 0 0 0 93.413347132576746 74.448620848561404 0 74.448620848561404 247.52194490211468 0 0 0 0 99.784097704963642 33.602913828304736 0 33.602913828304736 483.9506568100187 0 0 0 0 -190.77513324963365 -2073.9516495343323 0 -2073.9516495343323 -618.93431670712016 0 0 0 0 1223.6125344340471 -1064.6802285241793 0 -1064.6802285241793 -2255.0671383559456 0 0 0 0 620.85756162202233 -535.18853460307218 0 -535.18853460307218 -773.7567139902967 0 0 0 0 -81.251606004720955 -55.750139630165393 0 -55.750139630165393 87.757164910610086 0 0 0 0 -273.3594166955736 -241.36256774015783 0 -241.36256774015783 -415.45841719918826 0 0 0 0 -2321.197435582937 1519.9820551949597 0 1519.9820551949597 130.42065493317205 0 0 0 0 -2254.1223388223189 -2428.9110163254454 0 -2428.9110163254454 -1210.8955885198011 0 0 0 0 -3597.1790456367744 908.87552648922428 0 908.87552648922428 239.90898164665123 0 0 0 0 662.80678757671558 -2354.2805600163192 0 -2354.2805600163192 -2699.2423574680724 0 0 0 0 -975.69294263138727 -3298.7170055244387 0 -3298.7170055244387 -1827.2656316060657 0 0 0 0 -276.64942624338437 -2052.2810262123094 0 -2052.2810262123094 -795.35132151021025 0 0 0 0 189.19749532682908 19.968886916809424 0 19.968886916809424 -5597.6703689812457 0 0 0 0 -1382.9242645559571 -266.97778065583043 0 -266.97778065583043 459.33539290449698 0 0 0 0 -3000.7873261921195 -2572.807308119387 0 -2572.807308119387 -2606.1936607175267 0 0 0 0 -23.211227909826363 -16.535688933463415 0 -16.535688933463415 -14.590861760324628 0 0 0 0 22.570871776981221 -786.29186836989538 0 -786.29186836989538 -2210.9917363197455 0 0 0 0 149.97506384479675 -162.97422317123369 0 -162.97422317123369 -1397.9506376590798 0 0 0 0 -293.92455464419618 -1522.5735384884902 0 -1522.5735384884902 -1854.8901974766413 0 0 0 0 -491.98369879451639 -1157.693509195884 0 -1157.693509195884 -839.40348235856072 0 0 0 0 -595.44339629753085 -690.21487468599662 0 -690.21487468599662 -1395.8820688947089 0 0 0 0 -320.95094111282378 -720.93375532493519 0 -720.93375532493519 -1472.3503731368037 0 0 0 0 -389.34929928916426 -287.33019173393131 0 -287.33019173393131 -1348.925948863347 0 0 0 0 -227.55417098988983 -595.94803378950382 0 -595.94803378950382 -921.54930997869087 0 0 0 0 1.1001675202614933 -445.28518495205094 0 -445.28518495205094 -1277.4294068579911 0 0 0 0 -289.23168931224791 -18.861783022719464 0 -18.861783022719464 -690.68225297279423 0 0 0 0 9.4261399707756937 -469.81502573671605 0 -469.81502573671605 -1282.7077547027329 0 0 0 0 4.3076213187694634 -4.5178863240267333 0 -4.5178863240267333 2.1262576407538063 0 0 0 0 -84.894540014365703 -393.36694244865339 0 -393.36694244865339 -1355.813844843884 0 0 0 0 -162.81652952926743 435.98533329077691 0 435.98533329077691 -2321.9720548405094 0 0 0 0 -40.835365820796937 143.17902780417978 0 143.17902780417978 -2244.9384288065557 0 0 0 0 -542.88448164557121 -475.75636897827644 0 -475.75636897827644 -1550.8766516832002 0 0 0 0 -806.30769292190962 309.26112853231825 0 309.26112853231825 -1800.1985064253531 0 0 0 0 -648.86809680533042 -878.36189929841203 0 -878.36189929841203 281.89649354560243 0 0 0 0 -47.708770126396729 -80.04029398654697 0 -80.04029398654697 -36.610948620751394 0 0 0 0 51.950302503570128 -779.53833958851465 0 -779.53833958851465 1314.9251350113773 0 0 0 0 -319.23765591111442 -572.23448088054283 0 -572.23448088054283 1205.7639570953543 0 0 0 0 497.04556735657388 -726.15579875576805 0 -726.15579875576805 125.75962768128375 0 0 0 0 539.06331176550157 -1339.4642548579068 0 -1339.4642548579068 470.53148112029157 0 0 0 0 -1498.6392438574694 -878.61845943786466 0 -878.61845943786466 344.3510408400507 0 0 0 0 -373.07194410139164 -269.24317212448659 0 -269.24317212448659 182.38549495764892 0 0 0 0 -1247.0181887766958 -299.09578446247906 0 -299.09578446247906 228.63504414496492 0 0 0 0 670.79880690529899 -1598.3745258217332 0 -1598.3745258217332 1211.1091854344559 0 0 0 0 715.12010782147627 -1491.4294157198965 0 -1491.4294157198965 1409.6788367824629 0 0 0 0 731.45869205925555 -1227.3957417522251 0 -1227.3957417522251 1189.1554949559795 0 0 0 0 697.76725468010409 -1307.3695747388338 0 -1307.3695747388338 1001.044066529179 0 0 0 0 450.29260895013795 -827.36514681486733 0 -827.36514681486733 1754.0157036484597 0 0 0 0 390.90756747530031 -605.65965564976068 0 -605.65965564976068 936.94061769829204 0 0 0 0 334.93754237956273 -1191.5713712643519 0 -1191.5713712643519 2439.4272653975058 0 0 0 0 -37.852471497397453 -63.760175356631038 0 -63.760175356631038 -26.235589587709626 0 0 0 0 61.346109874134527 574.48796006675457 0 574.48796006675457 -2363.2219270347268 0 0 0 0 -229.47336656504558 236.40041212823053 0 236.40041212823053 -2142.7282586430338 0 0 0 0 -23.604386750710546 390.90876497970021 0 390.90876497970021 -1070.8041279766112 0 0 0 0 0.23146848903000716 -2.0793300046752989 0 -2.0793300046752989 -0.6824901630726572 0 0 0 0 -202.6513247272851 165.14572506038166 0 165.14572506038166 -1975.5484312333938 0 0 0 0 -40.765399473708385 206.57407869445888 0 206.57407869445888 -1974.4124069987629 0 0 0 0 -52.383450227018329 -435.13500459610441 0 -435.13500459610441 -2472.7448004450162 0 0 0 0 77.595306469256457 -601.0951574904343 0 -601.0951574904343 -2271.3156528485633 0 0 0 0 122.93988495995109 -1567.7442827779087 0 -1567.7442827779087 3763.4724939067146 0 0 0 0 499.13644788041802 -1201.5601671689437 0 -1201.5601671689437 2763.3578452968068 0 0 0 0 -206.64830387085385 230.59104165816461 0 230.59104165816461 -3043.2256026273644 0 0 0 0 -26.249476241556465 -43.689632571070149 0 -43.689632571070149 -17.241646699324903 0 0 0 0 -372.14645315300913 -150.78691577812424 0 -150.78691577812424 -242.89065240080527 0 0 0 0 -10.170495791251909 -15.023889871793315 0 -15.023889871793315 -5.7144358583056913 0 0 0 0 176.41178949484492 199.33020379902155 0 199.33020379902155 -4830.9053176857033 0 0 0 0 -262.83946437921804 -1151.8502568303593 0 -1151.8502568303593 4966.7486659602255 0 0 0 0 -190.80254387189348 -1808.6327942263888 0 -1808.6327942263888 3096.8492840242398 0 0 0 0 27.435249324134929 -1441.0911523973318 0 -1441.0911523973318 2672.9323071271065 0 0 0 0 198.24010920736873 -735.30037123682996 0 -735.30037123682996 2411.8429733649682 0 0 0 0 -286.75110535577915 -731.38428015256068 0 -731.38428015256068 1769.7382734270286 0 0 0 0 -88.369295779422828 -1123.7239856907254 0 -1123.7239856907254 2061.321367581746 0 0 0 0 90.133260801108918 -919.46192474578856 0 -919.46192474578856 1653.8491658444254 0 0 0 0 116.22857272518013 -971.55466922261985 0 -971.55466922261985 1617.2953588508317 0 0 0 0 336.78196433283529 -1003.3736856939104 0 -1003.3736856939104 2763.7195359978359 0 0 0 0 466.07975974471265 -1216.0352911421833 0 -1216.0352911421833 1894.335168664431 0 0 0 0 266.19860357265497 -1186.0306254363604 0 -1186.0306254363604 1954.9174504076727 0 0 0 0 -342.60015023947199 -1446.8689907460139 0 -1446.8689907460139 1843.4287293630405 0 0 0 0 89.768648903551366 -1671.7425439458675 0 -1671.7425439458675 2190.1133126698187 0 0 0 0 423.31706067232517 -1670.4030871882933 0 -1670.4030871882933 1582.175935437117 0 0 0 0 411.46650770742417 -1615.9519729322055 0 -1615.9519729322055 2022.3687961742253 0 0 0 0 -136.80493588873378 -1874.9806808571593 0 -1874.9806808571593 1301.5185907452542 0 0 0 0 28.160070323307082 -1654.6137433253461 0 -1654.6137433253461 1582.6748368391588 0 0 0 0 -449.91141940339367 -1108.9121899476304 0 -1108.9121899476304 1433.4989936981583 0 0 0 0 -442.70026791754754 -1304.6973927355139 0 -1304.6973927355139 1011.6593089245434 0 0 0 0 -492.36322182816002 -1111.0207062694608 0 -1111.0207062694608 -1103.3678043478285 0 0 0 0 -1112.8041270945762 -1435.17308259942 0 -1435.17308259942 1328.1884578630707 0 0 0 0 -1177.563031524438 -477.75872433093969 0 -477.75872433093969 472.67632373141532 0 0 0 0 -88.104963015496651 -935.12093337833903 0 -935.12093337833903 2338.5445233944338 0 0 0 0 -19.759236038729796 -1074.5322084863292 0 -1074.5322084863292 -453.03626623652235 0 0 0 0 97.704136379607007 -769.82500886576599 0 -769.82500886576599 1025.0543685501325 0 0 0 0 -412.23239455798466 -750.87471044733684 0 -750.87471044733684 1025.2965948971821 0 0 0 0 47.391046682339947 -1059.0626590633583 0 -1059.0626590633583 1286.4762754966068 0 0 0 0 -728.7969087719357 -826.43582756921387 0 -826.43582756921387 1237.3174866202025 0 0 0 0 -647.82526859092104 -741.47162885236321 0 -741.47162885236321 224.99100297733094 0 0 0 0 -188.61166821806728 -829.05271422729129 0 -829.05271422729129 241.52741387567949 0 0 0 0 206.55020226679335 -402.97308923678065 0 -402.97308923678065 399.19225102168275 0 0 0 0 -622.98605704240254 -748.35598969564307 0 -748.35598969564307 361.03210958660839 0 0 0 0 -222.84882175445819 -1024.4849054427832 0 -1024.4849054427832 -782.82888032143819 0 0 0 0 -582.71082887143712 -1537.9818384540267 0 -1537.9818384540267 -1351.4761681182863 0 0 0 0 -1025.2825368427184 -978.08934229051374 0 -978.08934229051374 -777.83932067794012 0 0 0 0 -4.0657649635828292 -21.073954627294199 0 -21.073954627294199 17.961443864991168 0 0 0 0 -89.638893674205519 -900.48269802385948 0 -900.48269802385948 1392.1015613317868 0 0 0 0 -1.5854638058965946 -5.0043889959525529 0 -5.0043889959525529 4.9322557869274846 0 0 0 0 -327.3204399274473 -2002.7349195174756 0 -2002.7349195174756 -3002.8375617574857 0 0 0 0 -822.47633733448538 1879.0294024074856 0 1879.0294024074856 4795.8287276840711 0 0 0 0 6.4115035281229282 -37.70798069539623 0 -37.70798069539623 15.35920556897841 0 0 0 0 -786.15417483875717 -100.42408874725515 0 -100.42408874725515 59.505585399754636 0 0 0 0 -10.065438646674671 -7.3757529995394293 0 -7.3757529995394293 10.714532929213362 0 0 0 0 -116.41608331758107 -287.44673695447273 0 -287.44673695447273 1002.2077360065668 0 0 0 0 -756.58103591631516 -1230.2808078413509 0 -1230.2808078413509 -969.60160320939758 0 0 0 0 -496.02566516025399 95.510432959352329 0 95.510432959352329 2912.216156208131 0 0 0 0 9.8225985661119921 -378.53101681988483 0 -378.53101681988483 587.56880672016996 0 0 0 0 -2.1506965171402044 -240.619716956302 0 -240.619716956302 382.88559463269485 0 0 0 0 144.49242345423772 -289.64938840612012 0 -289.64938840612012 -272.18004411963921 0 0 0 0 -14.316431303261353 -34.978889640304828 0 -34.978889640304828 -5.4967303672536048 0 0 0 0 707.16541116414737 -148.46792017159896 0 -148.46792017159896 -15.737078858772293 0 0 0 0 -70.435089562676694 -391.88748294296238 0 -391.88748294296238 175.848227526556 0 0 0 0 8.6817040492980482 -10.586276893341505 0 -10.586276893341505 -2.6124437280843438 0 0 0 0 -2.5295068617092937 -24.937640108700265 0 -24.937640108700265 -14.421786911631031 0 0 0 0 1438.8172925839826 -1588.0128720181237 0 -1588.0128720181237 1710.1625781871189 0 0 0 0 430.97575541098558 -1915.8317914815489 0 -1915.8317914815489 2733.2179086575197 0 0 0 0 138.60677420105674 -382.35482145833498 0 -382.35482145833498 -1082.5821575812442 0 0 0 0 28.176332184310013 -779.60677205624961 0 -779.60677205624961 -734.65800436681457 0 0 0 0 212.84418475224982 -2854.580428592812 0 -2854.580428592812 4183.6294861261267 0 0 0 0 173.53221891653084 -770.31343428370383 0 -770.31343428370383 -3455.975913834598 0 0 0 0 0.13269868731964607 -11.343437784089105 0 -11.343437784089105 -4.8096653977539745 0 0 0 0 743.18868517580631 -1644.7380778011648 0 -1644.7380778011648 2836.9023226094869 0 0 0 0 856.81633128107751 -1797.718805611803 0 -1797.718805611803 2675.0869803324458 0 0 0 0 -61.267555006446855 -932.18451640867715 0 -932.18451640867715 4763.4878812067182 0 0 0 0 1612.0677095265787 -2343.9909880327077 0 -2343.9909880327077 2968.768492996227 0 0 0 0 -263.16898866534348 -1591.6079460565434 0 -1591.6079460565434 3518.3137695632468 0 0 0 0 -333.93036791080885 -41.570365828047215 0 -41.570365828047215 1974.9795959533876 0 0 0 0 193.26346524332257 -542.5559401573264 0 -542.5559401573264 -1365.8565645292983 0 0 0 0 8.403882580921838 -14.85092761784631 0 -14.85092761784631 14.80625357446695 0 0 0 0 731.72581433923551 -2412.1621296972007 0 -2412.1621296972007 -1364.1058056961629 0 0 0 0 1109.8545600136677 -1594.0148448766922 0 -1594.0148448766922 -247.82175284736149 0 0 0 0 775.27941395952803 -2818.0429585791644 0 -2818.0429585791644 1182.3057556519634 0 0 0 0 884.66636632603695 -1762.227702575583 0 -1762.227702575583 858.54146446683262 0 0 0 0 1130.7892466732383 -2202.4458160724685 0 -2202.4458160724685 1494.8897307825682 0 0 0 0 323.9431924042683 -2175.3853465961292 0 -2175.3853465961292 1413.656298185655 0 0 0 0 902.30270287747771 -1918.0637608409161 0 -1918.0637608409161 1385.8088123553607 0 0 0 0 730.97763739183574 -1754.439240175474 0 -1754.439240175474 1103.4988063963174 0 0 0 0 -38.942018484753135 -1265.0206887399072 0 -1265.0206887399072 3379.9901365476981 0 0 0 0 810.7835193723422 -2132.4265581565742 0 -2132.4265581565742 2424.5362222878466 0 0 0 0 727.47202526179717 -1670.3295542601845 0 -1670.3295542601845 4131.7804919292394 0 0 0 0 1181.5066911960093 -1871.0876710862358 0 -1871.0876710862358 1534.271423265518 0 0 0 0 1555.6818962564635 -1117.1170151179497 0 -1117.1170151179497 3199.903295677781 0 0 0 0 -14.85653144645039 -85.187538476959162 0 -85.187538476959162 -102.09747805628649 0 0 0 0 4.3874747890222352 -174.53359548814478 0 -174.53359548814478 -512.20706405217061 0 0 0 0 -0.95307109311397653 10.543455214319692 0 10.543455214319692 -235.18216598788422 0 0 0 0 -7.9813416050601518 -67.827331330678135 0 -67.827331330678135 -141.75254939570732 0 0 0 0 -11.967094726132927 12.840956967433158 0 12.840956967433158 -63.34707942228124 0 0 0 0 33.948772725299932 -21.814939267278532 0 -21.814939267278532 -147.30902569119644 0 0 0 0 -1.3338146815323171 -12.668533797895975 0 -12.668533797895975 -6.223907280440244 0 0 0 0 -75.594330443680519 -60.064080150405061 0 -60.064080150405061 -24.851479409320746 0 0 0 0 37.407897240787861 -76.968314264529909 0 -76.968314264529909 -81.077915769405081 0 0 0 0 63.5474302705843 -68.7367100668489 0 -68.7367100668489 -58.279611426434712 0 0 0 0 33.178621705502138 -34.618260155413196 0 -34.618260155413196 -41.118019039718064 0 0 0 0 126.81930304708658 12.869608210123261 0 12.869608210123261 32.33858633627824 0 0 0 0 -21.830858317227722 -16.921984043811733 0 -16.921984043811733 4.8093365581054002 0 0 0 0 -19.400761718585272 -85.431496657878597 0 -85.431496657878597 -75.183274105147575 0 0 0 0 28.191974396495496 -44.118368494788939 0 -44.118368494788939 -29.923076587605578 0 0 0 0 68.187979533555335 -86.347476361966983 0 -86.347476361966983 -42.398758839161019 0 0 0 0 92.304162957327208 -145.58728380411048 0 -145.58728380411048 -51.714689403801458 0 0 0 0 97.940532520629858 -23.61042338712025 0 -23.61042338712025 -68.512581924107508 0 0 0 0 -84.154554259454017 -110.35681001264311 0 -110.35681001264311 82.876623789474252 0 0 0 0 -60.350639050906977 -31.202304202145569 0 -31.202304202145569 -3.8997646654673517 0 0 0 0 -316.24499319243478 -896.22503951402177 0 -896.22503951402177 -2640.4802943248033 0 0 0 0 -24.122550281223084 -843.70643364182979 0 -843.70643364182979 -3070.4145067975332 0 0 0 0 -336.57759772392455 -723.79113462750684 0 -723.79113462750684 -2390.6016948366596 0 0 0 0 -543.96749998241285 -550.29236309122643 0 -550.29236309122643 -2858.5111000055476 0 0 0 0 655.8722549246886 -1356.8808912121094 0 -1356.8808912121094 -6056.221990956743 0 0 0 0 -335.58208151582221 -296.76482440117616 0 -296.76482440117616 590.21136635616131 0 0 0 0 -19.260764740922582 -8.0920402213129705 0 -8.0920402213129705 -5.2208293456132893 0 0 0 0 -803.70827324410493 -992.41445895081415 0 -992.41445895081415 -399.34431320841304 0 0 0 0 -0.1548407431691885 -677.80610235632048 0 -677.80610235632048 -4063.1436150404043 0 0 0 0 -1320.7707622613307 -848.15029594053703 0 -848.15029594053703 -2717.4978677089748 0 0 0 0 0.67766595429566223 -1683.3189334429117 0 -1683.3189334429117 -2268.065825937505 0 0 0 0 -593.15935486211674 -1562.4515560102172 0 -1562.4515560102172 -1.7592139818843862 0 0 0 0 -1048.5644070355374 -491.44704229099625 0 -491.44704229099625 691.50994951699249 0 0 0 0 -5.4192750128829061 -9.6040641625754404 0 -9.6040641625754404 -3.0342664396565429 0 0 0 0 -594.31473638011084 -2414.0197295797407 0 -2414.0197295797407 -1201.149664267512 0 0 0 0 4.2150571611928171 -3055.0959587867656 0 -3055.0959587867656 -4330.4942269541916 0 0 0 0 -7.7342582405194662 -18.158337049317538 0 -18.158337049317538 -1.9926630937771215 0 0 0 0 -325.32252262321708 -935.71495274457993 0 -935.71495274457993 -1877.9407528893789 0 0 0 0 445.82406255001843 -1034.5873283792098 0 -1034.5873283792098 -2921.9054212953461 0 0 0 0 -166.02455049073615 -961.20174409771425 0 -961.20174409771425 -2618.6711685022019 0 0 0 0 171.99770497361169 -1109.638585542938 0 -1109.638585542938 -4492.5108630805407 0 0 0 0 -474.56855657821689 -1513.4970151524431 0 -1513.4970151524431 -1164.6664805343753 0 0 0 0 -369.40682175917027 -1886.9869208672826 0 -1886.9869208672826 -2544.3840126419118 0 0 0 0 -2.4997411268698784 -10.524736407794876 0 -10.524736407794876 -2.611806180653435 0 0 0 0 -614.20083023687766 -1721.4560969089725 0 -1721.4560969089725 293.04444802807552 0 0 0 0 -814.78656895818858 -1194.1637995713827 0 -1194.1637995713827 -1063.2858829978795 0 0 0 0 -927.21494410123705 -1448.4957478582983 0 -1448.4957478582983 -991.54301205376396 0 0 0 0 -1046.1583742091607 -1077.1588667458418 0 -1077.1588667458418 -999.47401228986564 0 0 0 0 -1718.4909338439466 -1565.2714947192144 0 -1565.2714947192144 -968.60186259364127 0 0 0 0 -836.42955713227275 -1356.6766440930296 0 -1356.6766440930296 -913.92154059260065 0 0 0 0 -205.9412158219202 -1060.5735945989582 0 -1060.5735945989582 -1739.3639051969294 0 0 0 0 -642.98563729304442 -815.05016001035256 0 -815.05016001035256 -626.77816849644296 0 0 0 0 228.68824458517338 110.17193937995035 0 110.17193937995035 -119.20595043765206 0 0 0 0 3.8957209625698397 -1.3165440231145453 0 -1.3165440231145453 -11.06461794150448 0 0 0 0 -860.18372221071331 -1148.980101714842 0 -1148.980101714842 -985.55153834800876 0 0 0 0 15.739798405632172 -8.0620801854116166 0 -8.0620801854116166 9.1188948820077371 0 0 0 0 11.673174525330978 -106.43308871815498 0 -106.43308871815498 -53.461018973044702 0 0 0 0 71.756852468519355 0.6018580937943625 0 0.6018580937943625 -67.918418062501587 0 0 0 0 59.724281551185413 -2.4251083002236555 0 -2.4251083002236555 34.599990395770874 0 0 0 0 48.982910885861202 -12.177163257561915 0 -12.177163257561915 -14.149659336268087 0 0 0 0 -11.223218771832762 -19.930132614041213 0 -19.930132614041213 24.566937654977664 0 0 0 0 34.358329294760409 9.2163140182495056 0 9.2163140182495056 -15.072648342633272 0 0 0 0 52.116070671003001 -10.142591914021239 0 -10.142591914021239 -15.700410536277538 0 0 0 0 111.2779666930146 20.121607876979397 0 20.121607876979397 -35.125731317020836 0 0 0 0 113.67265770724043 50.954621401353506 0 50.954621401353506 12.092887834085559 0 0 0 0 136.04083933537186 45.573918314272305 0 45.573918314272305 -14.457198610951309 0 0 0 0 10.700049220465871 -3.3045775422556574 0 -3.3045775422556574 0.88891351751706793 0 0 0 0 13.223567099094254 -4.5380295286661863 0 -4.5380295286661863 -21.002288137569394 0 0 0 0 -118.04134918218188 -206.3382504855399 0 -206.3382504855399 -928.48195394797949 0 0 0 0 -300.22042382898508 -867.33067974598089 0 -867.33067974598089 -1238.5128857879026 0 0 0 0 229.30583465381642 -145.0726695330668 0 -145.0726695330668 -1357.6744059090033 0 0 0 0 85.566429371829145 -814.28324934007833 0 -814.28324934007833 -2615.0302049328584 0 0 0 0 -326.82656549813692 -530.57759666782658 0 -530.57759666782658 -1746.1929078732064 0 0 0 0 -41.768717962186201 -754.15574033583835 0 -754.15574033583835 -1589.6925258195479 0 0 0 0 5.8337013828929685 -31.26324300667369 0 -31.26324300667369 -11.955054407096291 0 0 0 0 8.4781913651095238 -59.41133126996283 0 -59.41133126996283 -22.47579284105359 0 0 0 0 -150.49631870354278 234.87704513137214 0 234.87704513137214 -676.41035016463138 0 0 0 0 -4.5941375197441374 -16.077953442679473 0 -16.077953442679473 -11.551473539429253 0 0 0 0 24.284638210620656 -50.971611750852475 0 -50.971611750852475 -25.893202400036557 0 0 0 0 54.973051909604692 -19.258688864476426 0 -19.258688864476426 -36.244927506049862 0 0 0 0 -242.61121912277304 -371.72603430112758 0 -371.72603430112758 -298.98355598941271 0 0 0 0 -9.6900807679736545 -32.903743196258603 0 -32.903743196258603 -11.796375669419621 0 0 0 0 -42.725556351419073 -86.492787495604716 0 -86.492787495604716 -69.685650633680325 0 0 0 0 1131.9624362934555 181.36106476966961 0 181.36106476966961 -402.99915462783247 0 0 0 0 61.623165394628558 -29.281488832286442 0 -29.281488832286442 -51.218023230436643 0 0 0 0 -31.999281805678038 -32.268015011304669 0 -32.268015011304669 -28.276826380140847 0 0 0 0 13.489113699863083 -44.852678006660426 0 -44.852678006660426 -88.047260798208299 0 0 0 0 12.601940295629902 -51.901904913873295 0 -51.901904913873295 -25.815262665935734 0 0 0 0 56.127555390405178 -32.167870885179582 0 -32.167870885179582 -43.81238332594512 0 0 0 0 59.646322743675086 -32.961513493419858 0 -32.961513493419858 -41.801595634752687 0 0 0 0 -55.48953384339984 -61.527681396837579 0 -61.527681396837579 -10.699665793566965 0 0 0 0 -66.059249229831039 -149.40957934955077 0 -149.40957934955077 -71.985246735783221 0 0 0 0 21.023514623637311 -119.69458581393701 0 -119.69458581393701 -6.6507554947966128 0 0 0 0 242.37571798713179 -6.4767634525487665 0 -6.4767634525487665 -10.156060140538841 0 0 0 0 336.17874486913206 569.2019245759584 0 569.2019245759584 170.21002176577167 0 0 0 0 92.847826155842995 -22.089889083417802 0 -22.089889083417802 9.3118343959358754 0 0 0 0 10.295708287140485 -5.7523352266135532 0 -5.7523352266135532 -8.2111448099369682 0 0 0 0 -10.652906023402011 -38.322355229808636 0 -38.322355229808636 -12.041297835196019 0 0 0 0 -7.7765437548587215 -9.9953091704082908 0 -9.9953091704082908 -5.849634236030397 0 0 0 0 42.488546835489615 -19.121375711405562 0 -19.121375711405562 -19.389887797442498 0 0 0 0 37.60974035642721 -4.5248619293342927 0 -4.5248619293342927 2.2340285133250291 0 0 0 0 34.607611865807485 -15.51986788209615 0 -15.51986788209615 -5.7413578688574489 0 0 0 0 66.625382634265407 -22.057736749629839 0 -22.057736749629839 -14.164163193883724 0 0 0 0 34.720995531413791 -15.005000573600228 0 -15.005000573600228 -32.545852020120947 0 0 0 0 21.053324805388002 -35.015277051250905 0 -35.015277051250905 -16.700666601027478 0 0 0 0 55.222467354877153 -18.990099124217522 0 -18.990099124217522 -18.580037736974191 0 0 0 0 22.753732545130333 -20.301420362166027 0 -20.301420362166027 -5.7484881122363731 0 0 0 0 19.814015845014026 -5.9179463586784777 0 -5.9179463586784777 -5.9466729908759248 0 0 0 0 126.60752679280267 12.201727432628104 0 12.201727432628104 41.332572499493835 0 0 0 0 23.890506722964346 12.940699655649951 0 12.940699655649951 -19.241769275220577 0 0 0 0 14.939273715062882 -40.896125113067683 0 -40.896125113067683 -9.8525753826834261 0 0 0 0 5.1766386213849387 -0.68283384136768177 0 -0.68283384136768177 -1.5132133465575919 0 0 0 0 1.230558552883025 -1.6967445348326464 0 -1.6967445348326464 -2.3143330128772845 0 0 0 0 110.93008957451457 -0.75741606207884615 0 -0.75741606207884615 -14.441722480791213 0 0 0 0 1127.4131137614168 90.752376395692409 0 90.752376395692409 -504.89346479622327 0 0 0 0 65.937674482818693 -21.473818656741059 0 -21.473818656741059 -13.056966973323142 0 0 0 0 54.916262762813858 -8.2213964309246421 0 -8.2213964309246421 0.71874694371945225 0 0 0 0 141.75207610489451 16.193686339531268 0 16.193686339531268 -13.648770685358613 0 0 0 0 75.331174734248634 3.9054849925414601 0 3.9054849925414601 14.387502526282333 0 0 0 0 82.357259958858776 0.28298226586048258 0 0.28298226586048258 -15.286938807104889 0 0 0 0 727.50926005726069 -295.43825045497942 0 -295.43825045497942 -861.00256223850738 0 0 0 0 719.54996365075931 -287.98585989636922 0 -287.98585989636922 -157.12587150875333 0 0 0 0 7.1022207803768538 -5.3858226353734437 0 -5.3858226353734437 2.2883805001342807 0 0 0 0 -756.55317017010566 -547.62859811179533 0 -547.62859811179533 347.81446211542061 0 0 0 0 393.07406202185666 158.95918108518526 0 158.95918108518526 -478.65009402811847 0 0 0 0 -284.38051305533736 -549.69892043805885 0 -549.69892043805885 -531.17120877321577 0 0 0 0 817.93085709647494 -188.35540305729955 0 -188.35540305729955 -333.28392251562036 0 0 0 0 799.70828327063464 337.05685375306348 0 337.05685375306348 133.95803313450597 0 0 0 0 507.29294591996586 53.521738790321251 0 53.521738790321251 -289.4049139507697 0 0 0 0 610.22825713523343 -94.144266991690529 0 -94.144266991690529 -104.66633032470418 0 0 0 0 625.53493219216398 -440.74077369942097 0 -440.74077369942097 237.77273630643322 0 0 0 0 1193.224389925439 195.17170080908545 0 195.17170080908545 -45.341574230076731 0 0 0 0 1145.3553642812476 341.27995749659021 0 341.27995749659021 -30.087056331976783 0 0 0 0 1031.156520472432 294.35734105243318 0 294.35734105243318 155.17911896854639 0 0 0 0 5.4373660736002734 1.9779406943738707 0 1.9779406943738707 1.3485230410884697 0 0 0 0 35.16343248469073 -11.648550824767824 0 -11.648550824767824 -3.575826383571524 0 0 0 0 64.829989455898613 -2.2994336596239009 0 -2.2994336596239009 -4.2415251639395137 0 0 0 0 39.370004545089614 -3.5328319413310965 0 -3.5328319413310965 6.9966727064929728 0 0 0 0 78.601897863663908 10.583001466657151 0 10.583001466657151 -1.7741663048072951 0 0 0 0 51.022745697133359 -27.817662006600585 0 -27.817662006600585 -15.117929731307868 0 0 0 0 42.804928627443786 -15.569483740012373 0 -15.569483740012373 -1.4131377167641972 0 0 0 0 125.94511678001436 54.494871543094632 0 54.494871543094632 -65.182296939470689 0 0 0 0 -7.6559749307416496 1.9290082906845782 0 1.9290082906845782 172.41674267791677 0 0 0 0 83.516914471256314 -661.29231881396845 0 -661.29231881396845 -0.86862745617327164 0 0 0 0 -795.12884650830529 -781.46464509044017 0 -781.46464509044017 -17.099356748622085 0 0 0 0 5.4747745049200773 -6.9555458109021231 0 -6.9555458109021231 5.0887895937494818 0 0 0 0 -161.70229938541524 -250.29801139077244 0 -250.29801139077244 15.879605874564731 0 0 0 0 214.85315240319323 28.721346517014354 0 28.721346517014354 -70.264710367555381 0 0 0 0 111.9942904800555 -84.948470332856232 0 -84.948470332856232 -88.36797288733942 0 0 0 0 196.4467530795373 102.01110573406913 0 102.01110573406913 -21.896264907627483 0 0 0 0 0.21902318056862669 -0.87050360375042146 0 -0.87050360375042146 -3.8707935504179432 0 0 0 0 524.38528020499507 165.49789584456448 0 165.49789584456448 -285.2475452377621 0 0 0 0 -1086.7056612481319 -1079.0194041152936 0 -1079.0194041152936 -175.13049518255139 0 0 0 0 -589.75885672145887 -634.81719184153917 0 -634.81719184153917 -625.67474501485412 0 0 0 0 0.76397771937209313 -1.9697718541648328 0 -1.9697718541648328 2.5862904997419491 0 0 0 0 2014.7247415259189 -1036.0757097239693 0 -1036.0757097239693 -50.257390103157377 0 0 0 0 -508.6317910247235 -986.87702606325911 0 -986.87702606325911 57.619022783081164 0 0 0 0 3012.8356072989845 -156.56716533773215 0 -156.56716533773215 -368.62119448582234 0 0 0 0 94.548693672571972 356.32318797495827 0 356.32318797495827 -227.76126507209847 0 0 0 0 1.7008194232282463 -2.6660019311760834 0 -2.6660019311760834 0.5803372837545453 0 0 0 0 1315.5243769180379 -335.05406516496805 0 -335.05406516496805 210.97396940817998 0 0 0 0 2072.2704511021038 93.191738373110638 0 93.191738373110638 -105.38903609596309 0 0 0 0 2017.5044869931726 -382.65107824051938 0 -382.65107824051938 91.636024237173842 0 0 0 0 1270.0927320240808 -256.90255501203501 0 -256.90255501203501 178.72416885799612 0 0 0 0 1757.6062028449232 129.01525195635986 0 129.01525195635986 418.41731605314999 0 0 0 0 10.092576477472342 -6.7062760973093418 0 -6.7062760973093418 -2.3112413586767389 0 0 0 0 -64.360210528706375 -45.476105601206655 0 -45.476105601206655 167.72154319792025 0 0 0 0 932.09870308671088 -507.06534997941708 0 -507.06534997941708 270.93978315846471 0 0 0 0 1785.0297668016719 180.5458908913788 0 180.5458908913788 -55.107175816403469 0 0 0 0 2084.1277348186923 587.40823724457732 0 587.40823724457732 232.59153413306922 0 0 0 0 3.2496452638450819 -2.9020619851176548 0 -2.9020619851176548 2.631009096942762 0 0 0 0 1188.2069181939951 -212.8766990406948 0 -212.8766990406948 220.22134570368507 0 0 0 0 1312.3711709923227 -427.26935178312124 0 -427.26935178312124 590.35342517225945 0 0 0 0 660.51464093854884 -519.10652824612771 0 -519.10652824612771 230.37511774765153 0 0 0 0 726.72618583409349 -605.92966956225064 0 -605.92966956225064 334.55684785239282 0 0 0 0 372.74609432393845 -804.6247735099023 0 -804.6247735099023 279.8007293495175 0 0 0 0 397.56974783165788 -600.48808739075321 0 -600.48808739075321 304.23181837709853 0 0 0 0 1293.7948100187059 -306.03821964355302 0 -306.03821964355302 240.19700394385291 0 0 0 0 1277.482927765499 -447.66852090912107 0 -447.66852090912107 113.78609026482445 0 0 0 0 626.63260891238315 -754.67027500609402 0 -754.67027500609402 0.24533231955182544 0 0 0 0 701.55150043384128 -699.23333130106039 0 -699.23333130106039 167.86468332239019 0 0 0 0 244.06534671860209 -698.60774200217929 0 -698.60774200217929 262.34928056357603 0 0 0 0 -53.80878633584507 -791.51683991274331 0 -791.51683991274331 256.56770526601758 0 0 0 0 400.06688999512699 -700.19525911300298 0 -700.19525911300298 147.78623784471711 0 0 0 0 202.92671200571931 -813.25037941997289 0 -813.25037941997289 197.9520747525894 0 0 0 0 295.93362290247751 -717.50799278642808 0 -717.50799278642808 181.13223506492795 0 0 0 0 182.17031688195857 -823.48979225958465 0 -823.48979225958465 226.12539211143667 0 0 0 0 26.566545870300615 -842.52312857209472 0 -842.52312857209472 123.25344511738513 0 0 0 0 169.91696858256546 -771.8248864980942 0 -771.8248864980942 34.752957116230391 0 0 0 0 -229.28970771637978 -916.20044231879729 0 -916.20044231879729 81.326197158698051 0 0 0 0 -50.024128808167006 -688.53062271643648 0 -688.53062271643648 -133.92903898208169 0 0 0 0 70.199270570847148 -1197.3118049471523 0 -1197.3118049471523 87.634573215381806 0 0 0 0 23.814683771626733 -715.63853956952516 0 -715.63853956952516 119.85855011738022 0 0 0 0 326.17324398955679 -747.7391351035476 0 -747.7391351035476 -103.00017694108828 0 0 0 0 351.64072956595783 -917.23738676173252 0 -917.23738676173252 17.370040606212569 0 0 0 0 151.33396825849923 -639.01128695528314 0 -639.01128695528314 308.44136928335138 0 0 0 0 265.91149017716089 -929.46548830220127 0 -929.46548830220127 62.486982849408378 0 0 0 0 656.87228541746299 -425.86846163793962 0 -425.86846163793962 110.97871205593401 0 0 0 0 -227.72152708127396 -461.69228147469403 0 -461.69228147469403 114.95273055617872 0 0 0 0 43.202098556248529 -260.17348368609964 0 -260.17348368609964 -908.45483222132316 0 0 0 0 -318.82734269426874 -251.21099925620365 0 -251.21099925620365 -185.25845123302133 0 0 0 0 179.29187049670873 -556.99738851518487 0 -556.99738851518487 -264.95995883108117 0 0 0 0 -263.93802907274949 -1089.4093617822073 0 -1089.4093617822073 -9.9024021953446208 0 0 0 0 5.3574222733231238 -5.0195344309558436 0 -5.0195344309558436 1.829909499330455 0 0 0 0 -360.40380035232374 -774.5479222752947 0 -774.5479222752947 -1796.9939959383628 0 0 0 0 143.87318357441109 -258.81132921339304 0 -258.81132921339304 -885.41828906905721 0 0 0 0 -372.27006794465706 -500.8368349911907 0 -500.8368349911907 -967.56502689042827 0 0 0 0 -55.191758489017957 -861.11479228573444 0 -861.11479228573444 -1059.3833715914225 0 0 0 0 12.981489974643551 -10.28609595946574 0 -10.28609595946574 3.3538881897189015 0 0 0 0 -87.034581661311677 -1262.1896524378681 0 -1262.1896524378681 -1115.8816072591871 0 0 0 0 11.429063643081463 -1147.5227572230069 0 -1147.5227572230069 909.12220521876588 0 0 0 0 -13.70901441858723 -670.04141776035681 0 -670.04141776035681 87.119741984788561 0 0 0 0 -645.94919667195063 -162.38120815872389 0 -162.38120815872389 -306.99893786655593 0 0 0 0 111.18205844884505 -504.89040796474001 0 -504.89040796474001 -2373.2295996253088 0 0 0 0 -277.64421113487333 -883.9537051760999 0 -883.9537051760999 1323.9806900873336 0 0 0 0 5.503235388696794 -6.2579528940956095 0 -6.2579528940956095 -0.081758458075739782 0 0 0 0 185.9535962607506 -941.76644513875544 0 -941.76644513875544 1187.9823858510645 0 0 0 0 67.165437327292693 -61.267698284171274 0 -61.267698284171274 -1748.2625964454637 0 0 0 0 208.78193871125404 -326.67573135539715 0 -326.67573135539715 -1910.0247204032603 0 0 0 0 6.1314810387159469 -6.7183764428450274 0 -6.7183764428450274 1.2608526828262541 0 0 0 0 255.09060658601811 -664.57303166532074 0 -664.57303166532074 -1064.8347456189949 0 0 0 0 9.3889960031326325 -10.587138756118776 0 -10.587138756118776 -0.79988831478777911 0 0 0 0 -79.052623071205744 -931.16595748750115 0 -931.16595748750115 -383.12633964150154 0 0 0 0 -57.332192932302519 -447.72444807339411 0 -447.72444807339411 -484.05024095368572 0 0 0 0 -195.93704607988911 -408.49575822144834 0 -408.49575822144834 -996.5667237417656 0 0 0 0 633.84375853803067 -985.01496406685328 0 -985.01496406685328 -888.66442008898593 0 0 0 0 61.923918835920631 -65.980873956286814 0 -65.980873956286814 -1869.6333679700911 0 0 0 0 -168.47129504342593 -430.50877861387562 0 -430.50877861387562 375.13454901775731 0 0 0 0 187.02862475673464 -674.174703221659 0 -674.174703221659 188.52936720799335 0 0 0 0 -184.30171507343766 -472.9004850355268 0 -472.9004850355268 1989.752265991312 0 0 0 0 70.013290072143718 -705.13947637167439 0 -705.13947637167439 864.86648617585888 0 0 0 0 108.45880376250716 -648.6394110169058 0 -648.6394110169058 395.45993433908006 0 0 0 0 68.68438617058564 -248.2807415103307 0 -248.2807415103307 415.26216045173351 0 0 0 0 79.768831852108633 -166.24031224139981 0 -166.24031224139981 1022.427566184022 0 0 0 0 384.21180613297474 -559.43209963449408 0 -559.43209963449408 336.87132089889201 0 0 0 0 314.18606025911868 -1037.351629879784 0 -1037.351629879784 994.07174479630339 0 0 0 0 73.527826970383103 -330.79463092029437 0 -330.79463092029437 1009.3000546341791 0 0 0 0 76.783740249462426 -671.65447911281808 0 -671.65447911281808 95.521080957361846 0 0 0 0 -156.76075308155123 -480.0992337927164 0 -480.0992337927164 428.11111254713614 0 0 0 0 -90.100294420848513 -624.85323238414276 0 -624.85323238414276 -152.85750762985845 0 0 0 0 -657.47431065050478 -531.20120105400565 0 -531.20120105400565 233.77591603378823 0 0 0 0 -308.03676703302017 -146.46003390777196 0 -146.46003390777196 -280.44786582498637 0 0 0 0 -49.033371902616636 -694.48860122326005 0 -694.48860122326005 -1939.8865246711366 0 0 0 0 265.97308385046927 -328.2375112461923 0 -328.2375112461923 -1015.6262662452355 0 0 0 0 -272.27675929447287 -493.75813476660551 0 -493.75813476660551 110.94630244496193 0 0 0 0 -1.4229307624950991 -14.320995220338006 0 -14.320995220338006 0.86514160133274132 0 0 0 0 -295.26544862006995 -563.85002303270812 0 -563.85002303270812 1420.7034654662129 0 0 0 0 -0.4747024739573078 -6.0220983217649007 0 -6.0220983217649007 0.10208887168688463 0 0 0 0 286.56744175150743 -349.37271638755556 0 -349.37271638755556 -476.3457603581337 0 0 0 0 248.79168939917781 -501.34985135728948 0 -501.34985135728948 -515.78729040021426 0 0 0 0 -144.51850627852036 -263.46080633221209 0 -263.46080633221209 404.78685405572469 0 0 0 0 -3.7446913574679854 -16.619151699170601 0 -16.619151699170601 1.447018963305343 0 0 0 0 -362.54997958229796 -538.17631876929954 0 -538.17631876929954 -386.55022087750513 0 0 0 0 -8.264571271953173 -443.86347319648667 0 -443.86347319648667 -647.04038973279239 0 0 0 0 -786.80509428900405 -418.61318402360484 0 -418.61318402360484 -610.93919083970104 0 0 0 0 50.973524267858011 -496.88769291432982 0 -496.88769291432982 -1381.367301158185 0 0 0 0 57.580307844524214 -440.71048833858276 0 -440.71048833858276 -914.80744757616776 0 0 0 0 -114.8780891240749 -621.61344061468844 0 -621.61344061468844 -571.37649281117774 0 0 0 0 46.584712762447452 -716.61163289013712 0 -716.61163289013712 -1012.3301476772322 0 0 0 0 -429.57112819029135 -1068.6784036489989 0 -1068.6784036489989 -1171.0540199669922 0 0 0 0 -1124.7760143954511 -417.64251959347166 0 -417.64251959347166 -27.803030277587823 0 0 0 0 -51.224390036273689 -23.556262932310347 0 -23.556262932310347 -105.30865500718028 0 0 0 0 -513.5340805876549 -340.36504418940604 0 -340.36504418940604 -16.272545682746568 0 0 0 0 -198.47450397275315 -496.86624652057435 0 -496.86624652057435 -604.48965873722045 0 0 0 0 -89.793761051911133 -270.50370439984181 0 -270.50370439984181 -224.49564064139122 0 0 0 0 -61.344875360497383 -54.464754764645818 0 -54.464754764645818 -2.2997478257014947 0 0 0 0 -203.00104889692375 -275.11026758272965 0 -275.11026758272965 -191.36509239325824 0 0 0 0 -59.156342819405836 -120.97207720592996 0 -120.97207720592996 128.07377831936174 0 0 0 0 -59.497214029486628 -61.880084957876747 0 -61.880084957876747 46.900511926183114 0 0 0 0 -19.168277844211843 -24.026881827390753 0 -24.026881827390753 -19.626654816658856 0 0 0 0 -96.288953103517997 -91.13970229080951 0 -91.13970229080951 30.892964104052226 0 0 0 0 -9.1113394658100049 -41.227399848458589 0 -41.227399848458589 48.151662936756338 0 0 0 0 -43.434080577243009 -44.415700220074427 0 -44.415700220074427 -18.455160882039408 0 0 0 0 -9.2626640796370339 -91.273068957598298 0 -91.273068957598298 211.31789942266187 0 0 0 0 -72.015323145400004 -10.386447360808319 0 -10.386447360808319 -0.44198868715754713 0 0 0 0 -49.897912234948308 -107.12090216634169 0 -107.12090216634169 211.59922041193204 0 0 0 0 100.31977706373436 -412.63342447898322 0 -412.63342447898322 526.29877465935715 0 0 0 0 -42.842574846356001 -96.488618546580255 0 -96.488618546580255 176.3744616490003 0 0 0 0 44.016917158995057 -254.2321594727764 0 -254.2321594727764 -886.581890744681 0 0 0 0 96.806990454861079 -253.39970499897026 0 -253.39970499897026 -990.76638402037497 0 0 0 0 85.268560123804491 -237.99037156942723 0 -237.99037156942723 -1007.7207336430001 0 0 0 0 158.26356270833276 -406.19127934825701 0 -406.19127934825701 -1206.3035823532118 0 0 0 0 202.29996612038667 -537.73134775144717 0 -537.73134775144717 -814.70215111384823 0 0 0 0 47.18913539985806 -616.7125064584543 0 -616.7125064584543 -543.01266656730149 0 0 0 0 117.2714574670099 -782.11518965227151 0 -782.11518965227151 -878.64983038587161 0 0 0 0 123.12771381491984 -424.67883802589495 0 -424.67883802589495 -435.74186552499305 0 0 0 0 140.3713613418804 -507.97227299840597 0 -507.97227299840597 -1196.4756961400853 0 0 0 0 -567.56492350303802 -757.47753356630324 0 -757.47753356630324 -350.90420513159188 0 0 0 0 -551.9014287064565 -499.55211620260525 0 -499.55211620260525 -504.44942517422896 0 0 0 0 -272.11746002024302 -546.14726174280531 0 -546.14726174280531 -1914.933675483102 0 0 0 0 -866.58451204258017 -1370.2066318790457 0 -1370.2066318790457 -2692.7199586339812 0 0 0 0 -237.99520849303372 -725.55515288039896 0 -725.55515288039896 -1320.4959441294413 0 0 0 0 -22.496549031190085 -40.298334283362436 0 -40.298334283362436 -16.721251487249461 0 0 0 0 81.189803407367435 -86.888805184156809 0 -86.888805184156809 -1943.7488822186351 0 0 0 0 9.675951098153746 3.9564662660523027 0 3.9564662660523027 -1774.5084435679382 0 0 0 0 -17.794468391824921 464.03720350609365 0 464.03720350609365 -3055.6683305789775 0 0 0 0 336.41120298326132 -109.93749589338222 0 -109.93749589338222 209.75139956461499 0 0 0 0 88.45812462446338 -595.2825583365493 0 -595.2825583365493 766.38732439704472 0 0 0 0 -52.383754651497441 2.8169713647523338 0 2.8169713647523338 19.250477533601014 0 0 0 0 -31.171726833796129 -99.0673114402598 0 -99.0673114402598 260.76703979389276 0 0 0 0 216.33544947196788 -104.69171686697518 0 -104.69171686697518 165.05454021003243 0 0 0 0 -734.32408179009508 -900.60628700087545 0 -900.60628700087545 273.89543822091036 0 0 0 0 -2892.7600178581488 -1816.0775934369012 0 -1816.0775934369012 401.73857078577294 0 0 0 0 -847.89990809816663 -591.49717760158819 0 -591.49717760158819 66.596531983879686 0 0 0 0 -232.5577285594627 -498.04287198412931 0 -498.04287198412931 -5260.5048433451593 0 0 0 0 -1428.8164006755396 -240.39054113800375 0 -240.39054113800375 1469.1194760181315 0 0 0 0 -26.363248329136042 -9.6478560215106768 0 -9.6478560215106768 4.678481526138583 0 0 0 0 -919.07146511159954 -1728.8944540082448 0 -1728.8944540082448 -4493.9983138252064 0 0 0 0 -836.42181477991835 -2038.2948740654901 0 -2038.2948740654901 -2041.8669158857228 0 0 0 0 -1027.8639688433432 561.53384171311336 0 561.53384171311336 -1394.5766112454439 0 0 0 0 -3147.5650311243771 -1503.4082886497381 0 -1503.4082886497381 -1155.6659086736181 0 0 0 0 -1246.658713439705 -38.035532993169909 0 -38.035532993169909 -779.0198439931919 0 0 0 0 -1272.9685587098284 -1111.7481615304423 0 -1111.7481615304423 -982.46767550324876 0 0 0 0 -1087.3485717915682 -399.80377894647245 0 -399.80377894647245 -245.36005659811781 0 0 0 0 -1.6024063215542412 -0.24515253641160939 0 -0.24515253641160939 -0.46786614063648813 0 0 0 0 -393.441454501095 63.490814908094762 0 63.490814908094762 20.429467832465889 0 0 0 0 -224.52322874932725 256.15033467576723 0 256.15033467576723 -367.58212976651703 0 0 0 0 94.110458360984921 -28.073480376915541 0 -28.073480376915541 -33.46104545945127 0 0 0 0 -462.43722317730135 -216.65692667812982 0 -216.65692667812982 54.941039250377798 0 0 0 0 -897.45548224517552 -388.06912251516042 0 -388.06912251516042 -2.9254538008535746 0 0 0 0 -608.1847757955984 -707.26295687713355 0 -707.26295687713355 -379.94254819009802 0 0 0 0 -379.27397491457305 -487.9464924912063 0 -487.9464924912063 -170.5087056989214 0 0 0 0 -133.50811552903906 -818.49622462290426 0 -818.49622462290426 -366.43953910261644 0 0 0 0 -499.32671265679573 -515.81633869368125 0 -515.81633869368125 -105.35290531610372 0 0 0 0 35.792795595290954 -461.04200899587158 0 -461.04200899587158 -116.83866722702805 0 0 0 0 -389.23500892208904 -862.3671835050518 0 -862.3671835050518 -148.27837228929275 0 0 0 0 -663.72572143882394 -654.04219812419899 0 -654.04219812419899 364.08152976393467 0 0 0 0 233.20591743168916 -859.67836890531908 0 -859.67836890531908 -174.67163919124869 0 0 0 0 476.85591032424327 -92.866885226645536 0 -92.866885226645536 -175.90251599145995 0 0 0 0 64.174974615481915 -410.25806507559173 0 -410.25806507559173 397.1785209571899 0 0 0 0 1.524252143766553 -3.2827970434112217 0 -3.2827970434112217 -0.53427613810197272 0 0 0 0 87.06761139617447 -11.926430207044177 0 -11.926430207044177 10.949115705530858 0 0 0 0 93.076624234512565 21.669702692430292 0 21.669702692430292 17.566700750132441 0 0 0 0 178.31111942555435 18.29304009297266 0 18.29304009297266 -23.024427012394881 0 0 0 0 0.46570352162833473 -1.7877281899640991 0 -1.7877281899640991 0.36610505251690029 0 0 0 0 -351.91006713149545 -217.20464651299335 0 -217.20464651299335 -187.65926815120474 0 0 0 0 -379.26676699041127 -181.20106855217455 0 -181.20106855217455 -27.283568332743016 0 0 0 0 -4.6814869249064941 2.4726149300040561 0 2.4726149300040561 6.1469392267281364 0 0 0 0 94.544539586677274 -8.4603891152873985 0 -8.4603891152873985 -9.8985183530166978 0 0 0 0 27.94153341029596 -25.3524658391907 0 -25.3524658391907 4.9738964197604218 0 0 0 0 84.809634909972374 -4.7600550681854656 0 -4.7600550681854656 -11.77144784507982 0 0 0 0 30.565708411289961 -9.9186773095425451 0 -9.9186773095425451 6.0845051900541876 0 0 0 0 33.022593098139623 -18.533722337102517 0 -18.533722337102517 -4.741037633655651 0 0 0 0 0.4137265965109691 -14.001245539795491 0 -14.001245539795491 4.1160322592040757 0 0 0 0 -1.6862196745278197 -5.5845381484286918 0 -5.5845381484286918 -25.291197667684173 0 0 0 0 263.58016344533826 276.7286214999549 0 276.7286214999549 -43.096536795793327 0 0 0 0 8.8857788756594402 -3.6369550547113079 0 -3.6369550547113079 -10.655909320860872 0 0 0 0 -21.379029728446767 -19.550316102926445 0 -19.550316102926445 -2.590034261054825 0 0 0 0 206.74944505910753 254.59740101633361 0 254.59740101633361 298.6111366712139 0 0 0 0 42.518611748411786 -28.506558895234775 0 -28.506558895234775 -120.21270535007352 0 0 0 0 175.9282469831378 -256.1097152603943 0 -256.1097152603943 83.90519245856558 0 0 0 0 57.899840491976647 -222.57744134296809 0 -222.57744134296809 145.21538809471531 0 0 0 0 106.86707056072919 -132.86666415129002 0 -132.86666415129002 362.00613308273023 0 0 0 0 58.392281157288863 -34.441312599178389 0 -34.441312599178389 -43.317446195143759 0 0 0 0 821.85954693038366 -85.969673484651139 0 -85.969673484651139 0.32676786184310913 0 0 0 0 824.85971428661742 -60.366206723393589 0 -60.366206723393589 -25.686221791023854 0 0 0 0 3.2657701864097248 -0.93335416821861372 0 -0.93335416821861372 -3.3920042875253671 0 0 0 0 804.09159886205452 -70.185326332837576 0 -70.185326332837576 -8.267970219370909 0 0 0 0 0.33386912652383671 -2.3819818312677796 0 -2.3819818312677796 -2.0589051069337643 0 0 0 0 809.67186003576353 -47.669736062256561 0 -47.669736062256561 -26.434855593572138 0 0 0 0 303.11463427581475 -36.845616338192485 0 -36.845616338192485 144.97748842273722 0 0 0 0 330.54806943052427 146.47894993850696 0 146.47894993850696 -169.81856476716348 0 0 0 0 -5.2601036176021978 -6.2756398699556684 0 -6.2756398699556684 -5.1144811005928545 0 0 0 0 -6.442231701912533 -3.5544410281945602 0 -3.5544410281945602 -12.724188284835691 0 0 0 0 89.316403471451849 -62.2999843932771 0 -62.2999843932771 -159.33037873922149 0 0 0 0 -21.050335809064563 -128.38180781605115 0 -128.38180781605115 -136.5203388720256 0 0 0 0 377.82584205180319 93.282379422307713 0 93.282379422307713 -127.57778523679008 0 0 0 0 237.09436231611471 -11.130148941701918 0 -11.130148941701918 -201.25852638322976 0 0 0 0 144.91826094427961 -37.672307390894275 0 -37.672307390894275 -233.3041051064065 0 0 0 0 109.82424759477726 -25.531085191491002 0 -25.531085191491002 -170.26405207210337 0 0 0 0 -128.4917218943956 -148.02620518064941 0 -148.02620518064941 -214.33434281823429 0 0 0 0 123.54392181933508 -119.48696398497577 0 -119.48696398497577 -285.85593897795479 0 0 0 0 -180.88055099997291 -454.22920302839339 0 -454.22920302839339 -516.05818769750476 0 0 0 0 93.352736856308184 -171.71935664482589 0 -171.71935664482589 -310.02263580439467 0 0 0 0 -2.8392962060529214 -2.6137703896828839 0 -2.6137703896828839 -2.825176058541075 0 0 0 0 95.107617934093014 -21.268162468907121 0 -21.268162468907121 -3.3674744695599657 0 0 0 0 278.96414945758443 313.51356573341036 0 313.51356573341036 -460.71671177790995 0 0 0 0 -199.88415665685898 183.72370549721381 0 183.72370549721381 -218.98894800472772 0 0 0 0 2361.7500564298316 235.84902654365214 0 235.84902654365214 -645.24896545791489 0 0 0 0 -853.88631168410211 -442.0898916424012 0 -442.0898916424012 -87.983603729458991 0 0 0 0 2.6074521010337151 -6.0733111341929344 0 -6.0733111341929344 1.020037687284173 0 0 0 0 -23.668066889003967 -596.68223219857464 0 -596.68223219857464 -114.01706192066649 0 0 0 0 352.17428195019056 942.33397699917623 0 942.33397699917623 -296.94755043847545 0 0 0 0 -77.581027415004428 -663.51073322799493 0 -663.51073322799493 183.90793385465076 0 0 0 0 6.5611628706001532 -14.160318175376617 0 -14.160318175376617 15.246613452309646 0 0 0 0 2363.654274924007 -204.46064270297211 0 -204.46064270297211 -1027.3028897100521 0 0 0 0 -183.90376471808122 -98.958399882270896 0 -98.958399882270896 117.22287468341528 0 0 0 0 1164.7093542242692 -204.13056673725441 0 -204.13056673725441 -245.9994857073325 0 0 0 0 -2.391947248917738 -40.267874496251665 0 -40.267874496251665 43.423274221662723 0 0 0 0 -1321.2874659658337 -1322.4531235692848 0 -1322.4531235692848 289.54143079699134 0 0 0 0 -482.0862756693532 -1334.6626749588031 0 -1334.6626749588031 -118.46167548717494 0 0 0 0 86.397094112580817 -148.69444353023937 0 -148.69444353023937 -66.582152368115203 0 0 0 0 -100.24983093159972 -121.99588581973512 0 -121.99588581973512 80.214981712328154 0 0 0 0 -36.088899368172861 -257.57530290666909 0 -257.57530290666909 31.401063058927321 0 0 0 0 -41.797136929326115 -55.862083164809611 0 -55.862083164809611 -38.957170383154164 0 0 0 0 -70.071183424726769 -50.338310366671067 0 -50.338310366671067 15.61348345191027 0 0 0 0 -44.914256070769156 -48.698095858897247 0 -48.698095858897247 -57.107086478768736 0 0 0 0 58.957905792673046 -332.48831852406329 0 -332.48831852406329 -32.729157041627332 0 0 0 0 17.87605257506948 -215.28837153596396 0 -215.28837153596396 11.50135506875813 0 0 0 0 116.61360321860411 -108.94821643629257 0 -108.94821643629257 -156.53029242205957 0 0 0 0 -282.28231304849032 -214.34651647208648 0 -214.34651647208648 -56.431418831198243 0 0 0 0 -444.2823873435118 -144.02852188976249 0 -144.02852188976249 -43.729331250502582 0 0 0 0 33.351195818037922 -172.0415299327442 0 -172.0415299327442 -341.48319609482132 0 0 0 0 35.60185036926805 -150.33267996180484 0 -150.33267996180484 -167.51184164197184 0 0 0 0 125.83240584055602 -158.72588749317947 0 -158.72588749317947 -94.745808502888394 0 0 0 0 0.11957999093439753 -31.620801871694454 0 -31.620801871694454 -14.21220424197989 0 0 0 0 -18.092845057428349 -48.882986917786184 0 -48.882986917786184 -47.878310417640023 0 0 0 0 -4.7982261556891785 -33.533844562432591 0 -33.533844562432591 -28.609640975301261 0 0 0 0 26.075225928390864 -25.833056157658575 0 -25.833056157658575 -37.988062830729177 0 0 0 0 13.299096469398364 -14.475940578142399 0 -14.475940578142399 -40.385667878435925 0 0 0 0 21.719233401785289 -31.665946741797363 0 -31.665946741797363 -39.751362485183023 0 0 0 0 -113.08528520402615 -225.71445890873292 0 -225.71445890873292 -92.41981880509411 0 0 0 0 -36.575984824001267 -52.638264131236568 0 -52.638264131236568 -56.313281405032427 0 0 0 0 17.001312006330409 -63.065619091816188 0 -63.065619091816188 20.528446110227378 0 0 0 0 -3.9594521223723973 -9.0194941964309692 0 -9.0194941964309692 -7.17469635760947 0 0 0 0 -133.72470537354093 -188.0512518040141 0 -188.0512518040141 -203.51076563954121 0 0 0 0 -186.17232294283167 -119.29915372339747 0 -119.29915372339747 62.493592747312505 0 0 0 0 16.90604921526392 -65.578514342154449 0 -65.578514342154449 -61.460660333250416 0 0 0 0 58.27833197676955 -159.51257420139154 0 -159.51257420139154 -54.840940074471291 0 0 0 0 -126.64266603649594 -131.31462998511415 0 -131.31462998511415 -69.615891082321468 0 0 0 0 -167.49159623713058 -87.937417060526059 0 -87.937417060526059 -69.18211567029357 0 0 0 0 -99.241323131107492 -102.53206854579912 0 -102.53206854579912 -66.915304486839887 0 0 0 0 214.07792931115546 -75.973837450979772 0 -75.973837450979772 747.40367088212588 0 0 0 0 70.582370496820658 -780.13702818541788 0 -780.13702818541788 1748.9264628819656 0 0 0 0 -205.08675524142745 -351.66107933421154 0 -351.66107933421154 1671.1178088032575 0 0 0 0 -21.238494606170093 8.7287794137949071 0 8.7287794137949071 44.678012837535221 0 0 0 0 -908.16517549076525 -992.44809619207808 0 -992.44809619207808 1717.9648364338027 0 0 0 0 -43.216311141684741 -82.674394536186782 0 -82.674394536186782 -55.702380183721978 0 0 0 0 -38.803082174672454 -55.476149074042041 0 -55.476149074042041 -116.60552327545884 0 0 0 0 -77.083186036714324 -51.846489822883086 0 -51.846489822883086 -36.871574905700982 0 0 0 0 -148.01188242869102 -83.861221969433245 0 -83.861221969433245 47.48049500954221 0 0 0 0 -0.062456082756398246 -38.156804182341148 0 -38.156804182341148 -8.3751071932401828 0 0 0 0 -10.567712239588985 -9.7265085768565598 0 -9.7265085768565598 1.0788937722621483 0 0 0 0 -44.668219519138802 -7.0139871255305479 0 -7.0139871255305479 6.8784541761197033 0 0 0 0 -379.91986413476479 84.753670819844046 0 84.753670819844046 862.29828270398139 0 0 0 0 266.45186770103464 534.54587990996788 0 534.54587990996788 702.74758278330046 0 0 0 0 -8.7886255716492769 -23.705146472484216 0 -23.705146472484216 45.021971803511519 0 0 0 0 5.2640778762591367 -27.079444640603043 0 -27.079444640603043 -38.860348522931588 0 0 0 0 -114.84379087403067 -66.357991863951611 0 -66.357991863951611 -34.123224677867256 0 0 0 0 -34.826075784978457 -38.617184882161382 0 -38.617184882161382 -25.553297695209039 0 0 0 0 6.6647547027096152 -39.912603594406391 0 -39.912603594406391 -15.848101384239271 0 0 0 0 1.1503558625391861 -29.691728150429704 0 -29.691728150429704 -20.943144726042405 0 0 0 0 9.5003995274892077 -35.264785504230531 0 -35.264785504230531 -15.161129564949078 0 0 0 0 -70.053650847783572 -103.2343571782734 0 -103.2343571782734 -46.166718151928535 0 0 0 0 -22.300448010390994 -38.124608021535138 0 -38.124608021535138 15.493384916005368 0 0 0 0 10.511245253961533 -33.457594502368011 0 -33.457594502368011 -12.219327900485951 0 0 0 0 8.2841620607068762 -37.12303057659301 0 -37.12303057659301 -11.992638282768894 0 0 0 0 -31.494487833666653 -33.823239292288235 0 -33.823239292288235 -15.229330109845677 0 0 0 0 -42.604426703591855 -55.566395645488832 0 -55.566395645488832 -13.278296429924112 0 0 0 0 9.7184385339496657 -53.904258679423947 0 -53.904258679423947 70.395077876251889 0 0 0 0 -22.304538144573428 -48.622990440220939 0 -48.622990440220939 -23.97901693663286 0 0 0 0 -0.45457618097267982 -22.963791761014875 0 -22.963791761014875 -16.841328075513644 0 0 0 0 -0.014844735560473055 -12.311284214683837 0 -12.311284214683837 -7.8240213887474965 0 0 0 0 -11.472082898806548 -28.055284084352024 0 -28.055284084352024 -22.278245713183424 0 0 0 0 -6.4095497333400431 -15.67028987362491 0 -15.67028987362491 -16.414001262463898 0 0 0 0 -11.754560331523805 -16.997666131405573 0 -16.997666131405573 -2.4803373773214048 0 0 0 0 2.2587413646979257 -17.551787167139992 0 -17.551787167139992 -10.016496217664098 0 0 0 0 3.6402890384197235 -16.267958068317967 0 -16.267958068317967 -8.865289294422837 0 0 0 0 0.28117965782854526 -17.184634645458118 0 -17.184634645458118 -12.824665756543382 0 0 0 0 -26.779808044113452 -29.31721632409608 0 -29.31721632409608 -12.080472238594666 0 0 0 0 -52.361629006045405 -28.328484635203495 0 -28.328484635203495 2.6460859198123217 0 0 0 0 -0.23897563709925862 -3.7873869813886927 0 -3.7873869813886927 -4.5487246703177675 0 0 0 0 -21.133325976115884 -4.4521302746725269 0 -4.4521302746725269 -3.8072625098575372 0 0 0 0 -0.34611046013230862 -0.134748882688001 0 -0.134748882688001 -2.1536327534394815 0 0 0 0 -1299.7614850655082 -340.28219180635642 0 -340.28219180635642 -82.40805085634247 0 0 0 0 10.854261744359974 7.5091118514428672 0 7.5091118514428672 -68.909951532812556 0 0 0 0 -2.9533001342553575 -10.644237113326831 0 -10.644237113326831 -6.1553566166519573 0 0 0 0 321.31205497373594 3.53129107966015 0 3.53129107966015 -120.34856382521684 0 0 0 0 -0.052943572751246393 -10.748122748882452 0 -10.748122748882452 -14.253653554886114 0 0 0 0 8.5651508998941495 -0.56264874933140163 0 -0.56264874933140163 -9.2655210133406314 0 0 0 0 203.90961753680313 66.83174109896936 0 66.83174109896936 -29.561901743189082 0 0 0 0 5.8387507025296372 -11.07876060112207 0 -11.07876060112207 -13.74432719721375 0 0 0 0 54.01660274839378 32.789502289706434 0 32.789502289706434 -20.472441851190524 0 0 0 0 -18.259428035831661 -46.658054651896236 0 -46.658054651896236 -38.193103281711956 0 0 0 0 -34.643174951466335 -45.562668287807583 0 -45.562668287807583 -27.141531541885342 0 0 0 0 -27.767411691088114 -31.714326033860004 0 -31.714326033860004 -17.340771459477416 0 0 0 0 -12.201102757171611 -32.087769459642004 0 -32.087769459642004 -25.516188874840736 0 0 0 0 -10.012609472215274 -27.268242626895599 0 -27.268242626895599 -26.741780822332991 0 0 0 0 17.959941788416472 -39.575968828779878 0 -39.575968828779878 -31.452258364632144 0 0 0 0 -3.0309426481107948 -19.921180560166249 0 -19.921180560166249 -18.009508405430097 0 0 0 0 14.787501019627001 -14.387180341706653 0 -14.387180341706653 -22.697012159101575 0 0 0 0 18.370915783452176 -5.4984872764159718 0 -5.4984872764159718 -11.564461402258246 0 0 0 0 24.373619639096432 -14.843414375722205 0 -14.843414375722205 -29.256277941531152 0 0 0 0 28.58780192823906 -14.411519222201605 0 -14.411519222201605 -34.827479944597144 0 0 0 0 -9.8889359358872753 -16.722994587107678 0 -16.722994587107678 -18.663682806014549 0 0 0 0 9.3229811745407432 -15.650482851543217 0 -15.650482851543217 -21.702667855642403 0 0 0 0 18.292293168498716 -18.530484732551599 0 -18.530484732551599 -33.712183641264033 0 0 0 0 13.317691089381697 -19.360666653607041 0 -19.360666653607041 -23.12934301700443 0 0 0 0 -18.123058485404385 -23.064468544556917 0 -23.064468544556917 -21.304806820242931 0 0 0 0 44.453345419664402 -128.78494231740115 0 -128.78494231740115 -93.629916495767247 0 0 0 0 250.07921500696102 -74.577915978956298 0 -74.577915978956298 -93.143624374482897 0 0 0 0 -39.163869865020388 -185.19677737454776 0 -185.19677737454776 -187.24940059806977 0 0 0 0 0.15953825105680153 -116.36366584717689 0 -116.36366584717689 -89.886641081029666 0 0 0 0 0.21199390784022398 -139.08317019506649 0 -139.08317019506649 -208.28515205335316 0 0 0 0 -32.414599426003406 -182.30834790279187 0 -182.30834790279187 -113.86022903355479 0 0 0 0 75.403339412179776 7.4730879917660786 0 7.4730879917660786 -200.79850501637702 0 0 0 0 -53.737404734382835 -76.65312576525821 0 -76.65312576525821 -43.074623889398936 0 0 0 0 10.341482008709789 -2.636510455294129 0 -2.636510455294129 -6.7116725893720286 0 0 0 0 -204.82746258314728 -106.3054046784091 0 -106.3054046784091 -45.298135807832296 0 0 0 0 -2.240569671645062 -30.774697132699657 0 -30.774697132699657 -29.203972269868245 0 0 0 0 89.411978775546999 -27.482918412203333 0 -27.482918412203333 -79.719950638214414 0 0 0 0 15.260259477494088 -29.176587300032452 0 -29.176587300032452 -41.698257646878005 0 0 0 0 -18.366896222898504 -51.878356769881066 0 -51.878356769881066 -52.008593310936703 0 0 0 0 13.088256713001385 -18.596030585993446 0 -18.596030585993446 -21.833685659516163 0 0 0 0 -29.665742185723502 -46.140308748523239 0 -46.140308748523239 -52.424238764157053 0 0 0 0 -2.5291900394373386 -3.0837269473771869 0 -3.0837269473771869 -6.2743596893181461 0 0 0 0 24.491957811019205 -34.862206566187496 0 -34.862206566187496 -49.147291747410236 0 0 0 0 78.261163878429215 -75.666276945150457 0 -75.666276945150457 -123.23600925203755 0 0 0 0 119.27823420128334 -25.601002400228026 0 -25.601002400228026 -67.437196396131185 0 0 0 0 33.99230557851115 54.445770595382783 0 54.445770595382783 -83.324064492022444 0 0 0 0 39.539884027929673 -18.627586383172542 0 -18.627586383172542 -30.184111833189093 0 0 0 0 24.617239020939451 3.6080369687188067 0 3.6080369687188067 8.5598947163598496 0 0 0 0 136.1185457628344 181.57873135220871 0 181.57873135220871 -61.631545491953148 0 0 0 0 11.791539089532847 -18.787789693730048 0 -18.787789693730048 -20.552831463506749 0 0 0 0 -71.461959178712277 -66.236549985635065 0 -66.236549985635065 -40.352914378956484 0 0 0 0 -219.2682442421501 -52.606089611726929 0 -52.606089611726929 -198.98527531430591 0 0 0 0 -293.99836198698176 -185.39903295501972 0 -185.39903295501972 196.8553509710473 0 0 0 0 -67.782942947815172 -178.11805666028522 0 -178.11805666028522 -404.15630197364953 0 0 0 0 -24.60532570219948 -103.2182575710649 0 -103.2182575710649 -32.875041845240048 0 0 0 0 -28.933749780662765 -107.91776083156765 0 -107.91776083156765 -17.38031611655606 0 0 0 0 1.4666016689378267 -1.2284090474992126 0 -1.2284090474992126 -2.3912957256506502 0 0 0 0 28.188564361621317 -34.036260339423706 0 -34.036260339423706 -45.738026407098715 0 0 0 0 -76.757025585829979 -226.01724370861484 0 -226.01724370861484 -308.18282828890369 0 0 0 0 69.048316248699848 7.647779051992984 0 7.647779051992984 -36.135498850548174 0 0 0 0 80.515739848196972 -17.470412129296164 0 -17.470412129296164 -108.13049393807887 0 0 0 0 -41.166011241497472 -98.739048360235756 0 -98.739048360235756 35.644440521122306 0 0 0 0 -28.534893994554295 -153.30884456937929 0 -153.30884456937929 -113.61691281103413 0 0 0 0 -19.854207910717378 -43.34650111726296 0 -43.34650111726296 -72.259316449970356 0 0 0 0 -33.593408041273506 -25.623333235051177 0 -25.623333235051177 46.732628928730264 0 0 0 0 7.297020793835145 0.45161173506565433 0 0.45161173506565433 -1.7308519675940488 0 0 0 0 3.4781105723991459 0.790885205565246 0 0.790885205565246 -2.0997642510485974 0 0 0 0 0.24850252211035695 16.002319454826647 0 16.002319454826647 -18.109389667282812 0 0 0 0 -161.16332787359715 -127.59434619701278 0 -127.59434619701278 111.39735318904422 0 0 0 0 -16.095507227204507 42.345002117657714 0 42.345002117657714 174.7097403307198 0 0 0 0 -82.474949456052855 -89.911844844384177 0 -89.911844844384177 -1.3061206150887301 0 0 0 0 4.3271373288432073 -14.89375146374374 0 -14.89375146374374 36.120295943663933 0 0 0 0 -11.813282182163675 -24.05711611069728 0 -24.05711611069728 54.476927823401638 0 0 0 0 -0.14646365559019614 -53.745990544928645 0 -53.745990544928645 81.233852182809642 0 0 0 0 3.1278236179568921 -17.348802255100964 0 -17.348802255100964 32.896806656575791 0 0 0 0 -2.1112006068043456 0.22219043121798165 0 0.22219043121798165 9.9336123180948306 0 0 0 0 0.41890424834855366 87.450606688355037 0 87.450606688355037 -135.13518428437692 0 0 0 0 -36.446442437401856 9.6549951053875702 0 9.6549951053875702 28.415860010398319 0 0 0 0 0.61764413795896189 -2.446498567287243 0 -2.446498567287243 7.7272599715436243 0 0 0 0 -41.075978525332175 -20.156809426478503 0 -20.156809426478503 128.11271521579692 0 0 0 0 105.18013141425035 -96.057896298956621 0 -96.057896298956621 85.224484436284456 0 0 0 0 1.955486972896324 -24.770875251135749 0 -24.770875251135749 -14.609527255044668 0 0 0 0 -3.1481944694387494 -9.8212102074439827 0 -9.8212102074439827 116.43158887129039 0 0 0 0 -24.853360367764253 -23.627603501043268 0 -23.627603501043268 10.156716793208034 0 0 0 0 -6.6952660334284388 -7.9063412519775227 0 -7.9063412519775227 12.892836663378056 0 0 0 0 16.426793753016682 -45.007061416780743 0 -45.007061416780743 45.374266655011525 0 0 0 0 -5.2446289231447736 -22.423716046450863 0 -22.423716046450863 21.847988526258632 0 0 0 0 -13.235306694852341 -0.38663715454772429 0 -0.38663715454772429 18.039675660996586 0 0 0 0 -38.270374093670398 12.659818689586245 0 12.659818689586245 92.370784299760999 0 0 0 0 -8.1248793806553294 23.356055907546079 0 23.356055907546079 87.780328607421325 0 0 0 0 51.216618786595063 -108.48919633678452 0 -108.48919633678452 58.698251296057606 0 0 0 0 8.9190604993688112 -11.06888037697442 0 -11.06888037697442 17.829529935576041 0 0 0 0 3.9942561208391112 -3.3492313573052215 0 -3.3492313573052215 0.80244862877925893 0 0 0 0 -73.439203237983747 -54.574247788834327 0 -54.574247788834327 246.538812162049 0 0 0 0 107.5357884716359 -96.160044764012127 0 -96.160044764012127 222.21756363862369 0 0 0 0 -0.45407207061361987 0.70411066532778932 0 0.70411066532778932 -0.0285432209019163 0 0 0 0 -116.39428945322288 11.134865264524706 0 11.134865264524706 201.38145112421716 0 0 0 0 -11.705852677216171 54.101456540108302 0 54.101456540108302 -9.6022140259628941 0 0 0 0 32.642048757319571 -8.0210390444399309 0 -8.0210390444399309 228.04711479270463 0 0 0 0 -46.164940493905192 -101.76165985608479 0 -101.76165985608479 75.356976104103893 0 0 0 0 131.52613257395569 -61.862393409770448 0 -61.862393409770448 -672.00120161712402 0 0 0 0 -6.3142362784710713 -34.653323227215878 0 -34.653323227215878 209.89904420996299 0 0 0 0 -18.556058302929159 -78.95280882330735 0 -78.95280882330735 -44.381902141874889 0 0 0 0 -1.7526895222230223 -44.750886880963066 0 -44.750886880963066 49.268724868713534 0 0 0 0 -21.65805626992551 -53.427326588893152 0 -53.427326588893152 41.121940152184209 0 0 0 0 167.60464105779829 129.92128903044068 0 129.92128903044068 -423.93773623422385 0 0 0 0 13.717043871249189 -88.457342209501803 0 -88.457342209501803 -27.268159767663747 0 0 0 0 15.707335925082589 -60.954595752056093 0 -60.954595752056093 13.71788069895306 0 0 0 0 24.232374217826873 -51.302599418664613 0 -51.302599418664613 61.183711588200822 0 0 0 0 -23.367797714017797 -73.22508085105801 0 -73.22508085105801 -4.9330967579589924 0 0 0 0 7.3273494094901253 -60.483271010525641 0 -60.483271010525641 0.33343439730379032 0 0 0 0 -70.311229400045704 61.393090120720444 0 61.393090120720444 175.25617472074373 0 0 0 0 -3.2324347759245029 0.031641614688027175 0 0.031641614688027175 29.306639091639632 0 0 0 0 -4.5223202706308427 -20.60157867856276 0 -20.60157867856276 75.388807235994221 0 0 0 0 -20.942945783870528 -75.325381213687251 0 -75.325381213687251 61.545142877610488 0 0 0 0 -4.4826590715092607 -30.172912908346916 0 -30.172912908346916 12.245786208652135 0 0 0 0 -17.624106650591557 -4.5903317383480413 0 -4.5903317383480413 11.820674449811868 0 0 0 0 -1.0886739317980982 -7.4391479421597353 0 -7.4391479421597353 -44.190096225727103 0 0 0 0 0.023661959980152428 -8.382471425677867 0 -8.382471425677867 -107.91387350758305 0 0 0 0 16.619636919015676 -12.413216760095963 0 -12.413216760095963 -26.517104073927328 0 0 0 0 -1.4794649622122336 32.457589809641831 0 32.457589809641831 -104.47006459851684 0 0 0 0 -760.74471176974475 -622.04241078323321 0 -622.04241078323321 -1080.3115947281858 0 0 0 0 -760.27450843222198 -1273.0214446546568 0 -1273.0214446546568 -1508.9471984374904 0 0 0 0 -2.2028545707871672 -1102.925433964263 0 -1102.925433964263 -1703.5619562260399 0 0 0 0 -581.95744281911175 -1405.0334914480045 0 -1405.0334914480045 -1664.0381865801246 0 0 0 0 -957.19121237364016 -1318.8416540366779 0 -1318.8416540366779 -1652.9292254152183 0 0 0 0 -797.77836046803714 -1069.4314653598703 0 -1069.4314653598703 -1660.5591729816224 0 0 0 0 -5.321343587307183 21.290222246069931 0 21.290222246069931 -58.467119881247385 0 0 0 0 671.01006571258768 472.03026781779772 0 472.03026781779772 -339.56843039205705 0 0 0 0 -1166.4274221015221 -1064.186847326655 0 -1064.186847326655 -1587.5235293964543 0 0 0 0 -8.9099809630934033 -181.07702691053601 0 -181.07702691053601 158.21214874535508 0 0 0 0 -1957.7749551156121 -2483.5260193214863 0 -2483.5260193214863 -1837.3754806979559 0 0 0 0 -1027.676838649295 -1184.7858912741767 0 -1184.7858912741767 -1947.88193226773 0 0 0 0 -2865.0776136907225 -2118.8367415718058 0 -2118.8367415718058 -1599.6866028025584 0 0 0 0 3.5123494861763902 -1772.8677441892833 0 -1772.8677441892833 -1494.9219053586203 0 0 0 0 -1210.0379986044136 -1185.6994092919085 0 -1185.6994092919085 193.83682891572971 0 0 0 0 -17.375188707801666 -498.82698755911804 0 -498.82698755911804 755.99866601907706 0 0 0 0 1217.8778512156568 1127.1656105022103 0 1127.1656105022103 -417.27563411369238 0 0 0 0 2.7497011004420528 -1.9779149191671763 0 -1.9779149191671763 15.877752877112528 0 0 0 0 1.9959039453822527 -3.1028969318621762 0 -3.1028969318621762 -1.3335375152377367 0 0 0 0 -651.81814136150933 346.29187838597863 0 346.29187838597863 -1638.0669757531214 0 0 0 0 -207.25982201631996 -405.10755308482658 0 -405.10755308482658 -474.47643988981145 0 0 0 0 -858.46982903430762 796.50138594897726 0 796.50138594897726 670.44014421637257 0 0 0 0 -189.36281336611137 -162.80998881923733 0 -162.80998881923733 99.801082476100419 0 0 0 0 -162.70710391676039 83.173809923724093 0 83.173809923724093 -287.05002470343607 0 0 0 0 0.0054651854231495241 -13.140600290879911 0 -13.140600290879911 -5.0630814345786348 0 0 0 0 -31.702820022183005 -17.518427215210977 0 -17.518427215210977 -5.487985708474298 0 0 0 0 1.6598065321289681 -4.1784422409180024 0 -4.1784422409180024 0.64812990380559654 0 0 0 0 424.07216370328388 11.44743782909427 0 11.44743782909427 394.84686961023181 0 0 0 0 -978.74498038156798 -1386.7480705097955 0 -1386.7480705097955 -928.23507668834645 0 0 0 0 -1210.7507521238585 552.56463510906542 0 552.56463510906542 -1072.4284064419335 0 0 0 0 -825.22390070208348 -676.77407631027381 0 -676.77407631027381 424.21282667386549 0 0 0 0 -2970.9746197957138 -3663.8879954872209 0 -3663.8879954872209 -3284.4840793856474 0 0 0 0 -1018.9908056357581 -1468.7781899115553 0 -1468.7781899115553 -4120.577052363682 0 0 0 0 757.44252531461825 -640.51980933493905 0 -640.51980933493905 -2599.770935708204 0 0 0 0 171.34329293984047 171.88885323740487 0 171.88885323740487 -2120.5130926386919 0 0 0 0 842.03940165278982 1590.4987324824888 0 1590.4987324824888 -626.95387382229092 0 0 0 0 -5.8649420966555681 7.0806308166731355 0 7.0806308166731355 -18.09103340542913 0 0 0 0 655.36886054178467 -963.98066393904446 0 -963.98066393904446 -587.90666438978474 0 0 0 0 -730.09336947475094 -790.24094193117344 0 -790.24094193117344 -21.174654977425234 0 0 0 0 -10.590212709292757 -8.6005129668207587 0 -8.6005129668207587 -21.463613519477832 0 0 0 0 108.88187034667135 -91.392834383841546 0 -91.392834383841546 -253.30336634767446 0 0 0 0 220.8939194557388 -453.87136314052259 0 -453.87136314052259 -1222.0510744731146 0 0 0 0 -95.569395683402206 -87.850178603420432 0 -87.850178603420432 63.446654563243428 0 0 0 0 122.48877813562285 75.117253043506935 0 75.117253043506935 341.66494268959013 0 0 0 0 -199.97943994372326 100.01687887176649 0 100.01687887176649 765.01801033247466 0 0 0 0 -388.94223107799189 -498.04385078507039 0 -498.04385078507039 962.87307886951021 0 0 0 0 -752.60786884662502 -2773.106669923553 0 -2773.106669923553 -1254.8076061771935 0 0 0 0 1153.6459921586502 -842.70015628976398 0 -842.70015628976398 -3932.5373894117074 0 0 0 0 503.27589633368189 -457.44358723321784 0 -457.44358723321784 -1222.1313266849193 0 0 0 0 975.40281510211935 -729.21180954293595 0 -729.21180954293595 -2419.3542660378444 0 0 0 0 780.07590921943483 -489.65165394353971 0 -489.65165394353971 -1599.7341156371258 0 0 0 0 487.87216538310167 -35.845658434020152 0 -35.845658434020152 -844.02541596752417 0 0 0 0 921.96769098634832 -46.477302019244235 0 -46.477302019244235 -2374.6304445377755 0 0 0 0 173.75156077328938 492.85972271034552 0 492.85972271034552 -1218.2462494204374 0 0 0 0 614.13987139076198 37.077378163248795 0 37.077378163248795 -1534.6279786009181 0 0 0 0 837.64038217300549 603.23944490862777 0 603.23944490862777 -3298.4607129601864 0 0 0 0 595.50392472480598 -102.19421668641735 0 -102.19421668641735 -1500.8073693660299 0 0 0 0 61.147967002842051 465.6535744613002 0 465.6535744613002 -94.473897481075255 0 0 0 0 408.06434066515067 71.987765961734112 0 71.987765961734112 -25.295618497300893 0 0 0 0 250.35220968257272 -169.41918212675137 0 -169.41918212675137 342.99978186625231 0 0 0 0 952.20572971490037 -749.66468750642161 0 -749.66468750642161 632.83935644519806 0 0 0 0 6.2394218870837221 -110.38007688059282 0 -110.38007688059282 -61.488885326020238 0 0 0 0 15.998480321000898 -66.222042723744821 0 -66.222042723744821 -69.245848683826352 0 0 0 0 447.87334032764363 -1097.8834326404576 0 -1097.8834326404576 -506.89697238794179 0 0 0 0 -101.76996463064279 -809.62396546823584 0 -809.62396546823584 850.45981691244378 0 0 0 0 -408.82434087440197 -1614.3499240849778 0 -1614.3499240849778 -3161.4456818852777 0 0 0 0 -2308.3883534501656 -2313.1379519038437 0 -2313.1379519038437 -356.53739770303946 0 0 0 0 -16.826498745039657 -12.623585240124882 0 -12.623585240124882 -4.0266345860103172 0 0 0 0 -1402.266827020132 -522.33219547095359 0 -522.33219547095359 577.28284162245836 0 0 0 0 -1311.8076459651093 -1987.8458857848091 0 -1987.8458857848091 -3304.8091921797168 0 0 0 0 -1.2300681043165653 -8.7619853573055906 0 -8.7619853573055906 -48.514511174890657 0 0 0 0 -2083.0625088768757 -2592.8785642582061 0 -2592.8785642582061 -2755.749130264463 0 0 0 0 -681.96795981352625 -2242.9972322374742 0 -2242.9972322374742 -3962.0253941829433 0 0 0 0 -703.3090328975959 -876.7813008462399 0 -876.7813008462399 -1264.0914215180601 0 0 0 0 -1292.652182298305 -2434.3469987628996 0 -2434.3469987628996 -2605.0418335995491 0 0 0 0 -1453.712173438822 36.818160322227413 0 36.818160322227413 -1213.0340682860406 0 0 0 0 1176.0220701534527 -210.41043025528052 0 -210.41043025528052 -1709.6062632631365 0 0 0 0 -212.93341476002024 -1747.7873881742416 0 -1747.7873881742416 -425.87377157551236 0 0 0 0 -613.26846933910952 1879.9193154937564 0 1879.9193154937564 -1870.0713654873398 0 0 0 0 -1858.788426737432 1150.9145242378654 0 1150.9145242378654 2504.6365328087631 0 0 0 0 -116.69320275305199 -72.031667650339642 0 -72.031667650339642 59.020493281169287 0 0 0 0 150.00046702611144 140.76586803179271 0 140.76586803179271 525.48190578910726 0 0 0 0 228.40371385743492 356.83429446189348 0 356.83429446189348 566.51946530395981 0 0 0 0 -1.0912292141606486 -2.1831753701679588 0 -2.1831753701679588 2.2471422895809123 0 0 0 0 15.702369411912514 326.1296061796329 0 326.1296061796329 895.09247188355221 0 0 0 0 -173.01820532504644 -158.73769589027233 0 -158.73769589027233 -160.95100752934195 0 0 0 0 -96.699397165619303 86.819674891175509 0 86.819674891175509 839.59009108340433 0 0 0 0 -217.25117123185919 -113.67159737755401 0 -113.67159737755401 -87.307901938609575 0 0 0 0 -223.84870325017255 -152.08642645114014 0 -152.08642645114014 27.139181142483721 0 0 0 0 -168.9350905574538 -154.68794312910541 0 -154.68794312910541 -115.85150754698952 0 0 0 0 -182.39547582583691 -60.062453570895741 0 -60.062453570895741 -61.72060354194582 0 0 0 0 -110.36451806221885 -63.238770416126499 0 -63.238770416126499 -17.074790828506593 0 0 0 0 -60.376304755394813 -74.014302419474006 0 -74.014302419474006 -104.95481173203279 0 0 0 0 -56.978311488395775 -24.645273211883364 0 -24.645273211883364 -65.584175603085896 0 0 0 0 -9.5039890336338431 -35.93969236092471 0 -35.93969236092471 -108.44182924293455 0 0 0 0 0.14522624462540534 -5.7439184864118147 0 -5.7439184864118147 4.7260607467956923 0 0 0 0 23.279708885413129 -12.995532291033669 0 -12.995532291033669 -98.447542023257483 0 0 0 0 4.8814127942146683 -9.3499094115060899 0 -9.3499094115060899 5.1221016691551213 0 0 0 0 -124.48546792449633 30.649550032230763 0 30.649550032230763 494.16668291225687 0 0 0 0 59.676861151034245 -76.526374523720733 0 -76.526374523720733 -92.604473980492912 0 0 0 0 -57.386825449517346 -34.425409336664416 0 -34.425409336664416 48.956351809001717 0 0 0 0 69.574231824313756 -0.0015829657531867269 0 -0.0015829657531867269 48.221329022326131 0 0 0 0 44.388470015459461 -107.20438215990907 0 -107.20438215990907 129.72158928008503 0 0 0 0 -26.55837444102508 1.8574713916386827 0 1.8574713916386827 -43.818554869802028 0 0 0 0 -73.768528655738919 -85.396370297562044 0 -85.396370297562044 304.54805758032671 0 0 0 0 -36.427167818706948 -120.95688918645556 0 -120.95688918645556 -16.874291528315553 0 0 0 0 -54.548492511647055 -163.83829854599117 0 -163.83829854599117 -126.62656399727166 0 0 0 0 -72.527311114157783 -134.59108471294167 0 -134.59108471294167 -137.89287014570164 0 0 0 0 0.88408280427239561 -0.9308118972146513 0 -0.9308118972146513 -0.032606783389242278 0 0 0 0 -42.235613526732777 -8.1463133397201091 0 -8.1463133397201091 -0.98101946283168218 0 0 0 0 -54.010335354644667 -103.11401829496026 0 -103.11401829496026 -92.828843790590327 0 0 0 0 -196.16248485908727 -62.958999298118215 0 -62.958999298118215 22.74994600910577 0 0 0 0 -11.065227135462919 -7.5697921975506688 0 -7.5697921975506688 -28.881127236880275 0 0 0 0 -167.27268387661024 -202.77142724374971 0 -202.77142724374971 -66.01415043511588 0 0 0 0 -111.50032181464121 -227.39259819314611 0 -227.39259819314611 -166.66380871664296 0 0 0 0 -131.17572615701647 -181.43015013352124 0 -181.43015013352124 -57.347051773607291 0 0 0 0 -190.99325226640212 -176.22602112263576 0 -176.22602112263576 -139.59912828642064 0 0 0 0 -237.26164182616412 -282.5045649534643 0 -282.5045649534643 -225.98194049035556 0 0 0 0 -216.31169498621603 -111.31753423584723 0 -111.31753423584723 -150.79441081640471 0 0 0 0 -122.39359329093713 -236.75929760821327 0 -236.75929760821327 -117.28350433249398 0 0 0 0 -457.72031085853087 -406.09054617151287 0 -406.09054617151287 -331.59661239425623 0 0 0 0 -286.74770937285211 -217.20991922061421 0 -217.20991922061421 -293.18888876884466 0 0 0 0 -302.83525594983803 -225.69381363648336 0 -225.69381363648336 -260.1427480734219 0 0 0 0 -484.64377083403815 -429.51316870647042 0 -429.51316870647042 -348.46862077234118 0 0 0 0 -557.12586072554404 -398.7086696495262 0 -398.7086696495262 -328.46087811026518 0 0 0 0 -692.91111355730391 -664.29221430207326 0 -664.29221430207326 -527.9599549080358 0 0 0 0 -594.81837422089302 -517.61787126190575 0 -517.61787126190575 -394.12307601109205 0 0 0 0 -686.02560288502718 -706.1270894914669 0 -706.1270894914669 -614.75624175720986 0 0 0 0 -681.06330386476475 -729.93611025065184 0 -729.93611025065184 -572.76214257044376 0 0 0 0 -544.66899984207703 -497.66587486858589 0 -497.66587486858589 -439.42334890920392 0 0 0 0 -463.14026184040995 -563.73251159937081 0 -563.73251159937081 -584.59799859038515 0 0 0 0 -427.1065943177091 -376.06864161884914 0 -376.06864161884914 -450.50236149131842 0 0 0 0 -380.56110201974298 -318.27186927035768 0 -318.27186927035768 -204.76915487665974 0 0 0 0 -305.15864123526262 -422.41880590712935 0 -422.41880590712935 -496.75361698323195 0 0 0 0 -192.05666021736397 -300.26473839984624 0 -300.26473839984624 -318.39284819663953 0 0 0 0 -462.40114479835756 -447.62591753475499 0 -447.62591753475499 -303.5031039460664 0 0 0 0 -171.98124899574032 -212.49453712498325 0 -212.49453712498325 -208.01590265477475 0 0 0 0 -80.873803565249545 -138.82344844499312 0 -138.82344844499312 -114.51808243698497 0 0 0 0 -298.79300431538286 -222.04270197513642 0 -222.04270197513642 -113.54454181764777 0 0 0 0 -224.52100934111513 -219.57929567383871 0 -219.57929567383871 -303.80352552197473 0 0 0 0 -171.25968490452215 -104.18773265505752 0 -104.18773265505752 -171.04631140482388 0 0 0 0 -299.36390141073935 -241.83759454747405 0 -241.83759454747405 -218.02867112403328 0 0 0 0 -138.01358803134644 -77.146281596846165 0 -77.146281596846165 -76.876766754057826 0 0 0 0 -172.07481553786783 -24.421122759464197 0 -24.421122759464197 90.586270724275892 0 0 0 0 -234.89184077050231 -141.99670591270183 0 -141.99670591270183 275.08636883245526 0 0 0 0 -107.19183619438991 -18.162044195732051 0 -18.162044195732051 302.06221124026524 0 0 0 0 40.185166590072185 -0.57704433146091105 0 -0.57704433146091105 107.18459998252729 0 0 0 0 -218.36702116472588 -138.16705289320271 0 -138.16705289320271 81.888493482285412 0 0 0 0 -94.467216286041975 -70.843776290329174 0 -70.843776290329174 54.889056379044099 0 0 0 0 -118.08433316794981 848.24209597958543 0 848.24209597958543 966.65933271521862 0 0 0 0 -128.36436221373151 155.46937638836062 0 155.46937638836062 554.83446710123053 0 0 0 0 63.787740357089206 -531.39208620424688 0 -531.39208620424688 -890.64958500846842 0 0 0 0 171.6839512400511 50.922389518828822 0 50.922389518828822 -114.89382896457391 0 0 0 0 170.14247401758621 -36.426105198348523 0 -36.426105198348523 -269.59464335490338 0 0 0 0 -93.696023674834578 -579.38652565915254 0 -579.38652565915254 -588.19961197295925 0 0 0 0 -1282.3062273306568 -1511.5663626807218 0 -1511.5663626807218 -359.25115377258044 0 0 0 0 -7.2362173655055813 -157.60902892715603 0 -157.60902892715603 154.08154810444648 0 0 0 0 128.36481384831131 -15.744130916435097 0 -15.744130916435097 -81.587203550756385 0 0 0 0 -48.670787405058718 -84.710742513969166 0 -84.710742513969166 57.35619435480578 0 0 0 0 109.38314480813278 61.475769000135188 0 61.475769000135188 10.835944829770597 0 0 0 0 191.86453355759295 -236.52896147416322 0 -236.52896147416322 -163.02582769695437 0 0 0 0 3.8343893178146118 -100.7480447945602 0 -100.7480447945602 63.261578636278983 0 0 0 0 -89.769047224934354 -212.80291761019936 0 -212.80291761019936 -30.078068642553262 0 0 0 0 -91.08505259786034 67.972843760271644 0 67.972843760271644 441.6951955133145 0 0 0 0 -118.31569130338175 -195.14447674601206 0 -195.14447674601206 87.947483577076127 0 0 0 0 -264.63777686425601 -138.53497019675797 0 -138.53497019675797 67.795712135603026 0 0 0 0 -318.39817656310333 -266.1570223558856 0 -266.1570223558856 -15.475841288224956 0 0 0 0 -346.42251425172435 -335.56069049833332 0 -335.56069049833332 -155.29458546621191 0 0 0 0 -265.29813473977265 -541.03274707990658 0 -541.03274707990658 -555.41201812055442 0 0 0 0 -147.98396046338894 -269.16956588206904 0 -269.16956588206904 -267.9773123334453 0 0 0 0 -163.74337813431339 -100.29230016506972 0 -100.29230016506972 148.50756958708916 0 0 0 0 -260.25932969681162 -341.00937999179087 0 -341.00937999179087 -41.110019774352622 0 0 0 0 -91.567002961117396 -271.55848705402468 0 -271.55848705402468 -73.377012356682826 0 0 0 0 -255.67939877251774 -248.52921965901851 0 -248.52921965901851 231.54757490283282 0 0 0 0 -149.86374283894838 -204.36469529930127 0 -204.36469529930127 -146.68379126545125 0 0 0 0 -193.98833386787737 -82.50333258429373 0 -82.50333258429373 356.20848389233424 0 0 0 0 -181.79896203024373 -305.98676842871606 0 -305.98676842871606 293.56637083282112 0 0 0 0 334.95673360477667 -325.41538033962843 0 -325.41538033962843 -66.60319716987442 0 0 0 0 48.009032593843642 -126.33431488238347 0 -126.33431488238347 62.379049530725354 0 0 0 0 53.172990695096814 -318.60763169367874 0 -318.60763169367874 222.32945726718754 0 0 0 0 -90.842598780403563 -34.484950829598183 0 -34.484950829598183 47.197907600340315 0 0 0 0 -82.474537608126411 -31.579683714298881 0 -31.579683714298881 277.793914371352 0 0 0 0 -45.195178867492359 -75.00673254373396 0 -75.00673254373396 44.926960882326966 0 0 0 0 -38.09674297430405 -74.442538576735799 0 -74.442538576735799 42.755893110858821 0 0 0 0 -518.81300929014105 -410.61971323921307 0 -410.61971323921307 -54.600706251405427 0 0 0 0 -129.59292563830968 -278.22477246474227 0 -278.22477246474227 -126.61545652929271 0 0 0 0 10.325999020969903 -44.646371394336938 0 -44.646371394336938 197.79058363090189 0 0 0 0 -2.3160936670689125 -8.8903205158079572 0 -8.8903205158079572 35.284096469265592 0 0 0 0 -28.55531593532433 -83.211287049963801 0 -83.211287049963801 31.303620811132305 0 0 0 0 -49.087624636449618 -127.39767784925061 0 -127.39767784925061 105.36954366829013 0 0 0 0 -29.919517538714814 -69.593286672836726 0 -69.593286672836726 80.695094674530608 0 0 0 0 -37.582405385528176 -112.98876481648401 0 -112.98876481648401 10.107253125302108 0 0 0 0 -6.9517293210374191 -43.593918700469658 0 -43.593918700469658 21.479389031388564 0 0 0 0 6.8607040563434794 -128.6114960218346 0 -128.6114960218346 174.74751712524179 0 0 0 0 18.918236742581939 3.9057711229070264 0 3.9057711229070264 -88.969194296696514 0 0 0 0 -2.214784811163554 -1031.5805147041756 0 -1031.5805147041756 547.70046407902191 0 0 0 0 1.0105248910219302 -15.335573231614561 0 -15.335573231614561 -20.019953764477737 0 0 0 0 -219.82305236476532 -84.54442668739415 0 -84.54442668739415 -1114.9180299832969 0 0 0 0 -810.61687065608567 -210.05542397080717 0 -210.05542397080717 -707.10823904745848 0 0 0 0 6.8388553178066047 -7.0371208910010665 0 -7.0371208910010665 9.9706927463581003 0 0 0 0 -249.60390594370256 51.159443500758812 0 51.159443500758812 857.01359399818693 0 0 0 0 -121.85477749627898 -698.98636113992961 0 -698.98636113992961 840.69666909781631 0 0 0 0 5.7217748157709138 60.70588146296609 0 60.70588146296609 285.46897030334617 0 0 0 0 -225.74285015776695 -366.28722611249532 0 -366.28722611249532 287.8839209449543 0 0 0 0 -55.327155822567875 -327.27548315764079 0 -327.27548315764079 -94.829126211878247 0 0 0 0 -171.11364472690911 -637.21375582505243 0 -637.21375582505243 -54.404417459866863 0 0 0 0 187.31516756773635 -501.25813457256754 0 -501.25813457256754 -610.24859786304296 0 0 0 0 78.00924124805897 -553.68240825282783 0 -553.68240825282783 -1127.9335125981033 0 0 0 0 267.47072425778606 -103.81682578518485 0 -103.81682578518485 -30.228511189713572 0 0 0 0 645.55075973934436 -631.77472961280182 0 -631.77472961280182 -112.9425126647493 0 0 0 0 -101.63302867754828 -534.56129571081328 0 -534.56129571081328 -100.61968603971377 0 0 0 0 145.49645209022856 -216.58907674654802 0 -216.58907674654802 -247.24671014686464 0 0 0 0 -251.29116049923687 -529.02391524013774 0 -529.02391524013774 -381.00896527756595 0 0 0 0 -294.11436791098458 -895.64169366044644 0 -895.64169366044644 -698.48037183789711 0 0 0 0 -47.506817915971624 -534.91416318428128 0 -534.91416318428128 -719.54504212678876 0 0 0 0 -43.512912301834149 -914.51925996201135 0 -914.51925996201135 -1005.3364217471226 0 0 0 0 -479.90059923665831 -1332.7706035562396 0 -1332.7706035562396 -1203.6968296104842 0 0 0 0 -388.29042124484113 -1355.1726784315842 0 -1355.1726784315842 -1481.6534553437104 0 0 0 0 -713.33637166618428 -1305.3453144904943 0 -1305.3453144904943 -1090.9499837627209 0 0 0 0 -732.89435888201115 -275.86589440091484 0 -275.86589440091484 1713.967283937508 0 0 0 0 -937.59296868523961 -1907.1445325249776 0 -1907.1445325249776 -1579.5465448869581 0 0 0 0 -5.673387877135383 -10.13476217043312 0 -10.13476217043312 0.60051745348318963 0 0 0 0 -1132.5714132221765 -1408.7981479990726 0 -1408.7981479990726 -1036.8787749551157 0 0 0 0 -766.89456112694461 -1091.7496150612569 0 -1091.7496150612569 -968.58330276496963 0 0 0 0 -822.81295362406672 -1046.7900234502949 0 -1046.7900234502949 -880.83810995665772 0 0 0 0 -325.75151675896632 -1056.7024711171071 0 -1056.7024711171071 -1137.9022103599273 0 0 0 0 -499.75419163098559 -833.09976615984124 0 -833.09976615984124 -723.09956755933433 0 0 0 0 -340.73763902012433 -771.18461221623966 0 -771.18461221623966 -893.12776228682924 0 0 0 0 -455.60151152466278 -529.83209700065981 0 -529.83209700065981 -512.57685709973339 0 0 0 0 -526.91191674777656 -801.20613267490353 0 -801.20613267490353 -783.07632878341519 0 0 0 0 -549.45473952966859 -515.0312714310312 0 -515.0312714310312 -409.14151307821749 0 0 0 0 -275.8743300886199 -408.2238392624788 0 -408.2238392624788 -488.22462358687153 0 0 0 0 -580.22554879322979 -758.36352957088275 0 -758.36352957088275 -673.4997357510365 0 0 0 0 -373.25015453208835 -493.58434164159871 0 -493.58434164159871 -634.08026600918856 0 0 0 0 -1005.5501341878698 -942.82090170169613 0 -942.82090170169613 -810.25553285305227 0 0 0 0 -548.95369423273951 -766.42805311248503 0 -766.42805311248503 -833.14131564272793 0 0 0 0 -753.07167403047879 -1025.6259302262933 0 -1025.6259302262933 -1134.1676960622208 0 0 0 0 -781.97967847433756 -684.26725261723368 0 -684.26725261723368 -648.15510533790984 0 0 0 0 -1029.0111544305837 -931.78210249917447 0 -931.78210249917447 -372.94384498731779 0 0 0 0 -860.64323139193584 -943.61660450173986 0 -943.61660450173986 -751.71118802460387 0 0 0 0 -1665.3505550258706 -1538.2335184950362 0 -1538.2335184950362 -905.20769892176577 0 0 0 0 0.77354199296451043 -10.259175183517243 0 -10.259175183517243 2.3452027847487411 0 0 0 0 -753.20061873180384 -1771.0177829783788 0 -1771.0177829783788 -2421.1990940122005 0 0 0 0 -469.84424412550288 -472.41162715529936 0 -472.41162715529936 1008.7247671069144 0 0 0 0 -663.10005541255327 -998.98292766230293 0 -998.98292766230293 485.89465370635298 0 0 0 0 -660.92595921887528 -1077.8077533500177 0 -1077.8077533500177 -1629.0074193604451 0 0 0 0 -969.57965318093193 -1302.7586811209767 0 -1302.7586811209767 -1042.733190825023 0 0 0 0 -10.018982150822609 -11.124704756566956 0 -11.124704756566956 -12.860760615869765 0 0 0 0 -1654.4829131258484 -83.832748671955926 0 -83.832748671955926 -222.57489641496068 0 0 0 0 237.15592001203186 -505.29498570521355 0 -505.29498570521355 -878.95317987933277 0 0 0 0 208.52004780110474 -260.9909041383371 0 -260.9909041383371 233.82994146373312 0 0 0 0 -125.74174884845706 -773.11081386916703 0 -773.11081386916703 -440.39099792880734 0 0 0 0 -391.70670496745879 -897.84116321082695 0 -897.84116321082695 -401.29129766107508 0 0 0 0 -2094.5647519424092 -2152.4480982126606 0 -2152.4480982126606 -334.08872699734638 0 0 0 0 -715.61311883926828 -451.247935645295 0 -451.247935645295 -1403.71839023129 0 0 0 0 -571.86852459885995 -1008.6572622653475 0 -1008.6572622653475 -1795.9053230852078 0 0 0 0 -787.85795451161903 -941.26156224748547 0 -941.26156224748547 -740.94903050723224 0 0 0 0 -776.06719652611355 -967.91453960696617 0 -967.91453960696617 -1157.8172115164416 0 0 0 0 -931.77664917544462 -565.21688738985722 0 -565.21688738985722 -504.37500867560902 0 0 0 0 -1810.5994964878628 -1628.0796388739755 0 -1628.0796388739755 -1044.7942300028626 0 0 0 0 -709.90537289735221 -793.5490859622505 0 -793.5490859622505 -399.55297129881001 0 0 0 0 -519.2520699988454 -782.60113158976537 0 -782.60113158976537 -522.27833909786932 0 0 0 0 -909.64150328914548 -1346.8694505865337 0 -1346.8694505865337 -847.63205275555265 0 0 0 0 -200.68728381750407 -783.73992648399417 0 -783.73992648399417 -521.02940564571691 0 0 0 0 -353.10324925462191 -729.69989754634298 0 -729.69989754634298 -521.4388861963107 0 0 0 0 110.93302565632621 -18.492040753686524 0 -18.492040753686524 414.33265387633219 0 0 0 0 -304.78777515660477 -148.75618622479215 0 -148.75618622479215 419.82617484011826 0 0 0 0 133.96313331184501 -388.22884258624163 0 -388.22884258624163 448.12774462613925 0 0 0 0 -47.79355294231209 132.37723998250112 0 132.37723998250112 -236.20912914806894 0 0 0 0 -531.30760900107452 139.38024666062154 0 139.38024666062154 99.757038203391858 0 0 0 0 29.808399901623488 -305.83891671766833 0 -305.83891671766833 254.76981994904054 0 0 0 0 -12.431173294760811 276.49764764556426 0 276.49764764556426 -194.71429254112809 0 0 0 0 -33.123346605216568 -30.66313967912761 0 -30.66313967912761 -30.882277215849314 0 0 0 0 -348.80753207529779 -27.898876412784375 0 -27.898876412784375 540.93157675015027 0 0 0 0 273.42250316278114 82.277573105595366 0 82.277573105595366 -264.63491820068884 0 0 0 0 -126.33125130637382 -579.73311526942041 0 -579.73311526942041 5.992303843393529 0 0 0 0 -165.38402064496768 -440.81514761375911 0 -440.81514761375911 368.51562484467649 0 0 0 0 -132.51058130832098 415.41033606990004 0 415.41033606990004 1197.9368366275567 0 0 0 0 -145.1565451862698 -475.75473661802152 0 -475.75473661802152 -292.68006768869145 0 0 0 0 4.5298298117857314 -3.2299564777823377 0 -3.2299564777823377 3.9599321885553422 0 0 0 0 -360.32799281311645 -440.25562345472503 0 -440.25562345472503 -144.98339278498315 0 0 0 0 74.013145871984307 -407.27036546513955 0 -407.27036546513955 -271.63163038955554 0 0 0 0 64.980613828127389 -290.11983458409532 0 -290.11983458409532 -198.30501553492104 0 0 0 0 -97.952541814745928 -549.65384816015739 0 -549.65384816015739 -561.31879563880102 0 0 0 0 111.25114112136362 -144.89754533762152 0 -144.89754533762152 -443.72824436580299 0 0 0 0 -307.80907768601901 -388.63792707186622 0 -388.63792707186622 -186.38083866798024 0 0 0 0 -762.59179233647592 -777.38675415825583 0 -777.38675415825583 -517.48167262013249 0 0 0 0 -31.650150647565169 -528.64955331052374 0 -528.64955331052374 -1337.3007213005185 0 0 0 0 -293.53131988082896 388.98188664610871 0 388.98188664610871 -760.45458796866342 0 0 0 0 245.86945067452325 242.33212963733058 0 242.33212963733058 -287.97544047365773 0 0 0 0 233.98287851920031 -199.13370691923137 0 -199.13370691923137 -494.3889996264179 0 0 0 0 27.822853652352933 -431.24056990987992 0 -431.24056990987992 -473.796198552899 0 0 0 0 -25.510394579978311 -373.24662232186733 0 -373.24662232186733 -521.90918404724607 0 0 0 0 -1216.0785547410414 -450.28081077654906 0 -450.28081077654906 -110.71217766437803 0 0 0 0 25.568280823485111 -632.05176327386107 0 -632.05176327386107 -1198.0913970801766 0 0 0 0 -1.7910384494309142 -12.533827598845505 0 -12.533827598845505 -8.3829569083060562 0 0 0 0 -3.6103266009886283 83.606064467684973 0 83.606064467684973 -931.54116915642157 0 0 0 0 -922.12939429700054 -202.67301824930735 0 -202.67301824930735 -47.065403317988967 0 0 0 0 -18.734785085845942 81.600704345223733 0 81.600704345223733 -276.01136401487747 0 0 0 0 18.972012740835851 -21.144977564299893 0 -21.144977564299893 6.7544835686578537 0 0 0 0 -12.178022653674475 -24.189531922388795 0 -24.189531922388795 -17.028980648555148 0 0 0 0 -198.89195686813036 -20.587614850756836 0 -20.587614850756836 2.7900232255753963 0 0 0 0 -299.39044023826136 -194.67535960988016 0 -194.67535960988016 -52.212082095662481 0 0 0 0 -369.53651506767358 10.505292805954262 0 10.505292805954262 20.095543535719116 0 0 0 0 9.1969481051717992 -16.939397365449139 0 -16.939397365449139 5.2246510309171299 0 0 0 0 -153.43491663728855 -164.48923846192241 0 -164.48923846192241 361.88595686449844 0 0 0 0 -82.814917863783194 -12.198304388232827 0 -12.198304388232827 535.65047826258706 0 0 0 0 16.181578169225759 -309.83791348984164 0 -309.83791348984164 498.85747168436865 0 0 0 0 -786.9246767021541 -321.16352331476992 0 -321.16352331476992 1.2842156312146926 0 0 0 0 -135.52964129477914 -140.99825025542032 0 -140.99825025542032 -208.42767984227089 0 0 0 0 -242.47295670615858 -318.108558182872 0 -318.108558182872 -265.57169361456909 0 0 0 0 -315.32417310799065 -305.44722862471008 0 -305.44722862471008 -200.45718634428795 0 0 0 0 -645.83627648169204 -549.90163498563015 0 -549.90163498563015 -283.99625588897743 0 0 0 0 12.383421206843309 -9.9433716034757822 0 -9.9433716034757822 7.7495984814182819 0 0 0 0 -66.740891053486848 -232.78123190212909 0 -232.78123190212909 -387.20651895527544 0 0 0 0 -26.373402291043021 -320.37531640731481 0 -320.37531640731481 -310.96777422173454 0 0 0 0 -131.39193385963154 -1134.7950498430437 0 -1134.7950498430437 -569.55396329679343 0 0 0 0 -575.5668015871197 -939.30573710176577 0 -939.30573710176577 -530.58296945727091 0 0 0 0 3.3065848863477072 -4.3718411279902796 0 -4.3718411279902796 2.7078267459686813 0 0 0 0 -44.319831641681958 -523.83272074654315 0 -523.83272074654315 -560.49528467089749 0 0 0 0 -443.91478246696352 -612.48199650267611 0 -612.48199650267611 -557.23672836215792 0 0 0 0 -712.70010739230202 -751.31944710567905 0 -751.31944710567905 -364.37719773285608 0 0 0 0 -602.75700849210443 -1055.4029104431761 0 -1055.4029104431761 -660.46499983753074 0 0 0 0 -771.19653943291632 -1025.3328386315384 0 -1025.3328386315384 -645.19785062331994 0 0 0 0 -546.43227441428462 -610.26955340225686 0 -610.26955340225686 -279.50883950695516 0 0 0 0 -697.46271491449443 -1112.6424444118647 0 -1112.6424444118647 -814.89378425241193 0 0 0 0 -1352.6367847176298 -1071.6317589491832 0 -1071.6317589491832 -378.27993826962847 0 0 0 0 -712.41326441628189 -1151.1924727569071 0 -1151.1924727569071 -809.5400241231564 0 0 0 0 -816.99291672810068 -1076.9765393096445 0 -1076.9765393096445 -561.7988928419054 0 0 0 0 -528.70499062050658 -767.18127416654443 0 -767.18127416654443 -646.85224901987931 0 0 0 0 -784.51166347037361 -1050.7434739393357 0 -1050.7434739393357 -790.39764135765017 0 0 0 0 -850.9429080198388 -1266.1953207387946 0 -1266.1953207387946 -1334.4483541582049 0 0 0 0 -7.9430285914556578 -7.8333605516843789 0 -7.8333605516843789 -8.944365349137172 0 0 0 0 -2539.5708402455202 -965.09133817904876 0 -965.09133817904876 -173.27185990965381 0 0 0 0 454.84832656264007 -960.06994430191503 0 -960.06994430191503 -972.7984597460345 0 0 0 0 -1981.7108503723939 -1246.2747137493616 0 -1246.2747137493616 -623.91174953058544 0 0 0 0 -848.56490769177617 -1811.5536125269473 0 -1811.5536125269473 -1240.3136901322137 0 0 0 0 -1186.7158193423675 -566.61921381904358 0 -566.61921381904358 -939.43788954856427 0 0 0 0 -910.95582791905326 -1052.4916824369711 0 -1052.4916824369711 -599.52770335334299 0 0 0 0 -1000.2308143949776 -1243.9995601020273 0 -1243.9995601020273 -963.41280563579494 0 0 0 0 -856.56973209815624 -922.97680868126008 0 -922.97680868126008 -717.62946922213814 0 0 0 0 -711.80484379881091 -681.60556592426246 0 -681.60556592426246 -468.2411220374488 0 0 0 0 -1060.318968770458 -959.95457460976877 0 -959.95457460976877 -620.17594501999338 0 0 0 0 -680.89283051900566 -609.06259023318671 0 -609.06259023318671 -480.50738496223858 0 0 0 0 -535.90173016693007 -359.25850642199475 0 -359.25850642199475 -279.10419542239833 0 0 0 0 -467.9930815523694 -416.28447303531175 0 -416.28447303531175 -250.71949625835401 0 0 0 0 -616.88599401749343 -660.48442522209768 0 -660.48442522209768 -428.19243717370591 0 0 0 0 -794.88951992118382 -664.10230497367593 0 -664.10230497367593 -314.25187494924012 0 0 0 0 -911.65591822155329 -587.19233886169309 0 -587.19233886169309 -386.08905090277767 0 0 0 0 -813.41431036977883 -834.42983196466957 0 -834.42983196466957 -749.61558474174399 0 0 0 0 -20.810824241605587 -220.20538540091275 0 -220.20538540091275 -50.583486569444176 0 0 0 0 -592.8630171896275 -447.50333829568785 0 -447.50333829568785 95.890103554917005 0 0 0 0 -246.32258951663243 -290.32280547138453 0 -290.32280547138453 -244.36586137018276 0 0 0 0 -245.35098657813433 -305.30429992350901 0 -305.30429992350901 -77.304137419752806 0 0 0 0 -110.04577344782592 -245.50140324756376 0 -245.50140324756376 -233.74605329296628 0 0 0 0 -179.06538553007704 -294.30052694766891 0 -294.30052694766891 -78.457742059450538 0 0 0 0 -104.55139643530129 -270.20353145583977 0 -270.20353145583977 -122.73993912900551 0 0 0 0 -335.87705947762879 -134.630215080384 0 -134.630215080384 -10.117195805944903 0 0 0 0 -254.11198446966591 -202.90842206342313 0 -202.90842206342313 -60.471929843006365 0 0 0 0 -250.45442075570463 -202.64443228038363 0 -202.64443228038363 -68.435967487457674 0 0 0 0 -0.91424007383470496 -3.4599951596131007 0 -3.4599951596131007 5.3934004578026276 0 0 0 0 -1229.3116055965656 70.444943258828062 0 70.444943258828062 441.48965095805033 0 0 0 0 -489.90605564232101 -36.821501572780107 0 -36.821501572780107 -137.33033089412493 0 0 0 0 -46.521952001028694 -463.47188327622735 0 -463.47188327622735 161.73060211866868 0 0 0 0 -185.76960722214426 -278.76999427448754 0 -278.76999427448754 -81.672459885687203 0 0 0 0 -361.14111592458357 -363.74427732380491 0 -363.74427732380491 200.14500896436948 0 0 0 0 -343.83822626303299 -201.4369246187689 0 -201.4369246187689 136.65329246400597 0 0 0 0 86.262550321967865 -198.75756060269669 0 -198.75756060269669 405.48681186814247 0 0 0 0 -457.51216281390225 -529.08298488187393 0 -529.08298488187393 729.24666376710775 0 0 0 0 -344.59086908866811 -240.11973427952671 0 -240.11973427952671 470.52405295464996 0 0 0 0 584.1063929622469 -955.64695334778389 0 -955.64695334778389 1460.8409770538037 0 0 0 0 -914.13878747366834 -367.44677157943988 0 -367.44677157943988 686.2833860834271 0 0 0 0 2316.3041753680591 -960.92634725654034 0 -960.92634725654034 -127.45976292629348 0 0 0 0 -138.93212723343458 -283.16218908459632 0 -283.16218908459632 -302.49344611533343 0 0 0 0 -359.43872741036466 -332.05474918286836 0 -332.05474918286836 -301.07326528309386 0 0 0 0 293.32880455881241 -484.62395240345359 0 -484.62395240345359 701.75826052217781 0 0 0 0 -1.9966867498820449 -13.310771857749273 0 -13.310771857749273 -5.2711083169701212 0 0 0 0 -3.6244543807172249 -15.054209649535018 0 -15.054209649535018 3.8330174118110705 0 0 0 0 -572.81236546223226 -307.70010607713266 0 -307.70010607713266 -179.79836661282934 0 0 0 0 -377.94063323401497 -822.16205702785464 0 -822.16205702785464 -1158.6242694845268 0 0 0 0 -493.0728977803883 -1322.7174123551608 0 -1322.7174123551608 -1997.1922249083145 0 0 0 0 -3.4711358195718844 -5.2076950543688767 0 -5.2076950543688767 1.4367207369085939 0 0 0 0 -527.60624044700671 -676.5722759113869 0 -676.5722759113869 815.04754479228268 0 0 0 0 -402.31353941628186 124.81698309375747 0 124.81698309375747 1804.6477131311858 0 0 0 0 -567.00758002993825 -882.80161715666782 0 -882.80161715666782 -249.27616009327812 0 0 0 0 -869.61583955798415 -1196.4887714127117 0 -1196.4887714127117 -710.34704878478715 0 0 0 0 -930.54705663117784 -1414.6067392213085 0 -1414.6067392213085 -1074.9802822983029 0 0 0 0 -862.6238739755936 -1075.6702133785629 0 -1075.6702133785629 -808.81414106493867 0 0 0 0 -856.77369548045135 -1205.7065330518717 0 -1205.7065330518717 -726.68219912111817 0 0 0 0 -794.59299159379407 -1196.7901547861638 0 -1196.7901547861638 -759.59533848690808 0 0 0 0 -809.95077654030865 -1133.3031551935999 0 -1133.3031551935999 -651.48582680818799 0 0 0 0 -752.09403910733818 -1160.7224838367997 0 -1160.7224838367997 -754.4205341540528 0 0 0 0 -678.35981892832206 -1016.830208256938 0 -1016.830208256938 -522.32009419615042 0 0 0 0 -702.34925946283693 -1129.9906180640737 0 -1129.9906180640737 -606.8967539057212 0 0 0 0 -788.97316272494209 -1110.7843641382055 0 -1110.7843641382055 -561.40622131195778 0 0 0 0 -798.50189164681797 -1154.7649580867073 0 -1154.7649580867073 -586.89148549492165 0 0 0 0 -733.08747453459364 -1091.2169450424835 0 -1091.2169450424835 -655.74226582337826 0 0 0 0 -729.90348497375089 -1059.3751859278577 0 -1059.3751859278577 -662.3722376345313 0 0 0 0 -729.89481440027885 -1079.7461227618337 0 -1079.7461227618337 -493.21329890588004 0 0 0 0 -578.63838143913017 -1038.8933124999012 0 -1038.8933124999012 -588.61801963053313 0 0 0 0 -658.06328518599912 -1133.9605245390694 0 -1133.9605245390694 -718.01753321506908 0 0 0 0 -714.0874030602281 -1088.7762743244816 0 -1088.7762743244816 -736.18968592972237 0 0 0 0 -791.4949452696892 -1127.0033066435412 0 -1127.0033066435412 -664.35930585728352 0 0 0 0 -737.45419900467095 -1130.7735011695195 0 -1130.7735011695195 -668.1438107066466 0 0 0 0 -830.7920991312858 -1146.6076474946408 0 -1146.6076474946408 -574.46826319212653 0 0 0 0 -719.53956362321333 -1202.8004747548378 0 -1202.8004747548378 -585.59051414464739 0 0 0 0 -359.58471518658916 -1443.0610117354847 0 -1443.0610117354847 -545.72219986358323 0 0 0 0 -819.68020163087624 -1207.4137201835181 0 -1207.4137201835181 -486.14627031262353 0 0 0 0 -817.9187228850642 -1288.5438580340847 0 -1288.5438580340847 -891.45465823989502 0 0 0 0 -814.84854432403517 -1091.763288946388 0 -1091.763288946388 -677.62315981193115 0 0 0 0 -817.04858823819677 -1025.1243595608657 0 -1025.1243595608657 -801.2632026031024 0 0 0 0 -806.43854571775591 -1206.9352252405556 0 -1206.9352252405556 -738.61597672133848 0 0 0 0 -1.0521981819528889 -2.6318408656729844 0 -2.6318408656729844 -4.6174899663949276 0 0 0 0 -400.2472979654558 -215.79678205604068 0 -215.79678205604068 -172.95113118845802 0 0 0 0 920.48359955394699 -604.65255157723027 0 -604.65255157723027 -316.13165642859258 0 0 0 0 -1863.1406703817484 -937.69121971412187 0 -937.69121971412187 -167.67390948189131 0 0 0 0 12.013131473097019 -444.08372589235887 0 -444.08372589235887 604.8616255805764 0 0 0 0 220.4982305588419 -339.81200790847242 0 -339.81200790847242 394.09606039141363 0 0 0 0 -13.801706511134398 -568.43286383451505 0 -568.43286383451505 326.34065627842438 0 0 0 0 -130.36906253937923 -243.61430980185287 0 -243.61430980185287 1726.0136024506219 0 0 0 0 -47.895803804640309 -372.58421404988485 0 -372.58421404988485 548.67666094920378 0 0 0 0 -5.4634775381563259 -706.82522731240897 0 -706.82522731240897 863.77964521073318 0 0 0 0 -2.2165003758176454 -972.7251271984876 0 -972.7251271984876 177.68882999205562 0 0 0 0 -52.259105679535423 -1418.7658001412487 0 -1418.7658001412487 -645.30077687742119 0 0 0 0 91.850205987953814 -795.87148711479495 0 -795.87148711479495 -125.6128616716237 0 0 0 0 -164.80570682505277 -1144.9404786140262 0 -1144.9404786140262 -716.17595154040509 0 0 0 0 22.623514567036182 -1369.4772611890717 0 -1369.4772611890717 -470.53060247114718 0 0 0 0 172.76397325692051 -983.34458848101224 0 -983.34458848101224 -313.21875905409479 0 0 0 0 157.35560598471784 -1172.7658105836174 0 -1172.7658105836174 -1072.0662668723235 0 0 0 0 24.527647497190628 -1330.8675146322794 0 -1330.8675146322794 -872.152812445471 0 0 0 0 328.75379408363369 -1148.5131605482829 0 -1148.5131605482829 -867.06216694513739 0 0 0 0 35.888765974974376 -1460.909633589835 0 -1460.909633589835 -594.62560081711717 0 0 0 0 -0.053846338836592622 -1452.9245388745744 0 -1452.9245388745744 -194.51158269797361 0 0 0 0 154.06141663875314 -797.54625154807263 0 -797.54625154807263 594.32299292029847 0 0 0 0 178.60827931531821 -1316.6041964916249 0 -1316.6041964916249 51.329965369963702 0 0 0 0 -61.818896649725502 -748.57743442010678 0 -748.57743442010678 898.54518459966857 0 0 0 0 -134.21895845724794 -273.04324030728685 0 -273.04324030728685 3225.9040385655462 0 0 0 0 0.92833409481681883 -1360.0267146780529 0 -1360.0267146780529 1211.2345184708897 0 0 0 0 2.0733821134289769 -5.081169400308589 0 -5.081169400308589 2.5041818784272252 0 0 0 0 0.14274683082476258 -855.65428756243182 0 -855.65428756243182 -782.97420028789384 0 0 0 0 233.05976110056508 -532.12209238882133 0 -532.12209238882133 -1937.9881752777474 0 0 0 0 -153.97277241857955 -347.92749582187935 0 -347.92749582187935 98.595117132848827 0 0 0 0 53.099529386421636 -788.70649855904139 0 -788.70649855904139 -394.47570663549777 0 0 0 0 -322.52825151599245 -685.51152495640599 0 -685.51152495640599 381.62258275397107 0 0 0 0 -69.26871381780802 -631.79429097028014 0 -631.79429097028014 -817.6778779391916 0 0 0 0 -257.55385079076223 -448.81516675203056 0 -448.81516675203056 -516.02748469839025 0 0 0 0 5.5576941086316083 -13.869702955212169 0 -13.869702955212169 4.998168757479001 0 0 0 0 -195.50334430174553 -216.95733107945853 0 -216.95733107945853 -96.124788012562931 0 0 0 0 -202.05375676037511 -372.4810310433968 0 -372.4810310433968 -311.13397912844812 0 0 0 0 25.163406285035308 -291.10155998418031 0 -291.10155998418031 635.39350769752764 0 0 0 0 8.9971612167061039 -21.687514024433817 0 -21.687514024433817 3.9345550841709791 0 0 0 0 -249.00386029639049 -186.86942353999439 0 -186.86942353999439 -85.284998212453502 0 0 0 0 -305.27931347260892 -188.73768382991693 0 -188.73768382991693 -64.944407705143021 0 0 0 0 -3.8185001645688317 -13.615542113249433 0 -13.615542113249433 4.5695627504734517 0 0 0 0 -274.14036666846368 -225.95487094083455 0 -225.95487094083455 -78.817006604695052 0 0 0 0 -589.20430892375589 -184.26092540371428 0 -184.26092540371428 -23.09831762403519 0 0 0 0 -553.96918868666944 -514.91243657007749 0 -514.91243657007749 320.7572783503274 0 0 0 0 -308.67346468011965 -641.40468493538174 0 -641.40468493538174 -143.24856976493538 0 0 0 0 -502.58283856714843 -320.90900715360658 0 -320.90900715360658 176.23180806790333 0 0 0 0 -1051.481981551522 -447.94997740104191 0 -447.94997740104191 705.57398978623314 0 0 0 0 -1451.5212976181792 88.513276106057674 0 88.513276106057674 407.23909132532117 0 0 0 0 2101.1890740930467 -787.24715705057588 0 -787.24715705057588 70.158223890644877 0 0 0 0 -1.8431299854030385 -3.2403830033758823 0 -3.2403830033758823 1.7685181463865263 0 0 0 0 -3.8898788186998416 -8.4537183779447389 0 -8.4537183779447389 12.241170223374631 0 0 0 0 516.8141474508011 -714.60735983739141 0 -714.60735983739141 751.82694074861502 0 0 0 0 52.201738074450986 -188.12609358572354 0 -188.12609358572354 370.1804109440709 0 0 0 0 -417.93973821521104 85.683146789881675 0 85.683146789881675 845.67498010408235 0 0 0 0 -327.94674020597449 -301.48804639725131 0 -301.48804639725131 460.14933237104196 0 0 0 0 105.00935864754138 139.95024049272797 0 139.95024049272797 413.7506925531261 0 0 0 0 2.7833146029117302 -5.3993999467010951 0 -5.3993999467010951 12.961010779068623 0 0 0 0 53.151980982263922 -358.30655666578059 0 -358.30655666578059 780.87244631282374 0 0 0 0 301.74440338170825 618.31921156240696 0 618.31921156240696 1088.5617149598002 0 0 0 0 0.206923959537646 20.135786840573658 0 20.135786840573658 2065.781721695952 0 0 0 0 620.5418264575419 -803.47619061843216 0 -803.47619061843216 324.87645909497587 0 0 0 0 -319.39884605573025 -83.793426192802144 0 -83.793426192802144 1855.4404939879823 0 0 0 0 -253.05192160134902 -668.71224690206873 0 -668.71224690206873 1695.6134896757649 0 0 0 0 -253.7650065505004 -774.32017395533694 0 -774.32017395533694 1120.3613622500998 0 0 0 0 -266.26856246381067 -433.41046709998227 0 -433.41046709998227 324.11832825377769 0 0 0 0 -340.30085261736531 -200.99251770302362 0 -200.99251770302362 623.87706260044433 0 0 0 0 -480.94447458071954 -460.08542647986542 0 -460.08542647986542 875.28271525270975 0 0 0 0 -185.29992313249386 83.703589116069452 0 83.703589116069452 1038.0454424257841 0 0 0 0 -124.02511393666555 -182.05272220851657 0 -182.05272220851657 -278.59040571247169 0 0 0 0 72.067758282737486 -282.28466532554557 0 -282.28466532554557 -997.42685709999932 0 0 0 0 -51.834306448232383 -103.86927415184255 0 -103.86927415184255 -577.42850695582456 0 0 0 0 -49.442781945304887 -339.31552825567633 0 -339.31552825567633 -503.86949073850883 0 0 0 0 -176.63740908317777 -428.35283018059818 0 -428.35283018059818 -547.83404921750116 0 0 0 0 -128.05261219710076 20.309778629797393 0 20.309778629797393 -637.20166494372097 0 0 0 0 -79.609108982256657 350.17648830031612 0 350.17648830031612 866.97435244578446 0 0 0 0 90.446602534750127 -310.92364137935147 0 -310.92364137935147 1429.876959184865 0 0 0 0 5.7974474453345692 -16.869042131361041 0 -16.869042131361041 2.294432747881296 0 0 0 0 66.009157559667074 -222.56726013484149 0 -222.56726013484149 1539.4266706599451 0 0 0 0 11.128289310199293 -11.087564337228486 0 -11.087564337228486 5.9393906154504919 0 0 0 0 -548.94866834473578 811.89351800098302 0 811.89351800098302 2863.9998870288855 0 0 0 0 0.33105875913553007 -28.348066658401436 0 -28.348066658401436 -7.9021213458218256 0 0 0 0 -324.53610003038921 -1215.2055875579535 0 -1215.2055875579535 2420.1498769204482 0 0 0 0 -182.20162380479269 -238.04941677388251 0 -238.04941677388251 -269.62455902111105 0 0 0 0 1545.6913206652898 -2275.0881044025082 0 -2275.0881044025082 974.46055875229285 0 0 0 0 17.783626632097146 -41.564624134292451 0 -41.564624134292451 -95.919629191148516 0 0 0 0 -43.897519654878124 -180.5315499327553 0 -180.5315499327553 -339.93495759698612 0 0 0 0 -13.516643710815337 -30.876386164331421 0 -30.876386164331421 -25.386468507565468 0 0 0 0 -66.340929001617042 -191.41189225828566 0 -191.41189225828566 -302.46072374872165 0 0 0 0 -48.296656304286444 -183.98548461301834 0 -183.98548461301834 -342.59767023937457 0 0 0 0 -47.856231082383601 -236.33611505167937 0 -236.33611505167937 -320.94814506679541 0 0 0 0 -67.842996566931106 -233.86973411478175 0 -233.86973411478175 -253.28165376043034 0 0 0 0 -50.893822457259375 -164.59213550456843 0 -164.59213550456843 -359.62532279420702 0 0 0 0 -41.280920109125873 -251.85540448633401 0 -251.85540448633401 -288.53460512330639 0 0 0 0 -21.158793515220168 -269.10326692587842 0 -269.10326692587842 -425.37354602140476 0 0 0 0 -68.218561601386682 -269.54663329587493 0 -269.54663329587493 -176.63097625484806 0 0 0 0 -67.438363401843162 -254.2922244107267 0 -254.2922244107267 -303.58549115536152 0 0 0 0 -51.112260861471441 -264.6297823274399 0 -264.6297823274399 -297.52413845572119 0 0 0 0 10.154669276314962 -275.40593925078065 0 -275.40593925078065 -304.6364756917319 0 0 0 0 -51.921722141769351 -264.50428200654005 0 -264.50428200654005 -276.06627384948661 0 0 0 0 -40.266967762299259 -54.930305289731493 0 -54.930305289731493 -53.617125087860359 0 0 0 0 -531.10313818458962 -684.63448871833953 0 -684.63448871833953 -450.79848536991631 0 0 0 0 -357.65654704048939 -457.95499207395369 0 -457.95499207395369 -597.1015597361984 0 0 0 0 203.2121209255638 -148.18743877336783 0 -148.18743877336783 -86.742462611209703 0 0 0 0 -116.64236521990802 -475.05302595871495 0 -475.05302595871495 -709.19214689463115 0 0 0 0 26.745872526054541 -10.558624206694567 0 -10.558624206694567 -21.281879421067103 0 0 0 0 -120.95160259367117 -360.0991180528452 0 -360.0991180528452 178.77640208900266 0 0 0 0 52.913048959635489 -216.36345858766072 0 -216.36345858766072 -211.39383220574746 0 0 0 0 8.8630306025410306 -53.396489879830597 0 -53.396489879830597 -39.445861961939734 0 0 0 0 42.894308708317112 -89.171948893352237 0 -89.171948893352237 25.103237942668784 0 0 0 0 -22.048949932677147 -54.694477392027999 0 -54.694477392027999 14.643105111439439 0 0 0 0 -33.75601167639752 -28.885431526901357 0 -28.885431526901357 101.23793630411456 0 0 0 0 43.985601975628015 -32.24095459417731 0 -32.24095459417731 -141.0244473321327 0 0 0 0 26.347075931606561 -15.561098359062072 0 -15.561098359062072 -15.419392715453327 0 0 0 0 -138.13843583576636 -215.43232489998809 0 -215.43232489998809 25.788813082184788 0 0 0 0 -60.639522925239362 -308.65000181776122 0 -308.65000181776122 -220.11176742140196 0 0 0 0 4.7172885487598251 -21.611045531833952 0 -21.611045531833952 -96.288338752185155 0 0 0 0 7.3790059468501283 -4.4172624386642099 0 -4.4172624386642099 5.8273002554086233 0 0 0 0 232.23008930243668 99.719994093935384 0 99.719994093935384 -35.249714469759056 0 0 0 0 490.62489036256557 -283.4686324973336 0 -283.4686324973336 -78.867896475426278 0 0 0 0 69.717483668395289 -348.39985900616739 0 -348.39985900616739 539.81085768275079 0 0 0 0 665.41669240501415 -60.364189896520656 0 -60.364189896520656 -304.84890630403243 0 0 0 0 190.92770807075249 83.220475914393319 0 83.220475914393319 397.65300762632614 0 0 0 0 -65.554986726202841 39.533457213016845 0 39.533457213016845 498.85166248085443 0 0 0 0 120.29340506006338 -631.43390754867869 0 -631.43390754867869 -144.66751346558158 0 0 0 0 45.415194960219196 -236.60322248013108 0 -236.60322248013108 91.183459380778004 0 0 0 0 60.924512254778165 -173.41434457280411 0 -173.41434457280411 110.67216411865411 0 0 0 0 -76.516061124073389 -52.284572244557516 0 -52.284572244557516 53.252588353479318 0 0 0 0 60.14854489069694 -239.18498888342219 0 -239.18498888342219 95.301212642079918 0 0 0 0 -4.7924166701950526 -225.51611362145741 0 -225.51611362145741 294.37668958673021 0 0 0 0 109.29072534800071 -86.209532787957869 0 -86.209532787957869 60.445002511129132 0 0 0 0 -26.68811019026225 -162.19784639402042 0 -162.19784639402042 135.06130706315162 0 0 0 0 -83.951817437851517 -52.146504277968369 0 -52.146504277968369 48.897873285882881 0 0 0 0 -455.03918419086403 174.22991321616973 0 174.22991321616973 128.31221854037585 0 0 0 0 -138.51970958125821 -199.67016029868773 0 -199.67016029868773 286.78348894220107 0 0 0 0 -120.73136753556901 -206.29092942223724 0 -206.29092942223724 190.45102592272406 0 0 0 0 -35.844788057567712 -119.92652062276284 0 -119.92652062276284 52.619282890373142 0 0 0 0 -92.154014990661679 -55.411229915041744 0 -55.411229915041744 39.86280249742542 0 0 0 0 -19.866548360536399 -340.129518080872 0 -340.129518080872 164.60250011075368 0 0 0 0 8.1342225772241363 -295.69805800913855 0 -295.69805800913855 202.86454840867736 0 0 0 0 471.35671770947738 -535.62686082944674 0 -535.62686082944674 -1772.8396770507279 0 0 0 0 113.42949393635354 -616.7325843831095 0 -616.7325843831095 -397.89139431868398 0 0 0 0 517.91615477077539 -360.08243117610982 0 -360.08243117610982 68.679303389368215 0 0 0 0 149.26398735352268 -411.60579908779164 0 -411.60579908779164 102.03811676244368 0 0 0 0 2.0001625554690037 -8.4322563964772286 0 -8.4322563964772286 0.55419230081882986 0 0 0 0 -255.74186143486259 -445.66633837791596 0 -445.66633837791596 2281.4210454848921 0 0 0 0 43.474512877047026 -47.882807373468822 0 -47.882807373468822 20.599267829286177 0 0 0 0 513.40127336924706 -451.35803698060226 0 -451.35803698060226 210.72152497326533 0 0 0 0 -69.580337173701039 -78.468563784643194 0 -78.468563784643194 34.128556646298279 0 0 0 0 -255.47631457146599 -60.106472728963126 0 -60.106472728963126 476.78944142723412 0 0 0 0 378.72416864789193 -345.46456102497723 0 -345.46456102497723 -353.36703149747336 0 0 0 0 -348.97286368871573 -141.79623245180119 0 -141.79623245180119 -28.895571311295498 0 0 0 0 20.817974347591772 -37.711652186056966 0 -37.711652186056966 -6.0581824750600504 0 0 0 0 54.094544320731075 -233.22390433869259 0 -233.22390433869259 -154.7310927511935 0 0 0 0 114.60862253627056 -193.16189904657949 0 -193.16189904657949 -210.57555773623426 0 0 0 0 184.43430599063322 -438.78705507971517 0 -438.78705507971517 49.746397695082123 0 0 0 0 188.99427847073457 -274.73412874153837 0 -274.73412874153837 1.3744326049563824 0 0 0 0 78.147930730148801 -310.61464808884193 0 -310.61464808884193 -9.8684971131697239 0 0 0 0 -230.53864518533373 22.887097883532988 0 22.887097883532988 218.05977020903083 0 0 0 0 193.22738164841616 -93.237018963986955 0 -93.237018963986955 26.809166174734095 0 0 0 0 189.33823301906651 -75.972746500698378 0 -75.972746500698378 30.678308509308536 0 0 0 0 306.81252481681986 -366.29691186793661 0 -366.29691186793661 -486.36811882592519 0 0 0 0 -119.18678115165858 146.98364841418152 0 146.98364841418152 -76.248457420910199 0 0 0 0 -172.11018087953926 355.67990003136583 0 355.67990003136583 -1248.3638196639367 0 0 0 0 313.94434612399618 -413.92809110023518 0 -413.92809110023518 -516.64910469007737 0 0 0 0 -358.76033931051973 -1246.0904570263938 0 -1246.0904570263938 -2073.190830655476 0 0 0 0 -4.416467431830057 -5.1530698419947676 0 -5.1530698419947676 -10.722333692140126 0 0 0 0 -1508.4419725181324 -274.03434895265855 0 -274.03434895265855 243.18687187050818 0 0 0 0 539.0310562897057 -716.28892962400823 0 -716.28892962400823 -2565.2571244193532 0 0 0 0 -179.87049031609422 -459.84390478380737 0 -459.84390478380737 -332.14624191704434 0 0 0 0 327.93788149305692 45.516477780867717 0 45.516477780867717 -2079.0499511639573 0 0 0 0 -902.83294718871184 -617.33015273322962 0 -617.33015273322962 -2064.9174221350986 0 0 0 0 -987.54139435679622 47.372176007426788 0 47.372176007426788 -1580.2223134537999 0 0 0 0 -74.679141198412253 -110.56850216403473 0 -110.56850216403473 -2163.926146057689 0 0 0 0 -85.305320480959608 -182.40506041928461 0 -182.40506041928461 -1030.5008311866986 0 0 0 0 392.97026227806782 23.448859813805029 0 23.448859813805029 -1541.6881245035183 0 0 0 0 -535.7499216391825 -943.53314023884377 0 -943.53314023884377 -82.487468559360423 0 0 0 0 450.99929517498822 -25.542963480562321 0 -25.542963480562321 -995.47097510513049 0 0 0 0 -1101.9529634492428 -1295.8579868356574 0 -1295.8579868356574 -1084.1617575472155 0 0 0 0 -683.31788830076039 -669.05342007325453 0 -669.05342007325453 -156.11492225269467 0 0 0 0 -379.97427376223641 -824.61343896946346 0 -824.61343896946346 -201.16950404872296 0 0 0 0 -291.03149059066709 -540.44504694896386 0 -540.44504694896386 -599.15670447215234 0 0 0 0 -343.61067346888376 -659.52246379892586 0 -659.52246379892586 -436.27671814181667 0 0 0 0 261.33307673008676 -933.22415822331823 0 -933.22415822331823 -359.12152331437392 0 0 0 0 -164.89556042846743 -949.82457304101627 0 -949.82457304101627 -1039.7358112891816 0 0 0 0 -442.83593025024311 -1010.3386169047844 0 -1010.3386169047844 -464.38937204093236 0 0 0 0 33.196059802815455 -26.961064643248875 0 -26.961064643248875 13.037013238171049 0 0 0 0 -192.45953377373507 -467.51029482552167 0 -467.51029482552167 -1331.9202401274961 0 0 0 0 815.63932783716882 280.75485172173649 0 280.75485172173649 -962.07980707395473 0 0 0 0 573.86253822009894 -642.11817664338014 0 -642.11817664338014 -2164.6564830502139 0 0 0 0 248.81681611450767 -93.890684858655732 0 -93.890684858655732 -1629.0452565257692 0 0 0 0 542.71944849472493 -573.30853369682882 0 -573.30853369682882 -1028.0804228685301 0 0 0 0 1818.9850421393348 -451.93140956022035 0 -451.93140956022035 -1037.0868260526768 0 0 0 0 204.83087645589694 -823.56826646344052 0 -823.56826646344052 1078.3408901122602 0 0 0 0 431.90410250733476 119.25600217016108 0 119.25600217016108 -517.78754012185163 0 0 0 0 -963.3489709025489 -470.16586134849103 0 -470.16586134849103 -343.5233146677856 0 0 0 0 7.9468438766130323 -42.151602033122053 0 -42.151602033122053 -111.29812704440963 0 0 0 0 767.46378959883805 586.06271322904468 0 586.06271322904468 -134.3613438319735 0 0 0 0 -1.3080775643793725 -23.639012132553987 0 -23.639012132553987 -4.8729930092898428 0 0 0 0 1954.0569892731901 -776.33573050696214 0 -776.33573050696214 653.68827266043809 0 0 0 0 26.515214599484295 2.963006888312897 0 2.963006888312897 -28.494448015490391 0 0 0 0 1890.7731742085452 -2121.476805618142 0 -2121.476805618142 909.60462046896282 0 0 0 0 931.20295346664352 -1352.9560313575348 0 -1352.9560313575348 380.31129136385061 0 0 0 0 2640.2583495073704 -658.05348076843802 0 -658.05348076843802 -234.16837605935871 0 0 0 0 1176.3757932257286 -112.75091958737175 0 -112.75091958737175 -1134.9156867452111 0 0 0 0 471.56490866746753 -347.19832324306844 0 -347.19832324306844 -117.01614535815315 0 0 0 0 163.70035821185593 -326.1058120263333 0 -326.1058120263333 -1169.2670391020947 0 0 0 0 591.30686205236634 -625.13538489382518 0 -625.13538489382518 -2037.4926727518541 0 0 0 0 -514.96251813643175 -589.81545509232092 0 -589.81545509232092 -961.96686623627102 0 0 0 0 561.6366713014686 -622.52429494604803 0 -622.52429494604803 -970.06312119872018 0 0 0 0 -104.4792057892264 -1298.439447652634 0 -1298.439447652634 -809.88686763480655 0 0 0 0 -374.97660308627883 -1291.9327915111057 0 -1291.9327915111057 -805.62374930553779 0 0 0 0 -134.18352490598045 -20.422213912701409 0 -20.422213912701409 -525.39338310291714 0 0 0 0 -1.0279528112889693 -21.386921290737192 0 -21.386921290737192 -16.065165735790373 0 0 0 0 -573.64945719285606 -279.9079824281489 0 -279.9079824281489 -696.58259215965813 0 0 0 0 -759.95467262994316 -876.14499048663902 0 -876.14499048663902 -144.18032292409407 0 0 0 0 -27.221467639481858 -62.618406903108941 0 -62.618406903108941 -66.709309474820685 0 0 0 0 -631.63634676981019 -288.1472752026566 0 -288.1472752026566 -566.59104551466044 0 0 0 0 -520.4345279373083 -338.58485443445716 0 -338.58485443445716 -647.48229233638631 0 0 0 0 -555.02322229015408 -450.06577150868179 0 -450.06577150868179 -495.33200039158692 0 0 0 0 -665.99727607006207 -489.25083948780775 0 -489.25083948780775 -706.54176168264507 0 0 0 0 -653.864335808448 -655.74034627294782 0 -655.74034627294782 -761.23529377660816 0 0 0 0 -212.16152711187169 -476.03912290990593 0 -476.03912290990593 -692.49212056371834 0 0 0 0 -198.28310091845196 -374.13562776403523 0 -374.13562776403523 -437.62492651046341 0 0 0 0 -600.83216626622016 -483.641825714476 0 -483.641825714476 -433.41842546818771 0 0 0 0 240.54407992021879 -246.24336399547792 0 -246.24336399547792 -163.64863563789368 0 0 0 0 45.114344946466076 -31.94608783032443 0 -31.94608783032443 -20.555066472555133 0 0 0 0 -128.13861308315973 -378.30251997708183 0 -378.30251997708183 -1197.2082357124928 0 0 0 0 -51.844282311531146 -56.28138570152921 0 -56.28138570152921 -36.627468642665804 0 0 0 0 88.848226965565118 156.36120496871445 0 156.36120496871445 21.146709653432481 0 0 0 0 197.70300777148805 -51.543010127865273 0 -51.543010127865273 -630.31287879333468 0 0 0 0 315.88380505014175 -2595.0653283169372 0 -2595.0653283169372 -2657.0401988006815 0 0 0 0 1124.3141135132028 -701.0562266824345 0 -701.0562266824345 -671.77340193820282 0 0 0 0 -1956.3359039192437 99.747154743399733 0 99.747154743399733 410.65483786481491 0 0 0 0 964.53293154422863 -1087.2272023848964 0 -1087.2272023848964 -442.37600373707755 0 0 0 0 19.996869100333583 -3.7986804732205286 0 -3.7986804732205286 -0.3843908715640012 0 0 0 0 -101.09211742797925 -736.16245225488274 0 -736.16245225488274 298.31394720780554 0 0 0 0 231.84656414587698 -710.18411932180811 0 -710.18411932180811 -527.06961095234146 0 0 0 0 219.64541000103054 -657.86365104581 0 -657.86365104581 -686.23991585239492 0 0 0 0 319.50288369806367 -556.90938101257962 0 -556.90938101257962 -659.75518224775442 0 0 0 0 1108.3471363460321 -62.866970167631621 0 -62.866970167631621 -813.66625724313053 0 0 0 0 -430.32207065555122 -103.29854138091196 0 -103.29854138091196 -638.07421619384513 0 0 0 0 406.15617964063858 -421.38014155407745 0 -421.38014155407745 -718.53757990130543 0 0 0 0 210.90025341997534 -87.928733944419946 0 -87.928733944419946 -723.48909193805252 0 0 0 0 220.79721766259172 -508.39270560173009 0 -508.39270560173009 -538.20495502889753 0 0 0 0 78.798197331096162 -503.1240390275143 0 -503.1240390275143 -521.82523521858457 0 0 0 0 105.41962676109688 -372.05439285506691 0 -372.05439285506691 -389.61388894364973 0 0 0 0 -5.5730939477798529 -513.68754282976079 0 -513.68754282976079 -342.80030502468435 0 0 0 0 -74.627826463343808 -483.13104381944686 0 -483.13104381944686 -337.01879893665682 0 0 0 0 76.777417211183092 -517.31654136937073 0 -517.31654136937073 -443.61344644618657 0 0 0 0 -215.92486325011123 -522.93096949332175 0 -522.93096949332175 -385.60347400191677 0 0 0 0 -70.273114260504371 -476.57216143393089 0 -476.57216143393089 -377.05983523268515 0 0 0 0 -185.05549244137364 -447.69955516120172 0 -447.69955516120172 -329.58736394604784 0 0 0 0 -174.31976259297153 -401.73419880244001 0 -401.73419880244001 -296.41364167242136 0 0 0 0 -196.92635996628087 -389.77432328749273 0 -389.77432328749273 -302.44508116485667 0 0 0 0 -159.72455827731756 -246.22831082792618 0 -246.22831082792618 -296.99372851830412 0 0 0 0 -362.20874330295192 -217.52351702843953 0 -217.52351702843953 -267.40966645475055 0 0 0 0 -219.70899974527538 -458.02094675844307 0 -458.02094675844307 -367.38767446855491 0 0 0 0 -309.02344907198858 -451.68082282005162 0 -451.68082282005162 -313.06315580316914 0 0 0 0 -457.76142866149894 -443.80136874660457 0 -443.80136874660457 -359.57169046488889 0 0 0 0 -455.9892252128011 -453.98824309508746 0 -453.98824309508746 -451.84973124282988 0 0 0 0 -762.63056189204508 -257.06762768421868 0 -257.06762768421868 -269.01686300762321 0 0 0 0 -604.19023423369799 -361.47633000008864 0 -361.47633000008864 -470.13310326525243 0 0 0 0 -491.85721864257357 -352.75284607179128 0 -352.75284607179128 -504.60124646780059 0 0 0 0 -415.19617568383546 -441.74460691631975 0 -441.74460691631975 -522.21939190423291 0 0 0 0 -237.90191184583819 -531.66665844646013 0 -531.66665844646013 -499.15342899836651 0 0 0 0 -456.98785539855089 -489.01359189863342 0 -489.01359189863342 -410.61937127307829 0 0 0 0 -254.62983289125259 -720.49589215250126 0 -720.49589215250126 -241.19960131070457 0 0 0 0 -114.61076284134469 -574.20342491452175 0 -574.20342491452175 -457.87603439378472 0 0 0 0 60.675561590658617 -633.23306783996304 0 -633.23306783996304 -537.71202449459815 0 0 0 0 -113.05150990888069 -507.5599904503506 0 -507.5599904503506 -434.20619426018493 0 0 0 0 -241.35995426303271 -566.63597574748201 0 -566.63597574748201 -418.31786665609616 0 0 0 0 83.158317213274131 -166.72029889917667 0 -166.72029889917667 -50.947147723976968 0 0 0 0 -32.337167734556715 -343.48595793895947 0 -343.48595793895947 21.867231328920752 0 0 0 0 -96.434647927133483 -155.55908377592459 0 -155.55908377592459 74.108048744274129 0 0 0 0 -30.162047527570394 -161.9643995598492 0 -161.9643995598492 70.110919374998389 0 0 0 0 46.535772504867055 -260.74532011270912 0 -260.74532011270912 -355.09471583236154 0 0 0 0 21.111697636308122 -32.742618801719402 0 -32.742618801719402 -3.4260898896965086 0 0 0 0 -66.567059044951748 -204.61356431112017 0 -204.61356431112017 -301.2613469810376 0 0 0 0 256.79222529333492 -693.25254102993858 0 -693.25254102993858 -517.87702909067957 0 0 0 0 -5.1853292079765083 -21.126896032874953 0 -21.126896032874953 -59.81977774890558 0 0 0 0 7.3050201262813061 -94.877941308390291 0 -94.877941308390291 -525.12422147542202 0 0 0 0 -19.115805344080698 -24.106948582585858 0 -24.106948582585858 -14.652176738278293 0 0 0 0 107.84490767365787 -178.90448461289543 0 -178.90448461289543 -54.156943753038291 0 0 0 0 12.604384090140229 -139.75635488510397 0 -139.75635488510397 -55.309583394541391 0 0 0 0 -61.826220234492212 -63.653923767122251 0 -63.653923767122251 -69.582704807809932 0 0 0 0 10.146669269580809 -22.751968121321212 0 -22.751968121321212 -71.747319441137392 0 0 0 0 -0.61500065202231724 -7.0044579180631246 0 -7.0044579180631246 -7.902419016319155 0 0 0 0 -547.58944290131694 -926.17839714753654 0 -926.17839714753654 -824.01938771322602 0 0 0 0 372.30613816525147 17.283036861415894 0 17.283036861415894 -62.532934508988546 0 0 0 0 -5.4550069892218289 -0.30726471332047822 0 -0.30726471332047822 -44.557987616713611 0 0 0 0 412.07594613301626 -277.26894886155787 0 -277.26894886155787 -48.754044197654366 0 0 0 0 -1419.5308445038245 -1073.120391983688 0 -1073.120391983688 -349.26974958782921 0 0 0 0 -1342.2070783983363 -1945.0986096789366 0 -1945.0986096789366 -1117.24092654384 0 0 0 0 -1341.6352638394164 -1931.5645552808146 0 -1931.5645552808146 -1091.228101865001 0 0 0 0 -542.96691340059624 -1304.7457085768438 0 -1304.7457085768438 -1497.3653395578694 0 0 0 0 -749.13458284827357 -790.37675153819691 0 -790.37675153819691 -209.43568322561987 0 0 0 0 126.71337038913452 -253.16322885436 0 -253.16322885436 -1493.2241913772377 0 0 0 0 163.07044781844161 422.08659785427153 0 422.08659785427153 -314.46639688601499 0 0 0 0 -211.24661869644115 -215.09011468205517 0 -215.09011468205517 -1703.0961559990756 0 0 0 0 -112.80622578016482 310.18755596737356 0 310.18755596737356 838.97536083911655 0 0 0 0 -273.831257112819 -633.80223785847193 0 -633.80223785847193 -630.17996569070601 0 0 0 0 -2055.8628559375866 -2633.0890363221606 0 -2633.0890363221606 -971.20222824259326 0 0 0 0 -27.901649853170198 -29.933885140275052 0 -29.933885140275052 7.030686676205562 0 0 0 0 -1648.2295120341223 -515.81304024102246 0 -515.81304024102246 82.576509722235187 0 0 0 0 -549.67195956597607 -1463.4518828656364 0 -1463.4518828656364 -2647.5477874032549 0 0 0 0 -1435.0192644671042 -1604.8677444701407 0 -1604.8677444701407 -645.87093562834343 0 0 0 0 -2587.4582043239716 -2426.6876192033515 0 -2426.6876192033515 -1222.6569015340483 0 0 0 0 -752.00476122631517 -991.16975662741788 0 -991.16975662741788 -666.74246539397427 0 0 0 0 -435.64547885427601 -890.18242724203174 0 -890.18242724203174 -1178.7644909901974 0 0 0 0 -705.63211561283242 -652.16372289640276 0 -652.16372289640276 -594.0475642866877 0 0 0 0 -528.06669729223358 -531.04640680852572 0 -531.04640680852572 -1527.0932964032249 0 0 0 0 -651.1690644068367 -1205.6524783077548 0 -1205.6524783077548 -2449.5339063301872 0 0 0 0 -1183.2820098669763 -1517.4007635175331 0 -1517.4007635175331 -1202.6581622629096 0 0 0 0 -1190.8829704828167 -1493.2214777904965 0 -1493.2214777904965 -1267.9462103947772 0 0 0 0 848.33787739180298 242.90504963985393 0 242.90504963985393 -604.72644602727269 0 0 0 0 -1.4556593885735651 -0.21722277151995684 0 -0.21722277151995684 -16.483535102204968 0 0 0 0 -3881.0699808934442 -2160.1597665288537 0 -2160.1597665288537 -829.07887447200119 0 0 0 0 -1647.7967887569939 -2337.1599303860726 0 -2337.1599303860726 -2325.0882117536203 0 0 0 0 -1689.9807160605142 -779.7102464913479 0 -779.7102464913479 -950.62846797418933 0 0 0 0 -389.10260187886524 -1400.1448518301563 0 -1400.1448518301563 -1275.4675181216644 0 0 0 0 -1260.2740077146009 -2218.6407545246711 0 -2218.6407545246711 -1925.7008660280333 0 0 0 0 -46.311084452281648 -388.42531418304679 0 -388.42531418304679 -360.14008871086844 0 0 0 0 396.93317310231214 -748.44582371270917 0 -748.44582371270917 -2306.8583614791442 0 0 0 0 -20.831165904863155 -318.61780470837402 0 -318.61780470837402 -368.17092671391947 0 0 0 0 -48.461442652227561 -704.14524054335834 0 -704.14524054335834 -839.43545556780373 0 0 0 0 -279.64240292871546 -1410.7308412891707 0 -1410.7308412891707 -2994.7819881818759 0 0 0 0 -652.36647509302566 -1516.3249408947568 0 -1516.3249408947568 -1302.0905692757697 0 0 0 0 -446.6455175555493 -642.40576552598395 0 -642.40576552598395 -969.02596431216261 0 0 0 0 -985.07661871568416 -1451.69316768727 0 -1451.69316768727 -1158.6768401372474 0 0 0 0 -699.53878584213089 -687.98649401225339 0 -687.98649401225339 -177.40796055317878 0 0 0 0 61.399962730502011 -734.3579629338692 0 -734.3579629338692 -25.651030461545815 0 0 0 0 -9.0524651411835748 -16.22161349408087 0 -16.22161349408087 2.0041786487485322 0 0 0 0 -416.28772434842358 35.711530079561953 0 35.711530079561953 198.34728439015089 0 0 0 0 -164.28826318860956 -892.95359788983842 0 -892.95359788983842 -746.90840100934292 0 0 0 0 -236.61361454125654 -319.84720269333593 0 -319.84720269333593 -24.998264349087549 0 0 0 0 61.582249254504859 -344.9892974027025 0 -344.9892974027025 -1007.070422481238 0 0 0 0 333.79852757983463 -133.56144305934231 0 -133.56144305934231 -136.29820280174135 0 0 0 0 -5.912706442864561 -11.841112256226104 0 -11.841112256226104 1.1730698572292795 0 0 0 0 -435.65303583554487 -221.21793416448963 0 -221.21793416448963 690.9310347404662 0 0 0 0 224.14697274393984 -482.51552142836408 0 -482.51552142836408 -1365.0261814339253 0 0 0 0 31.647310150319754 -244.13169208587215 0 -244.13169208587215 -750.22541044629361 0 0 0 0 -60.087439352679212 -488.11277410525076 0 -488.11277410525076 -399.16507701377486 0 0 0 0 -289.60992853535208 -85.820729054080402 0 -85.820729054080402 -714.41707720274644 0 0 0 0 413.11283041871502 -407.25458052149588 0 -407.25458052149588 -784.74197767223268 0 0 0 0 223.41453501679644 -529.54180119385273 0 -529.54180119385273 -649.70593861222005 0 0 0 0 -266.37675749373011 -958.76325654356742 0 -958.76325654356742 814.10384869488553 0 0 0 0 635.93930474737135 -36.614429881799879 0 -36.614429881799879 -963.40585372872738 0 0 0 0 3.6826652055226816 -9.8774601648775757 0 -9.8774601648775757 2.6327436009376335 0 0 0 0 -403.10007542597305 -458.20413072183146 0 -458.20413072183146 1244.9064052331278 0 0 0 0 -64.897449847405369 -306.14806292723551 0 -306.14806292723551 523.00551632777933 0 0 0 0 747.24121415543414 -857.863712919617 0 -857.863712919617 -2313.188181755233 0 0 0 0 -407.82902231933258 -377.58028603049297 0 -377.58028603049297 -708.8879645780089 0 0 0 0 5.8055742448341334 -17.033544735804448 0 -17.033544735804448 4.3817436383853057 0 0 0 0 87.770085208503588 -1060.026896623267 0 -1060.026896623267 -1028.6682924453362 0 0 0 0 101.7447328473354 -827.88033178548358 0 -827.88033178548358 -808.25037743648954 0 0 0 0 30.296980938557681 11.265134216209162 0 11.265134216209162 205.76865746208568 0 0 0 0 192.02376774168806 -495.90277271056766 0 -495.90277271056766 -73.715514975982614 0 0 0 0 87.490142660972197 -317.51619409153864 0 -317.51619409153864 -421.55549462067938 0 0 0 0 96.553490254678763 -262.0707910185356 0 -262.0707910185356 -84.156607218839781 0 0 0 0 242.28365496685728 -224.71823900173331 0 -224.71823900173331 -100.14523098149584 0 0 0 0 269.372475719676 -332.61549381160512 0 -332.61549381160512 63.000622457417649 0 0 0 0 334.17441081367724 -103.14742204784125 0 -103.14742204784125 38.765810160726687 0 0 0 0 283.62062680098461 -321.40287622202959 0 -321.40287622202959 70.900792121639824 0 0 0 0 1.3141824025660753 -35.702209331908307 0 -35.702209331908307 -28.347206719910901 0 0 0 0 -1.8762929720794119 -21.289337804838205 0 -21.289337804838205 -32.752942947783779 0 0 0 0 195.75509036352742 -333.32306797011006 0 -333.32306797011006 557.25461985841685 0 0 0 0 0.66631103829971039 -2.4800743250546944 0 -2.4800743250546944 -5.1874670290431339 0 0 0 0 -239.46131744104787 -360.54407679751057 0 -360.54407679751057 -550.09135745906678 0 0 0 0 4.2738928191000127 2.0669342324275561 0 2.0669342324275561 -5.3020303142531731 0 0 0 0 173.74885656246624 -210.76703654210723 0 -210.76703654210723 -640.05550590065832 0 0 0 0 144.59655095808557 -455.82265933884628 0 -455.82265933884628 -603.61665948654627 0 0 0 0 -52.648491058382206 -26.193504101807775 0 -26.193504101807775 -42.283202536107865 0 0 0 0 31.793435578098297 -14.883383150819835 0 -14.883383150819835 -34.563186332177239 0 0 0 0 -170.65083256459911 -212.70864279381203 0 -212.70864279381203 -216.28681173751829 0 0 0 0 -260.15008599193243 -298.7773794159948 0 -298.7773794159948 -298.49630594410701 0 0 0 0 -64.149642226300784 -279.20393483976113 0 -279.20393483976113 -307.76913459521893 0 0 0 0 -204.09662823462713 -242.38261333706851 0 -242.38261333706851 -456.06303185064462 0 0 0 0 -224.95724917194457 -387.09740467654774 0 -387.09740467654774 -370.38089487844263 0 0 0 0 -48.039600841933861 -452.10487899518193 0 -452.10487899518193 -333.45181631801734 0 0 0 0 -137.1124846759194 -376.41253294097623 0 -376.41253294097623 -345.38660130731296 0 0 0 0 -66.068442140836851 -467.09719783942091 0 -467.09719783942091 -320.29395623726305 0 0 0 0 36.958014553238172 -514.3456370115855 0 -514.3456370115855 -323.02632233938493 0 0 0 0 -27.36411702093028 -451.39412560282835 0 -451.39412560282835 -353.94865963511256 0 0 0 0 6.8080249676422682 -419.81781858675822 0 -419.81781858675822 -336.59030517755673 0 0 0 0 -20.689303091410693 -446.06427274576754 0 -446.06427274576754 50.181158721905376 0 0 0 0 178.78619713283842 -706.15744760203961 0 -706.15744760203961 -212.10310117152767 0 0 0 0 -4.6772849878634588 -485.03737979302787 0 -485.03737979302787 -167.67642489156424 0 0 0 0 -22.252893506840337 -565.80759384868634 0 -565.80759384868634 -182.55921594546089 0 0 0 0 -36.207092639684561 -504.61926338396552 0 -504.61926338396552 -284.00020015400878 0 0 0 0 -14.482865157893684 -523.86189833105163 0 -523.86189833105163 5.9360273351571777 0 0 0 0 -13.137286705248698 -558.12395596512397 0 -558.12395596512397 -215.5913681468719 0 0 0 0 -36.360949360401719 -502.7298289712835 0 -502.7298289712835 -144.74477080542056 0 0 0 0 138.32746572405631 -263.12961702783969 0 -263.12961702783969 -93.754449836513231 0 0 0 0 -2.3346653206715189 -4.4921376652649982 0 -4.4921376652649982 0.10562723619815895 0 0 0 0 -221.45297150085389 -62.804038874545768 0 -62.804038874545768 1078.4193085336865 0 0 0 0 -4.234262781101279 -435.83733655459764 0 -435.83733655459764 -1806.01173812919 0 0 0 0 -136.94526232856151 -239.74272538397054 0 -239.74272538397054 -285.54852757224535 0 0 0 0 3.5127415601309622 -522.42371482385533 0 -522.42371482385533 -312.35075521480394 0 0 0 0 -363.31797022626779 -493.16264121369568 0 -493.16264121369568 -487.85223107284401 0 0 0 0 -186.90237763902587 -39.450217961211138 0 -39.450217961211138 -436.94885024148971 0 0 0 0 -42.054676390594977 -207.02993064738985 0 -207.02993064738985 -671.31944711716278 0 0 0 0 112.5056899142146 -173.19723795620848 0 -173.19723795620848 -441.88647878746724 0 0 0 0 -229.39555436255614 -297.75072353964606 0 -297.75072353964606 -465.76119467863464 0 0 0 0 -64.937055069785856 -127.50375705000351 0 -127.50375705000351 -319.78785529706147 0 0 0 0 -66.911705407874251 -115.0429990094126 0 -115.0429990094126 -392.74636195600942 0 0 0 0 40.299552141179447 -98.768896677005614 0 -98.768896677005614 -432.272923444154 0 0 0 0 149.90383493075933 -219.46205511327207 0 -219.46205511327207 -338.16066278293511 0 0 0 0 145.0384977322683 -150.88254256042637 0 -150.88254256042637 -436.77736144348478 0 0 0 0 166.09368984254979 -94.250807963926491 0 -94.250807963926491 -284.81496026124296 0 0 0 0 302.98042010968493 -213.66094936233276 0 -213.66094936233276 -331.66047535980033 0 0 0 0 -37.548850970742251 -111.03974900153963 0 -111.03974900153963 -331.70989805158024 0 0 0 0 663.54589838709944 -44.277165513763975 0 -44.277165513763975 -347.23302643190982 0 0 0 0 -14.474113807541315 -9.7836242190113722 0 -9.7836242190113722 -5.527026807720091 0 0 0 0 449.17007325406303 -254.95084301392126 0 -254.95084301392126 -533.40251468819406 0 0 0 0 -254.82748503614857 -280.81463423865898 0 -280.81463423865898 -147.30356348347777 0 0 0 0 27.14291161505389 -387.14386090740663 0 -387.14386090740663 -535.48041903222281 0 0 0 0 -48.598648138122371 -178.94068981752116 0 -178.94068981752116 -188.579595587933 0 0 0 0 34.681390485391603 -155.65547436300403 0 -155.65547436300403 -233.5668346645034 0 0 0 0 37.320427595037131 -24.428814244416841 0 -24.428814244416841 12.643640995743375 0 0 0 0 -25.00780045843203 -129.33127835216237 0 -129.33127835216237 515.88174013866774 0 0 0 0 -72.174751559239667 -35.536258300159261 0 -35.536258300159261 337.50593848639437 0 0 0 0 -71.602989699953469 277.36933900042914 0 277.36933900042914 848.23011231008604 0 0 0 0 -3.7767823125250288 -161.54401397809306 0 -161.54401397809306 -333.07558574682093 0 0 0 0 -3.1249564260997431 -152.42130497632456 0 -152.42130497632456 -310.96500666929205 0 0 0 0 -123.89587646876316 -209.24643247182757 0 -209.24643247182757 -154.80713638726957 0 0 0 0 -121.46218717337979 -69.078079476211315 0 -69.078079476211315 -214.42319663769376 0 0 0 0 192.87996623840081 -210.31626610879812 0 -210.31626610879812 -513.1216110694204 0 0 0 0 6.4569123538043982 -8.1291630929342631 0 -8.1291630929342631 6.2876986177210945 0 0 0 0 -98.523559104978631 -201.49000486796649 0 -201.49000486796649 -327.16311627634423 0 0 0 0 210.20942335503059 -49.657351969858155 0 -49.657351969858155 851.35838919566777 0 0 0 0 21.202011016903128 -19.756181971557908 0 -19.756181971557908 11.736390645617615 0 0 0 0 797.40800030773971 224.86832122028864 0 224.86832122028864 935.37375890116346 0 0 0 0 862.82889479898586 -643.96559793575398 0 -643.96559793575398 454.56585559055748 0 0 0 0 92.466773695894517 -81.972563871813691 0 -81.972563871813691 1063.9400239365896 0 0 0 0 -741.6449955496646 -732.18298293535918 0 -732.18298293535918 1569.1582135033432 0 0 0 0 -658.5448515136668 27.239178519057532 0 27.239178519057532 2746.9949675554071 0 0 0 0 -411.83028392552842 451.75164781041508 0 451.75164781041508 264.04283627535187 0 0 0 0 868.74423002645926 124.18510007468831 0 124.18510007468831 -7.9871396217422443 0 0 0 0 2.6862536077216248 -5.1961570402785782 0 -5.1961570402785782 8.997662808959511 0 0 0 0 285.89155581388331 266.76876189597533 0 266.76876189597533 -31.342236476240942 0 0 0 0 512.29098690979299 -238.706312845301 0 -238.706312845301 -7.3377971572917886 0 0 0 0 -26.410379628199735 -387.6779964736852 0 -387.6779964736852 -9.9416257855027084 0 0 0 0 120.53794393661883 -284.63076661625109 0 -284.63076661625109 -499.48828588531978 0 0 0 0 -7.7307983984937891 -561.25993568485501 0 -561.25993568485501 811.04979454437853 0 0 0 0 -21.173045694442408 -435.05194592228509 0 -435.05194592228509 161.23122474972752 0 0 0 0 -130.61598431671882 -220.10252268405929 0 -220.10252268405929 -808.140618809015 0 0 0 0 -148.50205047959753 -551.82165967659057 0 -551.82165967659057 233.56477142356198 0 0 0 0 -486.25540323916357 -337.55307615891979 0 -337.55307615891979 370.59436863030351 0 0 0 0 16.655541472791981 -17.26968333847973 0 -17.26968333847973 9.6769537235725487 0 0 0 0 -306.42686783705722 -497.38533070865469 0 -497.38533070865469 475.7707756546406 0 0 0 0 -257.674724259301 -274.28496120797195 0 -274.28496120797195 476.94118016114226 0 0 0 0 -190.99664924720128 -375.5046708677628 0 -375.5046708677628 595.01974968270406 0 0 0 0 -232.85244035440701 -182.4200252850178 0 -182.4200252850178 784.31084560820454 0 0 0 0 -240.8297619104851 -261.86600580862614 0 -261.86600580862614 970.68831949714968 0 0 0 0 -191.13121853386838 -29.048274108865371 0 -29.048274108865371 1715.1843819844016 0 0 0 0 363.64959283542703 -881.46291327925701 0 -881.46291327925701 1071.6133995670571 0 0 0 0 -456.35249542896418 -451.41390310417773 0 -451.41390310417773 843.14209407885573 0 0 0 0 -167.71373005339956 -611.63821024578567 0 -611.63821024578567 935.52736924989222 0 0 0 0 1068.9513745829681 -914.00849230792846 0 -914.00849230792846 -528.3587606222045 0 0 0 0 691.77542337487102 -1007.703534907143 0 -1007.703534907143 1173.9262203579055 0 0 0 0 371.31751674423867 -416.56151120751292 0 -416.56151120751292 1353.2029945016293 0 0 0 0 681.86806705016352 -170.58193706409202 0 -170.58193706409202 -666.26923613685722 0 0 0 0 400.73881862604685 -46.260015318463957 0 -46.260015318463957 791.35742903180289 0 0 0 0 403.55966365375207 94.149068824563074 0 94.149068824563074 -227.0150338691019 0 0 0 0 112.06086090033205 -166.15980319423488 0 -166.15980319423488 -396.8085094239832 0 0 0 0 411.93790908093797 -689.19568953515591 0 -689.19568953515591 492.8100534344976 0 0 0 0 811.74013411847409 -829.03658131630255 0 -829.03658131630255 1394.7528727710032 0 0 0 0 534.74913503553944 91.069371272878243 0 91.069371272878243 1001.698264939645 0 0 0 0 529.0045915498049 -519.23828540486647 0 -519.23828540486647 -717.35949200197319 0 0 0 0 987.34439788973395 67.401335933989685 0 67.401335933989685 111.74278931489243 0 0 0 0 1056.1923432873664 -70.328957032847029 0 -70.328957032847029 106.56006439684643 0 0 0 0 662.80458089444437 66.713265374837647 0 66.713265374837647 59.612810193239056 0 0 0 0 -355.7175077727079 70.096367621632453 0 70.096367621632453 634.53518398352207 0 0 0 0 2.1204170569661507 0.70815709978303687 0 0.70815709978303687 14.327383037483742 0 0 0 0 1909.1223556581172 -505.50761707010315 0 -505.50761707010315 443.06507184695511 0 0 0 0 -10.890771865164567 -14.016726390417958 0 -14.016726390417958 36.215650179732862 0 0 0 0 -156.72479326809844 -200.9397925495432 0 -200.9397925495432 115.71529166924756 0 0 0 0 1113.98060983709 90.76990561803359 0 90.76990561803359 -55.744567916928645 0 0 0 0 -43.318158541247101 -55.744335072976895 0 -55.744335072976895 -45.19608794739834 0 0 0 0 -305.54230928092147 90.67570019194568 0 90.67570019194568 42.590046566765523 0 0 0 0 -13.049366350707714 -56.428416503646076 0 -56.428416503646076 51.784917359917017 0 0 0 0 49.269479453752865 -274.59413553876675 0 -274.59413553876675 -80.721964440255761 0 0 0 0 -15.032409894687589 -332.35021074365795 0 -332.35021074365795 -57.068808600721241 0 0 0 0 100.8323322206561 -312.17047622504742 0 -312.17047622504742 -67.137911557550979 0 0 0 0 -194.59115340425342 -331.2678457953416 0 -331.2678457953416 -29.735008277999441 0 0 0 0 -63.330263673356967 -229.41253572344522 0 -229.41253572344522 -40.128376700642548 0 0 0 0 29.893676893327211 -218.41979928494038 0 -218.41979928494038 -77.999298358794476 0 0 0 0 23.290521742382566 -4.7950870255761231 0 -4.7950870255761231 -11.361139582552973 0 0 0 0 1093.965648046069 58.521149489883101 0 58.521149489883101 8.6245210405686521 0 0 0 0 1215.9423837794457 365.39182051060925 0 365.39182051060925 -98.609311398075079 0 0 0 0 971.21067642531125 -50.27148570715508 0 -50.27148570715508 102.28901442179995 0 0 0 0 1018.7674894777301 -156.82545311847934 0 -156.82545311847934 -67.854470091351686 0 0 0 0 1718.2698185779736 -13.350980452611111 0 -13.350980452611111 -17.415975890511618 0 0 0 0 873.79633255965746 -69.587822685407446 0 -69.587822685407446 -58.193301388011605 0 0 0 0 5.1364680875389155 -60.996089514530922 0 -60.996089514530922 -38.769732806983939 0 0 0 0 1040.7803869709533 -158.38727758027926 0 -158.38727758027926 -187.15757379419665 0 0 0 0 74.25421892486338 -253.39407714104254 0 -253.39407714104254 -75.814103237127711 0 0 0 0 817.11205560226517 -397.02673472485003 0 -397.02673472485003 -173.22731020874198 0 0 0 0 852.74238877573043 -222.90549847107559 0 -222.90549847107559 448.71981830197183 0 0 0 0 515.95210616325494 156.92955747035194 0 156.92955747035194 -356.24979245637223 0 0 0 0 953.72813812649474 -251.92351810459331 0 -251.92351810459331 -239.24636345775798 0 0 0 0 941.1451886753639 -254.16775809285537 0 -254.16775809285537 -50.955457737112738 0 0 0 0 983.62286640083039 -38.962584384116781 0 -38.962584384116781 -97.485119441393181 0 0 0 0 899.55807421708596 -121.05069944707793 0 -121.05069944707793 -113.33366328952252 0 0 0 0 1070.384974133769 138.24533298104598 0 138.24533298104598 -223.16048294698703 0 0 0 0 687.4914467092749 97.18548337275206 0 97.18548337275206 -301.54972488026397 0 0 0 0 -317.66005188032432 -43.341067933071827 0 -43.341067933071827 22.552358398887009 0 0 0 0 10.59538351184662 -13.70266173315683 0 -13.70266173315683 12.723526450417395 0 0 0 0 730.60707091698714 111.58615286478016 0 111.58615286478016 -291.60871597028745 0 0 0 0 380.27292246447905 -317.51162136554831 0 -317.51162136554831 -237.09481383450475 0 0 0 0 -348.31018662686256 -863.31054399611821 0 -863.31054399611821 -291.02061985046748 0 0 0 0 -711.11580802266599 320.81835463169773 0 320.81835463169773 -618.89727668553678 0 0 0 0 -403.44468915214566 -1296.0816815582896 0 -1296.0816815582896 989.77546633739257 0 0 0 0 147.17795864951404 -812.38885866437568 0 -812.38885866437568 -253.69823206189176 0 0 0 0 99.092769760919509 -663.03679098484486 0 -663.03679098484486 345.08192140575557 0 0 0 0 -74.482521293917671 -398.7741849888771 0 -398.7741849888771 709.14423071382043 0 0 0 0 293.84763633759576 -415.25861347686077 0 -415.25861347686077 -0.55776032813264464 0 0 0 0 155.80919458894641 -409.23460773935221 0 -409.23460773935221 20.274599783657322 0 0 0 0 846.11313546681777 -591.41874597873539 0 -591.41874597873539 -185.00046585756354 0 0 0 0 289.17963974088343 -303.85106633915166 0 -303.85106633915166 -305.1882050261338 0 0 0 0 8.8531277876027161 -35.907050003565018 0 -35.907050003565018 -235.35657312690819 0 0 0 0 942.96208432643471 425.671627568757 0 425.671627568757 -357.2246954584989 0 0 0 0 5.5635489847579862 -6.9034974583499462 0 -6.9034974583499462 6.8717628246770488 0 0 0 0 1459.6772557450095 -33.917795112169188 0 -33.917795112169188 -318.55970542398427 0 0 0 0 502.85409346591041 -829.41161917136014 0 -829.41161917136014 955.69409741299023 0 0 0 0 1489.6965837790526 -761.00831032407132 0 -761.00831032407132 -261.90197417574382 0 0 0 0 11.631201722546624 -53.154964750145169 0 -53.154964750145169 -46.489227485994746 0 0 0 0 -56.949000631582749 129.49259041276855 0 129.49259041276855 -1674.5152828763239 0 0 0 0 -134.73959768634086 -757.06386097705399 0 -757.06386097705399 160.90529483301725 0 0 0 0 569.62039951798852 -434.46744818742809 0 -434.46744818742809 -1237.6823291250621 0 0 0 0 -426.96257168739976 826.12576406860899 0 826.12576406860899 -19.901246607818393 0 0 0 0 0.85241991722831756 1.514212367078315 0 1.514212367078315 -14.152702866415993 0 0 0 0 -603.96240022032725 488.03454528848124 0 488.03454528848124 1293.9011179831432 0 0 0 0 323.01312997660716 118.96696384248753 0 118.96696384248753 -128.21201736083071 0 0 0 0 345.97962421493139 -56.139771274839404 0 -56.139771274839404 -105.21404701694553 0 0 0 0 346.78011877952667 -5.012774191900462 0 -5.012774191900462 -315.32793316787684 0 0 0 0 480.44137631448939 -24.937142545145775 0 -24.937142545145775 -279.94931355174413 0 0 0 0 288.33203549544851 -43.832003519064529 0 -43.832003519064529 -41.53128156654725 0 0 0 0 210.58390834240709 -281.9809728606715 0 -281.9809728606715 -402.25887986067391 0 0 0 0 -454.02896051623975 -32.373783379112865 0 -32.373783379112865 -352.27474086593429 0 0 0 0 -450.57016923969462 -316.21716947736229 0 -316.21716947736229 -39.799037172255339 0 0 0 0 -275.00198948914476 -214.84257900031662 0 -214.84257900031662 -218.53774342657562 0 0 0 0 -514.4675836332317 -206.37956334114642 0 -206.37956334114642 -6.529080937623803 0 0 0 0 -274.62157786899479 -247.81848188053118 0 -247.81848188053118 -6.884487267518125 0 0 0 0 -258.35664725424431 -131.94654319192341 0 -131.94654319192341 -41.150650386856796 0 0 0 0 -302.51771100866608 -263.02838283808524 0 -263.02838283808524 -77.018664397415705 0 0 0 0 -284.82888723870656 -131.39443078964109 0 -131.39443078964109 -82.544404900465452 0 0 0 0 -214.22602268525225 -208.69859527369044 0 -208.69859527369044 -4.5155996776447864 0 0 0 0 -193.51147714009858 -88.739185813359654 0 -88.739185813359654 64.295609435197548 0 0 0 0 -42.929247414213023 -40.189200511191302 0 -40.189200511191302 58.78246217187916 0 0 0 0 -184.63198524428481 -70.076522897631094 0 -70.076522897631094 104.0678951068985 0 0 0 0 -83.555897912002365 18.864776800259506 0 18.864776800259506 164.73515226731251 0 0 0 0 -172.27785943754861 -297.1637403295299 0 -297.1637403295299 -71.040347259284317 0 0 0 0 -110.12064321118669 -237.91715138565269 0 -237.91715138565269 -340.60196183821245 0 0 0 0 -479.2354248483316 -472.24668402288989 0 -472.24668402288989 -145.91406091095359 0 0 0 0 -318.51931933093329 -28.815525465602605 0 -28.815525465602605 -410.34669654443132 0 0 0 0 50.888738205016125 -994.60457287573627 0 -994.60457287573627 -974.75536033396656 0 0 0 0 144.07594930854975 44.43796247422506 0 44.43796247422506 -177.35375809470861 0 0 0 0 13.721407320354146 -17.066801755882665 0 -17.066801755882665 10.970730132498275 0 0 0 0 -73.770725417285576 -848.83012864805278 0 -848.83012864805278 -817.59478450917231 0 0 0 0 -260.92569810463829 -567.66347804547058 0 -567.66347804547058 -587.86171788072488 0 0 0 0 6.3558947211805332 -3.0897753426564591 0 -3.0897753426564591 -2.5524315142288714 0 0 0 0 -338.38738874762203 -517.31724878382011 0 -517.31724878382011 -511.83264428089387 0 0 0 0 -573.88573280793207 -464.80946820932877 0 -464.80946820932877 -488.76326816881192 0 0 0 0 -79.474388727423502 -209.24429952929131 0 -209.24429952929131 -196.74958166557099 0 0 0 0 271.08944721495209 -241.93783750445255 0 -241.93783750445255 -807.28115887859894 0 0 0 0 88.465920298272977 -12.154434739182761 0 -12.154434739182761 -577.71941077323572 0 0 0 0 99.484659113230009 -401.69540211365165 0 -401.69540211365165 -890.49787147091047 0 0 0 0 -317.09649994387291 -16.851794209123909 0 -16.851794209123909 -864.76885893500003 0 0 0 0 19.44439672298904 -328.81249436464805 0 -328.81249436464805 -674.46776502744615 0 0 0 0 10.62430981759826 -357.52708342078313 0 -357.52708342078313 -596.48450932295964 0 0 0 0 3.1943145862358904 -5.3718627398466481 0 -5.3718627398466481 4.4416497239654973 0 0 0 0 -118.85962111741537 -257.36076151700763 0 -257.36076151700763 689.92819635806154 0 0 0 0 -155.06341361619707 -175.83164862451849 0 -175.83164862451849 521.06915210939042 0 0 0 0 -2.3680332925397067 -1.9286916296578056 0 -1.9286916296578056 4.4235428981287157 0 0 0 0 155.25246785785566 -343.21386194444494 0 -343.21386194444494 -1076.5153538167078 0 0 0 0 -278.57503415314568 -438.30323973683335 0 -438.30323973683335 -62.126203167434142 0 0 0 0 12.815281624333807 -12.071597129783306 0 -12.071597129783306 7.735673899204798 0 0 0 0 -96.60378072387357 -190.95601683380755 0 -190.95601683380755 10.303694656318839 0 0 0 0 250.2178220134374 137.21994629584879 0 137.21994629584879 -177.52579801729098 0 0 0 0 -364.4701421422069 -369.15413586484647 0 -369.15413586484647 -8.5411852064280538 0 0 0 0 -160.68750006318442 -287.15031155859515 0 -287.15031155859515 55.063865871685266 0 0 0 0 -289.43308837448421 -379.4830465292689 0 -379.4830465292689 -8.5407527683128137 0 0 0 0 -123.98539546702523 -426.15622859860014 0 -426.15622859860014 -83.313021397707416 0 0 0 0 38.537762066531286 -281.12421557561538 0 -281.12421557561538 37.120597444634768 0 0 0 0 -113.30483400921366 -312.38877343977401 0 -312.38877343977401 182.52710689032756 0 0 0 0 -73.855114339206921 -247.88418966911286 0 -247.88418966911286 133.11924158208421 0 0 0 0 -202.30443770649435 -310.50373491143182 0 -310.50373491143182 104.44239659078448 0 0 0 0 -86.976505506405374 -348.02232380230635 0 -348.02232380230635 514.53279540643393 0 0 0 0 37.288928732508793 -260.78228032277184 0 -260.78228032277184 334.5317264190744 0 0 0 0 157.49018851010624 -431.33271878329288 0 -431.33271878329288 165.05043946339356 0 0 0 0 77.82904213196889 -347.29421969273608 0 -347.29421969273608 84.632709023138887 0 0 0 0 79.369934639660642 -335.78604313180404 0 -335.78604313180404 160.63057726374518 0 0 0 0 10.458005316348135 -200.27449258580373 0 -200.27449258580373 179.97855782452098 0 0 0 0 -4.7132394639093036 -270.14492293426156 0 -270.14492293426156 131.00745962001383 0 0 0 0 31.230233298352687 -113.90600931603331 0 -113.90600931603331 180.74529673487268 0 0 0 0 27.248695053625852 -186.06089595629237 0 -186.06089595629237 147.25890106466977 0 0 0 0 17.679940762798651 -45.740373922628351 0 -45.740373922628351 177.93263470556121 0 0 0 0 -5.8451745913916966 -119.60841534272913 0 -119.60841534272913 196.56288790093822 0 0 0 0 -14.80709300689341 -61.861368816273171 0 -61.861368816273171 208.79026163231174 0 0 0 0 -10.157267006215989 -55.304288230112434 0 -55.304288230112434 217.12112577389053 0 0 0 0 -84.390166877212323 -78.413945343025262 0 -78.413945343025262 233.35066449659644 0 0 0 0 -62.225816817692248 -117.07507394905224 0 -117.07507394905224 204.26304796808108 0 0 0 0 -152.34760947890754 -203.00861710074241 0 -203.00861710074241 197.13084005254677 0 0 0 0 -51.896766450197902 -210.21638295500452 0 -210.21638295500452 194.51092848835833 0 0 0 0 -85.871951483844896 -127.62846705819175 0 -127.62846705819175 211.37487660178158 0 0 0 0 -210.68102651134541 -191.54149008691456 0 -191.54149008691456 159.141972518486 0 0 0 0 -119.93190640056127 -203.05298354152183 0 -203.05298354152183 157.57102038517769 0 0 0 0 -167.4152455557487 -135.12785024452387 0 -135.12785024452387 213.58121310705428 0 0 0 0 -120.46556792392221 -100.13872389342214 0 -100.13872389342214 223.49011327770131 0 0 0 0 -110.01892774001317 -98.829078173828748 0 -98.829078173828748 189.67866789979598 0 0 0 0 -164.47740784204507 -159.47946859101648 0 -159.47946859101648 172.67235086009896 0 0 0 0 -208.65242031158414 -110.76921936086001 0 -110.76921936086001 121.07090157557832 0 0 0 0 -237.95233761814234 -201.60884388257364 0 -201.60884388257364 83.64026250076131 0 0 0 0 -336.51263156767163 -230.94058259756548 0 -230.94058259756548 91.54734066666424 0 0 0 0 -212.04135500655161 -233.63110455179844 0 -233.63110455179844 89.294698470577714 0 0 0 0 263.12469366414734 36.761459750125141 0 36.761459750125141 18.522850475310406 0 0 0 0 -39.65584119537607 -4.7162765495877466 0 -4.7162765495877466 227.08652532814449 0 0 0 0 16.41404491371577 -129.77410091160527 0 -129.77410091160527 184.84793304297636 0 0 0 0 -152.92912776811863 -146.25535526914609 0 -146.25535526914609 142.32351464028034 0 0 0 0 -127.47242428777099 -50.41975655771239 0 -50.41975655771239 163.95245637481821 0 0 0 0 -53.525169120941428 -104.23624267680134 0 -104.23624267680134 198.1733582930683 0 0 0 0 -78.686796128160495 -40.849033984253765 0 -40.849033984253765 236.8372756183453 0 0 0 0 123.09796742306935 -38.497729806276766 0 -38.497729806276766 208.44656530191423 0 0 0 0 -21.213139152721851 -28.409179626425612 0 -28.409179626425612 298.41928739651485 0 0 0 0 62.875150322783156 34.224838517038734 0 34.224838517038734 264.92888818455685 0 0 0 0 -51.878467967049801 -65.886672074419039 0 -65.886672074419039 220.81860142966707 0 0 0 0 -55.993575455286191 -46.584371034237847 0 -46.584371034237847 259.38420887078973 0 0 0 0 -21.751305252750171 -50.148297036575968 0 -50.148297036575968 220.78117101181851 0 0 0 0 1.0331494741403731 -5.4730433337463182 0 -5.4730433337463182 245.57497230835543 0 0 0 0 -24.038016410915588 -36.663745836789531 0 -36.663745836789531 220.81153976423957 0 0 0 0 7.9008464437902148 -14.281080128070244 0 -14.281080128070244 243.7402733596391 0 0 0 0 32.184356945188483 30.746660638091271 0 30.746660638091271 250.42911231227481 0 0 0 0 30.515727175472421 -10.804085803902126 0 -10.804085803902126 219.48797280477447 0 0 0 0 23.533400419750251 6.8159166850964539 0 6.8159166850964539 184.46284636050405 0 0 0 0 44.519742823744309 43.813507022801787 0 43.813507022801787 324.67430050595067 0 0 0 0 57.890323119594541 46.753307667471745 0 46.753307667471745 179.26438951471937 0 0 0 0 166.02821223912542 20.282059801455034 0 20.282059801455034 316.23897564132494 0 0 0 0 314.77199376637145 -254.62900771192471 0 -254.62900771192471 813.10792067204602 0 0 0 0 383.13096976143424 272.74325840161328 0 272.74325840161328 326.59836495535274 0 0 0 0 117.81400397594916 -35.689147844024774 0 -35.689147844024774 272.60499103928305 0 0 0 0 2.1605233747321151 -2.2260066106372918 0 -2.2260066106372918 8.7013423294115313 0 0 0 0 688.21048161796352 -46.676909476604123 0 -46.676909476604123 -68.230507415272768 0 0 0 0 1181.2983991688416 -288.23725191104131 0 -288.23725191104131 45.199906749418005 0 0 0 0 668.5529146783083 -271.55950408507852 0 -271.55950408507852 111.62648694265408 0 0 0 0 351.505144604409 -93.791861202924338 0 -93.791861202924338 15.095825067146507 0 0 0 0 147.41709604860171 -137.59872440784739 0 -137.59872440784739 428.34717219334925 0 0 0 0 127.40150116447694 -297.98701843269919 0 -297.98701843269919 126.11043728385448 0 0 0 0 -41.172310766963605 -64.645815011578748 0 -64.645815011578748 118.04950713970439 0 0 0 0 -195.23215785734919 -125.96004068461025 0 -125.96004068461025 242.43585586004338 0 0 0 0 -136.99378482356224 -272.30793052995523 0 -272.30793052995523 602.67461331273535 0 0 0 0 19.055056733661331 163.13936187838863 0 163.13936187838863 203.7034378925091 0 0 0 0 66.255290238143061 -221.76627152083347 0 -221.76627152083347 226.53108685228199 0 0 0 0 331.70208861900755 -92.55652741942049 0 -92.55652741942049 -37.909402297442284 0 0 0 0 255.36849484012055 -142.21528035498159 0 -142.21528035498159 150.07214540880523 0 0 0 0 237.65993852898828 -81.932119440987663 0 -81.932119440987663 -38.342580703058047 0 0 0 0 153.8278704390832 -94.383212203882067 0 -94.383212203882067 81.096513399348623 0 0 0 0 148.49190564908895 -124.58560116892727 0 -124.58560116892727 50.842734311136155 0 0 0 0 153.37266865525635 -145.25729508496488 0 -145.25729508496488 57.058200932580803 0 0 0 0 391.88998616120989 -197.61806189497656 0 -197.61806189497656 -0.67688979471677158 0 0 0 0 -32.72174201878596 -74.955042576150859 0 -74.955042576150859 83.143620408623704 0 0 0 0 -21.943450691902772 -4.2592513408651271 0 -4.2592513408651271 30.969303879813388 0 0 0 0 -148.83765950974521 11.17599588991925 0 11.17599588991925 91.830066952809375 0 0 0 0 252.08855113211575 -43.34078888076192 0 -43.34078888076192 137.19795351834 0 0 0 0 38.76777650140972 -44.494939853958726 0 -44.494939853958726 32.016971604980114 0 0 0 0 -231.84197995353315 149.61496174804597 0 149.61496174804597 158.16735767473256 0 0 0 0 52.140940670981792 -82.805473326648098 0 -82.805473326648098 46.294039957659749 0 0 0 0 131.41129036193161 -58.45830195714916 0 -58.45830195714916 104.809333066828 0 0 0 0 -7.1044552962721355 -58.391652388159855 0 -58.391652388159855 23.490419657355233 0 0 0 0 26.230283428391878 -88.170283327436863 0 -88.170283327436863 66.989408813657207 0 0 0 0 119.12328593987331 -10.391243754176685 0 -10.391243754176685 227.00758590426813 0 0 0 0 62.622813128258713 6.662506381670994 0 6.662506381670994 0.85385470920812168 0 0 0 0 85.153795713702678 -41.223911087315763 0 -41.223911087315763 19.680458741726891 0 0 0 0 1058.1679128720643 -116.61346033006703 0 -116.61346033006703 -178.53775489081499 0 0 0 0 494.73812009312678 -118.14201066889655 0 -118.14201066889655 -11.717581363591307 0 0 0 0 425.08566304617852 11.044543727057317 0 11.044543727057317 -4.3226664007015643 0 0 0 0 636.31352491840153 -41.669690335125779 0 -41.669690335125779 -152.47477667859857 0 0 0 0 305.50690274325461 -123.16986023985191 0 -123.16986023985191 39.732103734528209 0 0 0 0 173.196628466726 -307.12448136310377 0 -307.12448136310377 250.00595782908204 0 0 0 0 625.63973751481535 -47.33145436732957 0 -47.33145436732957 -67.579639704252713 0 0 0 0 256.49191068348591 -262.47275272553452 0 -262.47275272553452 412.70083125331257 0 0 0 0 10.930489352533399 -8.6175294801992521 0 -8.6175294801992521 5.871451020343704 0 0 0 0 783.12334405736328 -418.22054431431843 0 -418.22054431431843 182.34240640865391 0 0 0 0 403.31926761667273 140.40496907540546 0 140.40496907540546 -57.534610229664395 0 0 0 0 -107.89131279846333 38.041616434369644 0 38.041616434369644 169.1778330890811 0 0 0 0 208.62963527538523 -7.2800486522755818 0 -7.2800486522755818 -144.44528721918323 0 0 0 0 994.67955917119252 131.75291038166324 0 131.75291038166324 -458.11039693483326 0 0 0 0 -43.297005690787046 -329.99192900665912 0 -329.99192900665912 -93.111152822749318 0 0 0 0 262.57849510977394 351.55719863120794 0 351.55719863120794 715.38861608442312 0 0 0 0 -135.51367669986212 -868.160483067717 0 -868.160483067717 -225.16632270605442 0 0 0 0 -1.4639856130379485 65.106077430009464 0 65.106077430009464 -30.861754832945735 0 0 0 0 -0.19645178502490523 -0.58264562952359711 0 -0.58264562952359711 -1.4771219228124153 0 0 0 0 -302.71942990679236 -578.50440423323562 0 -578.50440423323562 375.18969688560173 0 0 0 0 984.14212789329758 223.75761779637469 0 223.75761779637469 -990.77104807237993 0 0 0 0 1233.1399005828134 -247.14395420367146 0 -247.14395420367146 -1126.4099992598676 0 0 0 0 354.24328810127918 -584.95110178723371 0 -584.95110178723371 1144.6484911682419 0 0 0 0 7.1545748107226217 -6.5873767695674772 0 -6.5873767695674772 4.3393362503851911 0 0 0 0 140.30985796864843 -495.37596105460398 0 -495.37596105460398 390.20277244857334 0 0 0 0 197.2516733739285 -373.91664018957363 0 -373.91664018957363 482.66055902835797 0 0 0 0 203.65712202011855 -363.66188438544123 0 -363.66188438544123 289.37465474522469 0 0 0 0 494.05876624325174 -526.35432862912239 0 -526.35432862912239 356.03840052204941 0 0 0 0 -111.53083450967097 -495.60743140632076 0 -495.60743140632076 479.70294331849436 0 0 0 0 60.786537131149089 120.89110101537517 0 120.89110101537517 398.64887923602942 0 0 0 0 176.46642596968741 -99.637046417185047 0 -99.637046417185047 169.46789486403213 0 0 0 0 454.79874344733253 40.807240086647653 0 40.807240086647653 170.84870537901179 0 0 0 0 1371.5952104300959 -152.70958943022561 0 -152.70958943022561 200.41034689544222 0 0 0 0 806.15870788189204 -906.50958986470505 0 -906.50958986470505 937.10685043736157 0 0 0 0 49.0368414972545 588.40069256642892 0 588.40069256642892 768.42215927338111 0 0 0 0 578.81207207444822 -1183.8456740323199 0 -1183.8456740323199 247.23814327545188 0 0 0 0 -798.99905618130288 -397.19328355517519 0 -397.19328355517519 179.88587071473012 0 0 0 0 1533.488253309617 -655.50742372880086 0 -655.50742372880086 -724.04168606542953 0 0 0 0 535.29822667878761 -275.8001001229386 0 -275.8001001229386 -819.13350111074396 0 0 0 0 13.947236444325689 -10.266295759463553 0 -10.266295759463553 -3.9064855036229815 0 0 0 0 257.37991488224361 -236.06221429453853 0 -236.06221429453853 4.0584020915848669 0 0 0 0 101.33570713288373 -148.12124714261654 0 -148.12124714261654 59.583202848760266 0 0 0 0 62.046526092779686 -122.65537136978782 0 -122.65537136978782 46.67174398138377 0 0 0 0 49.691705686636851 -309.01921966806913 0 -309.01921966806913 -12.281510982182226 0 0 0 0 47.157614090067668 -62.448297653967785 0 -62.448297653967785 67.527484059117981 0 0 0 0 33.375464863500383 -59.272778419502629 0 -59.272778419502629 69.180270045543693 0 0 0 0 17.676192799142996 -10.788271833108015 0 -10.788271833108015 6.1529332367342295 0 0 0 0 -75.033580742310733 140.43244284173034 0 140.43244284173034 92.51672403833436 0 0 0 0 -86.201585977082686 -136.17369085784276 0 -136.17369085784276 276.6256939683808 0 0 0 0 116.51724537129121 14.497685301065758 0 14.497685301065758 7.0695061072947283 0 0 0 0 -24.048921480184255 11.722890654164578 0 11.722890654164578 13.14609055943626 0 0 0 0 -139.92195212006663 -195.41357519321855 0 -195.41357519321855 337.67622050371756 0 0 0 0 -162.54535183756161 -40.677358162737619 0 -40.677358162737619 202.20044766888623 0 0 0 0 -50.981117264256994 -26.678110515619117 0 -26.678110515619117 63.935829884270781 0 0 0 0 -24.853968635320598 45.0371699146026 0 45.0371699146026 197.28454404239528 0 0 0 0 -471.22032432508422 -232.405847158298 0 -232.405847158298 454.03524015054063 0 0 0 0 -174.46288960183301 -356.65177171645882 0 -356.65177171645882 36.41055963969211 0 0 0 0 -63.131749456355465 -182.64109385655138 0 -182.64109385655138 81.638264541430544 0 0 0 0 -159.78681559921597 -69.917628999154886 0 -69.917628999154886 237.25998258134859 0 0 0 0 168.35910632200557 -256.91465580261683 0 -256.91465580261683 -1.2948670282239618 0 0 0 0 106.81389454843838 -459.4873713560728 0 -459.4873713560728 394.1360951041861 0 0 0 0 199.71029615956286 -132.08767705287755 0 -132.08767705287755 189.85880586171515 0 0 0 0 83.892225509319815 -185.42071608172137 0 -185.42071608172137 463.60647311967477 0 0 0 0 -117.08096622478115 -136.2297709927243 0 -136.2297709927243 299.59297945778599 0 0 0 0 41.954577175016311 -5.4090512846323691 0 -5.4090512846323691 -221.25134471968704 0 0 0 0 86.371411595913699 -71.363115497193178 0 -71.363115497193178 -33.640513537153119 0 0 0 0 188.94533032737309 -150.03915906062139 0 -150.03915906062139 -4.6145222038967404 0 0 0 0 209.41018674759835 -415.12084893915016 0 -415.12084893915016 321.22950819936523 0 0 0 0 -21.462211035264072 -34.770920208286235 0 -34.770920208286235 11.140115979982664 0 0 0 0 113.69817294360263 -191.23589249676843 0 -191.23589249676843 251.50772085870813 0 0 0 0 164.47635543525166 -258.30907845878755 0 -258.30907845878755 188.97527297088891 0 0 0 0 39.358169447958858 -188.2026424720716 0 -188.2026424720716 294.36030986020887 0 0 0 0 57.543278617887736 -92.78440622745984 0 -92.78440622745984 -72.481000944867588 0 0 0 0 -7.8956898439828365 92.847568739196504 0 92.847568739196504 18.090065432597839 0 0 0 0 -21.19257948493032 -64.250167111934388 0 -64.250167111934388 75.313633187382948 0 0 0 0 -43.939473427035573 -37.544417679968802 0 -37.544417679968802 75.951728113544618 0 0 0 0 66.417430408537271 -133.28740745796662 0 -133.28740745796662 -38.527353121046566 0 0 0 0 -46.405795282693362 -87.848379499455859 0 -87.848379499455859 -2.4355462916828401 0 0 0 0 80.720013091959117 -122.42785212032322 0 -122.42785212032322 14.124663938309823 0 0 0 0 42.714048391442347 -40.3510085269439 0 -40.3510085269439 21.324738279938856 0 0 0 0 -8.8401444535047631 -96.066016711605698 0 -96.066016711605698 142.56244298228921 0 0 0 0 63.759537364312564 -214.60604457396676 0 -214.60604457396676 318.10437093857036 0 0 0 0 271.30073870784327 -115.12639453557222 0 -115.12639453557222 63.252181843738072 0 0 0 0 93.871048728295136 -16.836127955722986 0 -16.836127955722986 166.64384894895676 0 0 0 0 111.71505769405485 -39.219285125604074 0 -39.219285125604074 -18.60441893236748 0 0 0 0 81.904735337575403 -135.38704060380587 0 -135.38704060380587 170.37113114376189 0 0 0 0 76.682658476016513 -93.403648977960074 0 -93.403648977960074 67.241398824106 0 0 0 0 102.71651716454653 -72.009582983199834 0 -72.009582983199834 -45.430030749335856 0 0 0 0 63.424054819182565 -24.085963822286796 0 -24.085963822286796 -25.848940033865404 0 0 0 0 122.58840667289587 -115.52740218047438 0 -115.52740218047438 -41.834361481996893 0 0 0 0 131.80480191959214 -200.41163729037271 0 -200.41163729037271 -66.902717073770873 0 0 0 0 12.003782131003391 -56.905052442891247 0 -56.905052442891247 -15.497421242419477 0 0 0 0 116.22665644924291 -202.42108643457595 0 -202.42108643457595 -21.431095175656083 0 0 0 0 39.832203720852526 -71.779321730363847 0 -71.779321730363847 13.78867073469457 0 0 0 0 31.770859711016783 -77.323500259337834 0 -77.323500259337834 -38.596114684212807 0 0 0 0 74.081912808995142 -86.165781504275998 0 -86.165781504275998 30.964406233227244 0 0 0 0 36.11438029245619 -192.4175905543143 0 -192.4175905543143 62.632573894423331 0 0 0 0 44.872948678245997 -83.156855864053497 0 -83.156855864053497 2.2868697645077072 0 0 0 0 199.71707309830799 -224.77223154687817 0 -224.77223154687817 -286.43726708945178 0 0 0 0 17.061738537144265 -67.551831695534929 0 -67.551831695534929 -120.66278976015747 0 0 0 0 261.46600254896202 -1.5874762893508887 0 -1.5874762893508887 -446.45528197609383 0 0 0 0 256.19928220155271 -90.308736485558256 0 -90.308736485558256 -269.89286393848624 0 0 0 0 67.212806589054011 -72.092212756654689 0 -72.092212756654689 -11.007565863853131 0 0 0 0 62.398377117197015 -75.323034999826632 0 -75.323034999826632 -189.19790645532339 0 0 0 0 601.50212165246603 103.66322664845711 0 103.66322664845711 -61.025302905902208 0 0 0 0 -195.35976764219595 -315.60467509413502 0 -315.60467509413502 201.72282696068578 0 0 0 0 -9.5765007345019981 -7.8940672297328893 0 -7.8940672297328893 -4.2105658682033358 0 0 0 0 -116.42740009475483 -138.58111459181441 0 -138.58111459181441 36.603841227220983 0 0 0 0 77.516410106669355 -349.34690078383937 0 -349.34690078383937 185.46155926722713 0 0 0 0 79.915608649011119 -370.23474796753726 0 -370.23474796753726 -138.88411803756389 0 0 0 0 446.29465208660258 -230.52081334300055 0 -230.52081334300055 -126.46225815788966 0 0 0 0 426.86197437444525 -20.864021210331657 0 -20.864021210331657 -166.68136989115374 0 0 0 0 346.00441682556993 -150.9723817335007 0 -150.9723817335007 541.88456823124943 0 0 0 0 1718.4693352643626 610.05518080061302 0 610.05518080061302 842.02974682994318 0 0 0 0 857.65982449229341 -545.39673531484004 0 -545.39673531484004 840.43552214138367 0 0 0 0 944.35515937854143 -2365.2748791010108 0 -2365.2748791010108 -510.90050618496025 0 0 0 0 1529.61756295136 -699.45777575315151 0 -699.45777575315151 -597.25165740157536 0 0 0 0 519.05605923202529 -506.64722840632385 0 -506.64722840632385 -101.96129465796548 0 0 0 0 6.8628967549338995 -541.80683241787119 0 -541.80683241787119 366.36946220005484 0 0 0 0 -424.34787393569422 -485.48179403688118 0 -485.48179403688118 189.0227689831554 0 0 0 0 -529.78284248443379 -1229.0799079310164 0 -1229.0799079310164 170.89653749130957 0 0 0 0 -566.21425920225738 -695.39884779865315 0 -695.39884779865315 462.48585073432878 0 0 0 0 -1556.4679115275503 817.3382965616911 0 817.3382965616911 3233.1872753339376 0 0 0 0 160.06712877389509 -192.21999197378318 0 -192.21999197378318 811.59237827366701 0 0 0 0 -14.431067442565109 -33.494242326338281 0 -33.494242326338281 -229.58758765357925 0 0 0 0 15.640425178099047 -11.153569930595307 0 -11.153569930595307 8.0887793455988959 0 0 0 0 -57.332275092869168 -52.112223004155567 0 -52.112223004155567 -50.039027643619193 0 0 0 0 93.936453385384084 -129.87950478638231 0 -129.87950478638231 -199.5774279948364 0 0 0 0 77.656113524757529 -9.2326302717265207 0 -9.2326302717265207 -37.623761840882707 0 0 0 0 57.892445579404011 -189.78728191947812 0 -189.78728191947812 860.76069853626541 0 0 0 0 -47.151629603926267 -28.019506032720528 0 -28.019506032720528 624.78916316934192 0 0 0 0 -52.649610721313366 76.868497446421316 0 76.868497446421316 261.14687542314459 0 0 0 0 -6.0318044608648052 -154.75931701143054 0 -154.75931701143054 465.96182776027854 0 0 0 0 144.60867454552135 -281.39857389492499 0 -281.39857389492499 421.77810375338959 0 0 0 0 -38.86522976210108 -167.61545853260577 0 -167.61545853260577 488.06570004299647 0 0 0 0 138.47106848180283 -232.04874589396661 0 -232.04874589396661 425.15371834057078 0 0 0 0 304.52681861422025 -297.25853184154948 0 -297.25853184154948 450.45471257374265 0 0 0 0 78.423600707392325 -308.80527583170624 0 -308.80527583170624 658.00002158242887 0 0 0 0 18.008324931408424 -194.8620072998192 0 -194.8620072998192 363.0118921178655 0 0 0 0 38.545594730665471 -39.483281686144437 0 -39.483281686144437 889.96671698565478 0 0 0 0 -13.486227744389907 -224.99801489238416 0 -224.99801489238416 230.21034097138454 0 0 0 0 141.27147001903722 -81.113886006344728 0 -81.113886006344728 540.45756708898261 0 0 0 0 673.46812853127631 -49.818474243102173 0 -49.818474243102173 323.39602802061745 0 0 0 0 294.84942562412471 -366.09040445167375 0 -366.09040445167375 678.3011523793175 0 0 0 0 293.3610356888712 -51.826209182976527 0 -51.826209182976527 203.91607649950311 0 0 0 0 348.57511870712187 -290.02758077647195 0 -290.02758077647195 280.62744378932621 0 0 0 0 181.71766280267911 -67.529135107553884 0 -67.529135107553884 326.64514148167609 0 0 0 0 238.60793511823067 -117.15846215411602 0 -117.15846215411602 130.21032095027476 0 0 0 0 145.55638069226734 -123.25479668032085 0 -123.25479668032085 240.81126466109163 0 0 0 0 103.28378284322025 8.4086260631943333 0 8.4086260631943333 96.597108953906854 0 0 0 0 15.461992151220329 -42.030560737624342 0 -42.030560737624342 90.269181100138667 0 0 0 0 210.11863682410512 -164.06204328715376 0 -164.06204328715376 150.00207428750218 0 0 0 0 55.160743083972193 -58.453903845637626 0 -58.453903845637626 113.83902159287322 0 0 0 0 68.615249326852791 27.887731190794 0 27.887731190794 23.549762560359056 0 0 0 0 87.685255502929067 -68.394747151416254 0 -68.394747151416254 169.87302794401876 0 0 0 0 156.35422800820197 -117.35541223369239 0 -117.35541223369239 111.79222011408154 0 0 0 0 181.45342351779982 -218.13893049653689 0 -218.13893049653689 280.83606474161661 0 0 0 0 163.57466476534682 -150.96832022967192 0 -150.96832022967192 200.07273940158893 0 0 0 0 1.3575126856121642 -71.657443705293645 0 -71.657443705293645 373.35663341872169 0 0 0 0 18.058052462356443 -196.93189046543461 0 -196.93189046543461 412.36800759920879 0 0 0 0 -30.400510760846373 -81.048386526292234 0 -81.048386526292234 271.97566373773225 0 0 0 0 15.624808737131389 -210.82012733649753 0 -210.82012733649753 394.2313638904634 0 0 0 0 80.059575596784271 -265.73811270105944 0 -265.73811270105944 268.40046821423675 0 0 0 0 41.447013675285234 -137.85229473273216 0 -137.85229473273216 377.31080158794794 0 0 0 0 22.638245795664261 -148.5324158911244 0 -148.5324158911244 644.47207442371359 0 0 0 0 196.33496097455281 -265.40363994063227 0 -265.40363994063227 482.14187516722541 0 0 0 0 38.776819744781662 -23.885597419342183 0 -23.885597419342183 4.5792936691013839 0 0 0 0 120.68266834448514 -698.59379275286119 0 -698.59379275286119 -865.85774591574204 0 0 0 0 -156.41243706314981 -623.41331973986303 0 -623.41331973986303 -406.08389267098755 0 0 0 0 421.08817258941781 -740.03486043580278 0 -740.03486043580278 -382.79684831182317 0 0 0 0 50.432892644574167 123.28192118771585 0 123.28192118771585 80.28916729327392 0 0 0 0 58.981251944580436 139.34143267317495 0 139.34143267317495 -42.422215520571626 0 0 0 0 62.534372628472823 -25.185495764212053 0 -25.185495764212053 3.11105349155405 0 0 0 0 -521.14885371552919 9.4498684834884443 0 9.4498684834884443 -131.7274063894838 0 0 0 0 -154.42350140136477 -237.73746984583613 0 -237.73746984583613 23.963430886240531 0 0 0 0 -87.463272414417588 -492.91115564414758 0 -492.91115564414758 -501.18837922526427 0 0 0 0 125.18531980094122 62.55303624240878 0 62.55303624240878 -181.0634509428528 0 0 0 0 126.40267700597178 -214.39946877309512 0 -214.39946877309512 -184.41108347780573 0 0 0 0 57.163332619173161 -302.73808729617758 0 -302.73808729617758 -121.95035067296067 0 0 0 0 -138.75968933110562 -214.94120273861336 0 -214.94120273861336 20.30517194334243 0 0 0 0 -957.02653748976445 -604.83660099993904 0 -604.83660099993904 130.72820377626067 0 0 0 0 -579.26760949936215 -464.36683417229187 0 -464.36683417229187 -153.80713823459337 0 0 0 0 -586.21441860859704 -544.95469076469635 0 -544.95469076469635 112.67922676197486 0 0 0 0 -479.35559339432803 -312.82681585751743 0 -312.82681585751743 356.48297792926223 0 0 0 0 -103.07600354154783 -64.397037139076929 0 -64.397037139076929 516.07186740384168 0 0 0 0 93.540150395370802 -453.99279543996499 0 -453.99279543996499 533.77810352005508 0 0 0 0 -5.2376470453897355 -4.6024843843572398 0 -4.6024843843572398 -4.7467198369089374 0 0 0 0 -1002.887578329266 -103.88242328473652 0 -103.88242328473652 129.63222917938219 0 0 0 0 -107.06499457172686 -17.154565749689937 0 -17.154565749689937 92.623586673517366 0 0 0 0 -13.327450830268276 -14.709885988310667 0 -14.709885988310667 -3.3292405492646218 0 0 0 0 68.727659128651794 -169.00566349709561 0 -169.00566349709561 -32.553475699256524 0 0 0 0 189.36713080164554 39.483999446542384 0 39.483999446542384 -30.585622520802644 0 0 0 0 1.0068470012120088 -137.66216284952316 0 -137.66216284952316 -85.810529883158779 0 0 0 0 -3.8024819088279003 -29.531134174702828 0 -29.531134174702828 39.116649748567504 0 0 0 0 -93.915726089730015 -185.19206031689282 0 -185.19206031689282 -10.797200074888679 0 0 0 0 5.8577473181953934 -28.340024598258267 0 -28.340024598258267 55.71118355001078 0 0 0 0 224.19216110519847 284.48186233485649 0 284.48186233485649 -2.2253761434208741 0 0 0 0 -29.247258365878224 -63.13145355537381 0 -63.13145355537381 -106.30881278411107 0 0 0 0 -114.64945295375219 -228.3002614424945 0 -228.3002614424945 -17.926534055179218 0 0 0 0 -416.43881829110069 -815.38017994513302 0 -815.38017994513302 -942.95787009830383 0 0 0 0 -11.274957371907362 -13.069745466110088 0 -13.069745466110088 23.861041735080221 0 0 0 0 -731.19842558999517 -627.96044381105139 0 -627.96044381105139 -326.72652466646832 0 0 0 0 -143.86173343740666 -88.609839253205791 0 -88.609839253205791 -184.65266344470388 0 0 0 0 -126.48473429941077 55.116753747985058 0 55.116753747985058 -335.1321585470547 0 0 0 0 -86.754451351731404 -179.85905755941349 0 -179.85905755941349 142.61904567635793 0 0 0 0 -312.00063774552291 -360.27440496715712 0 -360.27440496715712 -157.71078487859268 0 0 0 0 -707.23469033375295 -922.53513399393523 0 -922.53513399393523 -956.83964042751381 0 0 0 0 -290.59325593776884 0.36071547700339579 0 0.36071547700339579 -1142.6132603414408 0 0 0 0 -291.90798154919685 134.90466536796976 0 134.90466536796976 113.30235979141889 0 0 0 0 -120.63892211421626 -174.61837362549625 0 -174.61837362549625 470.99674182679155 0 0 0 0 9.1447855055957916 -41.943029987002888 0 -41.943029987002888 56.231674076263275 0 0 0 0 2.501589350303675 284.18325197473735 0 284.18325197473735 222.00745217066105 0 0 0 0 -194.63779085320493 -54.244315949006705 0 -54.244315949006705 71.325677425047616 0 0 0 0 0.5390117747020895 -6.2954138101874761 0 -6.2954138101874761 14.685107528547604 0 0 0 0 -11.191664806256796 -46.162769658578696 0 -46.162769658578696 -5.6071198410354199 0 0 0 0 -14.290781482905004 -62.918923774259383 0 -62.918923774259383 4.613397496050311 0 0 0 0 25.650192178922921 -24.977700468549102 0 -24.977700468549102 9.5897757801033663 0 0 0 0 -6.2551720662086154 -216.95510680080406 0 -216.95510680080406 -6.2133079823033768 0 0 0 0 5.0406172168595731 -134.95884682488804 0 -134.95884682488804 -7.7781803610851057 0 0 0 0 -83.871711280000454 -159.27598195965402 0 -159.27598195965402 -29.557331835724654 0 0 0 0 -197.40766132800491 -191.53424936108968 0 -191.53424936108968 28.105710526462644 0 0 0 0 -90.775991442664235 -215.4893772498981 0 -215.4893772498981 -35.341282105713617 0 0 0 0 -35.798066224600916 -142.96463644646428 0 -142.96463644646428 -3.8141379206717829 0 0 0 0 197.33477934572875 -140.30911106496205 0 -140.30911106496205 -35.12438555877452 0 0 0 0 47.190702315623639 -222.09875706970342 0 -222.09875706970342 40.768874419540225 0 0 0 0 53.770989536031266 -123.75662709133758 0 -123.75662709133758 20.717862259647518 0 0 0 0 -59.853966453589237 -186.27208907464228 0 -186.27208907464228 104.52593116687785 0 0 0 0 -155.43015107286556 -70.044584572604435 0 -70.044584572604435 93.334070284006884 0 0 0 0 -185.91896154281494 -212.72654812818837 0 -212.72654812818837 -93.689344677964982 0 0 0 0 -2.7137249113875441 -252.51861053516404 0 -252.51861053516404 120.96401481430075 0 0 0 0 -122.18895541536767 -103.29931289205342 0 -103.29931289205342 90.908983107408858 0 0 0 0 -417.04146372373361 -78.791797428715654 0 -78.791797428715654 117.65864593588913 0 0 0 0 -327.4078246974168 51.553332493967901 0 51.553332493967901 38.222325060614821 0 0 0 0 -216.13791173607751 -102.9607128418902 0 -102.9607128418902 119.93142968864549 0 0 0 0 -244.10485883046931 -55.759572165495229 0 -55.759572165495229 57.399663690543093 0 0 0 0 -293.41131525113815 -111.25420550366653 0 -111.25420550366653 69.451643027190585 0 0 0 0 -170.75762947378098 -54.659901767648989 0 -54.659901767648989 -33.519786482119173 0 0 0 0 -54.645112064783461 -148.01123278921659 0 -148.01123278921659 -133.13605760030987 0 0 0 0 10.491590659676149 -77.957073099742047 0 -77.957073099742047 -46.324926850225893 0 0 0 0 -8.6412927510064037 -49.112368974432684 0 -49.112368974432684 -27.165061672458251 0 0 0 0 -33.849086013120157 -34.179434473548184 0 -34.179434473548184 -16.153388997463665 0 0 0 0 2.4537120711283933 -94.566098419030823 0 -94.566098419030823 1.3888719120805035 0 0 0 0 -79.223928641797102 -8.1142555302285473 0 -8.1142555302285473 41.572463524003979 0 0 0 0 -88.452833043254941 -31.981133218334435 0 -31.981133218334435 41.157631332011078 0 0 0 0 -26.036673264628362 -18.865954262580562 0 -18.865954262580562 -14.521998235983304 0 0 0 0 -38.050154548342107 -124.39792230902094 0 -124.39792230902094 78.987838823988568 0 0 0 0 -39.012161909265643 -89.477835372594626 0 -89.477835372594626 135.05818535820435 0 0 0 0 -38.062159101798898 -160.94742457789107 0 -160.94742457789107 -75.775691753024148 0 0 0 0 -34.013353161768464 -448.29256996797994 0 -448.29256996797994 269.65696088696495 0 0 0 0 -14.923215786468063 -537.01593406075335 0 -537.01593406075335 -633.80197160705575 0 0 0 0 28.704959685517679 -134.35788168244835 0 -134.35788168244835 -114.03934313549325 0 0 0 0 35.280191312303941 -361.06249224675776 0 -361.06249224675776 -1437.3083416809422 0 0 0 0 -9.0059030504501152 -7.1215929893520595 0 -7.1215929893520595 -6.2185440153759828 0 0 0 0 103.96828090980489 -443.90392491978491 0 -443.90392491978491 -893.91434642240347 0 0 0 0 -29.136855190394272 -777.56592079428992 0 -777.56592079428992 -1711.5391680103203 0 0 0 0 -484.79391925586788 -337.16562555878772 0 -337.16562555878772 -44.496447175079084 0 0 0 0 27.458209912649181 -764.68547198020678 0 -764.68547198020678 -1058.4617941735851 0 0 0 0 -861.9691301065177 52.531782482856215 0 52.531782482856215 73.274430399400444 0 0 0 0 -6.2397461957534688 44.0530019128596 0 44.0530019128596 -71.059185156445892 0 0 0 0 -1080.1644499670329 -828.42648304946124 0 -828.42648304946124 -447.80951818614267 0 0 0 0 1666.3156008065671 -908.1439869257083 0 -908.1439869257083 1096.8129517104826 0 0 0 0 894.92248811692298 -1312.1168192485311 0 -1312.1168192485311 968.27605977948406 0 0 0 0 196.8740870649508 499.11549331840433 0 499.11549331840433 967.76844411719503 0 0 0 0 1673.9910362189185 52.730785371612001 0 52.730785371612001 604.05741528245562 0 0 0 0 375.94056796205768 105.49460420337709 0 105.49460420337709 830.85359427040021 0 0 0 0 -39.516105979722852 -19.097096402474563 0 -19.097096402474563 783.34063449613677 0 0 0 0 1127.0736208398812 -199.68962383921098 0 -199.68962383921098 512.10232198551239 0 0 0 0 376.3053365020719 102.88402410962317 0 102.88402410962317 768.68851685954724 0 0 0 0 436.29241552226085 -196.85956039092707 0 -196.85956039092707 518.0798299924445 0 0 0 0 1283.3166485546571 -683.05935273775685 0 -683.05935273775685 420.64396969558584 0 0 0 0 566.80439217606545 -723.07876600553209 0 -723.07876600553209 454.39460426154074 0 0 0 0 859.85660682469461 -282.17641435808036 0 -282.17641435808036 920.0815989362618 0 0 0 0 6.7345923734574171 -302.49456067273786 0 -302.49456067273786 633.32876705044146 0 0 0 0 2.1567331141923205 -193.25965294863636 0 -193.25965294863636 -3.0002914736287494 0 0 0 0 11.442623189865117 -48.335468933535594 0 -48.335468933535594 198.64477469431586 0 0 0 0 57.545636216253115 -456.58747695682177 0 -456.58747695682177 1321.9155607533758 0 0 0 0 2.0343413064045492 -3.4279503789393146 0 -3.4279503789393146 6.7286545746577389 0 0 0 0 689.25214684436651 -170.68341624244931 0 -170.68341624244931 14.739681786224537 0 0 0 0 18.710688086186565 141.6485989113462 0 141.6485989113462 83.987262686612667 0 0 0 0 -93.57777496802737 -4.6321777794964873 0 -4.6321777794964873 -40.028333326379652 0 0 0 0 2.05285222368002 -32.718099918623921 0 -32.718099918623921 45.707318687742372 0 0 0 0 -5.917727251908218 -114.57214757085239 0 -114.57214757085239 127.24740471235418 0 0 0 0 0.33103392317237024 -18.190659660949791 0 -18.190659660949791 3.1243881088429504 0 0 0 0 -1.4821021832322003 -70.158956816203499 0 -70.158956816203499 -15.62558063344477 0 0 0 0 22.638195998052211 -35.968298864288059 0 -35.968298864288059 12.434869888261687 0 0 0 0 -10.950607664293479 -39.090589926088271 0 -39.090589926088271 -26.562603729963001 0 0 0 0 11.807195995510483 -52.636123366079119 0 -52.636123366079119 -29.224852234402533 0 0 0 0 2.49942090433251 -59.969477607734007 0 -59.969477607734007 2.1340602762174967 0 0 0 0 -6.4587218870501601 -109.6868766553489 0 -109.6868766553489 -201.54650042761932 0 0 0 0 10.613230058672634 -28.481056792153069 0 -28.481056792153069 29.954060149721059 0 0 0 0 934.0453356085518 -165.5734601864342 0 -165.5734601864342 -52.952927099351655 0 0 0 0 -362.86331280335071 -424.5210559828156 0 -424.5210559828156 417.98234255581337 0 0 0 0 6.0292523108660649 -7.6159534242108577 0 -7.6159534242108577 10.880556068528108 0 0 0 0 210.7959889200647 80.684786111967696 0 80.684786111967696 -148.78877142976671 0 0 0 0 2785.279363999085 351.64319548174899 0 351.64319548174899 -311.11667920417676 0 0 0 0 675.377374068059 -1932.1110751520264 0 -1932.1110751520264 -226.26602234830352 0 0 0 0 -59.8528479496199 -658.78180849512864 0 -658.78180849512864 -196.35524929985331 0 0 0 0 -71.862691300099868 -109.07880211183237 0 -109.07880211183237 -299.19055019826919 0 0 0 0 200.55949208956736 -653.8606428004714 0 -653.8606428004714 -129.34513929461264 0 0 0 0 252.22787039544164 -390.84057232471241 0 -390.84057232471241 20.647804718621046 0 0 0 0 -242.52314940394353 -436.72903922499609 0 -436.72903922499609 180.01072416016177 0 0 0 0 263.905292206171 -543.82584783497077 0 -543.82584783497077 166.25952374012468 0 0 0 0 17.234734668933982 -72.488139214141484 0 -72.488139214141484 10.593940903792827 0 0 0 0 79.270036203786731 -2.0660418761144683 0 -2.0660418761144683 -215.80411609232033 0 0 0 0 3.7741310341626466 -5.9573696762377963 0 -5.9573696762377963 9.299874068928645 0 0 0 0 -75.085714114033181 -352.30807328321498 0 -352.30807328321498 -920.10289058190938 0 0 0 0 157.90965205917018 -239.32308991007449 0 -239.32308991007449 -126.66690705957717 0 0 0 0 11.532136304467258 -229.71055774175147 0 -229.71055774175147 146.46273542962444 0 0 0 0 -50.287980550773781 -27.967374303478007 0 -27.967374303478007 -4.5721474064057261 0 0 0 0 948.94322703054786 -217.19696789610316 0 -217.19696789610316 -3633.5090887422775 0 0 0 0 -18.863899393068969 -3.9446381749030373 0 -3.9446381749030373 -2.9377260743128364 0 0 0 0 -272.36863018563963 -272.31973785328046 0 -272.31973785328046 547.78392020859428 0 0 0 0 43.021381453218055 -185.04729987392238 0 -185.04729987392238 387.63808333283669 0 0 0 0 -4.6468488815407909 -61.318011701932846 0 -61.318011701932846 30.720187275161152 0 0 0 0 -1.8943342233360454 -50.625727143491531 0 -50.625727143491531 -0.64831549579503189 0 0 0 0 4.0320373510185163 -64.672030886640641 0 -64.672030886640641 3.2889636742402217 0 0 0 0 15.143986240512774 -48.331250203794355 0 -48.331250203794355 5.1838980566746073 0 0 0 0 735.80959284276832 -37.547195814097904 0 -37.547195814097904 -293.35412258547876 0 0 0 0 -7.3560753505369192 -7.8267837353163117 0 -7.8267837353163117 -7.9643870593454196 0 0 0 0 96.198170675697838 -376.89403116204358 0 -376.89403116204358 -87.476345283437695 0 0 0 0 -5.0085379052513019 -46.207945452061438 0 -46.207945452061438 -19.89224657776591 0 0 0 0 31.667732316062029 -380.37080730380876 0 -380.37080730380876 318.8385845844814 0 0 0 0 -646.75465258435725 -238.90110138000273 0 -238.90110138000273 -111.69521888556937 0 0 0 0 271.82747394950638 -772.75769992897312 0 -772.75769992897312 -1325.559186668419 0 0 0 0 432.27655336758471 -22.158194776773598 0 -22.158194776773598 -1287.8301245970042 0 0 0 0 -489.77118215906376 -687.94652251476145 0 -687.94652251476145 -753.78953996126074 0 0 0 0 214.25952178069201 -739.01727502695758 0 -739.01727502695758 -840.7958595715163 0 0 0 0 170.32235502346884 -373.86475975787471 0 -373.86475975787471 -181.56814978756847 0 0 0 0 -101.33508659204381 -53.673596615744827 0 -53.673596615744827 -258.30106657167562 0 0 0 0 144.8348531051011 -104.48322515061633 0 -104.48322515061633 36.58896295314014 0 0 0 0 20.43141676222643 -26.228226657416165 0 -26.228226657416165 7.2599081966688317 0 0 0 0 163.13567995771947 -94.092591258509145 0 -94.092591258509145 24.092166354951097 0 0 0 0 -280.95630254166099 -104.86380434251259 0 -104.86380434251259 394.20203021480938 0 0 0 0 223.43447118860786 -29.073744840745348 0 -29.073744840745348 327.4134620613404 0 0 0 0 1.9332133498431006 -43.321664164221126 0 -43.321664164221126 28.460918855439587 0 0 0 0 3.6268395937731839 -1738.769644520602 0 -1738.769644520602 -1983.7551540022469 0 0 0 0 1075.4266582905184 -152.69536981058263 0 -152.69536981058263 -955.7383939052088 0 0 0 0 -186.28330070187076 355.05767605152505 0 355.05767605152505 -1449.6521361055238 0 0 0 0 253.24299871538278 -1131.4170642478584 0 -1131.4170642478584 -687.61216152585257 0 0 0 0 -167.94538362165576 -342.53699793005364 0 -342.53699793005364 -870.05928503407631 0 0 0 0 398.21352636121446 -97.399213625169068 0 -97.399213625169068 -786.83778465170963 0 0 0 0 297.35314391619249 -617.3433194916106 0 -617.3433194916106 223.83783293359375 0 0 0 0 611.60201405354837 239.69288361199051 0 239.69288361199051 -265.17731942947285 0 0 0 0 244.92593923769891 4.8985041989326419 0 4.8985041989326419 -162.36653554008808 0 0 0 0 506.43121337368939 -102.97835345268686 0 -102.97835345268686 -461.64986346172191 0 0 0 0 13.026130929021747 -42.864629589170363 0 -42.864629589170363 -6.0992403301570448 0 0 0 0 276.99269623088185 -88.496525289425335 0 -88.496525289425335 -219.34408559304575 0 0 0 0 71.474606002273504 -183.75779132155003 0 -183.75779132155003 -160.68391465932291 0 0 0 0 250.79218819126345 169.90210062868357 0 169.90210062868357 118.62552802597929 0 0 0 0 134.33530691216583 -7.9788348084948666 0 -7.9788348084948666 -31.117874749124894 0 0 0 0 57.888072215457214 29.603551541425986 0 29.603551541425986 171.1580873750936 0 0 0 0 58.156548984406982 76.309261771551974 0 76.309261771551974 121.92737006349489 0 0 0 0 71.248067904612981 4.8661596060628654 0 4.8661596060628654 182.49665423798069 0 0 0 0 58.417768898271333 40.604653359587473 0 40.604653359587473 131.94890122949437 0 0 0 0 98.900116574659478 9.3153626946514123 0 9.3153626946514123 100.49347583333292 0 0 0 0 98.372309574871906 14.10161879487714 0 14.10161879487714 96.656851048210228 0 0 0 0 155.67212168159313 4.9994854741089512 0 4.9994854741089512 36.331279166013701 0 0 0 0 102.33587521094887 22.099484709080571 0 22.099484709080571 30.36616129889444 0 0 0 0 111.92095006597083 -18.426354516952415 0 -18.426354516952415 -20.225406304278295 0 0 0 0 135.55354282530607 7.614534023203305 0 7.614534023203305 -14.197676724026678 0 0 0 0 165.89331464045972 -34.988031183180283 0 -34.988031183180283 44.974343724665232 0 0 0 0 217.80906328588026 -32.368653925266699 0 -32.368653925266699 15.836485399093363 0 0 0 0 87.103031997685321 -59.963612316845683 0 -59.963612316845683 -29.582550390230608 0 0 0 0 36.006882595684147 42.250080796744442 0 42.250080796744442 24.576434929709649 0 0 0 0 -98.243891071484541 -63.023075075405359 0 -63.023075075405359 -11.113585620980302 0 0 0 0 931.2455395800207 -699.48178042405925 0 -699.48178042405925 2026.6810252322493 0 0 0 0 854.40319344618547 -439.79358798593057 0 -439.79358798593057 -640.7850806199549 0 0 0 0 -193.04385524037207 618.1112950945535 0 618.1112950945535 1146.3295970624749 0 0 0 0 24.978809454463772 37.187625836981169 0 37.187625836981169 -52.233597234808258 0 0 0 0 -527.3874498004825 426.61574198266499 0 426.61574198266499 1054.7510903604853 0 0 0 0 122.78980542501085 7.4038087339868071 0 7.4038087339868071 -109.02548965194728 0 0 0 0 205.23714226463926 -84.016252916437224 0 -84.016252916437224 -142.62302285783517 0 0 0 0 190.95310137537984 -84.064954946942891 0 -84.064954946942891 -27.070777783970911 0 0 0 0 -773.63576307292897 642.31837917356552 0 642.31837917356552 1191.2382630111424 0 0 0 0 183.59903491180739 -66.372942702946602 0 -66.372942702946602 -55.705678704282036 0 0 0 0 183.45417684129643 -69.221937031560628 0 -69.221937031560628 42.606552949786419 0 0 0 0 222.4262948288233 -91.493438580277143 0 -91.493438580277143 -1.1074286260281951 0 0 0 0 -1227.2615434730396 -554.77645622345153 0 -554.77645622345153 180.35570681663773 0 0 0 0 141.57535782044579 -31.816936537023139 0 -31.816936537023139 171.47980982234003 0 0 0 0 290.36863644994628 -188.13069481102866 0 -188.13069481102866 -321.01264418892799 0 0 0 0 168.40779289956598 -141.68943515804159 0 -141.68943515804159 6.098121382713237 0 0 0 0 238.06454250594834 -258.7694658327091 0 -258.7694658327091 9.4240236761106644 0 0 0 0 209.40367478496046 -313.15561792264634 0 -313.15561792264634 224.84987915371312 0 0 0 0 6.880010835680153 -42.419768509801351 0 -42.419768509801351 16.343379643945482 0 0 0 0 216.90813281526789 -86.303887697838945 0 -86.303887697838945 221.62586941569089 0 0 0 0 177.21331760245812 -187.93887029871075 0 -187.93887029871075 176.82831215721671 0 0 0 0 227.92572880046646 -117.01334251972548 0 -117.01334251972548 273.69374897904345 0 0 0 0 306.83481426245999 -47.132730447876384 0 -47.132730447876384 60.556070453152643 0 0 0 0 230.77663855603896 -82.132224107159345 0 -82.132224107159345 71.531975981284631 0 0 0 0 222.918896221061 -49.034508663316956 0 -49.034508663316956 53.107793962582946 0 0 0 0 296.46327914620451 -143.37317944398546 0 -143.37317944398546 76.710976379632484 0 0 0 0 140.11467353845364 -97.723628310726781 0 -97.723628310726781 113.11382002098981 0 0 0 0 212.20472044844064 -127.3391250596178 0 -127.3391250596178 118.98707092221593 0 0 0 0 157.79153602238512 -38.005181599233765 0 -38.005181599233765 88.115344602032565 0 0 0 0 179.07749040627095 -45.410284658220917 0 -45.410284658220917 90.691216936742421 0 0 0 0 142.82581840315106 -107.07660773965472 0 -107.07660773965472 133.95860167791398 0 0 0 0 119.41063314216444 -25.218513154728498 0 -25.218513154728498 131.7361353753513 0 0 0 0 59.584077051640634 -104.55698225852757 0 -104.55698225852757 152.96463991839846 0 0 0 0 85.12527849288017 -47.034027439396596 0 -47.034027439396596 167.71058744150287 0 0 0 0 61.66788017640647 -17.576919733113755 0 -17.576919733113755 130.77870944935421 0 0 0 0 86.995653734327789 -167.61556160820783 0 -167.61556160820783 180.03179152425582 0 0 0 0 110.23742858786864 -232.87433855845666 0 -232.87433855845666 119.01565062039481 0 0 0 0 168.73436264428165 -185.5367410255094 0 -185.5367410255094 151.09206557058496 0 0 0 0 80.798573087617115 -155.67029869153703 0 -155.67029869153703 164.18491636671752 0 0 0 0 184.20386617875192 -244.48299210463119 0 -244.48299210463119 -4.6486169535055524 0 0 0 0 158.27877237602661 -247.5672709772407 0 -247.5672709772407 5.999102602381754 0 0 0 0 186.61421716210316 -326.11791312664354 0 -326.11791312664354 85.231431396223343 0 0 0 0 184.64895067115626 -133.76101918664966 0 -133.76101918664966 1.9530395399152463 0 0 0 0 207.10773104611781 -240.4300337861041 0 -240.4300337861041 -117.34870526285522 0 0 0 0 121.05674333363277 -172.2876441982371 0 -172.2876441982371 208.97499684526701 0 0 0 0 202.02098118075833 -155.02262643027552 0 -155.02262643027552 -148.76448056891968 0 0 0 0 179.65710392899177 -278.32652670614561 0 -278.32652670614561 35.825433264537423 0 0 0 0 156.86988420796661 -322.66496801845005 0 -322.66496801845005 146.0290085212655 0 0 0 0 225.01761465803065 -283.0854437008129 0 -283.0854437008129 31.725539672479499 0 0 0 0 293.6782656368805 -257.2715404010869 0 -257.2715404010869 102.37942031970306 0 0 0 0 227.88190780803416 -342.86772018353076 0 -342.86772018353076 153.35916068870574 0 0 0 0 352.78652882970709 -319.91147625590384 0 -319.91147625590384 145.68866443736988 0 0 0 0 608.50770399413614 -361.83018887864637 0 -361.83018887864637 56.931540554345702 0 0 0 0 -10.902924783735674 -22.300485113950227 0 -22.300485113950227 -53.915904283510912 0 0 0 0 -267.89287277105223 -373.0919814660981 0 -373.0919814660981 448.50266881766947 0 0 0 0 -459.90890244490947 -546.98842979322399 0 -546.98842979322399 291.06221080836622 0 0 0 0 565.97880113810061 310.808188845328 0 310.808188845328 -2436.3741595918036 0 0 0 0 -361.3745780363497 -387.19998516602209 0 -387.19998516602209 447.07733672337326 0 0 0 0 26.349840481795699 -51.163054907846565 0 -51.163054907846565 -84.905382222488498 0 0 0 0 335.51174768605597 -139.69512628817392 0 -139.69512628817392 -123.60672687693659 0 0 0 0 286.57075858614735 -307.0935468612297 0 -307.0935468612297 46.716578927684168 0 0 0 0 217.42331918011541 -187.59633533726446 0 -187.59633533726446 -136.34421499179007 0 0 0 0 110.69692875243345 -108.57958475215673 0 -108.57958475215673 16.056159823630878 0 0 0 0 111.3147997459765 -63.390377890459526 0 -63.390377890459526 -2.3747662384585224 0 0 0 0 193.10601522132674 -195.66982146357191 0 -195.66982146357191 106.74969448427146 0 0 0 0 25.294841326540052 -37.798167809649783 0 -37.798167809649783 -7.1046563520158088 0 0 0 0 22.144855123541291 -70.060012529571551 0 -70.060012529571551 -46.452348623288131 0 0 0 0 171.13319809428867 93.100448111781475 0 93.100448111781475 137.73052868257219 0 0 0 0 184.82822818090062 139.67246424372661 0 139.67246424372661 276.20666480185173 0 0 0 0 381.34524435270578 231.99724467742408 0 231.99724467742408 68.684626233509334 0 0 0 0 356.0964555416067 -260.76573385207735 0 -260.76573385207735 -332.45772985671283 0 0 0 0 24.371291093844292 -53.040658537574217 0 -53.040658537574217 -3.9746957824768714 0 0 0 0 -16.799784526461735 -169.24098783467707 0 -169.24098783467707 106.68914336422677 0 0 0 0 -7.7000299984865705 -150.65631885988478 0 -150.65631885988478 51.24704781821589 0 0 0 0 9.5352006883821616 -100.3718293521946 0 -100.3718293521946 13.764357153880709 0 0 0 0 -52.778923412704899 -114.80437106153113 0 -114.80437106153113 174.42547788748925 0 0 0 0 250.1067502091355 -263.89221489857664 0 -263.89221489857664 98.694926954885432 0 0 0 0 -60.372518893888369 -108.78929100587348 0 -108.78929100587348 72.488349175464009 0 0 0 0 199.14913955045137 -149.48952135379358 0 -149.48952135379358 -3.9920511076463994 0 0 0 0 171.52603863373952 75.272873874610013 0 75.272873874610013 -327.57461048926416 0 0 0 0 281.71289035579139 -209.89225811288725 0 -209.89225811288725 -205.04894951622555 0 0 0 0 171.9029057203079 -213.8548587817495 0 -213.8548587817495 -63.154035986935014 0 0 0 0 261.57785533020069 -179.93501573555841 0 -179.93501573555841 -242.67779788977714 0 0 0 0 195.63752924491746 -313.03543431326625 0 -313.03543431326625 -95.749535491639108 0 0 0 0 186.47274473166226 -223.68671539445222 0 -223.68671539445222 118.34715019433497 0 0 0 0 134.71795908714103 -297.31203683510103 0 -297.31203683510103 121.78233825579218 0 0 0 0 -81.966635474290342 -82.29617969549868 0 -82.29617969549868 49.093272800275599 0 0 0 0 156.95433634338406 -285.22042249024526 0 -285.22042249024526 12.426902376500948 0 0 0 0 39.406486791449424 -148.05345166577627 0 -148.05345166577627 84.955649428749894 0 0 0 0 13.066689804163616 -192.49274825425346 0 -192.49274825425346 133.79937197359686 0 0 0 0 -39.619958834628051 -197.29633431160073 0 -197.29633431160073 141.94535051100684 0 0 0 0 -45.633549487514756 -185.78672871006165 0 -185.78672871006165 163.11831307952525 0 0 0 0 -183.85448743846791 -95.664993815718844 0 -95.664993815718844 76.38641242883682 0 0 0 0 -100.47173277257389 -270.85343018430467 0 -270.85343018430467 -21.733795449312311 0 0 0 0 34.15370785743653 -72.198029203752412 0 -72.198029203752412 117.1458896768454 0 0 0 0 81.170461767884262 -123.70169075032572 0 -123.70169075032572 73.953228797420479 0 0 0 0 585.47756750100962 -195.25760704643835 0 -195.25760704643835 -174.79062825100482 0 0 0 0 161.65096545131382 -72.025001331059684 0 -72.025001331059684 69.331952001553873 0 0 0 0 258.57245979368599 -330.99175124709109 0 -330.99175124709109 -135.08559459442768 0 0 0 0 24.827263862633117 10.50864430108777 0 10.50864430108777 -88.982396198545757 0 0 0 0 -5.1971695045759247 0.1677042043909438 0 0.1677042043909438 -0.014319576414656865 0 0 0 0 -221.81828476060764 -192.7204476430652 0 -192.7204476430652 97.853536787559278 0 0 0 0 -147.78824871610959 9.9652002080192688 0 9.9652002080192688 79.981306939873321 0 0 0 0 4.0721117767679971 -22.259849355992628 0 -22.259849355992628 26.596174030467409 0 0 0 0 -17.289634663773541 -86.331226178241195 0 -86.331226178241195 33.660074618670478 0 0 0 0 49.434888537667575 -70.500277653276498 0 -70.500277653276498 -296.21889339978588 0 0 0 0 30.902829675400426 -88.863555291249668 0 -88.863555291249668 84.374109532600414 0 0 0 0 160.42528857693833 -130.11159489408965 0 -130.11159489408965 6.8731738835049327 0 0 0 0 -68.832815276609608 -92.628329827139879 0 -92.628329827139879 52.113455761292073 0 0 0 0 0.014365133618724713 -16.017243785404702 0 -16.017243785404702 3.5510513489868742 0 0 0 0 58.517216180160176 -60.50541410461301 0 -60.50541410461301 56.379537034277746 0 0 0 0 -29.9405206169628 -96.701212727130638 0 -96.701212727130638 37.041543406377059 0 0 0 0 -18.33835683001962 -78.875339774669555 0 -78.875339774669555 48.396244404517347 0 0 0 0 -54.358460328904762 -124.04186359667258 0 -124.04186359667258 55.932203808709048 0 0 0 0 -48.959159873003955 -66.845471659269606 0 -66.845471659269606 -10.799742926537874 0 0 0 0 -58.708362751829554 -88.050011580453429 0 -88.050011580453429 34.408321205177344 0 0 0 0 -82.68476814335736 -40.075243125354973 0 -40.075243125354973 -10.585865432964056 0 0 0 0 0.22356796102042154 -18.448079314076388 0 -18.448079314076388 11.211328469652344 0 0 0 0 -69.919137143002445 -66.936461718409191 0 -66.936461718409191 -39.0523979148129 0 0 0 0 -85.064996170272934 -15.271786664558931 0 -15.271786664558931 -0.92293099511152832 0 0 0 0 -32.767320447432212 -32.533484672332634 0 -32.533484672332634 41.063041202243767 0 0 0 0 -10.363690107536968 15.780632666919701 0 15.780632666919701 71.439880150030149 0 0 0 0 -41.410641043068608 -23.630613655870548 0 -23.630613655870548 27.333323632075917 0 0 0 0 10.56034610688684 -6.5978289953923444 0 -6.5978289953923444 4.5865282995309258 0 0 0 0 -3.9942411022784654 -61.606893309763564 0 -61.606893309763564 -68.660148628187017 0 0 0 0 -12.483008195406001 -96.938434438950935 0 -96.938434438950935 -54.368426682856807 0 0 0 0 2.9158810990270183 -2.5891221394403807 0 -2.5891221394403807 2.4439096680347063 0 0 0 0 295.6722668164075 -18.412037691810838 0 -18.412037691810838 -91.755631401156279 0 0 0 0 -6.3802921768146916 -26.593434606969822 0 -26.593434606969822 419.78546437784826 0 0 0 0 311.65115516204787 -238.81821729264186 0 -238.81821729264186 -302.48586329052341 0 0 0 0 80.018943401548313 -234.70090208999864 0 -234.70090208999864 -64.759445404739381 0 0 0 0 66.773107624168915 -166.78549645096791 0 -166.78549645096791 82.277263345495157 0 0 0 0 361.73511015194163 -510.48475290982606 0 -510.48475290982606 250.78104477456509 0 0 0 0 -2591.7196677325101 -497.37220222131145 0 -497.37220222131145 803.36273427527703 0 0 0 0 -3.5752629638313564 -11.201329185218215 0 -11.201329185218215 -15.245518727160061 0 0 0 0 1370.3949459922442 -862.36769070755872 0 -862.36769070755872 -105.65554611160042 0 0 0 0 357.83877724813283 -357.83647387060046 0 -357.83647387060046 276.93554288172163 0 0 0 0 527.10391724804322 -277.46589781278635 0 -277.46589781278635 263.70405689875042 0 0 0 0 242.57994885648168 -318.92718753267582 0 -318.92718753267582 363.22106664136663 0 0 0 0 126.5198332088039 -345.82797020557337 0 -345.82797020557337 371.38486111616567 0 0 0 0 248.14382976849629 -246.81443557828243 0 -246.81443557828243 176.97186968819551 0 0 0 0 -114.64266843458927 -123.7403545478428 0 -123.7403545478428 351.02343714520248 0 0 0 0 219.5219230511193 -328.65176391775094 0 -328.65176391775094 142.70794215983733 0 0 0 0 -31.443886421220817 -16.618664832885401 0 -16.618664832885401 13.226282164925351 0 0 0 0 193.911496233035 -155.41461818775133 0 -155.41461818775133 1.3608696972005419 0 0 0 0 134.64170054013812 -87.873702074619359 0 -87.873702074619359 29.740378708942444 0 0 0 0 -116.97378547213521 -39.047659294199548 0 -39.047659294199548 31.941089977714 0 0 0 0 -44.393159748090753 -43.995531981081228 0 -43.995531981081228 22.707336526843775 0 0 0 0 275.21476415039797 -347.18177796476266 0 -347.18177796476266 145.63520599202457 0 0 0 0 50.754487549325859 -171.2330857509005 0 -171.2330857509005 148.62449131705171 0 0 0 0 -49.494162493801014 -148.15796963667526 0 -148.15796963667526 212.34736745066039 0 0 0 0 42.672393118011314 48.271075977127111 0 48.271075977127111 188.49169919191627 0 0 0 0 -208.23922557250989 -350.28292782471908 0 -350.28292782471908 -371.24436441568469 0 0 0 0 -4.6699547211349923 -0.40323599608207417 0 -0.40323599608207417 1.8263196309682854 0 0 0 0 -86.493358826271901 -82.532129565130333 0 -82.532129565130333 30.929528710294534 0 0 0 0 -163.46680276231928 -32.646919716162301 0 -32.646919716162301 12.80971424058589 0 0 0 0 200.48627973552084 -160.36697937005374 0 -160.36697937005374 -16.623418857037905 0 0 0 0 16.351402548936562 -31.766864554510391 0 -31.766864554510391 3.1119275699767712 0 0 0 0 -159.2148848179786 -69.01290072246411 0 -69.01290072246411 41.455722472581328 0 0 0 0 -507.59038361931925 -478.5787611228443 0 -478.5787611228443 370.73284566184157 0 0 0 0 -562.61619061073361 -239.08388632736751 0 -239.08388632736751 184.42143058800167 0 0 0 0 -596.73471365020669 -312.24310433152277 0 -312.24310433152277 486.31461548351945 0 0 0 0 -258.35885503132158 -348.42767609619659 0 -348.42767609619659 -57.045507240894949 0 0 0 0 28.621427340392984 -688.96389952656318 0 -688.96389952656318 341.33149333026086 0 0 0 0 265.62446425391499 -716.99302215860007 0 -716.99302215860007 -68.389675957580039 0 0 0 0 -214.80865843534775 -513.07425116846935 0 -513.07425116846935 255.17255115191983 0 0 0 0 -715.23700790084513 -912.34495032996347 0 -912.34495032996347 304.71545882082137 0 0 0 0 -770.91411782180512 -53.54441627111737 0 -53.54441627111737 1165.8075181053064 0 0 0 0 107.40114403666666 -1048.8243898794926 0 -1048.8243898794926 -86.974493471847381 0 0 0 0 -76.232009799889056 -143.19417944762245 0 -143.19417944762245 876.22162086277967 0 0 0 0 175.86935505549081 -217.41790787649006 0 -217.41790787649006 762.93762503426115 0 0 0 0 203.63575528106594 -6.9652461334189866 0 -6.9652461334189866 36.730514246464736 0 0 0 0 -3.4506370779030311 -0.57695939134245577 0 -0.57695939134245577 3.5300847206970616 0 0 0 0 126.6277403374097 -373.36343297923668 0 -373.36343297923668 529.71027460928599 0 0 0 0 -28.873762047237506 -23.010482198762475 0 -23.010482198762475 17.005222082778346 0 0 0 0 -1.9210525504798923 -8.3593921326412186 0 -8.3593921326412186 -3.3090621001818832 0 0 0 0 -25.881210984937752 -25.708104356293916 0 -25.708104356293916 -8.1616649478310137 0 0 0 0 0.48549401089974653 -4.2819801887495679 0 -4.2819801887495679 7.8575073953732613 0 0 0 0 -265.54146684507668 47.333056013590976 0 47.333056013590976 -85.624714199606387 0 0 0 0 -193.32116989523365 -4.9936688275520282 0 -4.9936688275520282 -71.537116213381523 0 0 0 0 -353.2213331016319 -4.9166703439950652 0 -4.9166703439950652 -9.8020600581003237 0 0 0 0 -218.7879352971313 -221.23275512925102 0 -221.23275512925102 174.93958164251671 0 0 0 0 -5.5737259201915101 -4.081073627775865 0 -4.081073627775865 1.1204147796471275 0 0 0 0 -412.64729797840118 470.98990800257889 0 470.98990800257889 -61.836873477797781 0 0 0 0 10.024595063638117 134.3435545646862 0 134.3435545646862 722.69048669048243 0 0 0 0 52.794741182246071 -364.3803495438915 0 -364.3803495438915 -500.62276083423785 0 0 0 0 -796.84569313211523 241.58019643736043 0 241.58019643736043 292.94586485833861 0 0 0 0 -210.342158559768 -6.3628444572386798 0 -6.3628444572386798 27.511515253390826 0 0 0 0 -76.280116823204253 -87.89008715740755 0 -87.89008715740755 24.156787955940786 0 0 0 0 -128.32281188453635 -29.16933580677869 0 -29.16933580677869 -8.1901906268758466 0 0 0 0 -155.13105522478872 -97.408947109074688 0 -97.408947109074688 36.090957038293709 0 0 0 0 -51.854463633115337 2.1588665915208267 0 2.1588665915208267 1.7208837798717411 0 0 0 0 -78.365336595337325 -90.479981319497995 0 -90.479981319497995 23.790015131570456 0 0 0 0 -221.04444675324703 -4.7827885977576443 0 -4.7827885977576443 23.142879909173644 0 0 0 0 -395.93896123472223 -2.9689146691307542 0 -2.9689146691307542 299.31540897313459 0 0 0 0 -153.6103222399106 -70.021457175262185 0 -70.021457175262185 -10.390999776192984 0 0 0 0 -352.31231656441378 -32.116154709548937 0 -32.116154709548937 54.197060394333676 0 0 0 0 -53.546322503090295 -0.80343670976024839 0 -0.80343670976024839 10.296868861425864 0 0 0 0 11.804560822463827 -78.238728775137133 0 -78.238728775137133 -23.069937499058142 0 0 0 0 -121.00102887058529 -20.748940030402082 0 -20.748940030402082 29.118980658866349 0 0 0 0 45.207786634549848 -131.27588480906707 0 -131.27588480906707 -20.892770564605598 0 0 0 0 70.77483753339402 -51.345986193704448 0 -51.345986193704448 191.58838687841853 0 0 0 0 -87.348991001796094 -109.1630682111645 0 -109.1630682111645 44.315954844533735 0 0 0 0 -25.928221882073558 -11.260309200508345 0 -11.260309200508345 -34.369602725479126 0 0 0 0 -165.45214232593207 42.785584171469054 0 42.785584171469054 -14.442276978064911 0 0 0 0 -258.6100927525913 -31.197522315205788 0 -31.197522315205788 -36.202773950441042 0 0 0 0 -49.527124344866053 -93.098980351871717 0 -93.098980351871717 16.686072957535004 0 0 0 0 -227.21108916613321 0.028833038868469885 0 0.028833038868469885 -26.086518671785598 0 0 0 0 -21.514734226070793 -2.1415437962929289 0 -2.1415437962929289 -7.6832992653483529 0 0 0 0 -112.32881431675105 -45.19260357906569 0 -45.19260357906569 -21.924437503497757 0 0 0 0 -144.75479806699786 -82.923997159132341 0 -82.923997159132341 -17.820426766855235 0 0 0 0 -85.226171865134347 -97.114623607274552 0 -97.114623607274552 -47.039940521077369 0 0 0 0 -70.063262474017392 -106.98477970770182 0 -106.98477970770182 -47.243268906844605 0 0 0 0 -39.72825862575769 -66.378488539310069 0 -66.378488539310069 -58.576897624589037 0 0 0 0 -37.479349604281197 -17.952305453352778 0 -17.952305453352778 -13.339205330878031 0 0 0 0 -265.29659193379575 -63.385470675279066 0 -63.385470675279066 9.9954892251262208 0 0 0 0 -441.08277509118579 -24.100294291190039 0 -24.100294291190039 9.8731114670372335 0 0 0 0 -78.404490833378077 -90.779547512898063 0 -90.779547512898063 18.524641738508677 0 0 0 0 -255.05899967963251 -10.73754595196624 0 -10.73754595196624 41.397208509632037 0 0 0 0 415.56045762145368 -264.42984605117817 0 -264.42984605117817 56.317968071183714 0 0 0 0 165.91546451460454 -281.05784039172067 0 -281.05784039172067 213.38104582048254 0 0 0 0 123.74084419006249 -253.15216589929332 0 -253.15216589929332 198.52112188153114 0 0 0 0 -0.20928780482622145 -1.6856786281189926 0 -1.6856786281189926 3.2003673346381021 0 0 0 0 -422.2899518053855 176.77126397651409 0 176.77126397651409 660.32356530459947 0 0 0 0 45.346734312923218 -197.43325474245648 0 -197.43325474245648 227.63499037863949 0 0 0 0 43.681580690388728 -169.8530270481989 0 -169.8530270481989 109.47507303354359 0 0 0 0 94.167904261586955 -279.1376449727386 0 -279.1376449727386 340.75370577260765 0 0 0 0 98.508630235381133 -244.13073079471724 0 -244.13073079471724 124.4999895694782 0 0 0 0 95.537070771184517 -232.20804925374614 0 -232.20804925374614 77.067196715501268 0 0 0 0 151.83169890342106 -244.42577869181332 0 -244.42577869181332 118.27103807568346 0 0 0 0 18.37815913407394 -190.79481475805369 0 -190.79481475805369 136.9631431299058 0 0 0 0 -24.862992012756877 -144.22988373348562 0 -144.22988373348562 176.97323909165425 0 0 0 0 -69.066862972766103 -91.854636587515415 0 -91.854636587515415 6.9012012800994853 0 0 0 0 -72.256976325246796 -74.212314609617351 0 -74.212314609617351 88.409457926656614 0 0 0 0 23.703484123328053 -166.73914889898583 0 -166.73914889898583 45.922758128348505 0 0 0 0 62.177246282371925 -188.99945843881324 0 -188.99945843881324 16.644456879137579 0 0 0 0 -22.887181801706902 -171.3444718307419 0 -171.3444718307419 71.607371305684865 0 0 0 0 243.0162493877142 -260.2882035738603 0 -260.2882035738603 40.957575557612472 0 0 0 0 74.190044020710957 -239.70903446154034 0 -239.70903446154034 88.215117819807347 0 0 0 0 -106.12228212773334 -148.92032129350082 0 -148.92032129350082 94.405418295320487 0 0 0 0 81.281124089720834 -214.10083713462154 0 -214.10083713462154 116.8734477755861 0 0 0 0 182.68762302831601 -98.147565816056158 0 -98.147565816056158 4.2236855794399162 0 0 0 0 75.838890291070584 -123.62195290385682 0 -123.62195290385682 -1.7527164032217115 0 0 0 0 172.31517726037237 -156.56628431460808 0 -156.56628431460808 1.6619863630039617 0 0 0 0 175.50184968282883 -130.02173763813062 0 -130.02173763813062 -56.524940336370491 0 0 0 0 212.03245441100444 -227.60435141117523 0 -227.60435141117523 13.308000941735372 0 0 0 0 158.59599263817654 -170.45178842742098 0 -170.45178842742098 15.109282765799435 0 0 0 0 170.28211619954527 -201.16415246892211 0 -201.16415246892211 41.945372821224737 0 0 0 0 126.7598573548421 -269.95812965868117 0 -269.95812965868117 239.32061941852953 0 0 0 0 387.18389814020702 -2.9580121181261347 0 -2.9580121181261347 19.691340556666546 0 0 0 0 48.236548672575736 -38.182518115199855 0 -38.182518115199855 16.158792847425502 0 0 0 0 -184.04260489987064 -23.907428418040581 0 -23.907428418040581 428.78491645751637 0 0 0 0 -711.73952081489188 -248.77819825351708 0 -248.77819825351708 212.60485814408821 0 0 0 0 -170.10252831291291 -74.926086145524096 0 -74.926086145524096 -203.39636706410965 0 0 0 0 -2.326630024559563 -295.88079996337001 0 -295.88079996337001 186.58910945920798 0 0 0 0 764.51654888647681 101.53248680864908 0 101.53248680864908 180.65632169754826 0 0 0 0 2.7325017876759432 -3.9721426143432339 0 -3.9721426143432339 1.5769499555287183 0 0 0 0 -22.767659330456809 -148.39487844383075 0 -148.39487844383075 293.03070139806368 0 0 0 0 185.62760374952632 -161.37465173564669 0 -161.37465173564669 -86.149788404836727 0 0 0 0 113.70744239335909 -321.87613167996278 0 -321.87613167996278 -174.31893946095079 0 0 0 0 209.59407718003786 -81.142995428883296 0 -81.142995428883296 -672.71053190113628 0 0 0 0 101.12895727593423 -476.40492420004739 0 -476.40492420004739 -661.75830786862934 0 0 0 0 -352.45106541650603 -1020.024197410974 0 -1020.024197410974 -28.313752660038404 0 0 0 0 -895.42947545374773 883.32923992102496 0 883.32923992102496 -77.536639005207689 0 0 0 0 7.7828858939765411 -8.2472875954122458 0 -8.2472875954122458 6.8158136184064517 0 0 0 0 -902.95827355598158 -390.44509547268353 0 -390.44509547268353 50.656142775398621 0 0 0 0 -312.80815464616171 -566.20457669718962 0 -566.20457669718962 -129.49789537230936 0 0 0 0 683.65908617544846 472.64676918688201 0 472.64676918688201 -255.79952456440151 0 0 0 0 -155.8557213324948 -20.046843597031511 0 -20.046843597031511 -185.07050005034398 0 0 0 0 223.14975452220096 -415.21742185856601 0 -415.21742185856601 -88.773019021224172 0 0 0 0 -128.98481724164594 -253.29987398903359 0 -253.29987398903359 -38.511822802087408 0 0 0 0 -468.12540755764348 189.4669947049897 0 189.4669947049897 -343.63115191480028 0 0 0 0 330.72131845189142 -403.61304727057723 0 -403.61304727057723 -797.84854052238734 0 0 0 0 0.31529898383450927 -496.08266610383362 0 -496.08266610383362 201.76240578392026 0 0 0 0 112.82207234917587 -177.48257801990985 0 -177.48257801990985 -163.76078722823149 0 0 0 0 120.90527597863547 -135.27995032812396 0 -135.27995032812396 8.2656946430546441 0 0 0 0 131.20130700609661 -195.92083002806521 0 -195.92083002806521 -181.13396670836664 0 0 0 0 1.4202663612833106 -1.2901313993505639 0 -1.2901313993505639 4.8025795437114027 0 0 0 0 -101.67002686478372 -71.88362160415636 0 -71.88362160415636 147.49468512010935 0 0 0 0 490.89274262324943 109.03317646146206 0 109.03317646146206 -55.863166359005845 0 0 0 0 -234.65791111189083 -132.74914914750025 0 -132.74914914750025 39.755278980286676 0 0 0 0 -471.62687582236322 -51.750538401887752 0 -51.750538401887752 12.945836740065715 0 0 0 0 -2.3596335375143234 -100.99318952489247 0 -100.99318952489247 -2.6439631452945918 0 0 0 0 -170.75325236545632 -174.16107184164503 0 -174.16107184164503 23.271337566540751 0 0 0 0 -33.998793514811041 -103.11433003163802 0 -103.11433003163802 -10.608055061165942 0 0 0 0 -148.15049866903792 -105.70823997323168 0 -105.70823997323168 -8.4604735430148139 0 0 0 0 -176.66093341254873 -60.840013172164618 0 -60.840013172164618 -34.416664221542305 0 0 0 0 -74.567757699536742 -107.15156425208988 0 -107.15156425208988 -48.051408813618764 0 0 0 0 -54.154008253080974 -70.96012073394013 0 -70.96012073394013 -27.896228086661722 0 0 0 0 -103.99799574674762 -124.089604242723 0 -124.089604242723 -57.793281936377753 0 0 0 0 -138.72822266749972 -79.588483264109527 0 -79.588483264109527 -27.843381465689163 0 0 0 0 -131.35800407146235 -89.894100583822365 0 -89.894100583822365 -96.521708288084483 0 0 0 0 -133.13339055106553 -86.136659189614875 0 -86.136659189614875 -38.791654597822344 0 0 0 0 -420.13519966947933 -65.532091481081807 0 -65.532091481081807 12.733172044994717 0 0 0 0 -236.61466171296343 -121.57579547659861 0 -121.57579547659861 -20.795245664288814 0 0 0 0 -367.56997102047899 -147.66732776226127 0 -147.66732776226127 -41.43109912431828 0 0 0 0 20.312244246399768 3.9727279531082598 0 3.9727279531082598 -6.9431126521972999 0 0 0 0 -260.97161062861869 -112.98232838097965 0 -112.98232838097965 190.98120605573058 0 0 0 0 192.47641851184744 -165.11337484525575 0 -165.11337484525575 -72.173003698178945 0 0 0 0 2.3363419591936676 -3.0382209536043376 0 -3.0382209536043376 7.7883209391900721 0 0 0 0 361.15385924737348 -473.82449058042585 0 -473.82449058042585 278.8734225557746 0 0 0 0 148.62050232234105 -216.08351244795995 0 -216.08351244795995 220.26764823089616 0 0 0 0 41.662715542523074 -278.6652545861798 0 -278.6652545861798 278.35124159137195 0 0 0 0 -485.77545915854762 -35.11229246403127 0 -35.11229246403127 94.251619849870622 0 0 0 0 -0.24830630144134247 -1.0190599637148523 0 -1.0190599637148523 3.1074801115977948 0 0 0 0 73.39540975431737 -422.0022436370582 0 -422.0022436370582 340.83484981456422 0 0 0 0 320.71954763598478 -349.10440522527279 0 -349.10440522527279 159.90848130577069 0 0 0 0 36.417274899625227 -505.87245829928997 0 -505.87245829928997 127.66239622428111 0 0 0 0 -30.532319283054676 -368.06873944906692 0 -368.06873944906692 -64.921514244830178 0 0 0 0 86.955117589553993 -192.82790390827267 0 -192.82790390827267 81.638334714793018 0 0 0 0 160.35628696595813 -358.52479679415774 0 -358.52479679415774 71.250671255336783 0 0 0 0 22.974907938172692 -99.492560800392312 0 -99.492560800392312 -264.0286111751011 0 0 0 0 203.28504577862623 -239.15743556693269 0 -239.15743556693269 -457.93187227637827 0 0 0 0 221.09843122017628 -229.17929548914435 0 -229.17929548914435 -539.3798480789701 0 0 0 0 62.474203227098769 -305.79286656840486 0 -305.79286656840486 -335.70955002314804 0 0 0 0 -184.42124117541925 -102.39993645053141 0 -102.39993645053141 28.300392819473927 0 0 0 0 -31.853928135883436 -21.372722138383498 0 -21.372722138383498 1.2824983840194619 0 0 0 0 -142.29104655023548 -344.7464492624822 0 -344.7464492624822 -17.512668450126512 0 0 0 0 33.264990515331903 -99.522516462978871 0 -99.522516462978871 -20.760371322647615 0 0 0 0 -92.547341613657409 -85.165834012799678 0 -85.165834012799678 179.02114613668527 0 0 0 0 -99.767573515386175 -43.331977170233586 0 -43.331977170233586 -29.332461345442425 0 0 0 0 0.65014157188693744 -0.75541227030763025 0 -0.75541227030763025 -0.35637921435477438 0 0 0 0 50.524029102562054 -86.631003030535794 0 -86.631003030535794 -53.75968188955585 0 0 0 0 -28.484203422120117 -54.395134285079621 0 -54.395134285079621 -38.317064573504467 0 0 0 0 33.063811336691288 -20.72027158137098 0 -20.72027158137098 -49.886901996776032 0 0 0 0 31.050217928612255 -45.52886445565764 0 -45.52886445565764 10.902247792359049 0 0 0 0 24.639653066826277 -8.8758873428163128 0 -8.8758873428163128 4.8575463206369918 0 0 0 0 34.383513590066286 -46.620370004966389 0 -46.620370004966389 7.8096618165945983 0 0 0 0 8.3227058327374834 -38.091448286520972 0 -38.091448286520972 49.609751946718461 0 0 0 0 15.444650915782404 -51.423558052604676 0 -51.423558052604676 58.714186965247791 0 0 0 0 3.4515997596208763 -37.00549536386643 0 -37.00549536386643 49.914703944588837 0 0 0 0 77.187035654053034 -15.619359449552576 0 -15.619359449552576 7.3824706178129418 0 0 0 0 46.311959608978214 -110.01616863824893 0 -110.01616863824893 45.527545467994059 0 0 0 0 -10.554615894048766 -37.002624313470733 0 -37.002624313470733 115.60556363370051 0 0 0 0 20.371625072115421 -50.445371521976995 0 -50.445371521976995 -14.760830737497599 0 0 0 0 -46.581741604340095 -89.571428614327488 0 -89.571428614327488 -11.559302306115569 0 0 0 0 34.735956678709044 -33.022287351130217 0 -33.022287351130217 7.1371497790923968 0 0 0 0 0.9602327297852753 -41.189763943501021 0 -41.189763943501021 50.358066394495836 0 0 0 0 62.888255143554488 -66.64390631200331 0 -66.64390631200331 36.351652004999778 0 0 0 0 41.80226229012078 -7.9784964345089975 0 -7.9784964345089975 41.176454388412822 0 0 0 0 -5.5444469613357796 -47.602898779223324 0 -47.602898779223324 10.193429139583714 0 0 0 0 -44.964503282495571 -93.742148855872074 0 -93.742148855872074 -1.4981014788445464 0 0 0 0 -35.910257366194855 -87.985888760129455 0 -87.985888760129455 -15.507842552927968 0 0 0 0 -53.238971306629537 -118.9495574988905 0 -118.9495574988905 -45.687558388033722 0 0 0 0 7.8835322142549558 -66.381266469513321 0 -66.381266469513321 -23.702266555003007 0 0 0 0 46.742544615817678 -9.2708657895327633 0 -9.2708657895327633 118.79236608589781 0 0 0 0 55.642117422503361 -7.6215823783677479 0 -7.6215823783677479 -5.8446333273896016 0 0 0 0 95.84990317717893 -33.085035119223903 0 -33.085035119223903 -17.252851859276234 0 0 0 0 -13.274024179154367 -50.604983901464948 0 -50.604983901464948 -69.600824378172547 0 0 0 0 98.520141374596278 -8.6836364082319051 0 -8.6836364082319051 -125.08905408109786 0 0 0 0 117.65152122409563 16.579538390844391 0 16.579538390844391 -68.034074706003594 0 0 0 0 78.92711879710896 -126.15080642334851 0 -126.15080642334851 -415.01767686304083 0 0 0 0 115.02973739507433 -245.98206439838395 0 -245.98206439838395 -42.145471064082813 0 0 0 0 1.9906646157833165 -86.850476308040015 0 -86.850476308040015 260.89436591621779 0 0 0 0 -546.51245773077608 -297.19321173654316 0 -297.19321173654316 -612.36128922204807 0 0 0 0 4.7501744304362745 -5.2147797923215649 0 -5.2147797923215649 1.9960625174525148 0 0 0 0 115.99671488102285 -961.60921127519759 0 -961.60921127519759 -1372.7209589412923 0 0 0 0 -549.05171780360251 -110.337411449098 0 -110.337411449098 -289.95082437593737 0 0 0 0 -689.55218905768197 -591.32827853326671 0 -591.32827853326671 -426.76607188833441 0 0 0 0 -261.33790950946423 -383.57460447400808 0 -383.57460447400808 555.44862929549708 0 0 0 0 -43.648307694497227 -8.2252837386618722 0 -8.2252837386618722 18.272868166133449 0 0 0 0 -1089.1757981213814 -114.64177706257033 0 -114.64177706257033 636.8588440040694 0 0 0 0 -220.0230045528333 -388.83780570477757 0 -388.83780570477757 -499.44979453861015 0 0 0 0 -395.19006066631118 373.79074556872365 0 373.79074556872365 587.44408612112329 0 0 0 0 -850.30467701773887 -241.38100566877984 0 -241.38100566877984 704.1031876901252 0 0 0 0 -335.51929163983368 -763.58838944305535 0 -763.58838944305535 -943.25561204629776 0 0 0 0 -239.72002643335145 -314.07724099029656 0 -314.07724099029656 -716.10025959697123 0 0 0 0 -379.96159975167757 -404.97129554501043 0 -404.97129554501043 -321.3545411775558 0 0 0 0 -151.26576176725212 -264.29280301656036 0 -264.29280301656036 -503.90117938627918 0 0 0 0 -350.51447780905437 -164.44079621585479 0 -164.44079621585479 -206.12418552846066 0 0 0 0 -12.750664477979043 -31.317314586397146 0 -31.317314586397146 19.202146097110443 0 0 0 0 0.27073165185356629 -53.081714974934584 0 -53.081714974934584 10.452121529127908 0 0 0 0 -43.949039648279722 -53.698264742135507 0 -53.698264742135507 10.044494657784526 0 0 0 0 -5.245911539044755 -432.97136717467947 0 -432.97136717467947 55.678204207324598 0 0 0 0 22.088654552717305 -21.966674529186172 0 -21.966674529186172 1.5245605559579616 0 0 0 0 -272.96867842922074 -391.11576272911407 0 -391.11576272911407 74.808315083922935 0 0 0 0 -37.843219413069164 99.648886737864814 0 99.648886737864814 -184.0286655186319 0 0 0 0 452.20437089479674 0.042146701314777602 0 0.042146701314777602 -179.87824338979408 0 0 0 0 -368.87374901683506 -470.30992495009923 0 -470.30992495009923 -337.65770658297697 0 0 0 0 -221.0237787559854 -4.232193906660541 0 -4.232193906660541 132.97502760031148 0 0 0 0 -398.0195605304616 -449.27629192059248 0 -449.27629192059248 -327.19434933237426 0 0 0 0 -65.99129916668403 -9.2510139015889621 0 -9.2510139015889621 24.385845364120897 0 0 0 0 -19.968821558013587 -79.645647922730859 0 -79.645647922730859 -14.101585681528377 0 0 0 0 14.093816531996097 -34.377741567216134 0 -34.377741567216134 8.4456693556821278 0 0 0 0 -642.32025427204644 -432.66603933714214 0 -432.66603933714214 -314.79809614101396 0 0 0 0 4.355604906122549 -7.0276081820965715 0 -7.0276081820965715 -10.119904919693496 0 0 0 0 -1122.9338958274639 -364.96351969555235 0 -364.96351969555235 -101.88622596641653 0 0 0 0 -64.220608798408648 28.016287680424284 0 28.016287680424284 27.525742996236659 0 0 0 0 -317.17081751113437 -528.15732275833943 0 -528.15732275833943 -304.82247966834257 0 0 0 0 -123.34572014315927 -525.17825233961958 0 -525.17825233961958 -319.96138896050616 0 0 0 0 -298.9283707236691 -444.17108735826969 0 -444.17108735826969 -333.4673549395884 0 0 0 0 -327.22737727437743 -329.35687228729694 0 -329.35687228729694 -12.157391787208326 0 0 0 0 168.84539357078756 -276.98450034942653 0 -276.98450034942653 -131.41733904329158 0 0 0 0 -207.17437486969084 -733.49755991754955 0 -733.49755991754955 -540.60237709584908 0 0 0 0 -907.6418603159982 -680.68766486310597 0 -680.68766486310597 -206.46832354126673 0 0 0 0 55.649738695425185 -63.132297645435756 0 -63.132297645435756 -245.93788898961066 0 0 0 0 148.53692051576945 -99.96301592153759 0 -99.96301592153759 -126.77381242972888 0 0 0 0 -249.21850387134691 -168.94308271493719 0 -168.94308271493719 -117.39984303364326 0 0 0 0 -92.979148545986391 -198.46726232865331 0 -198.46726232865331 -162.10027416709272 0 0 0 0 -56.736872839290299 -320.59286646004693 0 -320.59286646004693 -359.59973565889413 0 0 0 0 270.25824627712427 -89.276485462589335 0 -89.276485462589335 -1.5113669729321373 0 0 0 0 -122.87495795997165 -254.88343360628278 0 -254.88343360628278 -14.834077499537671 0 0 0 0 -6.3428995757676603 -16.751601047391887 0 -16.751601047391887 111.07247564607678 0 0 0 0 207.99115562444058 -59.281785621824383 0 -59.281785621824383 108.66617775978557 0 0 0 0 30.845038989418754 -125.4553540686702 0 -125.4553540686702 529.86427854129579 0 0 0 0 247.90246620766629 70.034927034892462 0 70.034927034892462 624.69512380524975 0 0 0 0 380.03292422222421 -424.47425086538351 0 -424.47425086538351 655.08578625277732 0 0 0 0 -53.376668330365646 -145.73514907114622 0 -145.73514907114622 530.60622566650272 0 0 0 0 185.45071265920706 -160.9133107647358 0 -160.9133107647358 1629.9839631713348 0 0 0 0 259.15452620707219 -808.3658449586419 0 -808.3658449586419 1515.4833097642459 0 0 0 0 -107.74534597755701 -67.202003071619401 0 -67.202003071619401 751.45639935660211 0 0 0 0 -475.4442642005597 143.64481006496499 0 143.64481006496499 -316.81376133676531 0 0 0 0 -391.04637273482513 -384.02003412361228 0 -384.02003412361228 728.20788478004397 0 0 0 0 -119.05715216314275 -12.628187176123902 0 -12.628187176123902 1573.5204112330612 0 0 0 0 -55.434448225274082 -442.18662493862394 0 -442.18662493862394 1357.8442580016708 0 0 0 0 138.77660905935772 77.641503883955011 0 77.641503883955011 1612.7167809382117 0 0 0 0 -13.711441586572619 -661.97714617090605 0 -661.97714617090605 1810.121213143284 0 0 0 0 -117.83853368419659 -429.20349248443745 0 -429.20349248443745 1403.8113805107714 0 0 0 0 -658.10767189109174 -665.8568999133222 0 -665.8568999133222 1357.8466289236239 0 0 0 0 -167.26907163602664 189.6372685781871 0 189.6372685781871 2920.9058093681087 0 0 0 0 -222.69414184565358 -110.48302247565607 0 -110.48302247565607 1501.281080270448 0 0 0 0 -0.19030365561397389 -3.1990276616891435 0 -3.1990276616891435 -2.0241053834036791 0 0 0 0 -118.3353355086474 -220.2654928320917 0 -220.2654928320917 2324.2361117624241 0 0 0 0 12.174442561447833 -21.835090432305321 0 -21.835090432305321 8.2658704671932135 0 0 0 0 57.850723831739742 -361.60895266792068 0 -361.60895266792068 2279.1846934257192 0 0 0 0 -675.15986784326014 -378.30851100321161 0 -378.30851100321161 272.0438224546524 0 0 0 0 -852.37378885657768 -1043.1248777462952 0 -1043.1248777462952 -697.02537040343304 0 0 0 0 -115.10425715062593 -437.51919415031807 0 -437.51919415031807 -251.9019299048814 0 0 0 0 -1004.2407769233114 58.424156536111923 0 58.424156536111923 -275.36724071376375 0 0 0 0 117.24661103161634 -297.0337957980737 0 -297.0337957980737 -189.03636369639571 0 0 0 0 87.875097407795693 -1083.1879568954027 0 -1083.1879568954027 -1284.207842915599 0 0 0 0 -293.68548253451445 -72.427737138219527 0 -72.427737138219527 3201.7543533553689 0 0 0 0 2.1208962283835717 -8.8999480171617762 0 -8.8999480171617762 2.2975171606411902 0 0 0 0 -163.04819302746364 -603.349180053488 0 -603.349180053488 -550.25645871787128 0 0 0 0 210.01983254767765 -546.08855791605311 0 -546.08855791605311 -2.5496664710553887 0 0 0 0 34.519004947411759 -1133.8958578062056 0 -1133.8958578062056 359.30204089796098 0 0 0 0 155.61977653454778 -738.65488643768913 0 -738.65488643768913 693.61633810461171 0 0 0 0 443.72878994488019 -599.70750785745622 0 -599.70750785745622 437.56534874205136 0 0 0 0 142.77183881731617 -705.99655676490147 0 -705.99655676490147 662.52927672799706 0 0 0 0 447.96936008534067 -623.64861736698094 0 -623.64861736698094 418.92031696127378 0 0 0 0 362.51180217284127 -782.22496594773838 0 -782.22496594773838 335.70943350653579 0 0 0 0 325.25392844476846 -370.19979749439517 0 -370.19979749439517 335.8795562335431 0 0 0 0 873.09091177267146 -434.2388174362477 0 -434.2388174362477 325.36047535350372 0 0 0 0 57.900976616912885 -179.37240855883283 0 -179.37240855883283 477.62993241002914 0 0 0 0 484.02172314996642 -139.20695972696558 0 -139.20695972696558 465.49963713612669 0 0 0 0 1.019888649151838 -5.6399284602472122 0 -5.6399284602472122 -4.977325438567604 0 0 0 0 9.6833478271473723 -25.876811617996282 0 -25.876811617996282 -25.519310329887958 0 0 0 0 400.00293902534304 -323.41933555725336 0 -323.41933555725336 179.42095054322635 0 0 0 0 6.6712289646275167 -55.454720127894689 0 -55.454720127894689 -93.489923088931391 0 0 0 0 39.45077156545085 -78.217927402169153 0 -78.217927402169153 -77.991731826321484 0 0 0 0 37.528332378739947 -32.829673814629075 0 -32.829673814629075 -381.12245172938856 0 0 0 0 -20.379188943421696 -105.08801925354442 0 -105.08801925354442 -89.598831019080535 0 0 0 0 -25.802277681141277 -75.993693098880613 0 -75.993693098880613 -52.172397198541148 0 0 0 0 -29.15087123199919 -135.71874784185275 0 -135.71874784185275 -56.882707641289016 0 0 0 0 -45.438381047385519 -101.21270502965217 0 -101.21270502965217 101.05395275539922 0 0 0 0 7.8818885024684278 -253.90882779324602 0 -253.90882779324602 -109.8799712635082 0 0 0 0 7.0051517560295906 -268.83888449832921 0 -268.83888449832921 509.89841277562482 0 0 0 0 105.44278705652414 78.579302617038593 0 78.579302617038593 201.25985443095851 0 0 0 0 159.81861317103517 -360.91106569437216 0 -360.91106569437216 332.05505347719372 0 0 0 0 1.7415390598584821 -3.2449579202261702 0 -3.2449579202261702 -2.6520146077145696 0 0 0 0 -178.69236265638756 314.58013221607098 0 314.58013221607098 -1483.8901475231105 0 0 0 0 163.6160266615334 -94.529207502399004 0 -94.529207502399004 22.169488529149021 0 0 0 0 -5.8090496704876955 -4.8765465600491069 0 -4.8765465600491069 -2.0555638408660641 0 0 0 0 192.96862230311672 596.2378705214287 0 596.2378705214287 -2724.9873604001987 0 0 0 0 -68.655627229105448 -378.95136930188164 0 -378.95136930188164 105.02233504647381 0 0 0 0 251.17986172775272 7.227739748715976 0 7.227739748715976 108.65825677106639 0 0 0 0 83.834639832639368 -190.78662091649312 0 -190.78662091649312 349.60207073793026 0 0 0 0 1.3105930208162135 0.7632447427297393 0 0.7632447427297393 -1.943681744471693 0 0 0 0 88.383577237786085 -106.57244969057047 0 -106.57244969057047 129.87000215080479 0 0 0 0 -0.045255261262354907 -63.591593711747919 0 -63.591593711747919 203.86893094236439 0 0 0 0 40.654577234716271 -160.03958788740056 0 -160.03958788740056 220.77634278184996 0 0 0 0 37.003474495591945 -99.578431904548779 0 -99.578431904548779 226.14894694022223 0 0 0 0 -10.798300128748622 -5.9311835210937147 0 -5.9311835210937147 -0.22920233737453088 0 0 0 0 10.402539657457964 -14.130768768542112 0 -14.130768768542112 16.970133827620884 0 0 0 0 14.928628832916729 -10.920672225714952 0 -10.920672225714952 -34.432550932222512 0 0 0 0 -20.475816659236443 -52.89992407381942 0 -52.89992407381942 36.904631152725415 0 0 0 0 6.0189853645279072 -39.96508513588924 0 -39.96508513588924 15.255207131999214 0 0 0 0 -7.5750598902959609 -44.418548953441132 0 -44.418548953441132 -83.470927924794523 0 0 0 0 -25.778235303315114 -13.441299377674909 0 -13.441299377674909 -8.5710357835607951 0 0 0 0 -1.0160304233538113 -4.1557170478236216 0 -4.1557170478236216 -8.962374759890551 0 0 0 0 -1.7748225968680345 -129.32857933524338 0 -129.32857933524338 -173.17381275797561 0 0 0 0 10.403220301907652 -14.737869787991656 0 -14.737869787991656 -5.5754343956112002 0 0 0 0 -12.485457857343135 -17.894569618965761 0 -17.894569618965761 10.859278099026596 0 0 0 0 30.570025661290856 -94.058012794361275 0 -94.058012794361275 -89.229291800425926 0 0 0 0 -6.1271631784857732 -25.619502401318073 0 -25.619502401318073 -10.325823767943632 0 0 0 0 -25.78388351258036 -702.33967992873613 0 -702.33967992873613 -797.26522287195985 0 0 0 0 -76.181521774560679 -729.00759282214858 0 -729.00759282214858 -740.28032941712809 0 0 0 0 -387.9558287327236 53.587983104222076 0 53.587983104222076 124.79550435453712 0 0 0 0 -1091.6393628398073 -534.91557441637633 0 -534.91557441637633 -304.47878510389273 0 0 0 0 -2.5939193767963502 -4.3561038616714498 0 -4.3561038616714498 -0.40424123949221524 0 0 0 0 108.94847986786044 -79.129099765261344 0 -79.129099765261344 -953.2677377513246 0 0 0 0 1.4001569537053911 -10.97766758300083 0 -10.97766758300083 -5.7874121705300716 0 0 0 0 24.139795499300817 -86.37683966878285 0 -86.37683966878285 -245.32943084598992 0 0 0 0 20.993794125489785 -187.20983748700087 0 -187.20983748700087 -1086.0684958192724 0 0 0 0 521.56812427839031 -443.48724333897007 0 -443.48724333897007 -1341.2191393093926 0 0 0 0 335.49304059959832 -458.89314577343521 0 -458.89314577343521 -1293.774358380062 0 0 0 0 231.21141593018547 -566.34611745857728 0 -566.34611745857728 -1245.9154236079421 0 0 0 0 227.51060066997888 -534.2982060921313 0 -534.2982060921313 -1225.8969192001459 0 0 0 0 406.80656535542221 -590.05683305806861 0 -590.05683305806861 -1369.6465285107479 0 0 0 0 -1135.4213629311416 -1115.8320769137799 0 -1115.8320769137799 -687.88583259024745 0 0 0 0 4.5505457613564886 -1.2891705344197248 0 -1.2891705344197248 -2.1011973203447596 0 0 0 0 368.74528811045457 -97.305020207883899 0 -97.305020207883899 -557.80587326093882 0 0 0 0 229.5337536293373 -701.19755540676488 0 -701.19755540676488 -1709.776849203954 0 0 0 0 -583.99310042744037 -1165.9108124259419 0 -1165.9108124259419 -1037.5006119156023 0 0 0 0 -238.44108614634024 -1259.7679509707141 0 -1259.7679509707141 -2353.1000824507319 0 0 0 0 -8.2016204157450261 -9.1463127210755459 0 -9.1463127210755459 -7.588873959906806 0 0 0 0 -776.51682146462554 -1451.4952325930449 0 -1451.4952325930449 1278.9098429298319 0 0 0 0 230.6385967390961 -238.18741398149814 0 -238.18741398149814 -2538.8217264332889 0 0 0 0 409.74051031934505 35.988172601300903 0 35.988172601300903 -2136.5574153942389 0 0 0 0 180.45606161881005 -289.18625367158074 0 -289.18625367158074 92.763789994402032 0 0 0 0 470.21332945040194 -852.10014242269517 0 -852.10014242269517 172.75001426546203 0 0 0 0 411.06728120442131 283.93840647502202 0 283.93840647502202 -1090.550816974659 0 0 0 0 57.392021564781317 -353.32635208265401 0 -353.32635208265401 -237.96525170316818 0 0 0 0 543.24732563043653 -365.35123988878149 0 -365.35123988878149 -1195.3951937313614 0 0 0 0 411.04991907974181 -187.85402268829239 0 -187.85402268829239 -1209.1857611799846 0 0 0 0 382.0002490532861 -388.59184522695932 0 -388.59184522695932 -1666.7161280366927 0 0 0 0 -232.93560782130226 -527.8104217764494 0 -527.8104217764494 -1438.9480678788041 0 0 0 0 -0.031344681548944209 -43.969334399588661 0 -43.969334399588661 -2453.0942623922019 0 0 0 0 227.37148449016968 -426.23255097238507 0 -426.23255097238507 -2489.7279822423206 0 0 0 0 116.96856997403665 -5.6420289799725651 0 -5.6420289799725651 -1476.8872314979817 0 0 0 0 114.85788655004581 -517.06128607509982 0 -517.06128607509982 -1003.6571082273958 0 0 0 0 -0.72207809209066909 -508.11107134159329 0 -508.11107134159329 21.505752717915129 0 0 0 0 17.203507473535865 -56.69002484635871 0 -56.69002484635871 -792.66967845297768 0 0 0 0 -150.92583385455509 -345.61342692407652 0 -345.61342692407652 785.842271007401 0 0 0 0 664.79789611903834 -135.24887457420937 0 -135.24887457420937 -166.94722866591246 0 0 0 0 652.65164951937913 69.59977743289059 0 69.59977743289059 -1768.9847786954367 0 0 0 0 527.95864638263447 -1146.7552374521581 0 -1146.7552374521581 -2101.0915284028601 0 0 0 0 630.59810597548494 -166.31996926540023 0 -166.31996926540023 -3552.7744608618918 0 0 0 0 -6.7546093921664578 -8.7813324426145698 0 -8.7813324426145698 -8.772240388873211 0 0 0 0 -87.318836773891235 -1534.6407643775792 0 -1534.6407643775792 302.70870592093934 0 0 0 0 -0.45340105609648162 -701.97616996081888 0 -701.97616996081888 -3653.5887731018329 0 0 0 0 221.32589114064467 -1548.9073787981524 0 -1548.9073787981524 -3153.2996212356502 0 0 0 0 -453.71961225464111 -1510.0594911903499 0 -1510.0594911903499 -2171.4961466531777 0 0 0 0 37.345169438965968 -1150.4142605221218 0 -1150.4142605221218 -1949.8811197386494 0 0 0 0 418.72406070792931 -1022.6075590918889 0 -1022.6075590918889 -2192.8809915590273 0 0 0 0 329.49196490885515 -1252.7883423702351 0 -1252.7883423702351 -1606.7013005117205 0 0 0 0 166.9102240055945 -1544.9001293223432 0 -1544.9001293223432 -2032.7013517219821 0 0 0 0 306.9203632568242 -1398.5574932505676 0 -1398.5574932505676 -1599.4754685799653 0 0 0 0 -82.995076112580136 -1354.8110938064037 0 -1354.8110938064037 -917.43677663257131 0 0 0 0 0.034857591571508445 -1561.0608319798521 0 -1561.0608319798521 -1499.129090093682 0 0 0 0 -347.92226773448056 -1035.3775926904825 0 -1035.3775926904825 -1100.3675353107337 0 0 0 0 190.22338654763917 -982.25585408923439 0 -982.25585408923439 -1430.0126608023647 0 0 0 0 211.74684677550977 -1146.2984684611745 0 -1146.2984684611745 -1477.0914624044817 0 0 0 0 205.6266946705291 -1381.0431061992463 0 -1381.0431061992463 -1183.3241715409038 0 0 0 0 362.20727994428307 -1261.276809998378 0 -1261.276809998378 -1743.4354085733853 0 0 0 0 709.49130376434186 -933.56239246852601 0 -933.56239246852601 -1865.4785428148982 0 0 0 0 137.17549384553422 -905.93860556822347 0 -905.93860556822347 -1456.3381926247491 0 0 0 0 71.840758559003007 -307.99941658128586 0 -307.99941658128586 -513.66537102038978 0 0 0 0 354.25640757653309 -698.26427902077864 0 -698.26427902077864 -1438.6786548891989 0 0 0 0 654.75973613058159 -733.77134091971368 0 -733.77134091971368 -1436.2228501506065 0 0 0 0 -13.540714839543966 -18.928996317908059 0 -18.928996317908059 -16.541082659149126 0 0 0 0 258.6916318442818 -429.9020802539959 0 -429.9020802539959 -126.06291931443297 0 0 0 0 791.00437892324408 -1200.071559273209 0 -1200.071559273209 -60.874899906723158 0 0 0 0 -591.74478009495942 -1016.1572507989385 0 -1016.1572507989385 -324.64334442852032 0 0 0 0 312.87561268767604 86.580289893793747 0 86.580289893793747 971.64606911103238 0 0 0 0 -951.93095351528609 -317.69831831883994 0 -317.69831831883994 388.48769286842617 0 0 0 0 -1637.538293982594 -1068.0911486478799 0 -1068.0911486478799 -333.5424267427635 0 0 0 0 390.52955704678607 -154.86326220659362 0 -154.86326220659362 10.296223097358052 0 0 0 0 3.0967580044531928 -5.9959531828185959 0 -5.9959531828185959 -28.281583233594816 0 0 0 0 -3004.9479922888131 -1608.0795540423555 0 -1608.0795540423555 -847.35386831797132 0 0 0 0 0.82836853623147988 -3.7173156592596115 0 -3.7173156592596115 -10.177881803507073 0 0 0 0 1151.1097169557761 20.179428520765327 0 20.179428520765327 -408.01666786437363 0 0 0 0 -1244.796112367505 -515.91966469760803 0 -515.91966469760803 -409.08091951189101 0 0 0 0 -638.48867790595978 -1028.5586343296595 0 -1028.5586343296595 -1239.5431049336871 0 0 0 0 -278.09957552785636 -509.48032639024871 0 -509.48032639024871 -1316.2175593851 0 0 0 0 -782.04619167511555 -1228.743084688148 0 -1228.743084688148 -1628.5201758001394 0 0 0 0 -712.92441460119153 -787.669214194201 0 -787.669214194201 -1252.1785622241794 0 0 0 0 -928.47281798289259 -1013.3153336264844 0 -1013.3153336264844 -800.92784696642775 0 0 0 0 -722.37637421010004 -1098.602243381762 0 -1098.602243381762 -799.93967865161085 0 0 0 0 -366.67898590791265 -1123.0985193738536 0 -1123.0985193738536 -948.46276901311376 0 0 0 0 -666.74010267348785 -758.68250760699311 0 -758.68250760699311 -820.78063542196787 0 0 0 0 -617.00584460452228 -1288.5202704165092 0 -1288.5202704165092 -1123.1579347356101 0 0 0 0 -297.88194727903465 -829.46059072934077 0 -829.46059072934077 -1065.3719043321653 0 0 0 0 -339.58658439198553 -855.90030159885282 0 -855.90030159885282 -1034.2760629668292 0 0 0 0 -150.71956239045539 -598.7925429925931 0 -598.7925429925931 -137.05564529466255 0 0 0 0 -84.93927074982912 -77.708676767297931 0 -77.708676767297931 -151.78899339018608 0 0 0 0 -42.644315996323712 -371.47228363597378 0 -371.47228363597378 -387.7409433244411 0 0 0 0 243.30592784227338 -920.97856698063151 0 -920.97856698063151 -1383.7358402638276 0 0 0 0 29.983632642397424 -310.84473417118306 0 -310.84473417118306 4.6041485825621749 0 0 0 0 11.132906740247563 -273.86365149008111 0 -273.86365149008111 211.38778894096868 0 0 0 0 -130.09066921938575 -80.336620407084467 0 -80.336620407084467 818.5931013417553 0 0 0 0 -79.698970396420918 -186.78181514868857 0 -186.78181514868857 144.74190015701697 0 0 0 0 168.22884643434372 62.603679921243611 0 62.603679921243611 -135.46044134383305 0 0 0 0 160.75460649415618 -100.32428205356905 0 -100.32428205356905 42.436171112606189 0 0 0 0 -28.62243724775908 -10.736851628353634 0 -10.736851628353634 19.677181430769906 0 0 0 0 -17.646847336628525 -150.50691403603281 0 -150.50691403603281 -121.27523076291578 0 0 0 0 17.650142537095235 -1.8660585037214332 0 -1.8660585037214332 22.205545689446353 0 0 0 0 26.009984770329709 -11.714171614838278 0 -11.714171614838278 6.1235811879170763 0 0 0 0 50.274308166612172 -172.58887556602576 0 -172.58887556602576 108.70243230122514 0 0 0 0 3.0749180672755756 -54.957284257433912 0 -54.957284257433912 -10.293837416138558 0 0 0 0 -584.49094132702157 -1331.0124548027279 0 -1331.0124548027279 31.03635647744386 0 0 0 0 77.470849775592797 17.671850274372446 0 17.671850274372446 -66.832381888387317 0 0 0 0 494.59485290899465 -903.88243252581469 0 -903.88243252581469 -2338.2678388765253 0 0 0 0 12.687449981800569 -7.3030822231554282 0 -7.3030822231554282 -48.043468686065268 0 0 0 0 -293.08735013118712 116.66959395774393 0 116.66959395774393 77.233399792850832 0 0 0 0 4.3904557842246845 -8.0700712085726138 0 -8.0700712085726138 -12.77558245298064 0 0 0 0 -1916.9689371389395 -2233.1795942612916 0 -2233.1795942612916 -2304.8332214678057 0 0 0 0 334.65503987464035 3.406663007525367 0 3.406663007525367 59.585961913824576 0 0 0 0 0.40701307918061502 -2.4226849268352453 0 -2.4226849268352453 10.196915956213161 0 0 0 0 12.280778439017013 -23.711680769803934 0 -23.711680769803934 -28.441342448761134 0 0 0 0 49.321563614339794 -21.503958684447184 0 -21.503958684447184 -33.142979956502138 0 0 0 0 7.8268815803486405 -31.659798846453722 0 -31.659798846453722 -26.412040360254657 0 0 0 0 31.967395141743282 -43.943372519259256 0 -43.943372519259256 -30.553539021926426 0 0 0 0 -363.9658951528254 -285.97250381852064 0 -285.97250381852064 112.32058553243041 0 0 0 0 38.193667555994409 -22.591917647922145 0 -22.591917647922145 -2.3956368785151816 0 0 0 0 113.39345201596734 -75.875073508807645 0 -75.875073508807645 -99.381965312318698 0 0 0 0 -19.955239129572874 -108.65085890762202 0 -108.65085890762202 -4.5204024626787032 0 0 0 0 10.629572048506816 -29.267496471515187 0 -29.267496471515187 -25.42245039142108 0 0 0 0 -8.1174118400294901 -18.341969349624009 0 -18.341969349624009 -7.5002332392008011 0 0 0 0 10.59408896054083 -29.871931582214529 0 -29.871931582214529 -19.168935065315054 0 0 0 0 -2.7480158696707804 -37.44615560598686 0 -37.44615560598686 -25.038054045609897 0 0 0 0 46.188150809408398 5.4457691315965349 0 5.4457691315965349 24.655101745560387 0 0 0 0 159.91748493997147 -29.37380003495764 0 -29.37380003495764 -96.163665335094265 0 0 0 0 6.3089938118791764 -1.9314960035244439 0 -1.9314960035244439 -2.5815436349365086 0 0 0 0 -20.560486848662549 -51.679888364871204 0 -51.679888364871204 -24.592635091077682 0 0 0 0 31.823099826065516 -14.139798826143213 0 -14.139798826143213 -11.555775196125516 0 0 0 0 115.05191023321822 -77.864954802425927 0 -77.864954802425927 -137.53870973219455 0 0 0 0 6.4133082150365226 -25.551963328225611 0 -25.551963328225611 -22.749901398980228 0 0 0 0 158.30227838328574 -16.899340814132302 0 -16.899340814132302 -35.431572608256829 0 0 0 0 -24.749090514509589 -30.829655095177259 0 -30.829655095177259 40.817051025514957 0 0 0 0 7.2686921993213787 -6.4896166371083837 0 -6.4896166371083837 2.1608050777305365 0 0 0 0 31.901568816247163 -60.156147247783338 0 -60.156147247783338 -34.855091638481099 0 0 0 0 56.457105692359619 -36.682505122950715 0 -36.682505122950715 0.42048583795872219 0 0 0 0 16.935882473546371 -57.20795199229633 0 -57.20795199229633 27.923125078057637 0 0 0 0 -12.904000830412514 -27.863657370986829 0 -27.863657370986829 -3.2580607785477866 0 0 0 0 0.051813136134754245 -18.785071709231744 0 -18.785071709231744 -10.809571849356381 0 0 0 0 13.926610407253179 -46.97850306151679 0 -46.97850306151679 -25.337074959676851 0 0 0 0 -122.89456116873771 -49.509932055399986 0 -49.509932055399986 110.34388675635273 0 0 0 0 55.823964614495878 -26.167766295681282 0 -26.167766295681282 -13.681942999806482 0 0 0 0 12.418910827022046 -42.651162813619521 0 -42.651162813619521 19.86137823103536 0 0 0 0 35.100319977283846 -4.9300670077686171 0 -4.9300670077686171 -1.5249089002816913 0 0 0 0 115.93509163800627 -60.221316401508375 0 -60.221316401508375 -174.13961119778014 0 0 0 0 54.291988200071501 -44.633352620897313 0 -44.633352620897313 -64.688206085604179 0 0 0 0 1.6601143039789577 -4.9161779337065141 0 -4.9161779337065141 0.85500587829396757 0 0 0 0 -27.503086560362135 -147.79322954545751 0 -147.79322954545751 -91.001933704177645 0 0 0 0 89.727689831081079 -65.342301298340317 0 -65.342301298340317 -54.855857250880945 0 0 0 0 90.173595538220297 -103.97008517110304 0 -103.97008517110304 -114.05547851295705 0 0 0 0 30.324216424189217 -55.126885997258796 0 -55.126885997258796 -312.05911883167482 0 0 0 0 23.817043347837171 -96.581019562247093 0 -96.581019562247093 -124.6561953166829 0 0 0 0 -58.045341240976995 -49.960750668587025 0 -49.960750668587025 -85.858005748050346 0 0 0 0 -25.346916884998791 -122.56788579956719 0 -122.56788579956719 -151.12026650076405 0 0 0 0 -62.431258078460814 21.087256572356637 0 21.087256572356637 -163.42612187556006 0 0 0 0 13.354911248214194 -67.072806039954003 0 -67.072806039954003 97.510030934460246 0 0 0 0 41.265953780726704 -29.578847432602061 0 -29.578847432602061 112.72567164893917 0 0 0 0 10.801477145225192 -4.9865508279889781 0 -4.9865508279889781 -3.1292563197630638 0 0 0 0 3.5196916844870429 17.51388895103446 0 17.51388895103446 -1.9966585060494708 0 0 0 0 8.9285430945221833 -2.611896994471115 0 -2.611896994471115 -1.4847732957859965 0 0 0 0 29.034279944797163 -28.093663675047537 0 -28.093663675047537 -26.951340476076439 0 0 0 0 8.526973895053743 3.4068545401682586 0 3.4068545401682586 0.2045323334057032 0 0 0 0 180.55176605610177 -6.0161561506592989 0 -6.0161561506592989 -356.87392696139159 0 0 0 0 -29.748152276399196 -289.48445046114603 0 -289.48445046114603 957.44959190847385 0 0 0 0 100.70623759119189 -128.65163688721577 0 -128.65163688721577 367.47950068658429 0 0 0 0 71.28782685828628 -98.802672557660117 0 -98.802672557660117 245.83095899078256 0 0 0 0 25.133578892297862 1.7270277946053767 0 1.7270277946053767 -2.7953897012192068 0 0 0 0 102.17491976337442 -126.34104108378651 0 -126.34104108378651 171.76614161463294 0 0 0 0 -32.457521461270517 -110.12954543787782 0 -110.12954543787782 -29.402971537989288 0 0 0 0 13.430908270020154 80.901867129270613 0 80.901867129270613 -309.98534861191729 0 0 0 0 651.63308379086084 -188.74733409984401 0 -188.74733409984401 -1067.3672211156809 0 0 0 0 -8.0999795049897898 -2.1007024997580857 0 -2.1007024997580857 2.8946371858833189 0 0 0 0 -1012.4900856826571 469.20885984668348 0 469.20885984668348 64.380920289833739 0 0 0 0 -91.391759997030022 -156.35840263381215 0 -156.35840263381215 128.17014705282327 0 0 0 0 -9.0559315684658941 -162.62444295104706 0 -162.62444295104706 -601.47127654089127 0 0 0 0 -6.3145966507581761 -112.75107431554807 0 -112.75107431554807 -417.81810841695551 0 0 0 0 111.08788360992912 86.214821745234076 0 86.214821745234076 -845.11108390639129 0 0 0 0 119.7004976398166 143.89944078593908 0 143.89944078593908 -488.69201130478541 0 0 0 0 187.04998013004661 40.058269385006497 0 40.058269385006497 -339.48129945405162 0 0 0 0 367.02859207142319 -46.933859346475401 0 -46.933859346475401 -390.22240366156257 0 0 0 0 182.23205255880021 -19.916313322390124 0 -19.916313322390124 -123.40591813060382 0 0 0 0 160.86901822350046 -770.66469497928938 0 -770.66469497928938 230.64166502125568 0 0 0 0 58.850625973794237 -104.13904746817512 0 -104.13904746817512 57.009803093931062 0 0 0 0 80.037741575404652 -213.41271762729684 0 -213.41271762729684 -8.4254513323685387 0 0 0 0 40.364906179683942 -28.524120562754064 0 -28.524120562754064 18.45271428559505 0 0 0 0 -1.3656475385905651 -125.18510099032028 0 -125.18510099032028 107.47199406874279 0 0 0 0 -215.04609948280995 -127.2221162083606 0 -127.2221162083606 109.25490767593146 0 0 0 0 1.3439674263871666 -54.249600625482429 0 -54.249600625482429 -27.090189030159038 0 0 0 0 349.38649600243662 415.5075147482512 0 415.5075147482512 -89.858496219060513 0 0 0 0 179.18124082715076 -514.56907375997707 0 -514.56907375997707 379.44313183927824 0 0 0 0 39.336975477004586 -89.581750604815198 0 -89.581750604815198 128.75528771075574 0 0 0 0 48.665253425388073 -277.35771181817472 0 -277.35771181817472 136.74993767612432 0 0 0 0 -241.94582594970416 -145.77020481416184 0 -145.77020481416184 243.2476742679919 0 0 0 0 47.392330801958451 -89.450017841300905 0 -89.450017841300905 52.468398707935648 0 0 0 0 259.94302416004939 -206.59136755908094 0 -206.59136755908094 59.235196597834147 0 0 0 0 315.90413058017293 -388.18035054175652 0 -388.18035054175652 223.39341138028976 0 0 0 0 -21.482169622226934 -20.58824579239517 0 -20.58824579239517 -25.507853685315762 0 0 0 0 -428.92373229187797 -94.089405467170764 0 -94.089405467170764 75.80902462658878 0 0 0 0 171.59275557653746 -772.48334460316437 0 -772.48334460316437 308.49878320811422 0 0 0 0 255.71414067444857 -227.14162104809293 0 -227.14162104809293 -178.07361065159171 0 0 0 0 171.33749100479326 -310.18446513256748 0 -310.18446513256748 9.3360087470118742 0 0 0 0 155.14443061299971 -372.21268799512336 0 -372.21268799512336 356.20114377687673 0 0 0 0 165.75233459834999 -280.7367971384806 0 -280.7367971384806 17.996121838175213 0 0 0 0 285.25596208868956 -405.58307225393605 0 -405.58307225393605 -86.473185784717771 0 0 0 0 156.62118485876999 -128.79386894067261 0 -128.79386894067261 -52.257711380371347 0 0 0 0 184.24822801107075 -214.93999817059535 0 -214.93999817059535 183.80488229978542 0 0 0 0 284.21359598924755 -346.20600092774151 0 -346.20600092774151 -190.17451019308328 0 0 0 0 475.47554152048542 -141.18348325504928 0 -141.18348325504928 -72.423749054026985 0 0 0 0 585.46327876739088 29.5822728434905 0 29.5822728434905 -178.51990581662767 0 0 0 0 10.148008390172663 -3.4112688667412812 0 -3.4112688667412812 1.2779450639366088 0 0 0 0 873.76233201249852 -389.58399243526719 0 -389.58399243526719 -187.01751764807466 0 0 0 0 246.03241688018898 724.71921444032023 0 724.71921444032023 121.83727721422235 0 0 0 0 321.68305497303663 -447.65082310090338 0 -447.65082310090338 166.95866482064866 0 0 0 0 -9.1775726822088473 -12.981836846294385 0 -12.981836846294385 -14.547959316044485 0 0 0 0 507.25780009497976 -234.97462898684307 0 -234.97462898684307 84.470504759912728 0 0 0 0 574.13707661780791 -484.4193939776992 0 -484.4193939776992 116.73760804372068 0 0 0 0 256.02081471253769 -320.28509634307056 0 -320.28509634307056 263.25775727021664 0 0 0 0 578.20228983480774 -249.49779213752163 0 -249.49779213752163 -758.98665893834368 0 0 0 0 -646.9839026991358 -333.75119350467708 0 -333.75119350467708 -243.21424868434042 0 0 0 0 -2.4205038926342013 -4.1079111532528714 0 -4.1079111532528714 -6.5200151402071995 0 0 0 0 507.80777228834631 -706.3143601068723 0 -706.3143601068723 -1035.0517575051254 0 0 0 0 505.63308156366111 -555.66288749297155 0 -555.66288749297155 -478.70432096219542 0 0 0 0 557.03070719442712 -118.6764134912699 0 -118.6764134912699 -387.01468969496636 0 0 0 0 351.67577782894659 -509.59911171858471 0 -509.59911171858471 -182.78427425141399 0 0 0 0 -164.91583815288323 -321.94762944452168 0 -321.94762944452168 -133.4054092820802 0 0 0 0 -701.43134394733715 -927.12002135142143 0 -927.12002135142143 -64.328453616823026 0 0 0 0 -240.04663498553418 -175.66400282048198 0 -175.66400282048198 -187.62303650772901 0 0 0 0 -316.83037168689771 -342.57010260897732 0 -342.57010260897732 -297.43758097411728 0 0 0 0 -54.257917652925244 -190.14909500856356 0 -190.14909500856356 -351.60698572853107 0 0 0 0 -123.95739221597614 -199.26596824739772 0 -199.26596824739772 -270.66655482400256 0 0 0 0 50.897457876475528 -385.80736517583136 0 -385.80736517583136 -224.17481603635292 0 0 0 0 -65.362254545208998 -223.30003630285319 0 -223.30003630285319 152.58871349431251 0 0 0 0 -332.23896265029543 -200.67044490132525 0 -200.67044490132525 157.43015032974108 0 0 0 0 242.74278673186927 -160.42658088929196 0 -160.42658088929196 36.973902791098226 0 0 0 0 255.31063820849522 -368.53168568020192 0 -368.53168568020192 115.79519685260857 0 0 0 0 275.32371511813835 -180.99134443355888 0 -180.99134443355888 196.84374607767859 0 0 0 0 36.822944300534346 -170.09399310098888 0 -170.09399310098888 146.39371622397448 0 0 0 0 33.598363725453964 -267.11899052019999 0 -267.11899052019999 241.73642525453397 0 0 0 0 -203.69765388494125 -177.96372859067651 0 -177.96372859067651 228.49419670172574 0 0 0 0 -82.013232518404948 -190.33438120590716 0 -190.33438120590716 163.34233123683225 0 0 0 0 -83.282517977655516 -202.54450994089439 0 -202.54450994089439 270.26337294697078 0 0 0 0 -32.090479385229344 -6.2935925362937439 0 -6.2935925362937439 39.225481430991444 0 0 0 0 -244.48990340617001 -186.8860897016169 0 -186.8860897016169 226.87318241079811 0 0 0 0 -199.89674014953198 -162.02422890063292 0 -162.02422890063292 47.618193485599477 0 0 0 0 60.397173469813424 -113.54158898804235 0 -113.54158898804235 89.399225251878306 0 0 0 0 46.414552286471007 -49.160964545930256 0 -49.160964545930256 123.24382405705001 0 0 0 0 40.293598643648181 -52.575800288573873 0 -52.575800288573873 62.066703794959288 0 0 0 0 5.3660801807855023 -50.520198108764816 0 -50.520198108764816 41.952992592983719 0 0 0 0 -260.65683563116727 -20.599657352775353 0 -20.599657352775353 98.38561508903058 0 0 0 0 -87.656231338594807 -75.06610337695929 0 -75.06610337695929 112.40612958322163 0 0 0 0 33.899908416277555 -41.987556112033971 0 -41.987556112033971 44.91425001879756 0 0 0 0 -58.352115933870664 6.6783763270709642 0 6.6783763270709642 40.575545257452177 0 0 0 0 -4.8604367015743719 -5.832628470860417 0 -5.832628470860417 7.2034704609624116 0 0 0 0 -199.59313725956599 -387.19404149259208 0 -387.19404149259208 -236.30082582281636 0 0 0 0 33.790457069626427 -56.311959525730799 0 -56.311959525730799 42.034480557455282 0 0 0 0 22.945462461944985 -36.507064132511772 0 -36.507064132511772 48.238836372808649 0 0 0 0 76.38654074495571 -154.05149166154399 0 -154.05149166154399 563.57110049298899 0 0 0 0 8.779188788557633 -7.6439288118339732 0 -7.6439288118339732 -5.0469840518601323 0 0 0 0 -23.036945162872144 130.45609950621429 0 130.45609950621429 713.66043943366822 0 0 0 0 -172.97234696392115 -763.47469887796819 0 -763.47469887796819 47.922584853849912 0 0 0 0 111.53327470766271 100.35292207100179 0 100.35292207100179 99.140302147192415 0 0 0 0 -211.30113396971865 -503.13192517391712 0 -503.13192517391712 -109.34530310905211 0 0 0 0 -144.00118857866619 -588.95207572370691 0 -588.95207572370691 -495.00857826065885 0 0 0 0 167.83705344493501 356.6697163330532 0 356.6697163330532 690.51773844620129 0 0 0 0 24.563650346687666 2.9009381273387476 0 2.9009381273387476 -28.228877199072606 0 0 0 0 428.96245762798753 -43.563075653842304 0 -43.563075653842304 55.292471689825106 0 0 0 0 -61.732860637457634 -77.827870036602462 0 -77.827870036602462 108.68877836088541 0 0 0 0 -408.99466022650449 -132.23517936051485 0 -132.23517936051485 592.68585831378323 0 0 0 0 240.39936172659509 166.4136756881644 0 166.4136756881644 117.67373850765387 0 0 0 0 45.309823984183026 -30.193411031443851 0 -30.193411031443851 12.985503847344216 0 0 0 0 54.284836454244214 -44.120013871590118 0 -44.120013871590118 24.308601945574992 0 0 0 0 63.561442426092356 -46.82774803494614 0 -46.82774803494614 28.780113051919951 0 0 0 0 288.72923918845481 -113.3323887678157 0 -113.3323887678157 -57.187136577691945 0 0 0 0 78.843590979595319 -87.622203725584768 0 -87.622203725584768 81.554597489161097 0 0 0 0 58.950973980994604 -51.240139966200331 0 -51.240139966200331 33.146851949153643 0 0 0 0 80.783294123095402 -58.862068673193789 0 -58.862068673193789 56.091316071553592 0 0 0 0 39.221024909413245 -74.881029657992258 0 -74.881029657992258 49.917867261719948 0 0 0 0 81.598311338741041 -80.630143825239429 0 -80.630143825239429 32.327155404334917 0 0 0 0 87.081859853766218 -74.398400763458994 0 -74.398400763458994 16.23420806519789 0 0 0 0 -0.035996362002158833 -1.7946196347901662 0 -1.7946196347901662 1.2056170493646761 0 0 0 0 -247.3877223389436 -43.208662478335782 0 -43.208662478335782 13.133693666339241 0 0 0 0 -2.8493294205400161 -141.11518708921722 0 -141.11518708921722 27.470978391185781 0 0 0 0 -43.022267338245001 -202.69989112778421 0 -202.69989112778421 14.046660865547892 0 0 0 0 32.2099690500836 -157.45700360434603 0 -157.45700360434603 -28.468362907284245 0 0 0 0 41.010995567849022 -153.08234354592423 0 -153.08234354592423 16.869468578077431 0 0 0 0 43.579643424655842 -96.948188363768395 0 -96.948188363768395 73.797927520306985 0 0 0 0 91.996989459246834 -90.56390543964153 0 -90.56390543964153 72.756174457659654 0 0 0 0 48.677899935666389 -84.349863546600403 0 -84.349863546600403 124.99083046939643 0 0 0 0 52.668665380348102 -113.824812908073 0 -113.824812908073 103.45209161066668 0 0 0 0 14.478046374177211 -175.72372996480226 0 -175.72372996480226 58.338145139296103 0 0 0 0 57.631501682892122 -200.66419653644516 0 -200.66419653644516 56.945756252171122 0 0 0 0 28.969394989515422 -200.91795863243169 0 -200.91795863243169 63.527639104573609 0 0 0 0 77.938143707640847 -174.3950943335758 0 -174.3950943335758 -7.9721144447030383 0 0 0 0 -13.213573029286636 -194.81850973351175 0 -194.81850973351175 74.327916429479956 0 0 0 0 28.821395843682694 -199.21418226293827 0 -199.21418226293827 72.69621247086252 0 0 0 0 20.162652234779671 -178.47313368441974 0 -178.47313368441974 33.760543231525844 0 0 0 0 -101.80817545816535 -271.77786769582326 0 -271.77786769582326 64.951327640614181 0 0 0 0 101.72020561298996 -238.17337452743232 0 -238.17337452743232 81.163173258530151 0 0 0 0 20.854890804366732 -138.41812089058658 0 -138.41812089058658 224.90341761976015 0 0 0 0 114.53532844527945 -161.08230934629682 0 -161.08230934629682 143.12966209537262 0 0 0 0 94.539539096540921 -161.33178468762003 0 -161.33178468762003 78.563784442732867 0 0 0 0 184.41360876329418 -278.91664430211677 0 -278.91664430211677 186.21287000665689 0 0 0 0 231.49232736862905 -66.773457350895114 0 -66.773457350895114 -8.6259099652379518 0 0 0 0 -46.007233849210024 -59.144054535183386 0 -59.144054535183386 54.997845094372678 0 0 0 0 86.420267535926541 -135.11842456289196 0 -135.11842456289196 17.051179668036639 0 0 0 0 -0.41752330199473242 -3.2146840609183869 0 -3.2146840609183869 4.3643396679559601 0 0 0 0 48.801089816843159 -194.620023258316 0 -194.620023258316 64.804436765990431 0 0 0 0 71.616450614848873 -257.97525908817624 0 -257.97525908817624 -504.97908485871471 0 0 0 0 2.1119714722663048 -262.23844029800239 0 -262.23844029800239 777.27125871153839 0 0 0 0 -2.126132039772898 -2.4189134650565975 0 -2.4189134650565975 0.37280699023581132 0 0 0 0 -18.078657129590283 -219.45800482023697 0 -219.45800482023697 78.362447263338254 0 0 0 0 227.94004876688996 -26.064067452434756 0 -26.064067452434756 229.70469633555331 0 0 0 0 78.136109307175502 -484.93016741977044 0 -484.93016741977044 501.86259039883771 0 0 0 0 91.403935846045442 -319.24941110453506 0 -319.24941110453506 623.18369082404388 0 0 0 0 497.83000369830006 -394.82696366007303 0 -394.82696366007303 274.18488621959114 0 0 0 0 296.67770900290634 -163.13065692601231 0 -163.13065692601231 43.959988819586215 0 0 0 0 247.15042194522903 -304.67967685199346 0 -304.67967685199346 268.45150022831513 0 0 0 0 55.055227882327017 -189.43946476764586 0 -189.43946476764586 689.88743795005576 0 0 0 0 57.956479503889568 -67.437306118565175 0 -67.437306118565175 362.77541120764363 0 0 0 0 76.895278284035157 -160.64496253658217 0 -160.64496253658217 431.30226472932554 0 0 0 0 63.467020988238801 -122.10341217354471 0 -122.10341217354471 205.60533120147011 0 0 0 0 10.23695555262384 -44.264175294571032 0 -44.264175294571032 141.68616941357323 0 0 0 0 -70.168028073254391 -134.87086413383622 0 -134.87086413383622 181.96360789655228 0 0 0 0 -11.670075645539328 -107.74284683503811 0 -107.74284683503811 -202.91472783962308 0 0 0 0 -6.3755782923332163 -1.9285318623699297 0 -1.9285318623699297 -0.34159789813461616 0 0 0 0 -22.325676966091123 -99.978271576954285 0 -99.978271576954285 395.19114706237815 0 0 0 0 -84.244173949686228 -99.958658535067116 0 -99.958658535067116 -87.603586290057137 0 0 0 0 -15.702881254910608 -60.759571014221365 0 -60.759571014221365 -104.25129596367333 0 0 0 0 -56.687334355473467 -115.79125243990666 0 -115.79125243990666 -11.774734925817029 0 0 0 0 -15.944473420502618 -111.10089728880848 0 -111.10089728880848 -12.064863780375163 0 0 0 0 -41.791556211815987 -75.974556465650494 0 -75.974556465650494 -76.321318926329695 0 0 0 0 -37.034132994660467 -136.30431063464857 0 -136.30431063464857 -13.458181276371761 0 0 0 0 -39.683599499541742 -100.16179005529557 0 -100.16179005529557 28.135537635131186 0 0 0 0 -4.8224386111905915 -155.45673469005123 0 -155.45673469005123 -56.620321412996418 0 0 0 0 -6.8849102496860723 -51.622220080144871 0 -51.622220080144871 -241.11661546957475 0 0 0 0 230.36722832399391 -160.91615925431142 0 -160.91615925431142 -87.031842735566897 0 0 0 0 71.697898591373814 -86.605554152713012 0 -86.605554152713012 -56.648536013191915 0 0 0 0 57.764686122376588 -112.28070700977696 0 -112.28070700977696 -14.918369326736865 0 0 0 0 56.666742972665816 -105.81767006191876 0 -105.81767006191876 -52.69639112554637 0 0 0 0 27.063152367903967 -132.22353409426432 0 -132.22353409426432 88.068990814885183 0 0 0 0 22.042875186798483 -107.26596646490134 0 -107.26596646490134 24.76730485430744 0 0 0 0 -26.733099442535604 -123.41291717714876 0 -123.41291717714876 48.790168830404582 0 0 0 0 -20.131479541152657 -88.404534036220866 0 -88.404534036220866 74.237879827036522 0 0 0 0 -2.9873455509878113 -88.58830813280656 0 -88.58830813280656 69.866622996494698 0 0 0 0 10.445571951051534 -105.99278585902357 0 -105.99278585902357 72.21811126195098 0 0 0 0 0.37336997755483026 -100.52378760634201 0 -100.52378760634201 112.07995660971937 0 0 0 0 -25.933230437400198 -8.4519983083628176 0 -8.4519983083628176 -45.837170329206856 0 0 0 0 -16.935316642462567 -43.294403561298168 0 -43.294403561298168 67.09877306958515 0 0 0 0 33.226111578860582 -68.304366739036595 0 -68.304366739036595 25.801031584400334 0 0 0 0 16.917033471620016 -36.965412634062432 0 -36.965412634062432 -9.7272465653586551 0 0 0 0 20.363424952302012 -45.65542188021027 0 -45.65542188021027 -37.213716351529001 0 0 0 0 64.136070332759118 -60.632448695643689 0 -60.632448695643689 -12.370732482719177 0 0 0 0 7.907618974102661 -22.092156812739304 0 -22.092156812739304 -30.707673664470875 0 0 0 0 11.996737395922537 -43.316824000248744 0 -43.316824000248744 -47.45333703715005 0 0 0 0 -16.079532579002603 -34.493953762118579 0 -34.493953762118579 -29.628179395674081 0 0 0 0 -19.683921269090206 -51.06356226461503 0 -51.06356226461503 2.0573677035645233 0 0 0 0 130.58564713710075 -65.379513555185895 0 -65.379513555185895 -30.729486064126831 0 0 0 0 -32.234192135241756 -89.398910034371511 0 -89.398910034371511 -19.881104845047048 0 0 0 0 1.7155115915177817 -15.591524277512143 0 -15.591524277512143 2.3879001687695052 0 0 0 0 15.511442444232671 -121.74189284493332 0 -121.74189284493332 -58.117005618092662 0 0 0 0 12.421623078727862 -62.016352766451746 0 -62.016352766451746 -30.717796475073555 0 0 0 0 -10.62450161097513 -94.854574658791535 0 -94.854574658791535 -17.947451034960977 0 0 0 0 -22.082187605465691 -49.132076744846813 0 -49.132076744846813 -14.087434363211003 0 0 0 0 -157.60115798184415 -77.786545945804392 0 -77.786545945804392 87.880127399721459 0 0 0 0 23.015986919264833 -101.9516897048361 0 -101.9516897048361 -25.971659786482633 0 0 0 0 -5.957998899083627 -7.2819663064493341 0 -7.2819663064493341 2.6340184348160847 0 0 0 0 -45.761671961889334 -50.906934588890778 0 -50.906934588890778 -43.109493849160081 0 0 0 0 -15.756342095069158 -146.49178959545702 0 -146.49178959545702 73.380581025154243 0 0 0 0 -10.247654031918501 -112.76336678082407 0 -112.76336678082407 15.245906505704625 0 0 0 0 67.154299502635695 -118.65478403977068 0 -118.65478403977068 42.704177697451087 0 0 0 0 -62.81592502942658 -96.704621084629252 0 -96.704621084629252 30.927808970471233 0 0 0 0 -62.989300828972773 -96.404352244639995 0 -96.404352244639995 35.311928958624776 0 0 0 0 -10.757499265528168 -94.820158807904591 0 -94.820158807904591 32.212929378716581 0 0 0 0 12.320969634765788 -124.90604769113634 0 -124.90604769113634 -2.8100998877380334 0 0 0 0 8.4211325230353395 -124.7654436683988 0 -124.7654436683988 23.957058683332434 0 0 0 0 -31.852200497369097 -48.824616626957067 0 -48.824616626957067 -35.549173488168243 0 0 0 0 1.2485109421322704 -37.411688926771603 0 -37.411688926771603 3.4228867480815097 0 0 0 0 -41.386426983430283 -107.91797655603659 0 -107.91797655603659 58.306545004032159 0 0 0 0 -49.446443290638882 -43.534484270792575 0 -43.534484270792575 -37.566297996736481 0 0 0 0 -42.820741721181548 -156.53535779689264 0 -156.53535779689264 59.882325365630095 0 0 0 0 -58.214244467453682 -81.875174868557224 0 -81.875174868557224 26.533534324915308 0 0 0 0 -40.809358554026403 -65.337892094503331 0 -65.337892094503331 -28.538910438110179 0 0 0 0 -197.54900984995766 -79.827922669792315 0 -79.827922669792315 22.408806168121373 0 0 0 0 -0.84678833515320662 -1.977624242953965 0 -1.977624242953965 -4.4188968944877445 0 0 0 0 -412.33571474086784 -120.15863516423269 0 -120.15863516423269 -11.792614252255589 0 0 0 0 -0.56680223865683388 -2.1191684860705777 0 -2.1191684860705777 -1.301984734726318 0 0 0 0 572.92869180384878 -142.40387137164726 0 -142.40387137164726 -211.01646807931684 0 0 0 0 26.807299741478346 -149.3921476038322 0 -149.3921476038322 -134.10491854428255 0 0 0 0 143.52672278755199 -253.37510801573444 0 -253.37510801573444 -214.00582869285427 0 0 0 0 -1.4088029115916072 -1.8694863434928948 0 -1.8694863434928948 -1.82150045193697 0 0 0 0 90.697343311127042 -31.141356195708795 0 -31.141356195708795 -293.38356480146103 0 0 0 0 194.37539176724385 39.60223894171213 0 39.60223894171213 -206.06459304833061 0 0 0 0 241.18696187712339 -24.382425524956489 0 -24.382425524956489 73.692289512371644 0 0 0 0 50.826208383383346 -275.45122214563526 0 -275.45122214563526 -180.8012578488956 0 0 0 0 318.07632977788126 -215.10311475758499 0 -215.10311475758499 -7.1336931057157926 0 0 0 0 -234.87987369410257 -3.7056263294307428 0 -3.7056263294307428 61.911710087362735 0 0 0 0 56.244682628155715 -85.784870692730692 0 -85.784870692730692 35.612429342108953 0 0 0 0 55.663739708998037 -75.578027224879406 0 -75.578027224879406 37.986619362214697 0 0 0 0 70.833067796287651 -65.775619702100812 0 -65.775619702100812 44.875179049253347 0 0 0 0 107.57612304426584 -122.10964810777295 0 -122.10964810777295 52.182934038487929 0 0 0 0 2.5781872836014941 -16.686732036219581 0 -16.686732036219581 -0.58409193371198853 0 0 0 0 70.17330791331915 -71.843789798484067 0 -71.843789798484067 10.064927890254694 0 0 0 0 62.448478383070324 -75.43396817379471 0 -75.43396817379471 11.850266807647131 0 0 0 0 59.932316649633094 -25.784777654484728 0 -25.784777654484728 -44.378981816230748 0 0 0 0 141.64070404975791 -112.75820741550524 0 -112.75820741550524 19.646313699542588 0 0 0 0 172.34909374327981 -136.96826503324337 0 -136.96826503324337 -9.1450032326974906 0 0 0 0 13.686798585890074 7.2602349821209806 0 7.2602349821209806 -24.002584318173696 0 0 0 0 19.831886908854358 -172.02684990732087 0 -172.02684990732087 -3.4814553781252471 0 0 0 0 105.87452953425236 -108.78422945712009 0 -108.78422945712009 19.759260425547836 0 0 0 0 105.22889750364993 -105.14105322604155 0 -105.14105322604155 161.31946766982946 0 0 0 0 140.80158817037591 -144.9737696419179 0 -144.9737696419179 21.705232460057232 0 0 0 0 112.03563581150956 -138.84644678117184 0 -138.84644678117184 24.235631082694454 0 0 0 0 154.08995278525981 -205.62453050826662 0 -205.62453050826662 154.00433334007903 0 0 0 0 137.80837974540191 -114.91015003132998 0 -114.91015003132998 17.316696250342829 0 0 0 0 16.504096881808167 -41.682702060183118 0 -41.682702060183118 22.838345751170166 0 0 0 0 104.02700776788697 -89.376926532258949 0 -89.376926532258949 54.792185105208773 0 0 0 0 9.7504428970132722 -39.952517300364889 0 -39.952517300364889 11.801718940623687 0 0 0 0 10.020104695165706 -23.83626195204269 0 -23.83626195204269 12.525486598751726 0 0 0 0 -15.261482146722116 -71.588999806764917 0 -71.588999806764917 25.502707649210464 0 0 0 0 3.7154855525586754 -111.96554489553819 0 -111.96554489553819 8.9603047352502472 0 0 0 0 49.708655758280656 -142.50584075270308 0 -142.50584075270308 115.24013796070358 0 0 0 0 130.16962211791542 -65.104068747765268 0 -65.104068747765268 43.748669192289526 0 0 0 0 -25.675017111970433 4.329443015201349 0 4.329443015201349 6.9812947084705996 0 0 0 0 252.83402107548318 -72.052497530334222 0 -72.052497530334222 -27.09707578758389 0 0 0 0 12.250712730179657 -93.587260433792835 0 -93.587260433792835 25.584067196177784 0 0 0 0 11.970934590455727 -89.533859225681226 0 -89.533859225681226 -26.286785080839763 0 0 0 0 -11.451187960741663 -85.332100316591095 0 -85.332100316591095 -9.9130290858502121 0 0 0 0 34.313228604041797 -64.361646274570376 0 -64.361646274570376 -8.9737103036222834 0 0 0 0 19.754894626501482 -85.614162457184648 0 -85.614162457184648 -34.5281375918712 0 0 0 0 -11.006238132937767 -16.743748062089857 0 -16.743748062089857 5.5083465111270336 0 0 0 0 -36.456046140818216 -128.64082350623357 0 -128.64082350623357 134.8367857319372 0 0 0 0 -57.542393365926728 -200.59429354915392 0 -200.59429354915392 35.437536201694456 0 0 0 0 -78.227523678375292 -105.61110920168721 0 -105.61110920168721 123.24763984703895 0 0 0 0 199.08434483964811 -5.5072566051912872 0 -5.5072566051912872 -43.332509871092043 0 0 0 0 72.713999638137125 -85.906231990763445 0 -85.906231990763445 28.997563043740243 0 0 0 0 105.16583447495941 85.523721029447188 0 85.523721029447188 -95.073804531014503 0 0 0 0 183.96550860110437 -98.014005841745529 0 -98.014005841745529 -3.5734591931723116 0 0 0 0 83.225032749032835 119.47503952548868 0 119.47503952548868 -134.10949287500625 0 0 0 0 1.6023168310989391 -4.3446059006272719 0 -4.3446059006272719 10.846172667383286 0 0 0 0 33.473539640566742 -17.897801272321885 0 -17.897801272321885 -28.824329902399768 0 0 0 0 70.019417211588006 -17.997086885663521 0 -17.997086885663521 -199.09446931667117 0 0 0 0 36.336011327744927 -91.531388691425491 0 -91.531388691425491 -117.13572816464875 0 0 0 0 34.834043910042965 32.704073116598011 0 32.704073116598011 82.269670757392305 0 0 0 0 3.3818556809171127 2.0825546823094427 0 2.0825546823094427 5.2393592016875292 0 0 0 0 70.226051855061087 -156.58537045408411 0 -156.58537045408411 266.36956959864438 0 0 0 0 132.64822095441923 -54.981365256165191 0 -54.981365256165191 95.389647614232672 0 0 0 0 60.283959386866172 -30.245137038513434 0 -30.245137038513434 12.006817280388265 0 0 0 0 3.2826168004103238 -88.901851532073124 0 -88.901851532073124 90.195418031946247 0 0 0 0 -28.146628996750223 -53.840366877117958 0 -53.840366877117958 54.604004692751914 0 0 0 0 -35.074383020124515 -56.668392511175625 0 -56.668392511175625 292.69737678863567 0 0 0 0 163.60582047648495 -4.0817206443998657 0 -4.0817206443998657 -60.254733404432045 0 0 0 0 130.08110645078705 -201.0364072903958 0 -201.0364072903958 37.834673432929776 0 0 0 0 29.58006480972108 -72.103590034728541 0 -72.103590034728541 -116.95511300919316 0 0 0 0 14.193201069329007 -155.49226981749894 0 -155.49226981749894 -20.898760161115206 0 0 0 0 25.30954279024445 -134.4842360331877 0 -134.4842360331877 -58.961467335097041 0 0 0 0 36.804006604768801 -102.05966160186472 0 -102.05966160186472 -0.87156074973609066 0 0 0 0 7.7612704724742798 -113.16023802103882 0 -113.16023802103882 4.4888330594144463 0 0 0 0 33.15823873320187 -85.549562132517167 0 -85.549562132517167 -62.033296606448857 0 0 0 0 -23.252137000288315 -36.473214073407021 0 -36.473214073407021 -9.2526858755488206 0 0 0 0 52.143178336649726 -75.082443495917687 0 -75.082443495917687 9.5351671653152152 0 0 0 0 71.80762543581659 -166.6527917587664 0 -166.6527917587664 64.784786920057741 0 0 0 0 34.527205593069084 -70.46190358507647 0 -70.46190358507647 1.7187038900447078 0 0 0 0 -0.553089261171408 -92.880350539602659 0 -92.880350539602659 3.3612066313553441 0 0 0 0 -37.862732984907893 -54.588856560654364 0 -54.588856560654364 16.242805240405531 0 0 0 0 66.349377861301036 -109.56977336178215 0 -109.56977336178215 5.9527609333017608 0 0 0 0 -30.220809820579518 -50.925872907207179 0 -50.925872907207179 15.582183610972308 0 0 0 0 71.287474770731933 -121.7680315212292 0 -121.7680315212292 34.995910572528373 0 0 0 0 -3.614647256907574 -31.788986750547835 0 -31.788986750547835 -29.573729339128285 0 0 0 0 35.069342463815701 -55.027606474293862 0 -55.027606474293862 49.470800651066384 0 0 0 0 9.8583058934735988 -8.9131181143453091 0 -8.9131181143453091 4.6906522702770985 0 0 0 0 8.2697940123325679 -108.04732711779252 0 -108.04732711779252 22.532831748658282 0 0 0 0 -148.77069337139255 -8.5694147399226495 0 -8.5694147399226495 38.540108375971613 0 0 0 0 274.79838900831237 -101.73209798010976 0 -101.73209798010976 -82.49205964641078 0 0 0 0 212.33114151756308 -101.14121880272614 0 -101.14121880272614 106.07069746922934 0 0 0 0 27.266600913921138 -29.317425230026856 0 -29.317425230026856 2.8392240485773073 0 0 0 0 -85.448759835824603 11.812883688515285 0 11.812883688515285 5.402900116496312 0 0 0 0 85.192572884698166 -103.21302593379733 0 -103.21302593379733 6.4950536200594797 0 0 0 0 22.271376199554652 -95.835895879899908 0 -95.835895879899908 86.319108915413381 0 0 0 0 153.84979657431541 -121.60020447777379 0 -121.60020447777379 4.1334992028714623 0 0 0 0 44.089337981829885 -62.664571605509082 0 -62.664571605509082 5.0038690385845257 0 0 0 0 143.29230959728739 -96.748287633710788 0 -96.748287633710788 90.026127009907214 0 0 0 0 -1.9156161752697614 -0.57639684025059523 0 -0.57639684025059523 0.38812778370842693 0 0 0 0 -7.9627446886692539 -57.089515278880612 0 -57.089515278880612 8.3632255370071675 0 0 0 0 121.81144011327706 -157.56993979246181 0 -157.56993979246181 25.652672546362737 0 0 0 0 -173.30884264589986 -108.56032410298212 0 -108.56032410298212 -38.769529639277607 0 0 0 0 -165.37767802588496 -82.560547518876774 0 -82.560547518876774 24.441777400817955 0 0 0 0 51.795934001136629 -58.029669252315216 0 -58.029669252315216 -25.327605151833268 0 0 0 0 72.326012305275071 -83.05339676537551 0 -83.05339676537551 -75.925545673073429 0 0 0 0 -159.44479300134117 -137.35415075006313 0 -137.35415075006313 20.529383914385107 0 0 0 0 9.3817828976143858 -13.729875159203687 0 -13.729875159203687 14.22907134503707 0 0 0 0 30.61105094292725 -69.300939667286002 0 -69.300939667286002 -30.410054678104643 0 0 0 0 46.804141214641277 -30.371855830024288 0 -30.371855830024288 -24.198852841715961 0 0 0 0 47.764282224976085 -37.013915398932369 0 -37.013915398932369 20.442696084537332 0 0 0 0 -59.729675166046945 -142.75130820157938 0 -142.75130820157938 -74.883560363796278 0 0 0 0 23.326512135492521 -62.19659101252546 0 -62.19659101252546 -26.462425045770942 0 0 0 0 -41.252432391280308 -100.54275252877414 0 -100.54275252877414 -27.150346182962949 0 0 0 0 -74.174188080185559 -38.078726804633334 0 -38.078726804633334 25.258194819893106 0 0 0 0 -42.183339015224192 -70.634032830366777 0 -70.634032830366777 69.788421043733251 0 0 0 0 4.7688726203923579 -114.9876363708504 0 -114.9876363708504 61.337075063056545 0 0 0 0 -11.223434521407341 -18.94759130711266 0 -18.94759130711266 -21.445121731230955 0 0 0 0 -15.28915349356248 -62.186588940763613 0 -62.186588940763613 27.783801123343437 0 0 0 0 13.101579952155589 -41.874190119171544 0 -41.874190119171544 34.811242828793183 0 0 0 0 93.088845469992521 19.544880007631946 0 19.544880007631946 -42.655585782180424 0 0 0 0 2.1692926851138168 -22.050322713029701 0 -22.050322713029701 -14.220036208382105 0 0 0 0 254.59098990335406 -88.376611170634533 0 -88.376611170634533 -64.006423833572626 0 0 0 0 55.428881103820231 -35.223987316113842 0 -35.223987316113842 5.9925225962132913 0 0 0 0 48.620909675140865 -66.048078942319989 0 -66.048078942319989 -0.82817376418825006 0 0 0 0 72.27581538956656 -59.357615614355836 0 -59.357615614355836 -0.96957239120820304 0 0 0 0 40.070061970734969 -59.074187753645674 0 -59.074187753645674 23.046880781828804 0 0 0 0 2.4787869540550957 -15.370436928670301 0 -15.370436928670301 -0.28682187002547721 0 0 0 0 72.256334095691273 -102.00531414820853 0 -102.00531414820853 58.383822890406009 0 0 0 0 39.313623319845647 -53.300630304751394 0 -53.300630304751394 28.777531499799807 0 0 0 0 68.930931054433131 -70.730150865630094 0 -70.730150865630094 50.431284760139533 0 0 0 0 52.016985651134746 -65.858376790703915 0 -65.858376790703915 80.897952617022383 0 0 0 0 56.797006101696752 -71.706885298906855 0 -71.706885298906855 20.676401840159087 0 0 0 0 -17.415799212700222 -56.209888973557099 0 -56.209888973557099 48.130452729968965 0 0 0 0 -4.4338691561228529 -4.2139817588401343 0 -4.2139817588401343 -5.7983348175839637 0 0 0 0 137.95531579948874 -133.66217738724663 0 -133.66217738724663 69.168758074578363 0 0 0 0 24.773926149471663 -75.161565912494552 0 -75.161565912494552 114.51038148764201 0 0 0 0 -22.565326743526384 -35.641867952981556 0 -35.641867952981556 64.733500598631508 0 0 0 0 55.002951669484901 -69.490787818680474 0 -69.490787818680474 26.465430911863223 0 0 0 0 207.01307945986264 72.36923846092759 0 72.36923846092759 -105.74500068662746 0 0 0 0 42.075214832249912 -14.809448024618177 0 -14.809448024618177 21.699907310748131 0 0 0 0 0.57676632499135394 -7.0121101834546948 0 -7.0121101834546948 -0.38256762681962186 0 0 0 0 0.75036011653173773 26.626979884284083 0 26.626979884284083 -110.07719565261505 0 0 0 0 3.4511375411765499 -5.183018916219595 0 -5.183018916219595 1.8599588342539732 0 0 0 0 48.718062094980269 -40.21930858678752 0 -40.21930858678752 -26.562690621271031 0 0 0 0 -21.964293013777933 -232.60127174332592 0 -232.60127174332592 -49.116039629239822 0 0 0 0 12.839109560474753 -26.29723424970507 0 -26.29723424970507 77.063694279175252 0 0 0 0 1.0432615970970502 -36.053838154728936 0 -36.053838154728936 33.403031658113406 0 0 0 0 -64.119887406443013 -22.328262954826641 0 -22.328262954826641 83.255146980154677 0 0 0 0 10.044256939829211 -38.573278022999148 0 -38.573278022999148 20.02625327657006 0 0 0 0 209.7132791565964 15.309677127923351 0 15.309677127923351 -58.644785800963291 0 0 0 0 114.66631434723968 149.52324229125952 0 149.52324229125952 61.846873195674561 0 0 0 0 -23.540301855976679 -25.776749263778271 0 -25.776749263778271 -18.645480088469668 0 0 0 0 3.8569756702199811 -174.25644959880447 0 -174.25644959880447 55.495804050326115 0 0 0 0 -90.154572975414339 -33.641940581903327 0 -33.641940581903327 69.311708645196632 0 0 0 0 117.69787962131886 71.318646736378923 0 71.318646736378923 138.08228759287158 0 0 0 0 63.785228031832958 -34.223419244910474 0 -34.223419244910474 54.097805302691995 0 0 0 0 44.926398963842075 -56.279096214333549 0 -56.279096214333549 28.306350439263042 0 0 0 0 338.71502210537437 -241.80437433902989 0 -241.80437433902989 424.20507044330589 0 0 0 0 88.219067251717206 -21.923700639148592 0 -21.923700639148592 32.881850498364656 0 0 0 0 4.2660175742197453 -2.7885111596758918 0 -2.7885111596758918 -1.5116882719125897 0 0 0 0 89.179609499580692 -23.458582125313114 0 -23.458582125313114 -5.9770941636525095 0 0 0 0 -7.3142850838413693 -25.028272058174764 0 -25.028272058174764 18.195235881736977 0 0 0 0 80.31484058474598 -40.762356107425148 0 -40.762356107425148 2.64761528026429 0 0 0 0 1.0155695527146023 -25.448493124234972 0 -25.448493124234972 -1.1246816686977184 0 0 0 0 91.095316297098179 -24.402573270610446 0 -24.402573270610446 20.325713421509136 0 0 0 0 73.039081037830329 -39.345653985161334 0 -39.345653985161334 12.919525998207973 0 0 0 0 86.671055589278694 -29.083506367445807 0 -29.083506367445807 16.237378369380167 0 0 0 0 41.053594619832097 -9.6493333888459745 0 -9.6493333888459745 -13.342760396216661 0 0 0 0 6.2690903042013417 -37.242216786135259 0 -37.242216786135259 35.792360801951929 0 0 0 0 3.2998474461201113 -34.954467265310086 0 -34.954467265310086 37.011256262907409 0 0 0 0 -9.7414214485761477 -63.4831406045123 0 -63.4831406045123 38.731351546215592 0 0 0 0 51.178219730311469 -29.70670531043254 0 -29.70670531043254 -0.67413748835852516 0 0 0 0 -12.575979952060152 -41.426703168132008 0 -41.426703168132008 48.217769559356384 0 0 0 0 85.480019233640633 -173.98488705753698 0 -173.98488705753698 41.933115234860452 0 0 0 0 86.307233551080571 -27.628884508798365 0 -27.628884508798365 2.2562303030972544 0 0 0 0 22.600336671341211 -38.501793471696146 0 -38.501793471696146 -10.293596945971331 0 0 0 0 10.456024605031416 -20.956565550332471 0 -20.956565550332471 7.1775338648658362 0 0 0 0 -0.27434983889025943 -17.43930085763165 0 -17.43930085763165 11.677873385154228 0 0 0 0 20.237173346038617 -30.928694422114404 0 -30.928694422114404 13.746077924835845 0 0 0 0 9.3898337078761287 -20.830457647538935 0 -20.830457647538935 7.4178570567217434 0 0 0 0 22.458633646044007 -20.757024427410347 0 -20.757024427410347 10.239277521405839 0 0 0 0 16.96158606192293 -24.325121621028785 0 -24.325121621028785 2.4451068817587895 0 0 0 0 3.8097572265864841 -32.98690303314811 0 -32.98690303314811 28.368106725991311 0 0 0 0 50.705338507108536 -47.588381384940476 0 -47.588381384940476 29.676047610410023 0 0 0 0 33.657883555766603 -72.219222281983093 0 -72.219222281983093 65.119446145305119 0 0 0 0 58.698469453112921 -55.822400703331368 0 -55.822400703331368 13.091490979124501 0 0 0 0 241.0104775132786 -72.179641469996568 0 -72.179641469996568 -31.121263730121427 0 0 0 0 53.780243375920691 -55.473786862887209 0 -55.473786862887209 14.808399013185408 0 0 0 0 60.66841557954001 -53.026941363669813 0 -53.026941363669813 17.708015321410684 0 0 0 0 22.974366940238014 -47.764345057524352 0 -47.764345057524352 34.778586126340201 0 0 0 0 8.8503617596725235 -34.175128563780163 0 -34.175128563780163 55.668680752023647 0 0 0 0 -4.77552329532773 -52.000550608752746 0 -52.000550608752746 20.430225916585186 0 0 0 0 17.770433688192377 -7.2884762930103477 0 -7.2884762930103477 -1.387994811941752 0 0 0 0 22.121303836116567 -40.136487821539049 0 -40.136487821539049 -10.593324055003905 0 0 0 0 22.12130383605836 -40.136487821560877 0 -40.136487821560877 -10.59332405506575 0 0 0 0 22.121303836000152 -40.136487821509945 0 -40.136487821509945 -10.593324055000267 0 0 0 0 63.62683630695777 -52.126029859964149 0 -52.126029859964149 12.732957357124207 0 0 0 0 19.262787535772077 -48.00670111238469 0 -48.00670111238469 16.532622686121613 0 0 0 0 8.7589491870094207 -32.87805576988103 0 -32.87805576988103 6.8474870378267951 0 0 0 0 -4.9612115123891272 -43.610186171950772 0 -43.610186171950772 -1.5259266841312638 0 0 0 0 24.258904106012778 -53.351171014906868 0 -53.351171014906868 -22.374147676629946 0 0 0 0 23.284822717178031 -14.73224700166611 0 -14.73224700166611 -14.930322360334685 0 0 0 0 32.848014941853762 -22.744052071138867 0 -22.744052071138867 -14.826877797284396 0 0 0 0 6.7863396709144581 -31.440111550229631 0 -31.440111550229631 -5.7232130084308892 0 0 0 0 -2.6049480294896057 -16.33717792790867 0 -16.33717792790867 -8.9340613141539507 0 0 0 0 12.294430527908844 -32.44790441398618 0 -32.44790441398618 -24.772162938657857 0 0 0 0 10.980776121677479 -10.402214061753064 0 -10.402214061753064 7.6989132007926031 0 0 0 0 -15.01977100368822 -43.424933285910811 0 -43.424933285910811 -6.0782204781773999 0 0 0 0 16.349747522064717 -33.628029156850971 0 -33.628029156850971 -8.3772391043166863 0 0 0 0 19.585296968143666 -33.63950440283952 0 -33.63950440283952 -60.749516846975894 0 0 0 0 0.38677543059668551 -2.828270779656691 0 -2.828270779656691 7.6116555213826871 0 0 0 0 -6.8199480188286543 -11.069982072036055 0 -11.069982072036055 91.659899387443147 0 0 0 0 -23.917627640825231 -47.603833030894748 0 -47.603833030894748 65.244778085008875 0 0 0 0 18.113874150825723 23.657111047712533 0 23.657111047712533 73.646366046363255 0 0 0 0 -20.281065002709511 -61.507769311589072 0 -61.507769311589072 32.453411031681753 0 0 0 0 -4.4118681896507042 -41.243564477808832 0 -41.243564477808832 39.529966157242598 0 0 0 0 -7.9888596956152469 -53.071367830223608 0 -53.071367830223608 35.505440952103527 0 0 0 0 -1.325684839830501 -275.50535100167326 0 -275.50535100167326 423.73285166099777 0 0 0 0 1.3751465637322724 -4.1135760479948544 0 -4.1135760479948544 -0.30914089610246265 0 0 0 0 28.848535736382473 -122.09750362319755 0 -122.09750362319755 495.04090407084004 0 0 0 0 2.9765619584168235 0.83615691647188228 0 0.83615691647188228 -3.2885982974947296 0 0 0 0 -134.5849173777533 -170.39616012984698 0 -170.39616012984698 75.981014498664422 0 0 0 0 -186.79450424625247 -44.527200348198676 0 -44.527200348198676 289.20272923435004 0 0 0 0 149.98319182862178 187.49974635127728 0 187.49974635127728 247.39103403714034 0 0 0 0 -51.331111940322444 69.148652394171222 0 69.148652394171222 177.83607584882702 0 0 0 0 5.7098395691436963 -6.9207659128962895 0 -6.9207659128962895 5.4576919286778889 0 0 0 0 20.525781998920138 -17.442814060021192 0 -17.442814060021192 -20.782121349573572 0 0 0 0 2.1538281727199973 -3.013825353033269 0 -3.013825353033269 -9.7624196039900255 0 0 0 0 -4.6286855149228359 -12.995222568724785 0 -12.995222568724785 -19.299845632609504 0 0 0 0 -0.0066858337449957617 -7.4383829828984744 0 -7.4383829828984744 -13.34263293420554 0 0 0 0 -32.798863915377297 -23.895875916514342 0 -23.895875916514342 -15.743163788094535 0 0 0 0 33.592610479368886 -7.0166391645743715 0 -7.0166391645743715 -9.1834521861674148 0 0 0 0 1.4824860490275427 -2.5891924234588828 0 -2.5891924234588828 -6.5345569423649579 0 0 0 0 -56.045994560845429 -49.993237660355589 0 -49.993237660355589 -40.057946207729401 0 0 0 0 63.878758351987926 -6.6422352466997836 0 -6.6422352466997836 -20.920563149251393 0 0 0 0 -0.078305846269358881 -31.577154213286121 0 -31.577154213286121 -55.849394209300954 0 0 0 0 -19.72203667453141 -48.733395412245955 0 -48.733395412245955 -68.918165106726519 0 0 0 0 -85.434856529827812 -83.840116108975053 0 -83.840116108975053 -73.21447732447632 0 0 0 0 -24.570740971554187 -59.972629057474478 0 -59.972629057474478 -68.300126515598095 0 0 0 0 2.5564120733179152e-05 -91.77538807205201 0 -91.77538807205201 -156.78006838128931 0 0 0 0 -1.9024500223604264 -114.96873029043672 0 -114.96873029043672 -201.98344721591639 0 0 0 0 -193.73381826294644 -174.55804088704645 0 -174.55804088704645 -104.23925300829796 0 0 0 0 1.3016429163307635 -2.7068813775220519 0 -2.7068813775220519 -3.1537674112740319 0 0 0 0 89.453203611301433 13.808823707997362 0 13.808823707997362 -11.138135476729076 0 0 0 0 57.96347467142914 -26.980280715679328 0 -26.980280715679328 -53.820901376275287 0 0 0 0 77.584236895432696 -89.812305149243912 0 -89.812305149243912 5.6318673202828222 0 0 0 0 44.327069948980352 -35.897608976305492 0 -35.897608976305492 6.1225198027996157 0 0 0 0 27.242570415648515 -48.870617141936236 0 -48.870617141936236 6.5716580647713272 0 0 0 0 85.172593316108305 -102.27655381194984 0 -102.27655381194984 -27.14810900932207 0 0 0 0 88.047583724284777 -126.92707208292995 0 -126.92707208292995 -7.1875342493858625 0 0 0 0 73.243287837598473 -65.397450185257185 0 -65.397450185257185 -106.80825997577267 0 0 0 0 69.758823120238958 -156.83248677940355 0 -156.83248677940355 -110.86900311383806 0 0 0 0 9.7815027281903895 -192.79751569025939 0 -192.79751569025939 -34.109467516842415 0 0 0 0 16.464582214961411 -164.35561363254965 0 -164.35561363254965 41.270564825630572 0 0 0 0 84.012964966444997 -113.19339258360378 0 -113.19339258360378 -34.007602318219142 0 0 0 0 73.188201736958717 -117.3545147505256 0 -117.3545147505256 64.557126961459289 0 0 0 0 55.135269056132529 -195.63145475270539 0 -195.63145475270539 163.5084563463206 0 0 0 0 29.652464575285194 -100.96702376258008 0 -100.96702376258008 163.98181884234509 0 0 0 0 20.582535183057189 -156.9988891102239 0 -156.9988891102239 62.324821382393566 0 0 0 0 -13.237650604001828 -54.627404653203484 0 -54.627404653203484 110.83662362457289 0 0 0 0 0.042303941550497111 -111.03790069609886 0 -111.03790069609886 -16.201131694022479 0 0 0 0 -59.494543622662604 -72.825835539481886 0 -72.825835539481886 7.6510168379354582 0 0 0 0 -13.744597630749922 -39.538851125711517 0 -39.538851125711517 -29.633936432655901 0 0 0 0 -9.2333964111603564 -5.8271184211407672 0 -5.8271184211407672 13.833794120771927 0 0 0 0 2.275404225223042 -0.40725179294119584 0 -0.40725179294119584 -3.5081863557660427 0 0 0 0 -31.238682875220547 -21.939159108740569 0 -21.939159108740569 -24.659053728159051 0 0 0 0 -11.192421451603877 -24.384497322829702 0 -24.384497322829702 -23.196400255670596 0 0 0 0 -0.052660569475847296 -31.569117592563998 0 -31.569117592563998 -43.355163511434512 0 0 0 0 -2.5507094831991708 12.120091038173996 0 12.120091038173996 68.250807710202935 0 0 0 0 3.3781027924021032 0.99783894248684391 0 0.99783894248684391 -3.0710651313838184 0 0 0 0 -10.191837645863416 -9.2737685727042845 0 -9.2737685727042845 11.116318586522539 0 0 0 0 28.069622832961613 -2.3974269162936253 0 -2.3974269162936253 -129.13899248802045 0 0 0 0 29.94308622830431 -61.327509159229521 0 -61.327509159229521 -183.8631416206772 0 0 0 0 5.5554041971481638 -6.620980641200731 0 -6.620980641200731 95.630324827303411 0 0 0 0 15.677710241550812 -40.753310094980407 0 -40.753310094980407 23.630703324641217 0 0 0 0 3.8808586746315825 -26.804412231453398 0 -26.804412231453398 -19.484859486675248 0 0 0 0 58.554558756630286 -2.299553278266103 0 -2.299553278266103 -22.571014065673808 0 0 0 0 0.18091214379072795 -2.0904697076863386 0 -2.0904697076863386 -0.1770047777087882 0 0 0 0 29.618744560604682 -72.430623170956096 0 -72.430623170956096 -117.49448777750513 0 0 0 0 67.708752381498925 -41.616840275906725 0 -41.616840275906725 -294.61012879302507 0 0 0 0 46.185204566165339 0.67328578242450021 0 0.67328578242450021 -189.03546193483635 0 0 0 0 -16.875196463253815 52.88100549725641 0 52.88100549725641 -120.73887617055152 0 0 0 0 -32.577038242467097 9.6183381585942698 0 9.6183381585942698 54.553396027542476 0 0 0 0 -26.166053470020415 33.325023542159215 0 33.325023542159215 31.10410489642527 0 0 0 0 -14.673481697820534 -4.0083217100836919 0 -4.0083217100836919 43.208236269871122 0 0 0 0 -10.630910823034355 4.0091308249611757 0 4.0091308249611757 30.991394228040008 0 0 0 0 -29.053416629445564 23.095870999335602 0 23.095870999335602 33.808896237809677 0 0 0 0 31.779620969449752 0.76981204692856409 0 0.76981204692856409 33.480851019237889 0 0 0 0 10.269157983246259 -0.57040288380085258 0 -0.57040288380085258 6.6671019685745705 0 0 0 0 1.9415688336524575 -1.7389910907338049 0 -1.7389910907338049 -0.30365471514795672 0 0 0 0 40.94956503980211 -12.381749649524863 0 -12.381749649524863 1.7718848194053862 0 0 0 0 0.84216747601927011 -14.013166703070681 0 -14.013166703070681 1.5729046457265099 0 0 0 0 40.660736512349104 -5.0569233453097695 0 -5.0569233453097695 -39.21678671297559 0 0 0 0 2.757334566523383 -3.4259057417051793 0 -3.4259057417051793 -9.5023513185186061 0 0 0 0 12.351079338105194 -6.1375894925356533 0 -6.1375894925356533 -10.76532310718585 0 0 0 0 16.39854275622929 -4.3522250242094742 0 -4.3522250242094742 -0.019912176569050644 0 0 0 0 2.0705880624882411 -2.2710871137960851 0 -2.2710871137960851 0.59552763215165783 0 0 0 0 13.400310870158137 0.69764789552937145 0 0.69764789552937145 2.7020082604940399 0 0 0 0 11.468014560285781 -3.6897099556933597 0 -3.6897099556933597 -8.813115777495284 0 0 0 0 -13.542498083900227 -36.098163461186459 0 -36.098163461186459 131.03920140503033 0 0 0 0 65.119091753964312 -23.587480242233141 0 -23.587480242233141 -76.925270565829123 0 0 0 0 -13.596611351676984 -33.17333816557948 0 -33.17333816557948 -24.608006753238442 0 0 0 0 -0.16900489027966614 -0.16080639231715566 0 -0.16080639231715566 -2.6781089119147339 0 0 0 0 277.52133363008033 -101.87010654829646 0 -101.87010654829646 -137.85492780644563 0 0 0 0 -34.019416762908804 27.687636220394779 0 27.687636220394779 66.426488623867044 0 0 0 0 229.25885495987313 79.257946927002195 0 79.257946927002195 -26.737956035984098 0 0 0 0 3.377895511069255 -0.93181726752887073 0 -0.93181726752887073 -2.1784348046113422 0 0 0 0 40.277310744862916 -129.16690457999175 0 -129.16690457999175 15.529954660145449 0 0 0 0 596.34106332538067 -121.8889545021957 0 -121.8889545021957 -49.222964840664645 0 0 0 0 39.398847543098327 -1.2181934029949844 0 -1.2181934029949844 -30.366815882109222 0 0 0 0 -107.04324052869924 -37.305542665577377 0 -37.305542665577377 87.613776149835758 0 0 0 0 2.6007589460969669 -11.020563762204432 0 -11.020563762204432 -5.9677245870873605 0 0 0 0 -109.09088463868829 -245.89603135093785 0 -245.89603135093785 -288.76730938988112 0 0 0 0 -4.1776758441891957 -0.44726438860655549 0 -0.44726438860655549 -1.0251094471904452 0 0 0 0 69.835970918138628 2.2160337554159923 0 2.2160337554159923 -65.059978192846756 0 0 0 0 -3.608988971405779 -21.433684271753009 0 -21.433684271753009 -22.679268601030344 0 0 0 0 21.843451377048041 -60.876725167327095 0 -60.876725167327095 -33.511622385238297 0 0 0 0 26.264659674023278 -62.06211210731999 0 -62.06211210731999 -120.91281438921578 0 0 0 0 -148.02276972937398 43.141418260405771 0 43.141418260405771 -58.403064993675798 0 0 0 0 -108.88976931191428 -58.997876592849934 0 -58.997876592849934 -2.6526547020766884 0 0 0 0 -19.057515053777024 -71.947621460043592 0 -71.947621460043592 -61.089288276154548 0 0 0 0 -40.513411463005468 -105.97766204887012 0 -105.97766204887012 -68.090968151707784 0 0 0 0 1.0684154921512459 -3.1044508752257798 0 -3.1044508752257798 -0.41739233423948008 0 0 0 0 -39.448349304962903 -67.429379432753194 0 -67.429379432753194 -27.368132154866544 0 0 0 0 8.9344571900728624 -35.60511999350274 0 -35.60511999350274 -33.70936112900381 0 0 0 0 -52.751323490076174 -44.136398112221286 0 -44.136398112221286 -20.360604339861311 0 0 0 0 -60.611629094288219 -20.105409211450024 0 -20.105409211450024 -17.174909352848772 0 0 0 0 -13.675954087622813 -25.874383706712251 0 -25.874383706712251 42.830965133107384 0 0 0 0 0.080833962711039931 -39.075723408466729 0 -39.075723408466729 -11.031009150712634 0 0 0 0 61.077986211021198 -241.14764234310132 0 -241.14764234310132 -786.94432674470772 0 0 0 0 7.871615080308402 53.605220718780402 0 53.605220718780402 92.267833614205301 0 0 0 0 -0.58620358350924562 2.1300533553684602 0 2.1300533553684602 -1.3681839283824431 0 0 0 0 -37.132790063827997 -153.83062524031993 0 -153.83062524031993 -218.43984524731422 0 0 0 0 -0.21598562063975896 -392.49445682566301 0 -392.49445682566301 -343.2412251339556 0 0 0 0 -88.644140672273352 -268.69168541028557 0 -268.69168541028557 -272.40434366943373 0 0 0 0 78.374594475040794 -335.6287651584571 0 -335.6287651584571 -265.94069324256952 0 0 0 0 0.030726422424777411 -408.53091940717786 0 -408.53091940717786 63.07694958223874 0 0 0 0 0.2080153394053923 -396.28669437841017 0 -396.28669437841017 598.28889744654225 0 0 0 0 24.03121376123454 -120.75145395317304 0 -120.75145395317304 357.18260256810026 0 0 0 0 85.614106194385386 -163.85928478857022 0 -163.85928478857022 455.46650991270872 0 0 0 0 -108.23426944820676 -381.99573935875378 0 -381.99573935875378 430.61298843265104 0 0 0 0 -0.2953214029580522 0.053609332088740302 0 0.053609332088740302 0.634561055694434 0 0 0 0 384.82687081025506 -129.64498052397539 0 -129.64498052397539 -586.91830905817187 0 0 0 0 -128.2515358233286 -147.04515139533214 0 -147.04515139533214 1197.7402064346534 0 0 0 0 -4.00333920326932 -11.427296799553716 0 -11.427296799553716 5.448819523590851 0 0 0 0 -60.776772354496643 -49.269461884687189 0 -49.269461884687189 233.42435533920843 0 0 0 0 16.494068551110104 -141.05883740061108 0 -141.05883740061108 222.09748851860786 0 0 0 0 6.3916028026869753 -57.724865364933066 0 -57.724865364933066 -12.559331991782528 0 0 0 0 -1.8288565102000689 -2.0264990299895373 0 -2.0264990299895373 -0.0064101701503831432 0 0 0 0 -55.488692895552958 -217.21507022595688 0 -217.21507022595688 643.75861041000792 0 0 0 0 -2.7356592317664763 -73.834565955436119 0 -73.834565955436119 -179.75211533379479 0 0 0 0 -17.202254809250007 -322.8510352656449 0 -322.8510352656449 281.85009500380306 0 0 0 0 54.386468618511572 -139.55329690470171 0 -139.55329690470171 288.79119480415102 0 0 0 0 36.584521995129762 -192.14900745480554 0 -192.14900745480554 149.09994552530407 0 0 0 0 100.6075531457318 -217.67243921766931 0 -217.67243921766931 149.71264097733365 0 0 0 0 139.56637697009137 -258.51662487880822 0 -258.51662487880822 155.11378118324774 0 0 0 0 53.283728136055288 -368.17326120590769 0 -368.17326120590769 41.895554511807859 0 0 0 0 316.60029294312699 -368.37521389327594 0 -368.37521389327594 -1.3644476581575873 0 0 0 0 72.570466926095833 -326.24268149923228 0 -326.24268149923228 56.012364621863526 0 0 0 0 -206.74015225469338 -419.08748503559946 0 -419.08748503559946 48.249803040729603 0 0 0 0 -414.25435892601672 -246.37082552713036 0 -246.37082552713036 -93.229578797403519 0 0 0 0 -0.20125491898029679 -3.9091081838209334 0 -3.9091081838209334 -1.5196119796339076 0 0 0 0 397.42801455144672 -327.53632557531648 0 -327.53632557531648 256.31353198731813 0 0 0 0 538.89080506941536 -349.9145149705073 0 -349.9145149705073 -15.49572762324533 0 0 0 0 262.96915417128184 -170.37112463768062 0 -170.37112463768062 115.99787383607691 0 0 0 0 401.18698643129756 -47.250182564721399 0 -47.250182564721399 225.58195941896702 0 0 0 0 -19.770106338341947 -36.465965327384112 0 -36.465965327384112 -13.516417016041885 0 0 0 0 -72.488188599374553 177.91314514550686 0 177.91314514550686 60.902943274105155 0 0 0 0 90.489437076219474 -129.21706428672587 0 -129.21706428672587 -30.701318712031934 0 0 0 0 65.045639930132893 -471.40524147966062 0 -471.40524147966062 91.607616233506178 0 0 0 0 357.65358961684979 -97.919699262823997 0 -97.919699262823997 -25.364942944630457 0 0 0 0 151.05317131325137 -94.841018507635454 0 -94.841018507635454 35.341585576650687 0 0 0 0 179.33889143066335 -198.0289140515888 0 -198.0289140515888 94.772792191477492 0 0 0 0 -13.190444448717983 -35.192018939281411 0 -35.192018939281411 7.807433689216623 0 0 0 0 133.17756413234747 -123.78988380593364 0 -123.78988380593364 11.379966508538928 0 0 0 0 -137.12665214072695 41.514253333896704 0 41.514253333896704 225.63679390632024 0 0 0 0 -18.363539711164776 -106.77792735320691 0 -106.77792735320691 89.610806206634152 0 0 0 0 100.83289140808228 -131.99452131410993 0 -131.99452131410993 50.854785839648684 0 0 0 0 -8.385743689285448 2.0349469741479709 0 2.0349469741479709 0.38715456100004531 0 0 0 0 114.69688564931857 43.166043007520784 0 43.166043007520784 -45.321593085478526 0 0 0 0 1.2784330454091233 1.6364774644146394 0 1.6364774644146394 3.4268208061035352 0 0 0 0 627.95580537308706 -142.20289631562264 0 -142.20289631562264 -59.47786002587236 0 0 0 0 -245.27478047753539 37.21981298731589 0 37.21981298731589 87.284703557408648 0 0 0 0 -124.84228578791954 57.020734591169457 0 57.020734591169457 -41.382947981579491 0 0 0 0 162.20287616385031 197.3314121757212 0 197.3314121757212 177.33961599762551 0 0 0 0 -23.934254276216961 -158.67139685042639 0 -158.67139685042639 285.61371243718895 0 0 0 0 -97.019858072133502 -42.478953764250036 0 -42.478953764250036 58.540413589798845 0 0 0 0 325.64542697167781 -142.14979975837377 0 -142.14979975837377 -113.06521814448934 0 0 0 0 -4.3190167046515668 -0.69311287780831776 0 -0.69311287780831776 15.214157743682307 0 0 0 0 -57.655747286131373 -57.858717521157814 0 -57.858717521157814 -23.460339730663691 0 0 0 0 102.49977003355161 -341.2299946732528 0 -341.2299946732528 -111.54342441432527 0 0 0 0 116.12699091494687 -83.706787798755386 0 -83.706787798755386 -23.248991389322327 0 0 0 0 -0.72340031931639714 -25.682026745848276 0 -25.682026745848276 7.5303761651162944 0 0 0 0 9.3624768433773511 -2.9266074553717942 0 -2.9266074553717942 0.68609393724199208 0 0 0 0 127.0349542988406 14.985915700162877 0 14.985915700162877 110.49210953526199 0 0 0 0 -69.162308714992832 -22.262447185421479 0 -22.262447185421479 64.087099912794656 0 0 0 0 -145.67355175328339 -264.69567653767263 0 -264.69567653767263 -78.05168417020468 0 0 0 0 -28.575727179675596 -255.77849575485016 0 -255.77849575485016 -199.72444966650824 0 0 0 0 -3.7557570553805171 -37.273201917795802 0 -37.273201917795802 16.812197974902546 0 0 0 0 82.019652100920212 -499.38648340402142 0 -499.38648340402142 23.530493495979499 0 0 0 0 7.5389037522202216 -7.5192904417495185 0 -7.5192904417495185 -10.719356706054967 0 0 0 0 -21.334848803264322 -105.77246708832536 0 -105.77246708832536 128.1728615071479 0 0 0 0 3.1561627854753169 106.58016854969628 0 106.58016854969628 195.95785626137513 0 0 0 0 -27.272702547368823 -23.550568455546369 0 -23.550568455546369 -16.851257560316384 0 0 0 0 -12.160077883512713 -113.30453767735162 0 -113.30453767735162 53.727715422341134 0 0 0 0 9.8852063904050738 -110.00368094678561 0 -110.00368094678561 42.246745198397548 0 0 0 0 -20.066421822863049 -11.140277292462997 0 -11.140277292462997 33.628531190304784 0 0 0 0 -31.847935957484879 -70.913637481295154 0 -70.913637481295154 13.023745049838908 0 0 0 0 -44.716657614888391 -58.248576262212737 0 -58.248576262212737 65.013157741152099 0 0 0 0 -70.797156674932921 -25.306564684091427 0 -25.306564684091427 45.916324457684823 0 0 0 0 -70.331427887635073 -26.936737024065224 0 -26.936737024065224 33.252531523787184 0 0 0 0 -151.2866007014527 18.516682952333213 0 18.516682952333213 43.832199363794643 0 0 0 0 -78.307508838770445 -38.334129242401104 0 -38.334129242401104 57.114529903788934 0 0 0 0 -38.16318921270431 -23.858657180724549 0 -23.858657180724549 43.678695533249993 0 0 0 0 -76.695121990342159 -26.813905508613971 0 -26.813905508613971 62.309081641113153 0 0 0 0 -20.339908422494773 -52.433949049987859 0 -52.433949049987859 60.057582797773648 0 0 0 0 -8.6265722953830846 -35.081829316492076 0 -35.081829316492076 77.52014991537726 0 0 0 0 -16.442543250188464 -47.053108776293811 0 -47.053108776293811 67.420350899251389 0 0 0 0 40.486244539919426 -73.15680977798911 0 -73.15680977798911 68.139644831404439 0 0 0 0 14.741068751027342 -75.671590887177445 0 -75.671590887177445 70.549432628788054 0 0 0 0 -11.831608019536361 -46.804936442895269 0 -46.804936442895269 62.761705023105606 0 0 0 0 -25.340525204694131 -47.039700685949356 0 -47.039700685949356 36.807853418580635 0 0 0 0 -18.342466848480399 -60.208316935648327 0 -60.208316935648327 43.680157631097245 0 0 0 0 -35.400643421598943 -33.026192198354693 0 -33.026192198354693 51.079017339361599 0 0 0 0 -54.563215724519978 -52.570304350112565 0 -52.570304350112565 54.955798094495549 0 0 0 0 -35.365875997405965 -68.008029363372771 0 -68.008029363372771 6.9480482634389773 0 0 0 0 -214.53381799261842 -36.321514712795761 0 -36.321514712795761 112.04191191753489 0 0 0 0 -166.9663041595195 -62.52909584443114 0 -62.52909584443114 105.33111993959756 0 0 0 0 -47.900822909738054 -39.125868725401233 0 -39.125868725401233 53.791967694589403 0 0 0 0 -69.329622410514276 -71.824674766423414 0 -71.824674766423414 30.031785001934622 0 0 0 0 -38.117989043996204 -134.65203342292079 0 -134.65203342292079 128.67107205869252 0 0 0 0 45.325792785093654 -86.2397306443454 0 -86.2397306443454 -71.148234589229105 0 0 0 0 -41.935756173479604 -97.06843924648274 0 -97.06843924648274 39.46320004964582 0 0 0 0 -48.454984267082182 -67.995358830856276 0 -67.995358830856276 7.74975595928845 0 0 0 0 -36.926931940346549 -84.801145036843081 0 -84.801145036843081 -38.844322012984776 0 0 0 0 -82.554556205766858 -110.29405856779704 0 -110.29405856779704 -35.166552669190878 0 0 0 0 -57.239751446912123 -42.200450690037542 0 -42.200450690037542 33.006317983788904 0 0 0 0 -102.0067848116305 -90.22520773267388 0 -90.22520773267388 86.766850059182616 0 0 0 0 -168.96317802336125 31.00340155595768 0 31.00340155595768 143.51192757976969 0 0 0 0 -67.425766334227376 -37.575590684924485 0 -37.575590684924485 51.291012076242566 0 0 0 0 -67.063115005468717 -69.218132386427897 0 -69.218132386427897 -91.303207698350889 0 0 0 0 -20.223338008068822 -52.65746178030895 0 -52.65746178030895 -85.744576120836427 0 0 0 0 535.86764279154886 -381.64316696062815 0 -381.64316696062815 49.634450768309762 0 0 0 0 -23.384145511270333 -47.628396481025476 0 -47.628396481025476 -35.810289413634251 0 0 0 0 481.02634597322321 -409.68197866318224 0 -409.68197866318224 128.86210159706934 0 0 0 0 437.09184776301845 -283.5476947900388 0 -283.5476947900388 -35.757379864764516 0 0 0 0 554.19611798340338 -419.35375602028216 0 -419.35375602028216 24.612894706093357 0 0 0 0 262.51527692214586 -274.0181200321822 0 -274.0181200321822 102.44629712247115 0 0 0 0 475.22808421375885 -415.07994854808931 0 -415.07994854808931 88.904901174275437 0 0 0 0 337.35535313098808 -317.40834572821041 0 -317.40834572821041 143.66830040233253 0 0 0 0 354.75547151349019 -300.79492257847596 0 -300.79492257847596 82.549003285035724 0 0 0 0 508.02099981202991 -297.37139260433105 0 -297.37139260433105 56.793884931350476 0 0 0 0 480.11666247673566 -484.15659881808642 0 -484.15659881808642 316.60441139590694 0 0 0 0 500.14888531769975 -418.53553437975279 0 -418.53553437975279 410.23314696006128 0 0 0 0 1070.7552003426244 -233.55169049836695 0 -233.55169049836695 390.90291509665622 0 0 0 0 1210.6046992716147 -721.2707400037616 0 -721.2707400037616 586.29939835329424 0 0 0 0 1261.1284140563221 -306.48312803402951 0 -306.48312803402951 -115.88554305437719 0 0 0 0 -12.090344981676424 -12.254577499697596 0 -12.254577499697596 5.2872218382171354 0 0 0 0 1191.9546435718366 -783.27569171293544 0 -783.27569171293544 320.08377056859899 0 0 0 0 -17.563767933256031 -0.69637896406052846 0 -0.69637896406052846 24.288588532068701 0 0 0 0 1114.5162470273353 -565.54249343858464 0 -565.54249343858464 344.58847051166231 0 0 0 0 1131.401678232447 -543.36388058897137 0 -543.36388058897137 356.16209059013636 0 0 0 0 548.62577335054812 -284.90962457458591 0 -284.90962457458591 205.89947362834937 0 0 0 0 486.37773209565785 -411.41677090538724 0 -411.41677090538724 424.21454373002052 0 0 0 0 206.16911424214413 -118.67048678422634 0 -118.67048678422634 445.2308163503767 0 0 0 0 312.27875701329322 -595.82215887385246 0 -595.82215887385246 528.38389071305573 0 0 0 0 868.58550384396221 -805.76500469372695 0 -805.76500469372695 569.78237157582771 0 0 0 0 461.17625011445489 2805.5440784227685 0 2805.5440784227685 1613.3379522830655 0 0 0 0 261.88483280320361 -182.17168782698354 0 -182.17168782698354 94.243902257308946 0 0 0 0 15.224913693295093 -143.25953470937384 0 -143.25953470937384 251.42730591131112 0 0 0 0 -205.87579315343464 -104.37054218811681 0 -104.37054218811681 106.88105739884941 0 0 0 0 -36.282319516700227 131.93925871939064 0 131.93925871939064 -172.99307086493354 0 0 0 0 741.91898817177571 -286.33789042985518 0 -286.33789042985518 -1161.4298943933172 0 0 0 0 70.650702569038287 -94.05533285949484 0 -94.05533285949484 57.493590283550901 0 0 0 0 468.32725569193281 -487.91512846435216 0 -487.91512846435216 -855.20799993275796 0 0 0 0 -111.86989346579503 12.315735051888623 0 12.315735051888623 -427.46444520085788 0 0 0 0 66.818994090401247 -98.307695273001016 0 -98.307695273001016 62.27520700292321 0 0 0 0 -404.69591713821865 -863.23927869640465 0 -863.23927869640465 -283.17413701742043 0 0 0 0 170.79642048478127 85.171562638388423 0 85.171562638388423 94.004961260594428 0 0 0 0 -1769.4046624359326 -793.05465630970139 0 -793.05465630970139 4125.6556103882613 0 0 0 0 96.835471547572524 -383.4440526377075 0 -383.4440526377075 -885.85739014488354 0 0 0 0 -91.70849590520811 -55.706851497561729 0 -55.706851497561729 -246.43946014985704 0 0 0 0 40.093252218395378 -88.247440516637724 0 -88.247440516637724 60.827111113066451 0 0 0 0 282.24733952783572 -234.46244598350313 0 -234.46244598350313 -853.43729621407874 0 0 0 0 664.39358569373144 -155.40001037437469 0 -155.40001037437469 -866.94411853025304 0 0 0 0 238.80772216034529 204.56649633930647 0 204.56649633930647 -1068.9015780689078 0 0 0 0 325.83650170228793 56.40621657090378 0 56.40621657090378 -833.48705220497504 0 0 0 0 246.27644972494454 169.91148671731935 0 169.91148671731935 -863.31909986081882 0 0 0 0 362.11074280837056 -11.230992800607055 0 -11.230992800607055 -606.07997983634414 0 0 0 0 72.271635359662469 394.21862384920678 0 394.21862384920678 -1038.9908210945141 0 0 0 0 165.66900595297921 184.18572358934034 0 184.18572358934034 -568.30631348572206 0 0 0 0 29.350555882818298 234.38832426816225 0 234.38832426816225 -569.90113634911995 0 0 0 0 457.45479340030579 189.54097525269026 0 189.54097525269026 362.94991818023846 0 0 0 0 49.634742226790422 -223.87125195817134 0 -223.87125195817134 -81.612209186569089 0 0 0 0 -85.510010127327405 -125.46017616458266 0 -125.46017616458266 86.799916418036446 0 0 0 0 -225.39161172132299 211.69072515898006 0 211.69072515898006 40.760638942621881 0 0 0 0 47.537305043297238 -75.906085563903616 0 -75.906085563903616 -342.97079289954854 0 0 0 0 84.527289494762954 127.19371097311887 0 127.19371097311887 -377.55547034216579 0 0 0 0 -25.31266164444969 -152.71129971654591 0 -152.71129971654591 -102.12184637492464 0 0 0 0 -65.350057947907771 -350.13574123758008 0 -350.13574123758008 -412.20332420686464 0 0 0 0 5.8005492211668752 -46.833561567174911 0 -46.833561567174911 90.563147566437692 0 0 0 0 40.420321206331892 -73.604077857742141 0 -73.604077857742141 -74.632120241934899 0 0 0 0 15.024595425829375 -84.155437310641972 0 -84.155437310641972 51.689697305327854 0 0 0 0 -10.972409853654682 -41.272051012507802 0 -41.272051012507802 -53.618570847608851 0 0 0 0 141.47013933715061 -268.21690341296198 0 -268.21690341296198 -293.73100931205045 0 0 0 0 474.1014584362274 -60.833741732087219 0 -60.833741732087219 -222.14446822408354 0 0 0 0 -4.418780682509805 -13.288096536587773 0 -13.288096536587773 -3.7673227193081544 0 0 0 0 60.59173429895236 -126.10239672135867 0 -126.10239672135867 68.113786613379489 0 0 0 0 145.82468719725148 -277.44319883802018 0 -277.44319883802018 262.26500992785441 0 0 0 0 -28.43491188039502 -27.458432547063296 0 -27.458432547063296 35.108011486115288 0 0 0 0 33.090209655063518 -91.438315147523099 0 -91.438315147523099 60.139349107819726 0 0 0 0 -20.257933154134662 -70.843960600730497 0 -70.843960600730497 52.289622163574677 0 0 0 0 14.678225538038532 -108.2843551096521 0 -108.2843551096521 6.7350409682258032 0 0 0 0 -53.417977077246178 -80.469564266022644 0 -80.469564266022644 48.941998959817283 0 0 0 0 45.070560737240157 -110.37014466790606 0 -110.37014466790606 56.10675231955247 0 0 0 0 -70.608077235083329 -114.84553759957635 0 -114.84553759957635 69.337288605980575 0 0 0 0 -51.716237827968143 -151.33863531420866 0 -151.33863531420866 -126.87822447361395 0 0 0 0 -34.368760498385541 -51.862206453237164 0 -51.862206453237164 57.051465691782951 0 0 0 0 -49.978438115445897 -90.744113323009515 0 -90.744113323009515 79.628440537449933 0 0 0 0 -43.605659652806935 -92.360135183007515 0 -92.360135183007515 -65.474885845185781 0 0 0 0 -82.055354990756314 -140.08657413854053 0 -140.08657413854053 -47.487483037839411 0 0 0 0 -36.280935019534809 -110.76979423272678 0 -110.76979423272678 -47.843632855045144 0 0 0 0 -8.410267555416624 -69.715299191596728 0 -69.715299191596728 74.073670660817385 0 0 0 0 -31.352621442663803 -202.7713217278615 0 -202.7713217278615 -64.48824791397783 0 0 0 0 12.120400765299564 -234.36631094822224 0 -234.36631094822224 -87.485595949241542 0 0 0 0 84.293893209513044 -98.931062856980134 0 -98.931062856980134 -77.72547387672239 0 0 0 0 55.818412233958952 -150.71306943871605 0 -150.71306943871605 -147.17902504457743 0 0 0 0 15.628154957166771 -102.33619453537085 0 -102.33619453537085 -15.873828993135248 0 0 0 0 8.0048652415425749 -138.30318230083139 0 -138.30318230083139 -54.756643326254562 0 0 0 0 18.186977148303413 -106.20561795890535 0 -106.20561795890535 1.6324707821913762 0 0 0 0 -8.2636200804990949 -69.44958488157863 0 -69.44958488157863 -4.879410548863234 0 0 0 0 -5.0204994320083642 -129.7987623390145 0 -129.7987623390145 -49.030270986230789 0 0 0 0 40.775768767198315 -107.59585924424027 0 -107.59585924424027 -15.463190629488963 0 0 0 0 3.7216977441130439 -79.395437072555069 0 -79.395437072555069 31.318631924805231 0 0 0 0 -14.604059374796634 -83.551548318811001 0 -83.551548318811001 10.722745509367087 0 0 0 0 15.767991904227529 -53.151289134839317 0 -53.151289134839317 33.487498901056824 0 0 0 0 12.797832358250162 -31.819438391648873 0 -31.819438391648873 106.71252882121189 0 0 0 0 -13.552773429377822 -9.7985788133787821 0 -9.7985788133787821 -5.5257006640177195 0 0 0 0 47.81426058296347 -16.260921456938377 0 -16.260921456938377 -17.846069597551832 0 0 0 0 12.326075677683548 -109.17128406744632 0 -109.17128406744632 119.2099190295703 0 0 0 0 -9.5067561866804908 -12.441247013324528 0 -12.441247013324528 -10.113818109591705 0 0 0 0 -13.209033771650866 -71.87982169076713 0 -71.87982169076713 130.41159981841338 0 0 0 0 -1.6358219089452177 -75.022884615347721 0 -75.022884615347721 58.204893666203134 0 0 0 0 59.623789734527236 -35.3555728886422 0 -35.3555728886422 49.99338233362505 0 0 0 0 68.545727626042208 -73.954711164369655 0 -73.954711164369655 6.238643487355148 0 0 0 0 -8.191670352651272 -273.5193797870561 0 -273.5193797870561 475.94096779143001 0 0 0 0 52.707159163197502 -4.0538528559773113 0 -4.0538528559773113 -32.484779226106184 0 0 0 0 35.670622196252225 -103.56714899419967 0 -103.56714899419967 1.9272992732876446 0 0 0 0 -9.1879266395999366 -7.1195003954446463 0 -7.1195003954446463 -3.2729582748683441 0 0 0 0 -6.3968404540539439 -7.3525097940518265 0 -7.3525097940518265 -6.7153622087044766 0 0 0 0 -74.766175875971385 -32.910135956401064 0 -32.910135956401064 39.269156726521032 0 0 0 0 105.21191285422174 -35.714582924558272 0 -35.714582924558272 311.91634756763233 0 0 0 0 283.68330758929005 -120.0461121369317 0 -120.0461121369317 -47.371118878159905 0 0 0 0 213.47535412655998 -155.09817863407079 0 -155.09817863407079 166.55466703075217 0 0 0 0 -89.975846839282895 -250.31628457024635 0 -250.31628457024635 511.79772504250286 0 0 0 0 -134.02357135948841 -29.093033052857209 0 -29.093033052857209 147.43476986401947 0 0 0 0 -26.743676835001679 -223.26818748482765 0 -223.26818748482765 113.94277867890196 0 0 0 0 -158.90893889048311 91.675194510244182 0 91.675194510244182 379.74566555433557 0 0 0 0 -19.223376089605154 -119.33645718711887 0 -119.33645718711887 -7.1497609618963907 0 0 0 0 -17.338201323254907 -9.4123181606864819 0 -9.4123181606864819 110.42421499968623 0 0 0 0 32.359269127133302 -22.573755788165727 0 -22.573755788165727 -83.003781383869864 0 0 0 0 45.330472636749619 -238.21872771902417 0 -238.21872771902417 37.306273421294463 0 0 0 0 -138.18671108385024 -75.64588922099756 0 -75.64588922099756 222.56347038051172 0 0 0 0 171.24056356318033 -176.36808077080423 0 -176.36808077080423 217.86815892519371 0 0 0 0 -0.22672240657266229 -6.2571866039870656 0 -6.2571866039870656 360.12603558534465 0 0 0 0 -11.498676153132692 -110.33021680186721 0 -110.33021680186721 177.11235909633979 0 0 0 0 -3.2356838423957868 -2.9959518443606612 0 -2.9959518443606612 -1.6873002028835771 0 0 0 0 -111.97706437225861 -208.32217721772031 0 -208.32217721772031 507.92159613200783 0 0 0 0 700.70069180746214 -247.81287587151019 0 -247.81287587151019 -768.4017072620627 0 0 0 0 -657.52897006325657 -416.79887686794245 0 -416.79887686794245 -38.710272700089263 0 0 0 0 -169.93027681079548 24.676990811229189 0 24.676990811229189 5.186016127896437 0 0 0 0 -1.4006615642302904 -2.8659763352876269 0 -2.8659763352876269 -3.4442306408070209 0 0 0 0 58.356808117969649 124.33993174605689 0 124.33993174605689 -478.00206136875204 0 0 0 0 384.68643788604822 -184.78515273403173 0 -184.78515273403173 -513.94466399565863 0 0 0 0 -15.503275324042065 -50.914929367891034 0 -50.914929367891034 10.377095666426953 0 0 0 0 -1060.322110153269 42.784631467657164 0 42.784631467657164 -268.9829768104828 0 0 0 0 95.72261167560282 -113.10069362558716 0 -113.10069362558716 51.217583760546404 0 0 0 0 80.708606368849473 -88.440929659958528 0 -88.440929659958528 44.259926137719219 0 0 0 0 141.72080871029175 -134.11773130024085 0 -134.11773130024085 32.244136523273482 0 0 0 0 -27.280766148505791 6.176777919055894 0 6.176777919055894 88.082852870647912 0 0 0 0 163.18194954248611 -16.537309779529096 0 -16.537309779529096 -41.036508696823148 0 0 0 0 2.4365619491363759 55.142817541505792 0 55.142817541505792 -72.964197086839704 0 0 0 0 -89.952366946759867 -83.544227479244 0 -83.544227479244 -98.606043417000365 0 0 0 0 36.400090223614825 72.249498251025216 0 72.249498251025216 -85.316041966272678 0 0 0 0 -15.088679293294263 128.26258152477385 0 128.26258152477385 225.7298949045944 0 0 0 0 279.8546284961194 -222.81230994146608 0 -222.81230994146608 14.407197340107814 0 0 0 0 -60.194857887785474 -72.772534475410794 0 -72.772534475410794 322.66958082924248 0 0 0 0 61.720856130690663 -135.16576728512882 0 -135.16576728512882 -0.15471416666696314 0 0 0 0 -11.314747796262964 -52.879681859281845 0 -52.879681859281845 76.390771006876093 0 0 0 0 -689.19010685011744 43.276978567271726 0 43.276978567271726 -203.16766528604785 0 0 0 0 77.617279897514777 -72.946182737983918 0 -72.946182737983918 54.632328969616708 0 0 0 0 -2.818294178636279 -349.60303910968651 0 -349.60303910968651 -31.459631972971692 0 0 0 0 -106.54400051484845 -278.45901825408873 0 -278.45901825408873 236.77646101595019 0 0 0 0 -34.139906489115674 -92.320595217890514 0 -92.320595217890514 223.5477527372318 0 0 0 0 38.062054468573479 -78.84641449040646 0 -78.84641449040646 53.281428599497303 0 0 0 0 68.413171034013658 -76.346970172758816 0 -76.346970172758816 45.559248585249691 0 0 0 0 95.14641184508946 -84.48096210132644 0 -84.48096210132644 47.467412330661318 0 0 0 0 180.76762354318635 -178.50164542993298 0 -178.50164542993298 73.992717921581061 0 0 0 0 20.875086691652541 -126.11653065009887 0 -126.11653065009887 62.677753595480681 0 0 0 0 71.731181465664122 -99.529457622315022 0 -99.529457622315022 20.478668864983774 0 0 0 0 24.318534183388692 -66.384809801026677 0 -66.384809801026677 1.5556086423603119 0 0 0 0 7.6267199231806444 -112.0778391703243 0 -112.0778391703243 55.084174660885765 0 0 0 0 12.380117175069245 -99.405145361579343 0 -99.405145361579343 56.546309735480463 0 0 0 0 -2.5012784634454874 -60.068795528486589 0 -60.068795528486589 -39.90582361487759 0 0 0 0 -0.77636748765507946 -86.069130725434661 0 -86.069130725434661 -17.746169635545812 0 0 0 0 22.8566556589752 -39.407970922116604 0 -39.407970922116604 -15.570858553573146 0 0 0 0 -8.5935384954676692 -44.173106921430332 0 -44.173106921430332 -13.820882965869941 0 0 0 0 -6.4715660535984085 -45.694257856840423 0 -45.694257856840423 17.508613774778894 0 0 0 0 -0.57101392307231436 -83.300961238743184 0 -83.300961238743184 5.7018016795132098 0 0 0 0 13.187273943611217 -35.015938743251354 0 -35.015938743251354 9.6636439560388681 0 0 0 0 27.339712573579163 -66.963227867679961 0 -66.963227867679961 -8.1965066887787543 0 0 0 0 25.945105254660547 -48.196705412412115 0 -48.196705412412115 -26.576625932200841 0 0 0 0 -108.34029799434938 -46.449356248253025 0 -46.449356248253025 63.967524567298824 0 0 0 0 -31.838884598502773 -62.988801910993061 0 -62.988801910993061 14.790278028332978 0 0 0 0 0.92252707038052506 -35.877457736177057 0 -35.877457736177057 33.741465730112594 0 0 0 0 -9.8511849320181 -29.4816939749916 0 -29.4816939749916 45.901111694701399 0 0 0 0 -128.694705639733 -109.85966732508678 0 -109.85966732508678 44.486178132676287 0 0 0 0 7.112318329616329 -56.910204558892957 0 -56.910204558892957 26.629370776164365 0 0 0 0 -103.60250639949663 -260.13044424702821 0 -260.13044424702821 -92.877978093260026 0 0 0 0 -250.36961548341787 -201.65179800151236 0 -201.65179800151236 48.193980838201242 0 0 0 0 -238.77149050107255 -169.36432569415774 0 -169.36432569415774 136.20452355357702 0 0 0 0 -10.258254246472831 -1.2241324116846499 0 -1.2241324116846499 6.9074377320860378 0 0 0 0 -231.82222907029791 -251.89171145585715 0 -251.89171145585715 130.71491019555833 0 0 0 0 -333.47497909913363 -350.60470655492099 0 -350.60470655492099 -127.49774557439378 0 0 0 0 -268.91111981793074 -148.59645703161368 0 -148.59645703161368 41.175948240910657 0 0 0 0 -321.22665867920296 -179.49401647320337 0 -179.49401647320337 180.42862490401603 0 0 0 0 -309.65671608346747 -168.97449131286703 0 -168.97449131286703 98.382492614851799 0 0 0 0 -329.552018716764 -147.91750315600802 0 -147.91750315600802 131.26890438166447 0 0 0 0 -341.31849463115213 -163.03216471656924 0 -163.03216471656924 121.40000242268434 0 0 0 0 -327.67361363791861 -189.18085405294551 0 -189.18085405294551 78.850377546390519 0 0 0 0 -269.35906380521192 -122.08504586049094 0 -122.08504586049094 111.36171090556309 0 0 0 0 -213.13699439636548 -85.262544836848974 0 -85.262544836848974 133.16625098911754 0 0 0 0 -306.16732110991143 -103.70720548767713 0 -103.70720548767713 142.76102196791908 0 0 0 0 -223.80862192623317 -64.238094927655766 0 -64.238094927655766 142.83042549656238 0 0 0 0 -330.53613556947676 -99.320211280544754 0 -99.320211280544754 156.72177194792312 0 0 0 0 -342.21272774034878 -163.09298571705585 0 -163.09298571705585 121.66493130003801 0 0 0 0 -320.13023593972321 -147.33617325348314 0 -147.33617325348314 121.94840155006386 0 0 0 0 -360.5423997605767 -156.01623187906807 0 -156.01623187906807 136.30776200210676 0 0 0 0 -401.93909554742277 -184.00483810470905 0 -184.00483810470905 120.05005961615825 0 0 0 0 -363.8438224499987 -121.8948203936452 0 -121.8948203936452 125.18030358263059 0 0 0 0 -358.21032071125228 -191.12730973528232 0 -191.12730973528232 85.56941230391385 0 0 0 0 -339.57433621409746 -86.642462882308791 0 -86.642462882308791 176.22704559087288 0 0 0 0 -340.47865762058063 -138.0598203286354 0 -138.0598203286354 132.51613642307348 0 0 0 0 -356.17909420336946 -150.77441968690255 0 -150.77441968690255 20.625549929420231 0 0 0 0 -381.08292641854496 -154.69041447588825 0 -154.69041447588825 155.42346518962586 0 0 0 0 -455.04303533877828 -156.47610330604948 0 -156.47610330604948 131.10216073759511 0 0 0 0 -446.4404893623996 -249.64653200261273 0 -249.64653200261273 70.457862737879623 0 0 0 0 -345.74047965108184 -256.5699652825715 0 -256.5699652825715 -5.7360123197431676 0 0 0 0 -306.42805800173664 -204.59952407731907 0 -204.59952407731907 15.99799344362691 0 0 0 0 -322.16353125160094 -222.10618827368307 0 -222.10618827368307 32.325506828376092 0 0 0 0 -356.00782525609247 -205.82199808646692 0 -205.82199808646692 86.705550936982036 0 0 0 0 -356.05151962401578 -184.33870965824462 0 -184.33870965824462 97.979135881556431 0 0 0 0 -359.5740167786862 -185.8472742330523 0 -185.8472742330523 99.800840843468904 0 0 0 0 88.017236512212548 35.142889077367727 0 35.142889077367727 72.714933594048489 0 0 0 0 -159.45813285501208 -7.2749037689936813 0 -7.2749037689936813 155.67129890425713 0 0 0 0 -21.57285477345431 27.077554973540828 0 27.077554973540828 127.38301599782426 0 0 0 0 -5.6560851368121803 -33.253109796787612 0 -33.253109796787612 58.533482987084426 0 0 0 0 -52.236536114214687 -40.414291325723752 0 -40.414291325723752 61.047426709206775 0 0 0 0 -186.43354263195943 -18.862260398862418 0 -18.862260398862418 141.84487722767517 0 0 0 0 -150.81285105698043 -43.114896419574507 0 -43.114896419574507 93.995453685289249 0 0 0 0 -168.72597182280151 4.9667532145103905 0 4.9667532145103905 171.46057549648685 0 0 0 0 -233.47057278087595 -43.391085748153273 0 -43.391085748153273 151.79580189223634 0 0 0 0 -267.41641110740602 -82.069027660705615 0 -82.069027660705615 117.77051460673101 0 0 0 0 -280.75276611195295 -76.842198278332944 0 -76.842198278332944 228.91955366416369 0 0 0 0 -190.3001119037217 -60.240116406581365 0 -60.240116406581365 125.62616445845924 0 0 0 0 -311.68152418872342 -41.946193387499079 0 -41.946193387499079 164.19491089839721 0 0 0 0 -205.1600204489805 -58.289784177890397 0 -58.289784177890397 281.56438452575821 0 0 0 0 -51.566070494634914 112.97277852769184 0 112.97277852769184 225.4612024074886 0 0 0 0 126.68980749159346 209.83819473830044 0 209.83819473830044 258.41310435606283 0 0 0 0 -122.68820662624785 93.064890827234194 0 93.064890827234194 505.32229402955272 0 0 0 0 6.2946835645261388 -6.2514102831564884 0 -6.2514102831564884 -3.4510783086198558 0 0 0 0 -184.09616261820338 -675.32794860915601 0 -675.32794860915601 -458.15648067522943 0 0 0 0 -1.1846800543997347 -4.9765554149779376 0 -4.9765554149779376 7.3445498285170459 0 0 0 0 -171.6214916104509 -364.88039535607095 0 -364.88039535607095 443.8717935490713 0 0 0 0 420.54120335229527 -263.76361861455371 0 -263.76361861455371 -140.95484909589868 0 0 0 0 -197.52197470147803 -122.85490248314454 0 -122.85490248314454 -402.17916459763364 0 0 0 0 -141.27797401493444 -352.14799949061126 0 -352.14799949061126 -82.176752895931713 0 0 0 0 -471.50653128098202 -202.3738980855851 0 -202.3738980855851 -92.649677477740624 0 0 0 0 0.97204679172136821 5.9879331130541686 0 5.9879331130541686 -14.234225700340176 0 0 0 0 -64.381057587648684 -25.562612611796794 0 -25.562612611796794 11.373784305644222 0 0 0 0 -537.96147822962666 -285.09898971545044 0 -285.09898971545044 24.736842329039064 0 0 0 0 -525.26873070503643 -89.384859925805358 0 -89.384859925805358 -1.0431018964009127 0 0 0 0 9.8794699605804226 -9.7467410631530598 0 -9.7467410631530598 -5.2543041338057606 0 0 0 0 -287.14129286137904 -206.80718873787555 0 -206.80718873787555 -193.10316063032951 0 0 0 0 -66.888480660694768 -36.524340281292098 0 -36.524340281292098 9.5515432198153576 0 0 0 0 -208.74453784734942 -178.77605748230417 0 -178.77605748230417 -256.13939961479991 0 0 0 0 -283.65288381959181 -274.78583552828422 0 -274.78583552828422 -276.92367597477278 0 0 0 0 14.24908369809782 -1.7717196229241381 0 -1.7717196229241381 -33.492676164984005 0 0 0 0 -462.1950349556646 -510.59629626956303 0 -510.59629626956303 -397.62569883266906 0 0 0 0 3.5024076041728449 -5.9189513975970129 0 -5.9189513975970129 5.9048714954533921 0 0 0 0 10.112712869140523 16.269515877389495 0 16.269515877389495 -386.56353607343044 0 0 0 0 488.91850606181833 -39.957206717182999 0 -39.957206717182999 -178.30699447946245 0 0 0 0 -313.48492105388868 93.718142158955743 0 93.718142158955743 97.986847947962815 0 0 0 0 350.12741279110196 -631.81575325144513 0 -631.81575325144513 -588.67644872728124 0 0 0 0 -129.30426303489367 234.03560367460886 0 234.03560367460886 872.50192114617676 0 0 0 0 4.1002004005679851 -2.3990863137050695 0 -2.3990863137050695 0.85450096525431718 0 0 0 0 646.16659788207289 -477.85697781020099 0 -477.85697781020099 -634.77802370741847 0 0 0 0 36.503379725503692 -62.371765546167808 0 -62.371765546167808 77.8855386301002 0 0 0 0 43.947028223847155 26.265434493296198 0 26.265434493296198 210.22661646125198 0 0 0 0 -89.885688864254917 -270.63174383933438 0 -270.63174383933438 186.59332184023515 0 0 0 0 9.717690067456715 -238.92310511844335 0 -238.92310511844335 196.0172048642562 0 0 0 0 -116.62924604038562 -193.65848876312521 0 -193.65848876312521 330.51661156667979 0 0 0 0 -74.491085667687003 -255.72763869349728 0 -255.72763869349728 219.13452678630711 0 0 0 0 -199.02439591908478 -139.80262321907503 0 -139.80262321907503 197.15610243623087 0 0 0 0 -331.44922821079672 -703.78308861106052 0 -703.78308861106052 561.91936345666181 0 0 0 0 -434.71788083991851 -366.92183001048397 0 -366.92183001048397 961.96250912448158 0 0 0 0 -110.06395255874668 -112.89458448518417 0 -112.89458448518417 365.89852111591608 0 0 0 0 -0.037738066370366141 -121.03628283302533 0 -121.03628283302533 -198.63836270832689 0 0 0 0 -57.887349769531284 -575.30588975612773 0 -575.30588975612773 -16.205245966892107 0 0 0 0 -326.03929124130809 668.81622731258358 0 668.81622731258358 -1175.1804584817728 0 0 0 0 -698.63519286788505 -137.58576915165759 0 -137.58576915165759 -76.644456714202533 0 0 0 0 -4.2900931382844618 -7.2651158656288715 0 -7.2651158656288715 -24.217874252974013 0 0 0 0 -376.67250273678656 491.63790255293861 0 491.63790255293861 -444.70271874213358 0 0 0 0 26.322467855818104 338.81689587826259 0 338.81689587826259 -1952.4155749426573 0 0 0 0 154.17563954766956 176.18409387205611 0 176.18409387205611 -1023.5289240826551 0 0 0 0 9.0016403064364567 389.76798466838954 0 389.76798466838954 -1333.7738557783305 0 0 0 0 -488.39407308794034 -838.22721973336593 0 -838.22721973336593 -697.04670240888663 0 0 0 0 1396.3563013189851 177.0525653007935 0 177.0525653007935 -1011.2283536234754 0 0 0 0 398.40188897124244 27.947227667311381 0 27.947227667311381 62.358952024558675 0 0 0 0 3.5260684345334283 -3.7758778667291111 0 -3.7758778667291111 -3.3925381329888751 0 0 0 0 -1105.9648638860053 -1165.7131108182621 0 -1165.7131108182621 -772.81971885665553 0 0 0 0 -446.50185843910731 -271.81607015713962 0 -271.81607015713962 -408.57334870784689 0 0 0 0 -186.89143866315499 -483.61556471625954 0 -483.61556471625954 -338.21100610712892 0 0 0 0 -453.58622683189969 -486.9592264788771 0 -486.9592264788771 -371.6502439348551 0 0 0 0 108.86682094012212 -169.9927819145305 0 -169.9927819145305 70.190905530005693 0 0 0 0 8.1753568226606035 -8.2692070677434302 0 -8.2692070677434302 -5.9823871297018627 0 0 0 0 -2.0667331150264374 2.4438806360050549 0 2.4438806360050549 -2.639144248838079 0 0 0 0 -513.80445345945918 89.572271882898349 0 89.572271882898349 359.79436507217179 0 0 0 0 -199.54570765524841 342.53225574670068 0 342.53225574670068 285.19760794576905 0 0 0 0 -117.45546064009744 -35.361855493781377 0 -35.361855493781377 29.232296017595218 0 0 0 0 216.44943218571188 314.33827543452207 0 314.33827543452207 -299.92619045892206 0 0 0 0 -1.6415113836522721 4.3643890435314532 0 4.3643890435314532 -7.5592039889741613 0 0 0 0 -114.73176561793662 -122.58664236270852 0 -122.58664236270852 -69.577754257150445 0 0 0 0 37.378404185918043 -443.41675718430633 0 -443.41675718430633 -510.7714527205826 0 0 0 0 154.88538063821761 -195.54830663197208 0 -195.54830663197208 -1483.1928141900426 0 0 0 0 -395.31442763419182 -87.161573129160388 0 -87.161573129160388 -329.07492348639062 0 0 0 0 -345.79782540250744 389.30873527663061 0 389.30873527663061 -443.02222338253341 0 0 0 0 1081.5317547963168 -816.2802902892472 0 -816.2802902892472 -2221.0498907508445 0 0 0 0 -1254.8047033559269 769.1285612963984 0 769.1285612963984 -1159.2510792782487 0 0 0 0 179.19646469039435 -52.452397086206474 0 -52.452397086206474 -1002.5045213557023 0 0 0 0 127.70708227643627 -258.62730355394888 0 -258.62730355394888 -1473.2999801206861 0 0 0 0 116.10710119598662 -167.37262848604587 0 -167.37262848604587 -2147.7689500108609 0 0 0 0 -748.97932237073837 -977.42010622401722 0 -977.42010622401722 -1250.805112872913 0 0 0 0 220.83361478007282 -486.4312989381433 0 -486.4312989381433 -1002.9484765642555 0 0 0 0 -348.62443841259665 -325.2953125667409 0 -325.2953125667409 -324.60221275765798 0 0 0 0 73.592607324986602 -466.10517332011659 0 -466.10517332011659 -310.38462612485455 0 0 0 0 -236.73007099473818 -585.37395237164469 0 -585.37395237164469 286.49797529447824 0 0 0 0 50.689188811476924 -286.61394068312075 0 -286.61394068312075 206.22988655731751 0 0 0 0 -156.33583407042897 -252.79476846980106 0 -252.79476846980106 586.98877506786084 0 0 0 0 -41.236799610036542 -388.7914043425917 0 -388.7914043425917 272.60334792328649 0 0 0 0 -373.0257893035814 -80.135914049642452 0 -80.135914049642452 836.42495201343263 0 0 0 0 -239.48111674147972 479.19042548217465 0 479.19042548217465 92.734332745429128 0 0 0 0 648.79823671805207 -697.57187935188995 0 -697.57187935188995 87.372228226871812 0 0 0 0 0.93296002598059147 2.0708943851494155 0 2.0708943851494155 5.6037586011096323 0 0 0 0 -118.00191722260206 100.5557393058989 0 100.5557393058989 220.21278592894669 0 0 0 0 269.49427419978247 -462.80481100498071 0 -462.80481100498071 308.4737503673532 0 0 0 0 -699.35885513411995 299.9086546410108 0 299.9086546410108 344.42729146177589 0 0 0 0 -47.156358112857561 -119.32868348087504 0 -119.32868348087504 553.76485869122553 0 0 0 0 -163.44540231046267 -240.25918048062886 0 -240.25918048062886 579.32143870610162 0 0 0 0 254.45844461962633 79.2508381606076 0 79.2508381606076 -123.68556495581288 0 0 0 0 -6.6735691482762434 -7.7501207947250919 0 -7.7501207947250919 -6.9337465199231474 0 0 0 0 -46.637585065258463 -131.01407443526659 0 -131.01407443526659 -46.985924952663481 0 0 0 0 -426.49958014152799 138.80926256981911 0 138.80926256981911 147.42084773161332 0 0 0 0 -254.67662560305325 -287.82673219063145 0 -287.82673219063145 203.48800988663425 0 0 0 0 0.31734816664500443 4.2590534774368791 0 4.2590534774368791 17.878795685453383 0 0 0 0 125.64699456207018 -193.23821560388023 0 -193.23821560388023 234.03921991648895 0 0 0 0 -165.75323239322461 -23.783669144380838 0 -23.783669144380838 334.38357977944543 0 0 0 0 -104.25311278359004 -44.683121586705965 0 -44.683121586705965 132.6275990644499 0 0 0 0 -118.61257112659951 -120.29300562627031 0 -120.29300562627031 -81.747191822360037 0 0 0 0 -62.516996016893245 78.197622261999641 0 78.197622261999641 -3.8987100487574935 0 0 0 0 -90.927116280086921 -62.853641922978568 0 -62.853641922978568 43.263158718262275 0 0 0 0 -182.99394982440572 -59.221094372129301 0 -59.221094372129301 209.04111860826379 0 0 0 0 -133.39046866013086 -2.8593747933373379 0 -2.8593747933373379 167.33572589582764 0 0 0 0 -110.63913629653689 -69.200642676471034 0 -69.200642676471034 173.58050331972481 0 0 0 0 -143.79087699793308 -90.906060665016412 0 -90.906060665016412 187.98529310134472 0 0 0 0 -612.42138743160467 -368.67628069580678 0 -368.67628069580678 0.54431867880339269 0 0 0 0 -301.68283274920759 -128.17714248430639 0 -128.17714248430639 179.37923021806637 0 0 0 0 -243.38753271084715 5.6162920902424958 0 5.6162920902424958 150.97053931845585 0 0 0 0 -133.32695879170205 -15.185350403742632 0 -15.185350403742632 88.983863940375159 0 0 0 0 -57.890504656988924 13.109680507634039 0 13.109680507634039 120.04354224147392 0 0 0 0 -133.04252447155886 -7.5986088614008622 0 -7.5986088614008622 140.91902241241769 0 0 0 0 2.2046760996818193 -80.717152353550773 0 -80.717152353550773 9.4369468490331201 0 0 0 0 -75.489317079322063 21.39523096200719 0 21.39523096200719 49.094578670308692 0 0 0 0 -3.098094278758893 5.7342331866055076 0 5.7342331866055076 28.705324760319911 0 0 0 0 -690.08247970737102 -390.3526840903105 0 -390.3526840903105 30.258614510894404 0 0 0 0 -6.2862613217727414 -0.036500702000608953 0 -0.036500702000608953 6.1030169647907968 0 0 0 0 -94.61775126973771 145.20454434179373 0 145.20454434179373 -33.338202120998176 0 0 0 0 -480.63612452321831 72.210562042528181 0 72.210562042528181 113.06771179702628 0 0 0 0 -701.23081251372059 -746.71191466511664 0 -746.71191466511664 -28.868154699608567 0 0 0 0 -997.63257055493386 -808.95243941728222 0 -808.95243941728222 -41.018980107139214 0 0 0 0 -782.99726306545199 -560.57539554221148 0 -560.57539554221148 -386.07151850937225 0 0 0 0 -3.0165011557554067 -6.0114364926655526 0 -6.0114364926655526 -1.1523112026518447 0 0 0 0 -3.5968212157514898 -2.189612427142464 0 -2.189612427142464 3.937866865489525 0 0 0 0 -1057.5423690228199 -113.06040543032577 0 -113.06040543032577 152.32157864104374 0 0 0 0 12.110915923231914 -3.8782705912681195 0 -3.8782705912681195 -129.22504723306338 0 0 0 0 -62.049021869424905 69.697711351727776 0 69.697711351727776 -117.23949378001271 0 0 0 0 -14.383663283780237 -19.587302281205353 0 -19.587302281205353 7.7394065352390697 0 0 0 0 22.840662289876491 -35.927704279354657 0 -35.927704279354657 -172.60983111101086 0 0 0 0 29.089809269862599 -122.48911518231034 0 -122.48911518231034 -201.37032222315611 0 0 0 0 202.94613379432121 -482.681858238313 0 -482.681858238313 233.06791668721416 0 0 0 0 -38.58266340137925 -195.31168931632419 0 -195.31168931632419 -47.194931616133545 0 0 0 0 -11.188883021153742 -67.109325526602333 0 -67.109325526602333 -125.77416593038652 0 0 0 0 -39.578910908458056 -66.478416239242506 0 -66.478416239242506 -9.4270216674631229 0 0 0 0 -4.5811397373276463 -19.82265683793014 0 -19.82265683793014 1.1585190341270106 0 0 0 0 -52.240339673138806 -4.9782266401016386 0 -4.9782266401016386 33.224742944279569 0 0 0 0 -9.3409318440390052 -31.386023411308997 0 -31.386023411308997 3.5453649081828189 0 0 0 0 -5.915918506696471 -39.606825158909487 0 -39.606825158909487 -64.45915050880285 0 0 0 0 5.2622634654453577 21.659760097609251 0 21.659760097609251 -44.484321018389892 0 0 0 0 -11.196756109566195 -63.081216138903983 0 -63.081216138903983 280.42760282139352 0 0 0 0 3.0805456884012727 -1.6323015370271321 0 -1.6323015370271321 0.063220571858380481 0 0 0 0 2.1326646445595543 -46.224399551536408 0 -46.224399551536408 1.3490527291432954 0 0 0 0 -11.391422638168336 -21.085071970185936 0 -21.085071970185936 -19.118790271645537 0 0 0 0 -0.27915881706030632 -35.327456134609747 0 -35.327456134609747 2.9059087750501931 0 0 0 0 -16.842717478109989 -29.350122981144523 0 -29.350122981144523 6.4246876737379353 0 0 0 0 -15.531809118582487 -16.869146481768041 0 -16.869146481768041 -6.6659533859314593 0 0 0 0 -86.81491027716811 -136.37901500051294 0 -136.37901500051294 117.76015924497915 0 0 0 0 -17.217671639838954 -38.271122576392372 0 -38.271122576392372 7.6125094497692771 0 0 0 0 153.42415645897563 -348.12248919215926 0 -348.12248919215926 47.482093112601433 0 0 0 0 101.91033264089492 151.07240701020055 0 151.07240701020055 -67.788328610702592 0 0 0 0 -11.373102556402955 -11.669643826677657 0 -11.669643826677657 -10.36882382544303 0 0 0 0 -84.231695929338457 14.387610286066774 0 14.387610286066774 40.301977203373099 0 0 0 0 58.091460293511773 -109.68850671631299 0 -109.68850671631299 -0.78923562687123194 0 0 0 0 2.9594069790473441 -20.129416694762767 0 -20.129416694762767 15.710121871947194 0 0 0 0 -0.17053597298945533 -31.834352280340681 0 -31.834352280340681 -18.536248904740205 0 0 0 0 -14.720669849306347 -20.181505457911669 0 -20.181505457911669 -20.439439092846214 0 0 0 0 37.783466307533672 -65.650182888595737 0 -65.650182888595737 31.350115894776536 0 0 0 0 274.27849618188338 -76.638394340479863 0 -76.638394340479863 -136.40411726607999 0 0 0 0 92.645473016076721 -68.591522195492871 0 -68.591522195492871 3.7037714265752584 0 0 0 0 51.959680594940437 -0.36153764890332241 0 -0.36153764890332241 118.27204008965055 0 0 0 0 5.8457578511560087 -0.81288971728321258 0 -0.81288971728321258 -4.951637166257143 0 0 0 0 232.68796142222709 -213.42859171430609 0 -213.42859171430609 69.522116433887277 0 0 0 0 199.72962307723355 -256.60970432004251 0 -256.60970432004251 57.159346036700299 0 0 0 0 541.52797399343399 -249.16590618340706 0 -249.16590618340706 -81.075581798853818 0 0 0 0 438.46099800225784 -626.98909421806457 0 -626.98909421806457 -10.844428907104884 0 0 0 0 264.00234970467864 -333.4687845006556 0 -333.4687845006556 138.4247348429908 0 0 0 0 335.87825359156705 -189.48535166312649 0 -189.48535166312649 39.070665463368641 0 0 0 0 510.53971501778869 -500.61690164254105 0 -500.61690164254105 159.68845989588226 0 0 0 0 938.07986088048165 -757.47427784997763 0 -757.47427784997763 22.372909821962821 0 0 0 0 999.33317052576604 -210.94069802160811 0 -210.94069802160811 -171.74047006505862 0 0 0 0 898.6451284860741 -359.04702674586588 0 -359.04702674586588 -0.43155640682380181 0 0 0 0 1427.5126678090019 -521.00352242049121 0 -521.00352242049121 48.82801990180451 0 0 0 0 253.47132053737005 150.05882326903338 0 150.05882326903338 106.64536666622007 0 0 0 0 332.73506626315066 -436.47064871132898 0 -436.47064871132898 685.79717475202051 0 0 0 0 9.5334277028971712 -7.0125175188130981 0 -7.0125175188130981 -1.4062366921934171 0 0 0 0 574.6096014710638 -853.33914538403042 0 -853.33914538403042 281.69226731454546 0 0 0 0 497.33840980909918 -451.79824931670191 0 -451.79824931670191 -225.93506823061034 0 0 0 0 546.21251986201969 -256.2589521258451 0 -256.2589521258451 436.86250034892146 0 0 0 0 146.88082960223619 -983.30903162222603 0 -983.30903162222603 -131.8205001608585 0 0 0 0 423.43661993356363 -630.79252621385604 0 -630.79252621385604 82.590659858440631 0 0 0 0 476.15618885231925 -764.15947328363654 0 -764.15947328363654 402.5964050351904 0 0 0 0 469.20535723787907 -903.86696021091484 0 -903.86696021091484 40.89292661894433 0 0 0 0 519.42821508593079 -1124.4111657662779 0 -1124.4111657662779 901.07769327503047 0 0 0 0 61.275921474800271 -981.00958985569014 0 -981.00958985569014 2174.9822943696781 0 0 0 0 156.63473837076162 -299.23230229541514 0 -299.23230229541514 492.56679705997522 0 0 0 0 336.58998537068692 -528.70369021582155 0 -528.70369021582155 432.7276667690312 0 0 0 0 256.95194473295123 -444.84596318623517 0 -444.84596318623517 886.66141066472824 0 0 0 0 107.4221490159789 -294.01458692633696 0 -294.01458692633696 348.87944709400472 0 0 0 0 263.93264088693832 -286.42221270740265 0 -286.42221270740265 319.89511224043963 0 0 0 0 244.38751461421634 -311.17573253161754 0 -311.17573253161754 199.60495149668714 0 0 0 0 136.1827415714215 -129.89683240785962 0 -129.89683240785962 234.58086258958429 0 0 0 0 -8.2599405600677756 -11.957889498137916 0 -11.957889498137916 -14.60777495050047 0 0 0 0 112.9525672479067 -309.17363326459599 0 -309.17363326459599 313.41401493683225 0 0 0 0 237.23328240310366 -436.7891036906949 0 -436.7891036906949 413.64111323596671 0 0 0 0 323.23692308751924 -428.6328959163875 0 -428.6328959163875 240.77359119604807 0 0 0 0 -65.922105158519116 -80.671655748068588 0 -80.671655748068588 73.391250449087238 0 0 0 0 -11.700552686369321 -17.923190835409002 0 -17.923190835409002 -20.792709598373875 0 0 0 0 218.50541578742559 -141.13568210478115 0 -141.13568210478115 93.84225347294705 0 0 0 0 127.19856008094212 -192.48304935927445 0 -192.48304935927445 190.65526688122191 0 0 0 0 333.19433845597086 -291.26313000914524 0 -291.26313000914524 147.69138675561408 0 0 0 0 -95.177454611992289 164.16660472629883 0 164.16660472629883 -9.5201796280225608 0 0 0 0 -5.9725167234831105 -3.6626529652234581 0 -3.6626529652234581 0.10181053474963164 0 0 0 0 148.75208781698529 -311.62966951307499 0 -311.62966951307499 24.573322839423781 0 0 0 0 -243.34678749956947 -126.68106799891393 0 -126.68106799891393 173.73808001671568 0 0 0 0 211.90240770189848 53.641192192437302 0 53.641192192437302 -127.80468067733455 0 0 0 0 45.930424581776606 -53.778598897275515 0 -53.778598897275515 404.26402716664597 0 0 0 0 273.77402588166296 -225.53830743666913 0 -225.53830743666913 32.608050503709819 0 0 0 0 198.39018143551948 341.65265961492696 0 341.65265961492696 -103.58972056174753 0 0 0 0 -196.06787019725016 -372.81770743793822 0 -372.81770743793822 231.95930520843831 0 0 0 0 345.47064819012303 -91.607773025025381 0 -91.607773025025381 444.68262837119983 0 0 0 0 -54.350941681674158 117.54149172669713 0 117.54149172669713 0.33935662092517305 0 0 0 0 -207.50120848837832 -895.37637893550709 0 -895.37637893550709 255.9015816898318 0 0 0 0 -0.19922152009755223 -3.503382855744519 0 -3.503382855744519 -10.299275584993381 0 0 0 0 -258.37755243337597 308.7770779603743 0 308.7770779603743 373.39494879765334 0 0 0 0 20.755803252453916 -273.56629041823908 0 -273.56629041823908 207.27792977169156 0 0 0 0 545.42211308913829 -867.95768210141978 0 -867.95768210141978 191.56002556864405 0 0 0 0 711.33983973227441 -404.82892143556091 0 -404.82892143556091 77.955011352547444 0 0 0 0 0.58500636787742621 -2.0300804665882026 0 -2.0300804665882026 -4.6612936309870747 0 0 0 0 27.801820967986714 -523.33613360318122 0 -523.33613360318122 411.14212453225628 0 0 0 0 238.82757045897597 -557.39501810340153 0 -557.39501810340153 122.10932990594301 0 0 0 0 289.26763510139426 -409.93141689960612 0 -409.93141689960612 -293.43039836491516 0 0 0 0 136.74269480761723 -652.67105189856375 0 -652.67105189856375 27.861909974744776 0 0 0 0 170.90071023897326 -431.38555613657809 0 -431.38555613657809 -288.95307239914837 0 0 0 0 370.47813354523532 -178.59497800074314 0 -178.59497800074314 -774.95281849356252 0 0 0 0 237.68691597007273 -393.85054490360199 0 -393.85054490360199 -239.98511859055725 0 0 0 0 305.20261990943982 -140.55440034261119 0 -140.55440034261119 -243.48281453328673 0 0 0 0 397.74239442004546 20.837355532901711 0 20.837355532901711 -887.39907203702023 0 0 0 0 297.82001819007564 -84.129063022002811 0 -84.129063022002811 -712.97385088336887 0 0 0 0 339.34203769359738 -126.53423222579295 0 -126.53423222579295 -1101.0441556352016 0 0 0 0 844.28992074470443 18.661894534176099 0 18.661894534176099 -729.40143817520584 0 0 0 0 624.06839503251831 299.41592686444346 0 299.41592686444346 -92.373058397948625 0 0 0 0 360.85831338323987 -36.612178946554195 0 -36.612178946554195 -639.98822858187486 0 0 0 0 362.98448007360275 -81.315286277887935 0 -81.315286277887935 -633.36582171430928 0 0 0 0 1.975542801186748 -0.1894558720761097 0 -0.1894558720761097 -8.3064605155523736 0 0 0 0 -349.24354069317633 -77.537607159079926 0 -77.537607159079926 -172.93924788440927 0 0 0 0 -10.237904401081323 -401.63867432613915 0 -401.63867432613915 -875.59003965887678 0 0 0 0 202.34412205132685 -86.412207605104413 0 -86.412207605104413 -708.00901229161536 0 0 0 0 -0.50909791861275266 -4.7179355701151451 0 -4.7179355701151451 -8.4326871412565652 0 0 0 0 -99.335163334559184 -59.333592969356687 0 -59.333592969356687 123.75583804116468 0 0 0 0 -48.451621708143762 -125.21375526865268 0 -125.21375526865268 162.83214798670087 0 0 0 0 -240.92914979973284 176.63077156819054 0 176.63077156819054 58.645403128910402 0 0 0 0 83.346910691510857 -596.42123277824066 0 -596.42123277824066 -228.46920111044892 0 0 0 0 232.04467574307637 -180.95204029142042 0 -180.95204029142042 299.22391230959329 0 0 0 0 -242.62758921923887 -362.9663659686812 0 -362.9663659686812 447.62957573405583 0 0 0 0 224.06257469885895 -57.165016933297011 0 -57.165016933297011 -735.54250843312184 0 0 0 0 -201.48450157893967 -474.55095841632647 0 -474.55095841632647 -168.57186330638069 0 0 0 0 -510.16234110836103 -1401.1064951130911 0 -1401.1064951130911 1250.8606840114517 0 0 0 0 1253.6623894681979 -550.10647685949516 0 -550.10647685949516 -168.33398153054077 0 0 0 0 211.0501811749491 -126.27590187084206 0 -126.27590187084206 1402.7174370522698 0 0 0 0 278.61257858951285 -1005.1548868872633 0 -1005.1548868872633 1301.5369297219386 0 0 0 0 -1168.0945993263522 950.50707090739888 0 950.50707090739888 1148.410885906691 0 0 0 0 -1359.5047125468845 -143.05592357715068 0 -143.05592357715068 2122.0605300548486 0 0 0 0 -0.62499335681410173 -3.915247457753658 0 -3.915247457753658 21.447992118224988 0 0 0 0 1301.4287263339029 -753.85448089438432 0 -753.85448089438432 188.88609414745588 0 0 0 0 212.68957647332536 -744.53118765673844 0 -744.53118765673844 785.59620283135155 0 0 0 0 0.42129885292524705 -629.05332927996642 0 -629.05332927996642 1101.2498841773486 0 0 0 0 98.91144478404749 -415.06603743744199 0 -415.06603743744199 407.26606923132567 0 0 0 0 80.630506171048182 -479.79942024219235 0 -479.79942024219235 645.38672022680112 0 0 0 0 420.91131551127546 -687.78176469756363 0 -687.78176469756363 671.64460015394434 0 0 0 0 191.92723557095451 -499.0037645507764 0 -499.0037645507764 1193.7307000666988 0 0 0 0 -111.75966520496877 -531.2883935896898 0 -531.2883935896898 1.17009577844874 0 0 0 0 187.02896262689319 -594.52192997818929 0 -594.52192997818929 720.50607881976612 0 0 0 0 291.11219477968552 -535.6566241269029 0 -535.6566241269029 726.60558602919627 0 0 0 0 36.560622426572081 -199.83358393106755 0 -199.83358393106755 -712.01232816796983 0 0 0 0 1.7341094986754229 -14.607109980021903 0 -14.607109980021903 -3.9409349971304692 0 0 0 0 119.35010169710586 -375.59283836043323 0 -375.59283836043323 -1583.0216217952038 0 0 0 0 -134.97604076168136 -396.29554733997065 0 -396.29554733997065 -163.24891200722777 0 0 0 0 1.4828471109340171 -7.9981443345974697 0 -7.9981443345974697 -0.77412894435931889 0 0 0 0 -6.4412631886807503 -417.41396757791517 0 -417.41396757791517 -182.07137475048876 0 0 0 0 -240.4249718569954 -745.34138869139679 0 -745.34138869139679 1355.2573327128412 0 0 0 0 143.88724122761778 -693.10745710823539 0 -693.10745710823539 95.757078334354446 0 0 0 0 128.97859198178776 -144.79841570017015 0 -144.79841570017015 -217.87503475051199 0 0 0 0 -92.357785546162631 -130.23999879907205 0 -130.23999879907205 99.808655689382817 0 0 0 0 104.61571035558882 -104.82580559895723 0 -104.82580559895723 240.35114767948926 0 0 0 0 5.2704281857451747 -22.935600155708329 0 -22.935600155708329 39.946224765041279 0 0 0 0 -2.0246905616593267 -22.390781421559495 0 -22.390781421559495 7.2309322994713412 0 0 0 0 108.52310257730278 -143.63823482589214 0 -143.63823482589214 143.68572214106098 0 0 0 0 -1244.2656151191331 -2251.1844220022977 0 -2251.1844220022977 1641.1352839745232 0 0 0 0 780.69026243098779 379.92472414705117 0 379.92472414705117 -2527.3912695402396 0 0 0 0 2697.1178347489549 -1663.5076189443607 0 -1663.5076189443607 0.46013529268020648 0 0 0 0 -0.47129036407392277 -19.149843952617147 0 -19.149843952617147 12.762220956233445 0 0 0 0 1590.306019263815 -2062.7770178505525 0 -2062.7770178505525 1982.0443102768477 0 0 0 0 3.0824443006769684 -2.290096504896951 0 -2.290096504896951 -0.41956007464223077 0 0 0 0 495.49677037635411 155.9805907751288 0 155.9805907751288 -2474.7885649323034 0 0 0 0 -331.80834269587649 -1158.9073797307901 0 -1158.9073797307901 1691.2588487774919 0 0 0 0 539.39897280542209 -391.21808501591295 0 -391.21808501591295 275.63485640511499 0 0 0 0 9.8399820168621943 -27.990515909165055 0 -27.990515909165055 38.14274086274844 0 0 0 0 -131.10106401195662 -277.9391015520996 0 -277.9391015520996 216.14285745451343 0 0 0 0 594.84279121056898 -350.90724159852107 0 -350.90724159852107 205.63320515695887 0 0 0 0 6.7767792350114178 -8.6512795235569087 0 -8.6512795235569087 15.828540899180155 0 0 0 0 -162.40962197285262 224.02352183043695 0 224.02352183043695 492.24903645407903 0 0 0 0 4847.0740068282466 -872.20577913388843 0 -872.20577913388843 -212.85571521004749 0 0 0 0 3208.0940699698913 -2988.634316307287 0 -2988.634316307287 868.33160017132468 0 0 0 0 -4.6317412000717013 -2412.8825651072693 0 -2412.8825651072693 1600.1584209995926 0 0 0 0 1090.6437117590249 -3099.9952035547904 0 -3099.9952035547904 1362.5627813295177 0 0 0 0 1478.8261135560169 -2533.4440533309971 0 -2533.4440533309971 790.47928535282699 0 0 0 0 1345.9786441071992 -2355.9910368998171 0 -2355.9910368998171 1201.4307705997999 0 0 0 0 404.46453440339246 -1713.8077730357363 0 -1713.8077730357363 858.76333162599622 0 0 0 0 1.9983686152736482 -1429.713375730511 0 -1429.713375730511 1413.0588862270524 0 0 0 0 148.97299598298559 -1186.8876624413024 0 -1186.8876624413024 1792.7443067955173 0 0 0 0 221.182368112728 -818.43902955217345 0 -818.43902955217345 1627.1837077843666 0 0 0 0 264.23264273085806 -1222.5769457199822 0 -1222.5769457199822 1054.4120092930098 0 0 0 0 534.57660885802034 -812.83376335911453 0 -812.83376335911453 1592.5292778915609 0 0 0 0 916.21440565249941 -1276.73224633262 0 -1276.73224633262 1058.5414778207487 0 0 0 0 970.54261253145523 -786.90930847307754 0 -786.90930847307754 878.40639684761845 0 0 0 0 915.20557442041445 -1237.1854403498585 0 -1237.1854403498585 471.38727009046124 0 0 0 0 0.138463217149976 5.5058464506359712 0 5.5058464506359712 28.4949440583556 0 0 0 0 -1676.0203968562128 88.476171436326695 0 88.476171436326695 -230.46034217926353 0 0 0 0 1406.7473368124483 -1870.2244904440013 0 -1870.2244904440013 994.21582031578146 0 0 0 0 -2417.8910607224752 906.25501707300282 0 906.25501707300282 811.19664684931922 0 0 0 0 -1459.844346533002 721.05985765284368 0 721.05985765284368 -19.335079910611967 0 0 0 0 776.46720026728872 -1230.1466536753578 0 -1230.1466536753578 1431.581876029144 0 0 0 0 843.42004670883398 -750.06201399497604 0 -750.06201399497604 706.45995234296424 0 0 0 0 86.386432079008955 156.05995032459032 0 156.05995032459032 251.84369563051223 0 0 0 0 -22.790236398315756 4.1178501878821407 0 4.1178501878821407 44.092023156728828 0 0 0 0 -2.7793570563458729 -1.2532384410672819 0 -1.2532384410672819 78.266591230594713 0 0 0 0 2.1222182392308753 -3.1066796137192512 0 -3.1066796137192512 11.729064924099703 0 0 0 0 -562.64709845477955 -733.60530228987 0 -733.60530228987 105.63631958339829 0 0 0 0 -1181.500968672568 -426.0849836729758 0 -426.0849836729758 189.02405887750501 0 0 0 0 -132.7771904323854 -565.14677118067812 0 -565.14677118067812 -305.88611987534387 0 0 0 0 36.103488970300759 -79.697303304335563 0 -79.697303304335563 56.116719238986306 0 0 0 0 -1.5742840664937034 -15.07943920220373 0 -15.07943920220373 17.920158803921595 0 0 0 0 24.377954940369818 -32.972720589638811 0 -32.972720589638811 28.288230913982261 0 0 0 0 1.6154498333000902 -7.3526417217470055 0 -7.3526417217470055 34.13715733941396 0 0 0 0 -11.069760543705343 -23.5001014601321 0 -23.5001014601321 29.106672648820677 0 0 0 0 11.206749356375155 -4.9073416884074845 0 -4.9073416884074845 8.603960869640332 0 0 0 0 -12.093805479729781 -38.202569866814883 0 -38.202569866814883 8.5483892621778068 0 0 0 0 0.061163227257117016 -50.985614843012058 0 -50.985614843012058 -22.350489531469066 0 0 0 0 -15.977541265077889 -30.046827074431349 0 -30.046827074431349 51.689265992756191 0 0 0 0 -270.61422595760087 -653.15118602453731 0 -653.15118602453731 2530.2633895138133 0 0 0 0 5.9682396637754778 -1.3435502365027787 0 -1.3435502365027787 1.7189857249744023 0 0 0 0 597.1707041428599 -378.31559839069814 0 -378.31559839069814 162.95647748684132 0 0 0 0 -91.616177331387007 -346.11201028123833 0 -346.11201028123833 941.5953911866236 0 0 0 0 -115.33084339884226 -269.40624557426781 0 -269.40624557426781 11.506366774374328 0 0 0 0 -76.0034806257936 -245.44415873316393 0 -245.44415873316393 -252.52432534196487 0 0 0 0 -349.33495427187609 -108.00826439248704 0 -108.00826439248704 327.88743061049172 0 0 0 0 79.336779040305373 -344.23682746294071 0 -344.23682746294071 -929.78982929893391 0 0 0 0 -136.82612644849178 -155.88825382108189 0 -155.88825382108189 -198.12005369345025 0 0 0 0 -121.63956388410224 -52.524572332480602 0 -52.524572332480602 -357.700942795027 0 0 0 0 -33.658734334348992 -118.02875967275031 0 -118.02875967275031 -356.99144901691398 0 0 0 0 -60.677684701675389 -198.26833085340331 0 -198.26833085340331 -274.21530769763922 0 0 0 0 -132.33460086697414 -141.02661216489651 0 -141.02661216489651 -191.87807123560196 0 0 0 0 -132.90252128943632 -150.69181335010876 0 -150.69181335010876 -97.348508042414323 0 0 0 0 -90.070556127058808 -218.32991719922575 0 -218.32991719922575 -65.513282675718074 0 0 0 0 -9.7648255754855739 -15.10183887849476 0 -15.10183887849476 -18.651400868937827 0 0 0 0 -168.7028115767971 -170.46924197072804 0 -170.46924197072804 -19.52323648284073 0 0 0 0 -52.472300658689051 -57.521071146240288 0 -57.521071146240288 -34.636647160232741 0 0 0 0 -164.69222495187728 -138.28676801665824 0 -138.28676801665824 -101.98283571365755 0 0 0 0 -69.363311108147172 -204.56657844535584 0 -204.56657844535584 -30.66143435799313 0 0 0 0 -65.771615548284899 -204.91928364415799 0 -204.91928364415799 -222.53011134657936 0 0 0 0 -75.560549698482646 -229.14663003925307 0 -229.14663003925307 -61.72659082084283 0 0 0 0 0.31139188535962603 -127.08871065095445 0 -127.08871065095445 -226.45070704031968 0 0 0 0 -33.073365661631215 -27.763106012527714 0 -27.763106012527714 -37.478214061804465 0 0 0 0 -126.5205714631993 -175.20720175155111 0 -175.20720175155111 104.68332447390276 0 0 0 0 -26.31153193575301 27.645505580934696 0 27.645505580934696 -19.297163271607133 0 0 0 0 -107.81771899205381 25.393628560513605 0 25.393628560513605 208.30179272333476 0 0 0 0 -3.0955323160142427 -6.1485485211544244 0 -6.1485485211544244 0.50246810404031805 0 0 0 0 -37.88346799476767 -156.38493758217737 0 -156.38493758217737 -105.6483898377337 0 0 0 0 -111.71234242371702 -109.69626802610583 0 -109.69626802610583 0.71774302374615218 0 0 0 0 -76.083829242857746 -59.113935272497429 0 -59.113935272497429 35.004213479818233 0 0 0 0 -15.301447350166178 -34.285073930979749 0 -34.285073930979749 12.624064457570398 0 0 0 0 -45.769503101124144 -63.784940334769821 0 -63.784940334769821 -30.997998614541359 0 0 0 0 -113.9499904845627 -117.53554644335236 0 -117.53554644335236 -42.149282892045449 0 0 0 0 -113.21357653639711 -105.42624012091983 0 -105.42624012091983 -11.893254642855027 0 0 0 0 -96.769017234054218 -145.49161416024981 0 -145.49161416024981 -61.702287173713557 0 0 0 0 -79.267456531786593 -87.368471548252273 0 -87.368471548252273 -25.602626500360202 0 0 0 0 -68.588141717876169 -51.638978380375193 0 -51.638978380375193 2.5457678562816 0 0 0 0 -43.419619242336921 -67.977857901933021 0 -67.977857901933021 -125.18507407997822 0 0 0 0 -6.1011321599460944 -15.153894334497522 0 -15.153894334497522 -26.298809672119631 0 0 0 0 -53.982596222882421 24.908275385962042 0 24.908275385962042 112.89283885502664 0 0 0 0 -57.108740917646173 -104.81273302047441 0 -104.81273302047441 4.9569988044386264 0 0 0 0 -49.347330663446435 -46.303526993116321 0 -46.303526993116321 -14.978324943228586 0 0 0 0 38.798405358840682 -56.330927006260026 0 -56.330927006260026 174.24104586258909 0 0 0 0 -34.286684487197817 -52.436874845465354 0 -52.436874845465354 54.547544137421937 0 0 0 0 -21.813989910517407 -40.398414697368665 0 -40.398414697368665 -7.0960406754093697 0 0 0 0 -45.678779367326101 -44.050694369673408 0 -44.050694369673408 20.249258985162648 0 0 0 0 -36.626515216685121 -43.544692258597479 0 -43.544692258597479 7.8360657973764489 0 0 0 0 -23.95487964358113 -23.496259653820857 0 -23.496259653820857 36.20312373116073 0 0 0 0 -31.240393315522397 -37.675146081950516 0 -37.675146081950516 53.674235602287808 0 0 0 0 -61.782151156869077 144.06196421181085 0 144.06196421181085 156.58197930952883 0 0 0 0 -17.841198993999569 -49.217943697491137 0 -49.217943697491137 7.6511031550180633 0 0 0 0 -35.01320471944058 -57.955229872256496 0 -57.955229872256496 23.00034818626591 0 0 0 0 -155.96543678757735 -200.54580288089346 0 -200.54580288089346 72.090065604192205 0 0 0 0 -17.244282096296956 -47.669106674329669 0 -47.669106674329669 11.627338029355997 0 0 0 0 -19.712207336559914 -41.306450636191585 0 -41.306450636191585 -4.6589014625787968 0 0 0 0 -19.705158488141933 -39.041647137011751 0 -39.041647137011751 5.0674392022456232 0 0 0 0 -35.057042534682751 -24.457646303861111 0 -24.457646303861111 6.799761321326514 0 0 0 0 -51.133943000925683 -35.749846868800887 0 -35.749846868800887 20.486408918135567 0 0 0 0 -27.972677767972073 -37.738844888655876 0 -37.738844888655876 12.687615677803478 0 0 0 0 -31.091531332144314 -34.394854157231748 0 -34.394854157231748 31.60818752006162 0 0 0 0 585.66288764964884 647.18818735342211 0 647.18818735342211 -223.80241694199867 0 0 0 0 4.4938268201349594 -2.7482211738814328 0 -2.7482211738814328 3.465403476535073 0 0 0 0 -74.030613659131404 -90.534094475926395 0 -90.534094475926395 35.271473636254086 0 0 0 0 63.397982082336512 2.5928324231426814 0 2.5928324231426814 -5.3981651723297546 0 0 0 0 0.090399888562020858 -17.179575061808041 0 -17.179575061808041 22.114437587010116 0 0 0 0 42.382807640236933 38.463842609824496 0 38.463842609824496 -62.804415852144302 0 0 0 0 -1.629027315641487 0.44910928319126242 0 0.44910928319126242 2.7955565553251063 0 0 0 0 -62.673001921478658 -122.5883245397772 0 -122.5883245397772 72.840067378740059 0 0 0 0 -76.643063274446831 -1.3401155587198446 0 -1.3401155587198446 61.704698251909576 0 0 0 0 13.28412121968131 4.4185356067791872 0 4.4185356067791872 52.433123988448642 0 0 0 0 -9.6638290997652803 22.473487343013403 0 22.473487343013403 281.75133989237656 0 0 0 0 54.582467710023593 -58.440910055389395 0 -58.440910055389395 75.483707453342504 0 0 0 0 -28.284241987033283 -9.4972776871345559 0 -9.4972776871345559 117.57224118086742 0 0 0 0 -57.014123803131042 2.1186279493267648 0 2.1186279493267648 278.68019334800192 0 0 0 0 -2.302871890647884 -2.3933628861912553 0 -2.3933628861912553 23.807443229106369 0 0 0 0 -47.885674801024635 -82.647541020823468 0 -82.647541020823468 67.741029442288379 0 0 0 0 36.561368287884761 35.439404515524075 0 35.439404515524075 157.04170853173127 0 0 0 0 136.87679003995345 -6.1594718431133515 0 -6.1594718431133515 25.695002530221245 0 0 0 0 -3.1684409474265678 -41.94653075777736 0 -41.94653075777736 67.83702497935505 0 0 0 0 62.106764544390899 5.0414853563415818 0 5.0414853563415818 267.17653273196629 0 0 0 0 -67.635077886699037 -59.340740025931154 0 -59.340740025931154 58.94933543917432 0 0 0 0 -38.082402920055223 -52.004930832791217 0 -52.004930832791217 65.922326727554832 0 0 0 0 -15.15286129470951 -40.230084432147123 0 -40.230084432147123 60.379625978479453 0 0 0 0 -72.640319811060181 117.72031921418966 0 117.72031921418966 150.95443977837567 0 0 0 0 54.236841670574904 -112.87232891532221 0 -112.87232891532221 227.66008903214242 0 0 0 0 -34.256198923976626 155.34573813881798 0 155.34573813881798 216.42777210620261 0 0 0 0 -28.274209663540923 -37.815872347740793 0 -37.815872347740793 27.882208493682768 0 0 0 0 -30.643485839147132 -29.400588556610984 0 -29.400588556610984 14.661288271114344 0 0 0 0 -18.348810995479848 -38.315084237101388 0 -38.315084237101388 48.955875967523831 0 0 0 0 -37.617375158294259 -27.176317666723889 0 -27.176317666723889 32.751145077421725 0 0 0 0 38.792009601271275 -119.62464963365346 0 -119.62464963365346 138.36896707671985 0 0 0 0 65.715456407285274 103.1302594544768 0 103.1302594544768 -136.43218882505607 0 0 0 0 4.6140904000931187 118.68893564476457 0 118.68893564476457 264.31937225358342 0 0 0 0 -540.04268650994891 -290.43746875620127 0 -290.43746875620127 -32.006197935592354 0 0 0 0 -121.1190065699011 -363.69720709493777 0 -363.69720709493777 -262.58160230358772 0 0 0 0 130.93630298918652 -43.528653932018642 0 -43.528653932018642 -157.78120981702523 0 0 0 0 -105.41321033397287 -220.8493084302761 0 -220.8493084302761 32.659351987502305 0 0 0 0 26.983488460988156 -192.96931096932531 0 -192.96931096932531 -345.85638354482217 0 0 0 0 59.474152629512901 -119.19023260156973 0 -119.19023260156973 87.866230680410808 0 0 0 0 -322.66718816690991 -200.97698948682228 0 -200.97698948682228 224.59944010063919 0 0 0 0 -402.65512128204318 -410.12513507630865 0 -410.12513507630865 114.41752286264091 0 0 0 0 -320.02730513652568 -274.23140288133072 0 -274.23140288133072 281.88489465179737 0 0 0 0 -40.664807913322875 -76.897960452019106 0 -76.897960452019106 86.573944956384366 0 0 0 0 22.759098119415285 -86.689278160833055 0 -86.689278160833055 58.054713250392524 0 0 0 0 -30.035521439440203 -23.919609577402781 0 -23.919609577402781 10.758696638856108 0 0 0 0 71.30787041162057 -74.994233369779977 0 -74.994233369779977 14.448571902488766 0 0 0 0 87.043460644968945 -47.191819540024881 0 -47.191819540024881 60.044212252410944 0 0 0 0 -2.0359292048716338 -22.492221579107927 0 -22.492221579107927 73.423609507360538 0 0 0 0 -40.443005290268047 -138.32469625916565 0 -138.32469625916565 62.723269828537013 0 0 0 0 59.006314564592998 -175.45681625640282 0 -175.45681625640282 119.62858385586878 0 0 0 0 -6.442671155109565 -126.12150995112461 0 -126.12150995112461 1.6884421351714991 0 0 0 0 -66.961787482785439 -0.98856522807909641 0 -0.98856522807909641 295.05928752851651 0 0 0 0 -11.914076350671159 -9.1223219813489607 0 -9.1223219813489607 12.000274197216655 0 0 0 0 55.503341483636177 -151.98404006492638 0 -151.98404006492638 51.91089112048212 0 0 0 0 -61.786215601361619 -61.0795605118401 0 -61.0795605118401 125.04782802020782 0 0 0 0 -16.766087761745439 -150.19766941327543 0 -150.19766941327543 269.33696337780566 0 0 0 0 -22.322187129005798 -20.362602794784252 0 -20.362602794784252 12.699971395407886 0 0 0 0 17.348999894908047 -64.397073396564338 0 -64.397073396564338 67.806348606689426 0 0 0 0 20.754607313028828 -83.681734087607765 0 -83.681734087607765 76.181607914870256 0 0 0 0 -7.8437008904836327 -44.138531559679627 0 -44.138531559679627 54.908528149890287 0 0 0 0 -97.250792704333435 -102.26903114635206 0 -102.26903114635206 172.49469816258352 0 0 0 0 -72.340196691427991 -98.126441871048883 0 -98.126441871048883 57.983471542451298 0 0 0 0 3.5376792135190556 -5.5987387862041516 0 -5.5987387862041516 8.5838547214571292 0 0 0 0 -34.647597176444833 17.521326976115233 0 17.521326976115233 55.362716775700392 0 0 0 0 -23.430976103267312 -23.742213164892746 0 -23.742213164892746 30.879467901395401 0 0 0 0 -14.648787741668585 -36.903651612317219 0 -36.903651612317219 48.99568526867165 0 0 0 0 -10.837372162387325 -25.694062196537594 0 -25.694062196537594 43.846674292592951 0 0 0 0 -7.8939563157618977 -65.66307095051161 0 -65.66307095051161 31.79480607745063 0 0 0 0 11.380327500098986 -40.815634595530241 0 -40.815634595530241 34.368448584730189 0 0 0 0 47.429626455748803 -90.331991537386784 0 -90.331991537386784 35.898291321194847 0 0 0 0 3.6671485593360558 -65.887690646039118 0 -65.887690646039118 31.552340442707646 0 0 0 0 -12.381808423429902 -56.117598519769672 0 -56.117598519769672 43.299828675866593 0 0 0 0 -25.488862982991122 -34.619245306426819 0 -34.619245306426819 34.200825415784493 0 0 0 0 -22.000441314856289 -45.659528066418716 0 -45.659528066418716 22.175137690152042 0 0 0 0 -22.30922546768852 -54.257282931459486 0 -54.257282931459486 34.03320942359278 0 0 0 0 -30.869603596680093 -24.530597139611501 0 -24.530597139611501 46.873586441694712 0 0 0 0 -15.142545223017805 -56.123666023166152 0 -56.123666023166152 -10.270507320616161 0 0 0 0 -23.082001734424921 -41.978780953355454 0 -41.978780953355454 47.73388821327535 0 0 0 0 -13.101047119940631 -56.283391500837752 0 -56.283391500837752 30.50425209007517 0 0 0 0 -18.568278394028312 -61.841329981485615 0 -61.841329981485615 39.998449403181439 0 0 0 0 -25.851484824796934 -13.556321173649192 0 -13.556321173649192 17.667193957258647 0 0 0 0 -12.569840712476434 -33.748519527289318 0 -33.748519527289318 44.141471474271384 0 0 0 0 -21.40102944339742 7.7390044033927552 0 7.7390044033927552 66.86849289867132 0 0 0 0 -23.60626040668285 -53.170435525637004 0 -53.170435525637004 27.47438381514803 0 0 0 0 -75.871098462484952 45.537852570698305 0 45.537852570698305 191.74654042013572 0 0 0 0 4.8844536252836406 -34.01645748601004 0 -34.01645748601004 42.355571897496702 0 0 0 0 4.0350523476541227 -27.154632596059656 0 -27.154632596059656 36.804830594849534 0 0 0 0 21.497977962573714 -32.282119409908773 0 -32.282119409908773 31.92878810658658 0 0 0 0 100.44934723793995 39.078397522534942 0 39.078397522534942 127.23425843942096 0 0 0 0 6.0227486527760448 -8.0162948341555307 0 -8.0162948341555307 0.51484337748654951 0 0 0 0 -16.698322792835825 -40.944721487123388 0 -40.944721487123388 40.981376995383471 0 0 0 0 -5.1681860723105331 -25.14654516619499 0 -25.14654516619499 -3.0475769646337127 0 0 0 0 28.009173015189177 -39.539553452852722 0 -39.539553452852722 8.0109916570596056 0 0 0 0 -5.9889611734524806 -45.528093438451833 0 -45.528093438451833 67.763119641007506 0 0 0 0 -1.8483137689690921 -36.546831966945319 0 -36.546831966945319 48.795827137697415 0 0 0 0 8.2837938078591833 -63.620215372764505 0 -63.620215372764505 45.872877606587281 0 0 0 0 -6.7177791951317261 -25.895681859614172 0 -25.895681859614172 -4.9764260636105604 0 0 0 0 -7.6798816744703799 -67.874626915199769 0 -67.874626915199769 61.290656838289578 0 0 0 0 -426.06884410675411 -127.69745408311064 0 -127.69745408311064 227.4049094574948 0 0 0 0 -222.54247923609182 -208.57961856378461 0 -208.57961856378461 86.737183352503052 0 0 0 0 -609.838723386536 -328.54245067356896 0 -328.54245067356896 74.476569510785339 0 0 0 0 -14.260248082564431 -120.769772520679 0 -120.769772520679 205.38578010083438 0 0 0 0 -2.9168196648289815 0.92443451792467357 0 0.92443451792467357 1.8013548350593283 0 0 0 0 -28.714950387875433 7.8966837865591515 0 7.8966837865591515 199.46090653378178 0 0 0 0 -709.32393892420441 -150.61251770653325 0 -150.61251770653325 -4.1769035813485971 0 0 0 0 -699.47428223325596 -467.99332714823959 0 -467.99332714823959 -212.97935346511076 0 0 0 0 -10.854132820583317 -4.70802069721789 0 -4.70802069721789 3.6834518390621156 0 0 0 0 -769.13197792744904 -206.1864461775549 0 -206.1864461775549 72.057279137152364 0 0 0 0 7.5862168052717607 -18.872328718931385 0 -18.872328718931385 36.124541717363172 0 0 0 0 -889.42791318355739 -128.69883626101364 0 -128.69883626101364 23.489742668352847 0 0 0 0 -1.4295273364459291 -3.0607822945507266 0 -3.0607822945507266 6.3261395450892337 0 0 0 0 -647.3046013380299 -31.096834193842369 0 -31.096834193842369 258.54458152620646 0 0 0 0 -976.90120629008925 124.49639632704202 0 124.49639632704202 194.70756918677944 0 0 0 0 -15.098679282284138 31.112277738822741 0 31.112277738822741 -473.57450895630609 0 0 0 0 374.67037552181864 -378.06517718894611 0 -378.06517718894611 -106.76620493206428 0 0 0 0 509.50583303046096 150.95184518096266 0 150.95184518096266 -222.83062305102067 0 0 0 0 -271.49911616561803 -338.23676264530513 0 -338.23676264530513 -175.29934237138514 0 0 0 0 -93.415556859419667 6.7804661842219502 0 6.7804661842219502 196.49339141741075 0 0 0 0 -20.557017039691665 -12.080986984465333 0 -12.080986984465333 15.830225235768737 0 0 0 0 118.58038760365253 415.65460221657486 0 415.65460221657486 419.67908791927766 0 0 0 0 190.88537489077135 -534.15760492970003 0 -534.15760492970003 -1419.1345973256539 0 0 0 0 139.59716171291802 -490.63937741111295 0 -490.63937741111295 751.91947754757712 0 0 0 0 -166.32269931295332 215.90310378431786 0 215.90310378431786 1155.3257850137161 0 0 0 0 1073.2353826437611 -298.38477843926375 0 -298.38477843926375 1194.2949642966269 0 0 0 0 -1.3922045115039765 -12.529644113362338 0 -12.529644113362338 11.743173916474603 0 0 0 0 -152.77098613843737 22.734324744505102 0 22.734324744505102 472.74264098212007 0 0 0 0 -169.00107599189505 153.99825820395199 0 153.99825820395199 293.17801786741256 0 0 0 0 -412.6972320145951 -179.5746085358827 0 -179.5746085358827 327.19530814430618 0 0 0 0 -85.190214170561376 -267.60558227519505 0 -267.60558227519505 289.26752587924966 0 0 0 0 -52.905712241618403 -130.28200567133763 0 -130.28200567133763 238.7817979508327 0 0 0 0 84.210636596812037 -187.12845113820731 0 -187.12845113820731 177.48755113419065 0 0 0 0 -97.389113624154561 -68.950105024005097 0 -68.950105024005097 189.39730367564334 0 0 0 0 -8.1200863380574262 1.0243733923374805 0 1.0243733923374805 -0.53768897822648221 0 0 0 0 -210.65031741824168 -178.92627379483565 0 -178.92627379483565 248.23017005788279 0 0 0 0 -1.8714403797738299 -17.023151054037982 0 -17.023151054037982 13.644569357361632 0 0 0 0 -26.312779767389216 -2.9738880110642754 0 -2.9738880110642754 -0.81887683755200769 0 0 0 0 100.44533238683084 25.951618826606136 0 25.951618826606136 -37.345145184677676 0 0 0 0 -62.355161974162911 -35.38470014071936 0 -35.38470014071936 33.490153654416417 0 0 0 0 4.2189322758085623 -3.3875741196406608 0 -3.3875741196406608 7.6368248428391041 0 0 0 0 298.39815625007759 -264.5969270799178 0 -264.5969270799178 93.8420009620786 0 0 0 0 -202.14221577638455 573.94617544431821 0 573.94617544431821 1616.1097852709136 0 0 0 0 216.47402815167879 -219.29976406825517 0 -219.29976406825517 214.3504142252641 0 0 0 0 144.76946802377643 645.23969676038905 0 645.23969676038905 915.61646678876059 0 0 0 0 5.4568681652272062 -847.65179138652456 0 -847.65179138652456 -1377.7608415202685 0 0 0 0 -344.79167418587895 -106.3464249382705 0 -106.3464249382705 -1058.3500356395907 0 0 0 0 3.1245469826407657 -4.9895648372831829 0 -4.9895648372831829 4.0302632968515866 0 0 0 0 93.174988877606665 1116.2357642202951 0 1116.2357642202951 877.40717533123097 0 0 0 0 -118.52915446237603 -932.74651027703294 0 -932.74651027703294 -1419.2860593946207 0 0 0 0 -715.91907332487972 -605.25975188920529 0 -605.25975188920529 -762.27905902283237 0 0 0 0 141.53084669699319 -58.69424646338075 0 -58.69424646338075 -834.50836433575751 0 0 0 0 -409.85091721873687 -30.004052338945257 0 -30.004052338945257 -144.19061089763636 0 0 0 0 81.465509134679451 -533.49168843320513 0 -533.49168843320513 -672.70781711306336 0 0 0 0 45.402354654397875 -30.214118111548046 0 -30.214118111548046 -0.92860268795902456 0 0 0 0 179.56720867834701 -57.929473697482081 0 -57.929473697482081 -685.04352384323283 0 0 0 0 -33.754251504054992 -119.92167365343448 0 -119.92167365343448 -123.46616458322387 0 0 0 0 -374.68165680584934 -770.92432098474092 0 -770.92432098474092 -394.09125907074122 0 0 0 0 -192.30658829462482 -416.67192529010026 0 -416.67192529010026 248.00785055675078 0 0 0 0 123.52920261019244 -183.13777077222767 0 -183.13777077222767 -289.2569445569552 0 0 0 0 6.0890067426137193 -78.252171611014091 0 -78.252171611014091 -11.583649688254809 0 0 0 0 -10.721160882418168 -77.675817220438205 0 -77.675817220438205 -24.028112807229746 0 0 0 0 -185.33696197537938 -370.2142108496846 0 -370.2142108496846 -74.099646269070945 0 0 0 0 -1.5115876343439041 -73.88711706960126 0 -73.88711706960126 -39.033471852690724 0 0 0 0 0.66714078929908283 -60.009268466017602 0 -60.009268466017602 -42.242133522466247 0 0 0 0 -2.1603042479809957 -81.424451809049955 0 -81.424451809049955 -23.162742480471572 0 0 0 0 -8.195390757129644 -92.905141696784995 0 -92.905141696784995 -19.871767895368976 0 0 0 0 -4.3898429285472957 -97.693916060277843 0 -97.693916060277843 -31.827834124109359 0 0 0 0 50.75732000466413 -47.581991860242439 0 -47.581991860242439 -38.235498732856598 0 0 0 0 -4.8095296874616906 -97.997352476161723 0 -97.997352476161723 -29.547420795919606 0 0 0 0 14.622033705589274 -40.114861274765644 0 -40.114861274765644 -25.51292402263789 0 0 0 0 -131.46809774882422 -281.71931320447038 0 -281.71931320447038 -208.81699276613654 0 0 0 0 92.346177254919894 3.2875071360103902 0 3.2875071360103902 -216.84135630856144 0 0 0 0 45.117513986978139 -66.054952232052443 0 -66.054952232052443 -7.9019715415556249 0 0 0 0 15.931039345643256 -6.1236313914790372 0 -6.1236313914790372 -1.3674940490662948 0 0 0 0 28.989512453367865 -24.5239996457776 0 -24.5239996457776 1.893135629868965 0 0 0 0 34.125710741857631 -62.219019688731663 0 -62.219019688731663 -12.03846416124793 0 0 0 0 -9.5530622817459516 -87.705462773934414 0 -87.705462773934414 -33.208234977020766 0 0 0 0 40.471616198701668 -56.55635414030985 0 -56.55635414030985 -31.86760252732347 0 0 0 0 55.899445126691717 -15.472828032790858 0 -15.472828032790858 -50.05000447902421 0 0 0 0 186.4429759488994 -116.91717559102472 0 -116.91717559102472 -410.49634439844885 0 0 0 0 21.015245887885612 -166.59883541136242 0 -166.59883541136242 -279.4550497175951 0 0 0 0 43.987603276182199 25.014203639802872 0 25.014203639802872 -84.71207845157187 0 0 0 0 24.749662068606995 -53.349079036539479 0 -53.349079036539479 54.626072514682164 0 0 0 0 49.421639543215861 -52.065241834905464 0 -52.065241834905464 29.403103826312872 0 0 0 0 41.086299658180423 -45.818410759452725 0 -45.818410759452725 32.153822314658498 0 0 0 0 5.5362985581323301 -80.801051561975328 0 -80.801051561975328 -3.0001430386473658 0 0 0 0 47.025909928051988 -79.456770249606052 0 -79.456770249606052 22.618562871488393 0 0 0 0 38.943790183482633 -10.184753320084383 0 -10.184753320084383 71.160150498209987 0 0 0 0 -8.8191104912696687 -12.341030246549117 0 -12.341030246549117 12.977039596682388 0 0 0 0 13.590665024512418 -93.247844114539475 0 -93.247844114539475 -33.291278456774307 0 0 0 0 1.3730837621529588 -38.107811141191434 0 -38.107811141191434 11.774728538071017 0 0 0 0 -18.074544463059283 -98.802340167268994 0 -98.802340167268994 -33.620745790591172 0 0 0 0 -31.62830286721146 -82.023241551523824 0 -82.023241551523824 -47.793923547826125 0 0 0 0 8.3339411860833934 -102.07258275540153 0 -102.07258275540153 -44.786491744875093 0 0 0 0 -10.395440696956939 -116.41828321621142 0 -116.41828321621142 -31.453228714097349 0 0 0 0 -16.299405853780627 -116.46957100005966 0 -116.46957100005966 -64.022172966073413 0 0 0 0 -15.451623198809102 -110.50014331821512 0 -110.50014331821512 -32.241514810404624 0 0 0 0 -6.8562764828820946 -126.83172049697168 0 -126.83172049697168 -41.19379028849653 0 0 0 0 -10.243718150817585 -127.92089483954624 0 -127.92089483954624 -24.100575598960859 0 0 0 0 1.5713192612893181 -136.94815459813981 0 -136.94815459813981 -29.173360363114625 0 0 0 0 1.3847263438634059 -92.924848246731585 0 -92.924848246731585 -35.314425514632603 0 0 0 0 -9.1074404474165931 -102.84488309607514 0 -102.84488309607514 3.9754173993715085 0 0 0 0 -4.0449453688197536 -112.05373521884758 0 -112.05373521884758 -24.676095581438858 0 0 0 0 -6.202770459887688 -106.96588714417885 0 -106.96588714417885 -17.084216149953136 0 0 0 0 -15.732660018424212 -121.72900861070229 0 -121.72900861070229 -18.807791434330284 0 0 0 0 -7.3854826873648562 -116.21905084947502 0 -116.21905084947502 -18.603628634373308 0 0 0 0 -13.50871441226991 -115.90615958027774 0 -115.90615958027774 -8.7353413116579759 0 0 0 0 -7.9110702819584304 -24.445679826862985 0 -24.445679826862985 -13.262216611030794 0 0 0 0 -37.571014136941812 -118.52587266894989 0 -118.52587266894989 -17.824235369259441 0 0 0 0 -41.514851971996762 -59.167841368866647 0 -59.167841368866647 -54.629068592721367 0 0 0 0 -153.98741820314171 -127.82535996690422 0 -127.82535996690422 91.137550491373986 0 0 0 0 82.734499740152387 -86.239000005894923 0 -86.239000005894923 -53.967706272858777 0 0 0 0 82.051974527033053 -86.78286394665929 0 -86.78286394665929 -50.882027451705653 0 0 0 0 73.950276689007296 -171.45159307400172 0 -171.45159307400172 -75.720305838796776 0 0 0 0 -18.040889657917432 -135.95314559709368 0 -135.95314559709368 -19.95938946248134 0 0 0 0 -77.955506096492172 -159.73503973938932 0 -159.73503973938932 -5.7053781310969498 0 0 0 0 -17.514941691071726 -144.45273726117739 0 -144.45273726117739 -30.453405622887658 0 0 0 0 88.158746331680959 -157.35701547082863 0 -157.35701547082863 -67.61950468167197 0 0 0 0 -12.153210369582061 -33.116104994913144 0 -33.116104994913144 -5.3503430436135204 0 0 0 0 189.64354426019418 -197.66055773013795 0 -197.66055773013795 -68.66987157377298 0 0 0 0 184.75799178260786 -6.220004126225831 0 -6.220004126225831 -25.698026679368922 0 0 0 0 37.366025844007027 -89.781112252925595 0 -89.781112252925595 -39.453663900407264 0 0 0 0 -19.623673024837444 -91.843662389350357 0 -91.843662389350357 -23.140566049994959 0 0 0 0 -83.364798590633654 -68.638916842322942 0 -68.638916842322942 0.67668542643514229 0 0 0 0 10.358576981937313 -59.147297762135103 0 -59.147297762135103 -35.303703671865406 0 0 0 0 -22.758665234892305 -32.420276699722308 0 -32.420276699722308 -21.288803817195003 0 0 0 0 -239.14255631799824 163.79623290540258 0 163.79623290540258 82.532890635920921 0 0 0 0 -56.701473289890714 -57.898709346950355 0 -57.898709346950355 -17.389844875770066 0 0 0 0 147.76299042882965 -73.320430444668091 0 -73.320430444668091 -344.626836796524 0 0 0 0 319.55657818166401 -91.903682140924502 0 -91.903682140924502 -83.509009505309223 0 0 0 0 -89.749328292436985 -434.86574697299875 0 -434.86574697299875 1351.9789100046401 0 0 0 0 -314.25698823389394 -117.69293741422371 0 -117.69293741422371 434.29474942607703 0 0 0 0 -308.83799704159901 -112.11382709217287 0 -112.11382709217287 153.85894998464209 0 0 0 0 8.7202637643114258 -106.43158281324213 0 -106.43158281324213 -17.286195435633999 0 0 0 0 -20.257290044550597 -66.529746573270174 0 -66.529746573270174 -24.630340505473697 0 0 0 0 -22.84235428244596 -64.452296254635115 0 -64.452296254635115 -41.483247435427799 0 0 0 0 -46.140705033860286 -114.30051134659152 0 -114.30051134659152 -29.994081111610285 0 0 0 0 -121.22344375077955 -219.71413998885691 0 -219.71413998885691 -96.744785853348731 0 0 0 0 4.7464518489339014 -79.979728468402271 0 -79.979728468402271 -97.196452930324824 0 0 0 0 94.264618738030549 -65.613076266985445 0 -65.613076266985445 -380.21496475837193 0 0 0 0 -70.559846179348824 -339.13050596225366 0 -339.13050596225366 49.91681747492953 0 0 0 0 209.47261230699951 -472.52655790442077 0 -472.52655790442077 47.782701312738936 0 0 0 0 -137.34717497084057 -326.77759101768606 0 -326.77759101768606 213.17141030958737 0 0 0 0 527.18297792962403 -522.04088268004125 0 -522.04088268004125 104.57145320493146 0 0 0 0 201.9455151426082 -311.08955231413711 0 -311.08955231413711 352.46081345970742 0 0 0 0 69.843384669278748 -387.76269529908313 0 -387.76269529908313 65.183399982954143 0 0 0 0 48.500183074342203 -11.445142650660273 0 -11.445142650660273 -56.797074529531528 0 0 0 0 19.610589012358105 -89.378698064505443 0 -89.378698064505443 6.6699696660364225 0 0 0 0 -315.18300849253137 -257.38591596568949 0 -257.38591596568949 -297.35272024977166 0 0 0 0 -154.42360081183142 -583.06267770844352 0 -583.06267770844352 92.274869940447388 0 0 0 0 4.9549666399441037 -8.1626744212179254 0 -8.1626744212179254 -30.136943464929317 0 0 0 0 11.515019859526632 -32.29998695105693 0 -32.29998695105693 -1.2370311672837886 0 0 0 0 482.31494610854497 -33.618086086749827 0 -33.618086086749827 -129.42452579719247 0 0 0 0 -49.436972933261131 -128.01815499249642 0 -128.01815499249642 301.16010693530825 0 0 0 0 -102.4518219428719 -88.707259401009651 0 -88.707259401009651 107.81641032538028 0 0 0 0 -381.14882573258365 0.89856130460975692 0 0.89856130460975692 -388.36452948444639 0 0 0 0 23.346505340084789 -33.503833726710525 0 -33.503833726710525 -33.06857144813381 0 0 0 0 -253.26094998823828 -331.39851191040361 0 -331.39851191040361 189.04836259147851 0 0 0 0 282.07909355756419 -237.22171841647651 0 -237.22171841647651 -404.99198734280071 0 0 0 0 -191.03983983691433 90.018032178704743 0 90.018032178704743 -468.29227747261757 0 0 0 0 -22.62778341723606 -467.41527037549531 0 -467.41527037549531 -69.573207841895055 0 0 0 0 300.26995589066064 -250.511013364885 0 -250.511013364885 -27.990695126885839 0 0 0 0 -79.869560215578531 -120.87532736812136 0 -120.87532736812136 442.18086518082418 0 0 0 0 -171.48051967212632 -170.05257901534242 0 -170.05257901534242 274.48486727784621 0 0 0 0 45.15618751331931 -267.91109041504387 0 -267.91109041504387 23.174839218940178 0 0 0 0 -13.318603994185594 -74.935242826864254 0 -74.935242826864254 -71.268426519215126 0 0 0 0 49.449527132150251 -287.95305012856261 0 -287.95305012856261 -84.814057433854032 0 0 0 0 -244.19844021831523 -242.20873200037386 0 -242.20873200037386 70.178873111661233 0 0 0 0 436.8931430756893 -398.02207858806378 0 -398.02207858806378 -283.05131449298642 0 0 0 0 -947.03654107542388 -79.058316752834799 0 -79.058316752834799 234.2968114280884 0 0 0 0 -2.4869241608812942 -8.0331660914817178 0 -8.0331660914817178 -12.159092676127301 0 0 0 0 56.976018337532878 36.37966628922004 0 36.37966628922004 -336.93303203142932 0 0 0 0 30.385187746691372 3.3075942900541122 0 3.3075942900541122 15.606352982926182 0 0 0 0 40.609887513142894 -92.138785749099043 0 -92.138785749099043 126.51506294250794 0 0 0 0 -178.99988196160848 -107.73110025133337 0 -107.73110025133337 101.66002028897492 0 0 0 0 -207.34338655379906 18.471890760161841 0 18.471890760161841 -141.37707528413739 0 0 0 0 31.94318937852222 -119.25590030859894 0 -119.25590030859894 -112.84999905342556 0 0 0 0 11.456888153982447 -25.004448001673751 0 -25.004448001673751 -27.993707250215948 0 0 0 0 47.326901376036403 -234.17365687241545 0 -234.17365687241545 80.693266732188931 0 0 0 0 5.82656384494544 -60.358210678501536 0 -60.358210678501536 -78.210240563445055 0 0 0 0 22.573262410105599 -195.49596260275848 0 -195.49596260275848 120.1829361154596 0 0 0 0 -28.622337631347143 -60.526021134054794 0 -60.526021134054794 30.217583648819414 0 0 0 0 197.74259480831824 -186.67753149279451 0 -186.67753149279451 24.584715767428861 0 0 0 0 275.01688263516917 -258.21715591438624 0 -258.21715591438624 -21.071429579795222 0 0 0 0 47.584380037878873 -219.93637270775798 0 -219.93637270775798 -46.959713079791982 0 0 0 0 0.45934828027384356 -309.15963717866543 0 -309.15963717866543 33.558758317121828 0 0 0 0 40.65913342996646 -259.53703871586185 0 -259.53703871586185 77.253819094708888 0 0 0 0 -32.200444213602168 -242.83327842619474 0 -242.83327842619474 136.34270884432772 0 0 0 0 -126.55331204617687 -129.51103978419269 0 -129.51103978419269 310.78046207627631 0 0 0 0 -9.5693473934370559 -390.61535220535006 0 -390.61535220535006 395.74194847559556 0 0 0 0 22.075299634161638 -322.8692087646632 0 -322.8692087646632 519.44290452976566 0 0 0 0 110.96391209079593 -122.86205620311375 0 -122.86205620311375 969.47568274574587 0 0 0 0 32.417644933775591 -286.25428033098069 0 -286.25428033098069 91.046539808623493 0 0 0 0 196.56385406137269 -372.85670946995378 0 -372.85670946995378 107.70219674322288 0 0 0 0 -70.416584097714804 -275.49923303964897 0 -275.49923303964897 182.10311624433962 0 0 0 0 -21.647334452580253 -257.36855773770367 0 -257.36855773770367 35.893120790889952 0 0 0 0 54.958676147492952 -350.82607413957885 0 -350.82607413957885 97.302421179949306 0 0 0 0 50.150840619251539 -252.06736423318944 0 -252.06736423318944 -79.963113578938646 0 0 0 0 -47.018229210312711 -229.91493006623932 0 -229.91493006623932 -10.2952022186455 0 0 0 0 131.76007645222126 -276.28266455011908 0 -276.28266455011908 -13.996555574478407 0 0 0 0 10.27750620479722 -10.710861799297014 0 -10.710861799297014 -5.2644342231920405 0 0 0 0 55.452370482555125 -120.88194886973361 0 -120.88194886973361 -29.664476207370171 0 0 0 0 -145.26025285560172 -142.87628647401289 0 -142.87628647401289 -5.9091098731441889 0 0 0 0 -9.3171044453738432 -148.38664692056045 0 -148.38664692056045 -40.225784918176942 0 0 0 0 -61.363915269961581 -177.73042940473533 0 -177.73042940473533 -15.425407063346938 0 0 0 0 -111.03281807839812 -186.03275736741489 0 -186.03275736741489 -48.397816153825261 0 0 0 0 -110.26583860242681 -117.84220929599542 0 -117.84220929599542 -89.814054810005473 0 0 0 0 -99.182724631740712 -210.48897126945667 0 -210.48897126945667 -285.04682225326542 0 0 0 0 -236.17242951452499 -268.06724911599304 0 -268.06724911599304 -170.97275051992619 0 0 0 0 -108.28201456030365 77.281441566825379 0 77.281441566825379 -390.56538809009362 0 0 0 0 -159.38694113625388 -72.881955343065783 0 -72.881955343065783 53.657231744204182 0 0 0 0 123.17140720353927 -145.30143046152079 0 -145.30143046152079 -21.128960565780289 0 0 0 0 525.32902603017283 -215.88635967698065 0 -215.88635967698065 -131.90711661672685 0 0 0 0 196.19197803024144 -397.21752293790632 0 -397.21752293790632 203.02466445718892 0 0 0 0 -95.465665967130917 69.826721920166165 0 69.826721920166165 -5.4108068022760563 0 0 0 0 206.2097767109517 75.035470193543006 0 75.035470193543006 -206.39832287275931 0 0 0 0 636.57930365513312 -197.5947447020153 0 -197.5947447020153 -241.49908790513655 0 0 0 0 175.71947385597741 370.53516228063381 0 370.53516228063381 749.40163880528416 0 0 0 0 -0.67973628344475401 -1.0413085112130602 0 -1.0413085112130602 -1.0247569449681464 0 0 0 0 -1.8923658914817452 -3.9164522725623812 0 -3.9164522725623812 1.5811255561924895 0 0 0 0 -88.40616749052424 -334.76745881052921 0 -334.76745881052921 1543.2732337479247 0 0 0 0 -206.61120400937216 -93.711070171368192 0 -93.711070171368192 1067.5104787880555 0 0 0 0 596.22345591656631 -834.26574969952344 0 -834.26574969952344 506.11430800767266 0 0 0 0 1079.3242009690148 -351.42495374320424 0 -351.42495374320424 353.82145646825666 0 0 0 0 31.819808938220376 -533.90507944708224 0 -533.90507944708224 518.95848510088399 0 0 0 0 329.87357550050365 -607.82196582612232 0 -607.82196582612232 526.43514543445781 0 0 0 0 502.72417996678269 -941.74653007354937 0 -941.74653007354937 1169.1885381934117 0 0 0 0 21.130850272980751 -463.47714249277487 0 -463.47714249277487 329.3602292019641 0 0 0 0 -188.19349096473888 -366.46493907283002 0 -366.46493907283002 352.12525837868452 0 0 0 0 -229.04441945659346 -278.89895326524857 0 -278.89895326524857 599.05668613512535 0 0 0 0 -238.3562420863891 -174.14878644680721 0 -174.14878644680721 130.97190296152257 0 0 0 0 -281.67549038983998 -180.1676371204594 0 -180.1676371204594 136.36577904550359 0 0 0 0 -156.72045831070864 -85.003519187506754 0 -85.003519187506754 -23.121145992248785 0 0 0 0 -155.6929122050642 -117.80454508127877 0 -117.80454508127877 71.93921759549994 0 0 0 0 -278.97595391378854 236.52641343063442 0 236.52641343063442 305.74990081088617 0 0 0 0 -226.91322087153094 -32.923562585667241 0 -32.923562585667241 144.73444137221668 0 0 0 0 -168.82305180022377 -177.67860434703471 0 -177.67860434703471 326.55319285404403 0 0 0 0 -196.36411944634165 -154.05366566815792 0 -154.05366566815792 -212.77113583659229 0 0 0 0 -247.47895881028307 -118.24516687068535 0 -118.24516687068535 -89.794157042604638 0 0 0 0 -162.13714328331116 -201.05385638072039 0 -201.05385638072039 -171.16951564030023 0 0 0 0 -101.8376303036639 -136.96250551170669 0 -136.96250551170669 -103.21802887725062 0 0 0 0 -144.86301394536531 -274.87415290947138 0 -274.87415290947138 -250.69334463846462 0 0 0 0 -67.542745111481054 -257.21226388828654 0 -257.21226388828654 -76.388584395390353 0 0 0 0 -55.760100803468958 -173.81617808972078 0 -173.81617808972078 -166.96389939455548 0 0 0 0 1.283114596059022 -190.51342036276037 0 -190.51342036276037 -459.4783850118838 0 0 0 0 66.943631496978924 -261.27191742789728 0 -261.27191742789728 -225.11177190646413 0 0 0 0 -35.007687388086197 -145.40958370881344 0 -145.40958370881344 -209.5921677047736 0 0 0 0 -1.3413708082262019 -291.82769195734909 0 -291.82769195734909 -132.08452381423558 0 0 0 0 73.671052562269324 -281.30325950249608 0 -281.30325950249608 -19.859762370149838 0 0 0 0 196.18059078368242 -160.59799252128869 0 -160.59799252128869 -146.69284934363532 0 0 0 0 195.13580637714858 -164.40572401481677 0 -164.40572401481677 61.128458760940703 0 0 0 0 300.48506787581573 -165.2618759498655 0 -165.2618759498655 -367.37932315877697 0 0 0 0 312.12374906770128 -106.51529968764044 0 -106.51529968764044 -318.62143569759792 0 0 0 0 440.23362297975109 -167.27193285417161 0 -167.27193285417161 -309.4134952983004 0 0 0 0 270.65000474583212 -249.43024648844585 0 -249.43024648844585 -327.62412301552831 0 0 0 0 260.03301947254658 -180.72896179503732 0 -180.72896179503732 -49.888400094205281 0 0 0 0 219.16002782110445 -53.630894050496863 0 -53.630894050496863 -22.914995883067604 0 0 0 0 250.2017509831494 32.369740211346652 0 32.369740211346652 19.981488377059577 0 0 0 0 203.47117074929702 -42.161656131298514 0 -42.161656131298514 -22.839124286150764 0 0 0 0 182.70076745116967 -79.521790421116748 0 -79.521790421116748 -89.3421239543095 0 0 0 0 188.66374607854959 -19.511259931183304 0 -19.511259931183304 -64.093314865571301 0 0 0 0 192.37614493467845 -44.674082162244304 0 -44.674082162244304 -139.11089900307707 0 0 0 0 244.55926843505586 -76.735247902630363 0 -76.735247902630363 -305.4607673113569 0 0 0 0 -249.91922902840452 -425.46412709956348 0 -425.46412709956348 -494.78762229049062 0 0 0 0 201.31846643398649 20.897246377857755 0 20.897246377857755 -69.826406008709455 0 0 0 0 1.0476780756580268 0.52745160532340662 0 0.52745160532340662 -3.5684999915814046 0 0 0 0 24.720984142550151 -26.723546814871952 0 -26.723546814871952 -80.727140246715862 0 0 0 0 0.41545742029650512 2.613340994567551 0 2.613340994567551 -7.314557373055095 0 0 0 0 4.368541679737973 -103.90221028243832 0 -103.90221028243832 -107.38629988410685 0 0 0 0 -16.289109863908379 -180.180623549546 0 -180.180623549546 -380.55838409125317 0 0 0 0 -169.96592391790182 -304.12567036556356 0 -304.12567036556356 -396.96928130908054 0 0 0 0 36.284049232916004 -106.35224030281461 0 -106.35224030281461 -33.212864253797306 0 0 0 0 77.60084475221629 -76.87425244703627 0 -76.87425244703627 -67.023222613715916 0 0 0 0 -183.47299693768946 -168.53883220156422 0 -168.53883220156422 -89.1624826357438 0 0 0 0 101.12072686133615 -58.902683928361512 0 -58.902683928361512 -67.540485122579412 0 0 0 0 -4.7032906272052806 -17.907601787563223 0 -17.907601787563223 -19.623225470604694 0 0 0 0 -23.105389152664429 -25.124315246299375 0 -25.124315246299375 -68.255005526545574 0 0 0 0 -13.029156679767425 -121.0906465003618 0 -121.0906465003618 -57.15761204820592 0 0 0 0 -17.202234643677912 -52.766855248781212 0 -52.766855248781212 -59.726787828469242 0 0 0 0 -2.7434791370434173 -21.724587956359244 0 -21.724587956359244 -18.099433109275964 0 0 0 0 -112.74891018405788 -93.80853754778218 0 -93.80853754778218 12.968542717848322 0 0 0 0 -64.00885356292352 -49.785362732579138 0 -49.785362732579138 0.92146575127780928 0 0 0 0 -21.278159305094434 -12.710305112761105 0 -12.710305112761105 19.390465605457678 0 0 0 0 -11.121258488033833 -50.059116699838611 0 -50.059116699838611 -7.81910712278078 0 0 0 0 16.185765313020966 -63.65779225177539 0 -63.65779225177539 -56.343419614024242 0 0 0 0 9.4586988756493078 -46.988838713060375 0 -46.988838713060375 -56.422191267123395 0 0 0 0 -21.172318029178026 -91.598070471182325 0 -91.598070471182325 -5.7581446914656169 0 0 0 0 -188.9012187487242 -92.577980026286241 0 -92.577980026286241 -18.441897019736643 0 0 0 0 200.01853505597683 -67.995154010655824 0 -67.995154010655824 33.249285944446456 0 0 0 0 -1.4648321714645363 -33.391345476793845 0 -33.391345476793845 -3.1587893266347438 0 0 0 0 -9.7794350106586023 -17.314873414953006 0 -17.314873414953006 -37.103278650215145 0 0 0 0 -16.694432293861738 -62.380394549263627 0 -62.380394549263627 -44.803452407764709 0 0 0 0 -52.2693688016534 -148.34295404574368 0 -148.34295404574368 119.92789926679689 0 0 0 0 172.60558337133989 8.6078693705276237 0 8.6078693705276237 -377.69265578558407 0 0 0 0 372.1454821365478 25.266557978244236 0 25.266557978244236 -401.24618038993503 0 0 0 0 352.29162558510143 17.562514447505237 0 17.562514447505237 -173.61460795681342 0 0 0 0 -331.81542985278793 271.48242814800324 0 271.48242814800324 1011.6480232734175 0 0 0 0 -0.818345139663613 -1.5695693580956629 0 -1.5695693580956629 -7.9971335366124663 0 0 0 0 -137.14797893002833 -78.19994280584433 0 -78.19994280584433 -136.20700655637484 0 0 0 0 1.3084903152593412 -75.848698432216722 0 -75.848698432216722 -36.658383719395772 0 0 0 0 2.0622408773858609 -5.1954292005088547 0 -5.1954292005088547 -26.705362494557221 0 0 0 0 -471.63251362607843 -134.28398281226691 0 -134.28398281226691 139.24263712175889 0 0 0 0 360.17319109340315 -254.64331588551431 0 -254.64331588551431 -1758.2749162936816 0 0 0 0 173.20739611334284 -334.22142101863574 0 -334.22142101863574 349.41010533036297 0 0 0 0 471.97675339509078 -135.72529588346151 0 -135.72529588346151 -633.54527129398775 0 0 0 0 213.94053756688663 -702.30257754784543 0 -702.30257754784543 -342.67594201571774 0 0 0 0 323.46375959628494 150.71756725331943 0 150.71756725331943 367.92731209329213 0 0 0 0 752.63495324400719 109.36272097716574 0 109.36272097716574 -155.46922817161249 0 0 0 0 0.39326346585070127 -3.826767795051822 0 -3.826767795051822 -10.469190988963703 0 0 0 0 -162.86933424085873 -51.889124244080449 0 -51.889124244080449 -325.93213378467772 0 0 0 0 -931.24158939876361 -454.65903703730874 0 -454.65903703730874 305.76191217248561 0 0 0 0 21.464524524117856 -64.80709697670747 0 -64.80709697670747 -88.896489518249638 0 0 0 0 -77.109145125876239 -73.341154175257543 0 -73.341154175257543 -27.311539518246718 0 0 0 0 -49.030571952658647 -100.57486187710674 0 -100.57486187710674 -109.11251477523183 0 0 0 0 -51.358132502550006 -44.817119430967807 0 -44.817119430967807 28.142235723443434 0 0 0 0 -12.782794534380145 -28.248925689945068 0 -28.248925689945068 7.5149970989739074 0 0 0 0 -22.618606927235078 -118.78793471925246 0 -118.78793471925246 -105.8899358578492 0 0 0 0 -32.718205338294865 -150.76394968783279 0 -150.76394968783279 -81.021419638447696 0 0 0 0 -31.704854446315949 -64.722856253712962 0 -64.722856253712962 -42.913268376229098 0 0 0 0 -138.58584886519111 -203.05895116565807 0 -203.05895116565807 -111.30925123335328 0 0 0 0 -105.97169565170589 -182.22823423354566 0 -182.22823423354566 -124.80753141206151 0 0 0 0 -73.730516729634473 -112.38643181005682 0 -112.38643181005682 -108.39662401549867 0 0 0 0 -22.579686111876498 -26.626864907194403 0 -26.626864907194403 29.355768208164477 0 0 0 0 -84.048893760522333 -101.46155034565891 0 -101.46155034565891 -61.349219336589158 0 0 0 0 -118.31978500488322 -97.583675956422667 0 -97.583675956422667 -29.375389539069147 0 0 0 0 -51.394086749274102 -27.986669748932826 0 -27.986669748932826 52.614664410943917 0 0 0 0 -10.334092362137991 -30.433893489589934 0 -30.433893489589934 15.233622283165403 0 0 0 0 -60.736278870059323 -182.18648898141691 0 -182.18648898141691 -156.77922511698853 0 0 0 0 -188.07560272410456 -65.021011950162574 0 -65.021011950162574 -84.805737758346368 0 0 0 0 -2.0432526004343856 -2.7564038127684967 0 -2.7564038127684967 2.1239386690537856 0 0 0 0 -172.11938663016554 -109.05562264358741 0 -109.05562264358741 501.20161969767651 0 0 0 0 220.25153051508278 -176.9405760614427 0 -176.9405760614427 51.092491156858159 0 0 0 0 397.10321939751157 -147.44113847686094 0 -147.44113847686094 319.91936567338416 0 0 0 0 -1.4501204360281967 1.5233840836757579 0 1.5233840836757579 3.9294123128057663 0 0 0 0 -73.994182286505747 -383.02744021975013 0 -383.02744021975013 13.894040679704631 0 0 0 0 -136.59451457954128 -32.612675970391138 0 -32.612675970391138 86.974576645821799 0 0 0 0 120.37778989892104 247.94114817229274 0 247.94114817229274 270.55037452171382 0 0 0 0 -103.14059642634675 -102.31509432192252 0 -102.31509432192252 -49.953796211448207 0 0 0 0 -18.769740586016951 -20.069002947881842 0 -20.069002947881842 49.966250067690737 0 0 0 0 -80.733528681121243 -105.46869500970934 0 -105.46869500970934 -61.084996772464365 0 0 0 0 -63.774474781766912 -86.284080252320564 0 -86.284080252320564 -43.629911946794891 0 0 0 0 -93.370816699040006 -100.37023952425807 0 -100.37023952425807 -54.737632452772232 0 0 0 0 -11.789676088084676 -58.651911751321691 0 -58.651911751321691 -38.181272320694859 0 0 0 0 486.04731713177898 -122.41213249249995 0 -122.41213249249995 -840.18931139817869 0 0 0 0 -206.87358761549694 299.77407317848701 0 299.77407317848701 263.59293550567236 0 0 0 0 -20.444946858280247 -22.992805525190434 0 -22.992805525190434 18.71472843254341 0 0 0 0 423.72538323724075 17.383945381594458 0 17.383945381594458 -179.21578666270943 0 0 0 0 372.01071453111945 -256.73502677428769 0 -256.73502677428769 -497.36517522128997 0 0 0 0 -257.59344255306132 -578.68436250884406 0 -578.68436250884406 -287.1670107516693 0 0 0 0 59.834030176440137 -277.25167822898948 0 -277.25167822898948 -0.92410380399087444 0 0 0 0 -503.77921582516865 -190.43488431827427 0 -190.43488431827427 212.54411273979349 0 0 0 0 240.38404780674318 -162.921631770354 0 -162.921631770354 -335.65352920815349 0 0 0 0 68.787735222038464 -250.13643370270438 0 -250.13643370270438 -95.615024729951983 0 0 0 0 91.810305815102765 -39.1239400531922 0 -39.1239400531922 14.268286210724909 0 0 0 0 117.53570975907132 -136.95078685330736 0 -136.95078685330736 20.225686096469872 0 0 0 0 -19.011553266012925 -134.38213517860277 0 -134.38213517860277 75.349373992794426 0 0 0 0 -5.540165716491174 -84.230818630079739 0 -84.230818630079739 213.66142077319819 0 0 0 0 -184.67581867889385 -291.10683032989618 0 -291.10683032989618 157.84691375517286 0 0 0 0 -87.056781223647704 1.1552397415362066 0 1.1552397415362066 292.70741747081047 0 0 0 0 -20.396583944981103 -107.39358759073366 0 -107.39358759073366 327.90219116280787 0 0 0 0 97.795435077598086 -1.2215049326623557 0 -1.2215049326623557 2.0815142497012857 0 0 0 0 207.02057764018537 330.86659108387539 0 330.86659108387539 228.72682806205557 0 0 0 0 69.225712700601434 -39.382082084688591 0 -39.382082084688591 96.371074286435032 0 0 0 0 -235.84185738534143 -37.18781650942401 0 -37.18781650942401 -37.408643290400505 0 0 0 0 -78.364979744932498 -79.598160152090713 0 -79.598160152090713 -26.171871477272362 0 0 0 0 25.418957654036415 -54.47761981936403 0 -54.47761981936403 -21.665944705821687 0 0 0 0 -25.683756376091111 -14.120140394145309 0 -14.120140394145309 1.5473802355999737 0 0 0 0 392.30863868910819 441.12503573638969 0 441.12503573638969 212.57111522172636 0 0 0 0 313.4115519192128 -62.986886251252145 0 -62.986886251252145 206.53893753507873 0 0 0 0 -150.30184003951945 -32.100328744949366 0 -32.100328744949366 5.0237885450478643 0 0 0 0 32.351132861287624 -52.427330295096439 0 -52.427330295096439 17.078411140762654 0 0 0 0 -214.41288411148707 -428.66529579198686 0 -428.66529579198686 134.33877784972719 0 0 0 0 -58.899207445858337 -20.066488294760347 0 -20.066488294760347 34.677160163093504 0 0 0 0 -64.925078210739457 -20.802974310116497 0 -20.802974310116497 40.560062238975661 0 0 0 0 55.660982146786409 -38.76025068081799 0 -38.76025068081799 22.880339009963791 0 0 0 0 36.491577653814588 -32.383362798897764 0 -32.383362798897764 20.407702071864321 0 0 0 0 -67.83193371109769 -60.863598928166311 0 -60.863598928166311 18.208091664593667 0 0 0 0 -16.9246529607517 -43.922697046662506 0 -43.922697046662506 18.301901300117606 0 0 0 0 11.347351921060181 -40.799579336395254 0 -40.799579336395254 4.8662437302264152 0 0 0 0 -39.988811750172317 -34.768128720759705 0 -34.768128720759705 19.917654629229219 0 0 0 0 -38.561557920438645 -6.2339938587610959 0 -6.2339938587610959 38.174308870713503 0 0 0 0 -8.7738501436694776 -6.2762309782681029 0 -6.2762309782681029 16.651350999751259 0 0 0 0 1.5981298884421165 -4.5578651345241994 0 -4.5578651345241994 -8.2157035983573792 0 0 0 0 -69.917340762374806 -46.675926889685798 0 -46.675926889685798 -22.93964626052184 0 0 0 0 -37.271383082101238 -26.223511871532537 0 -26.223511871532537 -24.785810945089906 0 0 0 0 -17.122749432764977 -43.396441268334456 0 -43.396441268334456 -30.362795845168876 0 0 0 0 -77.604254991189919 -108.6959792701673 0 -108.6959792701673 -42.400620999193052 0 0 0 0 -198.74155840269668 -120.41026285121188 0 -120.41026285121188 -2.0080871739191934 0 0 0 0 -113.76885956601473 -50.467998948595778 0 -50.467998948595778 -0.36234735512698535 0 0 0 0 -82.647374378924724 -85.284084728482412 0 -85.284084728482412 23.660389105978538 0 0 0 0 -94.06390428280065 -65.116073319557472 0 -65.116073319557472 -11.04492423740885 0 0 0 0 -2.6910499460645951 -54.13811194615846 0 -54.13811194615846 -21.327491990523413 0 0 0 0 -4.6487665742969355 -1.4750437473809299 0 -1.4750437473809299 7.7423740728228267 0 0 0 0 22.096181439850625 61.022094449795986 0 61.022094449795986 81.838450186129194 0 0 0 0 -4.8254460631505935 -84.588695491213002 0 -84.588695491213002 8.353112786404381 0 0 0 0 -5.1040933502226835 -65.731929003406549 0 -65.731929003406549 -82.694198614361085 0 0 0 0 27.330909761149087 -42.7962110752851 0 -42.7962110752851 -112.91666993913532 0 0 0 0 41.206153664676094 -66.292047636692587 0 -66.292047636692587 -75.818948414744227 0 0 0 0 154.50089420276345 -42.167241132898198 0 -42.167241132898198 -116.44837137950526 0 0 0 0 156.71598200097651 -64.301279777027958 0 -64.301279777027958 -84.53940243350371 0 0 0 0 148.80147407363984 -28.998512651705823 0 -28.998512651705823 -73.06439089984633 0 0 0 0 184.58253319953451 -48.027799017562756 0 -48.027799017562756 -65.023011657700408 0 0 0 0 155.89237497284284 -49.11941976307844 0 -49.11941976307844 -86.032979217387037 0 0 0 0 197.98785074605985 -25.99883581433096 0 -25.99883581433096 -96.127660134894541 0 0 0 0 207.37004539416375 -39.302326658798847 0 -39.302326658798847 -99.867110352410236 0 0 0 0 276.98790390237991 -29.070422682765638 0 -29.070422682765638 -109.86123263601621 0 0 0 0 181.31414225703338 -75.436310031043831 0 -75.436310031043831 -132.2771341806656 0 0 0 0 126.41787777938043 -111.38706836014899 0 -111.38706836014899 -50.382774788682582 0 0 0 0 204.25622442401072 -38.037382571892522 0 -38.037382571892522 -79.144792015635176 0 0 0 0 181.49088977913198 -3.1433836503128987 0 -3.1433836503128987 -33.769329700910021 0 0 0 0 137.41721831193718 -47.4972941588494 0 -47.4972941588494 -78.268345368785049 0 0 0 0 136.76917471514025 -50.532144847238669 0 -50.532144847238669 -13.701365744287614 0 0 0 0 78.974481492317864 -46.36630138666078 0 -46.36630138666078 29.912684450217057 0 0 0 0 120.68940749824105 39.273033490419039 0 39.273033490419039 41.208031347894575 0 0 0 0 114.32592825159372 9.5976790689164773 0 9.5976790689164773 28.739302306406898 0 0 0 0 59.444888184487354 -18.687294870178448 0 -18.687294870178448 23.37933105706179 0 0 0 0 133.3599958317136 -1.5954274256509962 0 -1.5954274256509962 -32.831179722910747 0 0 0 0 34.67967729998054 8.7002837074978743 0 8.7002837074978743 35.350114646731527 0 0 0 0 8.5788958800258115 39.356915774405934 0 39.356915774405934 18.22611689788755 0 0 0 0 82.258049206458963 6.2407092348439619 0 6.2407092348439619 15.099527400510851 0 0 0 0 4.2084363857089713 -5.0610697365808761 0 -5.0610697365808761 0.55602744627140055 0 0 0 0 -16.723705298536515 3.229797411171603 0 3.229797411171603 89.214248701769975 0 0 0 0 4.7789015914429225 -17.038113378658835 0 -17.038113378658835 9.7315753610470779 0 0 0 0 -0.33248917220183216 -2.8788789799775145 0 -2.8788789799775145 4.7276934455187245 0 0 0 0 458.07587118454103 -101.71237178426964 0 -101.71237178426964 -10.322268502466613 0 0 0 0 363.08089512649167 127.1751934345084 0 127.1751934345084 60.342933642092248 0 0 0 0 218.59215105735348 -21.418643288772728 0 -21.418643288772728 -8.3806328761857003 0 0 0 0 257.81754523313066 -30.674242349530687 0 -30.674242349530687 -64.199263932721806 0 0 0 0 226.37965214600263 54.313899633882102 0 54.313899633882102 -6.8572649607085623 0 0 0 0 47.626300667165197 -76.225115257264406 0 -76.225115257264406 6.3650066297705052 0 0 0 0 192.97082225989016 -196.9891671030714 0 -196.9891671030714 64.102352563335444 0 0 0 0 219.19190511599299 -81.140247833980538 0 -81.140247833980538 50.27411622701311 0 0 0 0 -146.86091950564878 -102.41237872099737 0 -102.41237872099737 145.34574765769503 0 0 0 0 -8.0383340545959072 -133.45890641206643 0 -133.45890641206643 108.77254671228002 0 0 0 0 -47.329721743422851 -129.22284350272093 0 -129.22284350272093 134.40094609418156 0 0 0 0 58.220986524473119 -418.38723162666429 0 -418.38723162666429 -620.12572619465936 0 0 0 0 96.569160251616267 -196.78335694403359 0 -196.78335694403359 -173.52678694092901 0 0 0 0 -173.75946709692653 -187.49599969392875 0 -187.49599969392875 109.19178029424802 0 0 0 0 -151.64609082687093 -167.73511184686504 0 -167.73511184686504 100.82522028067615 0 0 0 0 22.933767883137989 -246.23479814650818 0 -246.23479814650818 52.964669203123776 0 0 0 0 -76.540725546339672 -273.36847879853303 0 -273.36847879853303 46.391386188915931 0 0 0 0 351.84644170609681 -124.60044376354199 0 -124.60044376354199 -168.27141049174679 0 0 0 0 320.181288280015 -68.301702479751839 0 -68.301702479751839 -112.57652205514023 0 0 0 0 446.90584142765874 -22.710369861160871 0 -22.710369861160871 -230.65434793861641 0 0 0 0 343.98007644458994 -8.3123203765135258 0 -8.3123203765135258 -32.405400538118556 0 0 0 0 446.11437218929495 -24.87628222166677 0 -24.87628222166677 -130.92471279046731 0 0 0 0 553.62415863986826 -59.711023733681941 0 -59.711023733681941 -141.53296906808282 0 0 0 0 465.16798102073153 -162.03373801727867 0 -162.03373801727867 -44.297735104570165 0 0 0 0 262.51555979275145 -193.78208033159535 0 -193.78208033159535 294.51947697476135 0 0 0 0 465.88187663577264 40.83064705049037 0 40.83064705049037 -44.845154972921591 0 0 0 0 167.91312475316954 -190.10108007195959 0 -190.10108007195959 70.566076330069336 0 0 0 0 0.11432953770272825 -19.439573428535567 0 -19.439573428535567 -2.4438218377539442 0 0 0 0 -83.943559111437935 -66.936701714665105 0 -66.936701714665105 102.51008662332606 0 0 0 0 117.97725845223613 -16.805045439861715 0 -16.805045439861715 -44.548798860283569 0 0 0 0 -9.440387299570574 -4.7583279464833055 0 -4.7583279464833055 2.91958230661632 0 0 0 0 343.9588994365331 -9.0390781604364747 0 -9.0390781604364747 -53.887865520231571 0 0 0 0 27.086013420591371 101.86276872610142 0 101.86276872610142 149.51798850967316 0 0 0 0 9.4449659128884367 -28.892993515323283 0 -28.892993515323283 17.13632826189513 0 0 0 0 37.036318860315077 -6.2736248399087344 0 -6.2736248399087344 -8.4782922476588283 0 0 0 0 348.16284287837334 49.464702661847696 0 49.464702661847696 80.610337743069977 0 0 0 0 16.997669447260762 -14.456841628686163 0 -14.456841628686163 9.0484325809080133 0 0 0 0 24.404036473511951 -27.808963242019217 0 -27.808963242019217 -8.4782922476588283 0 0 0 0 5.0753479042196679 0.15073585936244172 0 0.15073585936244172 -0.84338173488941948 0 0 0 0 35.3607555729468 -23.815941621753154 0 -23.815941621753154 0.027526434714673087 0 0 0 0 77.260409794704174 -18.486553482201998 0 -18.486553482201998 -15.293240232553217 0 0 0 0 -4.8633353614495718 -11.603012979416235 0 -11.603012979416235 6.8424744195799576 0 0 0 0 356.24315335171195 65.195822330242663 0 65.195822330242663 31.843167130980873 0 0 0 0 629.21291584181017 -126.79703028041695 0 -126.79703028041695 -464.83073550305562 0 0 0 0 556.75660759919265 132.37738117329718 0 132.37738117329718 -94.486273830938444 0 0 0 0 379.6585377562169 102.35656809645297 0 102.35656809645297 36.917198982380796 0 0 0 0 6.4492911497516445 -3.7121392088089351 0 -3.7121392088089351 4.1981824699527976 0 0 0 0 911.66285905642872 772.01117886601423 0 772.01117886601423 284.40442622716728 0 0 0 0 -6.7591684396338678 -28.254507747096795 0 -28.254507747096795 -0.037657417691661976 0 0 0 0 1288.1617927442294 10.690531370166354 0 10.690531370166354 -453.32802140481363 0 0 0 0 280.88213547311898 -643.28220956939913 0 -643.28220956939913 -319.67443094301416 0 0 0 0 60.637112030584831 -204.2341545157833 0 -204.2341545157833 -180.56205362990295 0 0 0 0 -123.179189094717 31.158629030262091 0 31.158629030262091 -382.21708099389798 0 0 0 0 -2.5088808830896596 -22.943255561302067 0 -22.943255561302067 -13.569405189919053 0 0 0 0 -0.028249614435480908 6.5600133651605574 0 6.5600133651605574 -3.2228667926683556 0 0 0 0 -200.67977495462947 -58.590101930007222 0 -58.590101930007222 24.790049978430034 0 0 0 0 -455.89515872220727 10.954952301690355 0 10.954952301690355 47.691692196458462 0 0 0 0 -234.70334705455389 -83.906631686411856 0 -83.906631686411856 13.694538475523586 0 0 0 0 -159.09548482023956 -97.116793113703352 0 -97.116793113703352 11.401182691188296 0 0 0 0 -0.035254870263944582 -3.6824317179136301 0 -3.6824317179136301 -9.8808267322054348 0 0 0 0 -146.15680471088172 -34.261074632048803 0 -34.261074632048803 -6.8382794699136866 0 0 0 0 -3.0567043812791042 0.37129080367710898 0 0.37129080367710898 3.325183974117067 0 0 0 0 -217.45894771157509 -38.771221728176897 0 -38.771221728176897 2.2928086556057679 0 0 0 0 2.547723556108231 1.5660212609367079 0 1.5660212609367079 -1.3818889131642891 0 0 0 0 5.2287810601355886 -46.172242437747627 0 -46.172242437747627 -31.061649211100303 0 0 0 0 -4.5260613553691655 17.071711930737365 0 17.071711930737365 -40.877274453654536 0 0 0 0 31.683834373885475 -5.6158564899524208 0 -5.6158564899524208 -27.604818923631683 0 0 0 0 -69.910223323578975 -50.942320144717087 0 -50.942320144717087 10.810572847578442 0 0 0 0 -29.074148059886966 -34.396186343671161 0 -34.396186343671161 4.7441485485906014 0 0 0 0 -10.320283802550804 -11.1280722743615 0 -11.1280722743615 19.704038736233684 0 0 0 0 -21.702619471587241 -84.427196990232915 0 -84.427196990232915 24.032721184426919 0 0 0 0 -14.057095926295005 -29.963894176580652 0 -29.963894176580652 5.2918117348162923 0 0 0 0 -6.789516885140074 -59.52629284582963 0 -59.52629284582963 31.378345919016283 0 0 0 0 -8.4653159930967377 -76.623739296082931 0 -76.623739296082931 -26.346765057358425 0 0 0 0 -7.6817862850042218 -1.8539718558320857 0 -1.8539718558320857 7.1451862342837558 0 0 0 0 -37.074510352019843 -20.230367791617027 0 -20.230367791617027 -46.50220930663636 0 0 0 0 -50.218575719551154 -34.427809667813563 0 -34.427809667813563 43.531028497789521 0 0 0 0 -1.547369836721991 1.9809193989413032 0 1.9809193989413032 2.4661063624994313 0 0 0 0 129.93366360210348 0.35063987720786827 0 0.35063987720786827 6.0576927240035729 0 0 0 0 77.312586956326413 -99.550033865481964 0 -99.550033865481964 -6.0986921357980464 0 0 0 0 -21.69586572128901 -23.735035752411932 0 -23.735035752411932 8.4940144581487402 0 0 0 0 16.591261351844878 -62.928721359508927 0 -62.928721359508927 12.458392218955851 0 0 0 0 94.280297651053843 -69.227883809515333 0 -69.227883809515333 -1.646293665849953 0 0 0 0 -22.789399088956998 -32.474499987387389 0 -32.474499987387389 112.92601486580679 0 0 0 0 -114.51434948513679 -26.938398561551367 0 -26.938398561551367 42.723419083049521 0 0 0 0 -24.24317589061684 -50.136231203563511 0 -50.136231203563511 -9.6237905365414917 0 0 0 0 0.17085963118026815 3.4364466333577468 0 3.4364466333577468 -0.57677542283937555 0 0 0 0 -175.01925312408457 1.8606898380567145 0 1.8606898380567145 37.664097586122807 0 0 0 0 -9.7248300110659329 -52.090316654706839 0 -52.090316654706839 -0.076507081146701239 0 0 0 0 34.067231033452117 -30.696608540209127 0 -30.696608540209127 -6.0121536097867647 0 0 0 0 77.926902237919421 -41.87032645803265 0 -41.87032645803265 9.3387915729654196 0 0 0 0 55.736687076982889 -56.291165695287418 0 -56.291165695287418 0.041388263955013826 0 0 0 0 33.814233389506626 -28.489112850802485 0 -28.489112850802485 14.840357099921675 0 0 0 0 -0.91693206765949498 -1.5644354386094648 0 -1.5644354386094648 -5.74665419667366 0 0 0 0 18.818736756387807 -65.167519673632341 0 -65.167519673632341 56.230751743438304 0 0 0 0 14.662549254795522 -36.220465481686915 0 -36.220465481686915 12.877524642273784 0 0 0 0 -266.74878799409271 -68.728668773372192 0 -68.728668773372192 -6.0797685529596492 0 0 0 0 -916.25003404685594 92.977363251251518 0 92.977363251251518 51.011948786341236 0 0 0 0 0.34883435989858569 1.1529645365702095 0 1.1529645365702095 -2.9434507974279995 0 0 0 0 -354.18563824739249 -306.92116268393147 0 -306.92116268393147 -0.054189084930184442 0 0 0 0 -76.108551440564042 29.721649991624872 0 29.721649991624872 1.8818095641181571 0 0 0 0 399.9668415709566 -306.06637770563248 0 -306.06637770563248 -0.32167335995339313 0 0 0 0 0.24723097866598565 1.5478087721809857 0 1.5478087721809857 -0.72567393152360182 0 0 0 0 -298.76563067575989 -157.46181551896007 0 -157.46181551896007 108.57476118276463 0 0 0 0 23.037280847442162 -277.18245383203612 0 -277.18245383203612 -0.33043243098128094 0 0 0 0 507.56318264717538 -389.67362685117041 0 -389.67362685117041 -105.77989911481563 0 0 0 0 -133.8371502425598 -411.81212809453427 0 -411.81212809453427 -98.944195501739159 0 0 0 0 -564.65770428575115 -32.0072630497707 0 -32.0072630497707 83.376935625434271 0 0 0 0 -201.47363812883123 -263.80822079535574 0 -263.80822079535574 35.695048958354164 0 0 0 0 -2.4160951107005531 -119.5434922178174 0 -119.5434922178174 -32.019037650010432 0 0 0 0 1.9113717187719885 -220.19255016163515 0 -220.19255016163515 56.020579723714036 0 0 0 0 194.10292552314058 -96.955608380070771 0 -96.955608380070771 -50.072014071629383 0 0 0 0 76.428647837457902 -169.76422859018203 0 -169.76422859018203 36.461896470085776 0 0 0 0 279.93911731258027 -167.38973416375575 0 -167.38973416375575 -39.051870530791348 0 0 0 0 53.266629661578463 -95.929123995512782 0 -95.929123995512782 -4.4159060222154949 0 0 0 0 -188.71561221106458 -119.07090112818696 0 -119.07090112818696 63.280448859586613 0 0 0 0 112.75116589093523 -136.48129752967361 0 -136.48129752967361 17.30567807037005 0 0 0 0 66.341779807982675 -123.05220699905476 0 -123.05220699905476 10.472677532743546 0 0 0 0 161.25750454296576 -147.40518232231261 0 -147.40518232231261 15.132403117459035 0 0 0 0 -231.8103615662767 -123.77351974089834 0 -123.77351974089834 38.268233811439131 0 0 0 0 82.417331559294325 -153.4197700191944 0 -153.4197700191944 13.258105209664791 0 0 0 0 -0.11850900011604537 -0.35205262510488922 0 -0.35205262510488922 -0.62487029163827401 0 0 0 0 95.074661122212092 -130.17139278904415 0 -130.17139278904415 42.877024949892075 0 0 0 0 -0.12301424633334435 -0.45278421189139806 0 -0.45278421189139806 -0.45208786160435466 0 0 0 0 -181.88826172991321 -132.88166909258143 0 -132.88166909258143 15.02675504025683 0 0 0 0 -200.11171422325833 -112.86544831361607 0 -112.86544831361607 -0.78995311097241938 0 0 0 0 -187.03515786128264 -253.11596446918702 0 -253.11596446918702 43.438301086425781 0 0 0 0 0.18350278129512887 0.944681046214221 0 0.944681046214221 -0.44621624408284788 0 0 0 0 -548.64413020788379 -103.22352572360251 0 -103.22352572360251 66.398490851075621 0 0 0 0 460.47115306098567 -183.38558633582761 0 -183.38558633582761 -42.986431002267636 0 0 0 0 80.956791542717838 -150.00472351766075 0 -150.00472351766075 52.55890610330971 0 0 0 0 118.42706983142125 -177.2880829231799 0 -177.2880829231799 57.920972284613526 0 0 0 0 170.013855914749 -82.698581461387221 0 -82.698581461387221 53.57074489108345 0 0 0 0 47.855246950785386 -85.010828883074282 0 -85.010828883074282 21.730323582945857 0 0 0 0 88.18531907866236 -102.28510761236976 0 -102.28510761236976 29.120556975307409 0 0 0 0 32.66180179730145 -120.68222856499779 0 -120.68222856499779 48.987156163231703 0 0 0 0 1.963610457994946 -74.917043496592669 0 -74.917043496592669 42.637075971477316 0 0 0 0 -75.948121772693412 -48.816828746726969 0 -48.816828746726969 34.237888252420817 0 0 0 0 19.161452133812418 -102.15540735053219 0 -102.15540735053219 -26.22426242059737 0 0 0 0 178.48936708162546 -250.06378890984342 0 -250.06378890984342 24.406478008939303 0 0 0 0 -0.29195920558777289 -95.693930091088987 0 -95.693930091088987 56.710004049196868 0 0 0 0 45.25467663645486 -70.423347821935749 0 -70.423347821935749 -174.8077340402524 0 0 0 0 -33.767009104056342 -153.15364767122082 0 -153.15364767122082 4.4876284821511945 0 0 0 0 -94.445560089148785 39.540038409060799 0 39.540038409060799 -121.12270590940898 0 0 0 0 -97.705416479522682 -142.77959814899077 0 -142.77959814899077 -37.571012052794686 0 0 0 0 -129.18026683306925 -15.801145385676136 0 -15.801145385676136 5.0340981858607847 0 0 0 0 -155.84024927661085 -133.97810793887402 0 -133.97810793887402 153.56277111492818 0 0 0 0 -30.159303830852231 -34.262651487875047 0 -34.262651487875047 -34.688488915767863 0 0 0 0 -158.45654308067242 37.661230516583601 0 37.661230516583601 105.16156528407009 0 0 0 0 -124.80035966171636 -124.8078556592809 0 -124.8078556592809 -54.7886787399475 0 0 0 0 -22.252534225102863 -102.04757334568785 0 -102.04757334568785 -133.00339953055663 0 0 0 0 -2.0038681529966524 -2.3121814099359597 0 -2.3121814099359597 1.6760003212273489 0 0 0 0 -42.212713905240889 -145.76102187735523 0 -145.76102187735523 -143.52656038157875 0 0 0 0 -56.683611448366719 -56.887547876161989 0 -56.887547876161989 -31.412617067660904 0 0 0 0 -34.886785356553446 -53.748381640856678 0 -53.748381640856678 -40.048681121188565 0 0 0 0 -2.5327076834911253 -3.0222934572304325 0 -3.0222934572304325 2.2892805141430728 0 0 0 0 -81.637483948845329 -39.726633232217864 0 -39.726633232217864 32.242732999380678 0 0 0 0 -100.81817946219235 -28.920869591558585 0 -28.920869591558585 55.642471784420195 0 0 0 0 -68.487221597654525 -38.447324450709857 0 -38.447324450709857 22.107645639189286 0 0 0 0 -170.78976701722422 -43.915646407920576 0 -43.915646407920576 45.071296232585155 0 0 0 0 -98.118605715053491 -98.32485141525467 0 -98.32485141525467 85.807531026861398 0 0 0 0 -87.319572449167026 -110.78405051415757 0 -110.78405051415757 -26.738045549485832 0 0 0 0 100.06150931292723 -50.945462856994709 0 -50.945462856994709 -131.02245260671043 0 0 0 0 118.660894974234 -109.43458217720763 0 -109.43458217720763 0.087598673213506117 0 0 0 0 -138.30817607625249 -224.75446206286142 0 -224.75446206286142 3.170943955956318 0 0 0 0 -609.24938094115214 -588.63972779132746 0 -588.63972779132746 105.28827528015245 0 0 0 0 -518.17456966688405 -570.57555309068994 0 -570.57555309068994 -141.62007890742825 0 0 0 0 -1.9151720760037279 -418.36857036940637 0 -418.36857036940637 -315.55670845602435 0 0 0 0 133.74702578578672 -208.80378298865253 0 -208.80378298865253 -207.08707586175296 0 0 0 0 143.83844020577089 -337.8798863079719 0 -337.8798863079719 -155.65256059016428 0 0 0 0 -10.226760032993752 -291.48283087027266 0 -291.48283087027266 -114.61342287069419 0 0 0 0 5.5746893072698809 -14.011174480667293 0 -14.011174480667293 6.5959374110732369 0 0 0 0 51.322910826081511 -33.947849068725191 0 -33.947849068725191 -68.149716012754652 0 0 0 0 381.20711909997817 103.53800319943866 0 103.53800319943866 -93.291749879237614 0 0 0 0 346.72795511670029 -280.47105374799867 0 -280.47105374799867 -229.09690620069159 0 0 0 0 -21.730326211943066 -35.198698185893591 0 -35.198698185893591 -1.143587334867334 0 0 0 0 6.2922817812408596 -8.2939791290361882 0 -8.2939791290361882 -2.8870448025522819 0 0 0 0 1.7356965026328908 -14.531017587440147 0 -14.531017587440147 -8.5480694969301112 0 0 0 0 -10.146699393816561 -38.894547192205209 0 -38.894547192205209 -5.9081188360542001 0 0 0 0 -14.4844340813843 -26.752511248689018 0 -26.752511248689018 -25.926459893595734 0 0 0 0 61.206572299758591 -173.19563876231405 0 -173.19563876231405 -12.766961211746093 0 0 0 0 109.63340620475174 -169.38278574284777 0 -169.38278574284777 -229.91145665256772 0 0 0 0 84.543128433644597 -4.0045419352536555 0 -4.0045419352536555 -263.71277560826275 0 0 0 0 52.225494918154709 -18.455258796453563 0 -18.455258796453563 10.473802329361206 0 0 0 0 27.543328582190952 -17.413040582934627 0 -17.413040582934627 -38.808546221232973 0 0 0 0 -42.704891645775206 110.22264344028372 0 110.22264344028372 -166.07862939295592 0 0 0 0 0.51899564584185143 -1.0801210718682341 0 -1.0801210718682341 -2.8955231740269483 0 0 0 0 105.44208567309033 -108.17185994284227 0 -108.17185994284227 34.503778109588893 0 0 0 0 16.224857559846662 -23.865218569557769 0 -23.865218569557769 -18.938216981427672 0 0 0 0 12.35461686776307 -19.355927735741716 0 -19.355927735741716 -21.008455042407149 0 0 0 0 15.350687165455504 -37.346552099971404 0 -37.346552099971404 -37.056915194436215 0 0 0 0 -6.4324344543923111 -32.867411329978509 0 -32.867411329978509 -18.246581429667344 0 0 0 0 -8.3410850802098544 -7.3206206686486581 0 -7.3206206686486581 -6.0473227722484353 0 0 0 0 138.01974578803129 36.720754188223509 0 36.720754188223509 -46.173980198669597 0 0 0 0 -56.950436339182488 -44.412815137780854 0 -44.412815137780854 -8.2646760151255876 0 0 0 0 3.4759586562795448 -69.256748197498382 0 -69.256748197498382 -56.250483676529257 0 0 0 0 14.688963797146465 -6.1532309909977698 0 -6.1532309909977698 -13.184009664085579 0 0 0 0 5.3855981460541695 -25.770642697335816 0 -25.770642697335816 -29.758090699943864 0 0 0 0 28.518672031714686 -21.097611378216243 0 -21.097611378216243 -65.240468644566135 0 0 0 0 9.1929654153946103 -44.645304325720645 0 -44.645304325720645 -65.57208469856414 0 0 0 0 -14.409190910965663 -6.7355794674949721 0 -6.7355794674949721 -43.843194791901624 0 0 0 0 16.368122431362281 -15.23393128515454 0 -15.23393128515454 -8.9841758605689392 0 0 0 0 0.25351549068727763 -17.954971567814937 0 -17.954971567814937 5.0606854175330227 0 0 0 0 4.7396792135559735 -18.583351561126619 0 -18.583351561126619 1.4606768985977396 0 0 0 0 33.838644058469072 -3.3876646407006774 0 -3.3876646407006774 -46.206804437591927 0 0 0 0 8.0980519007021528 -6.3796729713085654 0 -6.3796729713085654 -8.8322919131554158 0 0 0 0 6.6122358560241992 -7.9923937728890451 0 -7.9923937728890451 -5.5424597020610236 0 0 0 0 26.909933714381623 -25.251693419530056 0 -25.251693419530056 -4.4307706310064532 0 0 0 0 37.236532633151 -43.492891341578797 0 -43.492891341578797 10.324200690665748 0 0 0 0 -19.15466642692742 -28.210488111513257 0 -28.210488111513257 -24.931249560888887 0 0 0 0 -34.517862866582618 -40.364021678025892 0 -40.364021678025892 84.290212436171714 0 0 0 0 -3.9838751128917931 -8.8256166394780031 0 -8.8256166394780031 9.8580619332864217 0 0 0 0 -306.39694861112366 -122.53439491924655 0 -122.53439491924655 -27.082258651586017 0 0 0 0 -321.77062015120998 -38.427174444679622 0 -38.427174444679622 12.093234591884539 0 0 0 0 -220.10705182981019 -328.67919279166017 0 -328.67919279166017 -55.842953155355644 0 0 0 0 -723.4909310089588 -105.66715968965946 0 -105.66715968965946 95.063348633542773 0 0 0 0 -50.941350673354009 -19.445812018522702 0 -19.445812018522702 -33.685739152046153 0 0 0 0 -1109.2355147967123 -723.18707731371433 0 -723.18707731371433 81.339355196643737 0 0 0 0 -1653.0151969927606 -1496.6326100245788 0 -1496.6326100245788 -994.99200255969481 0 0 0 0 -2186.335438301202 118.37592912354012 0 118.37592912354012 86.516616343018541 0 0 0 0 116.441495420313 -324.97005521452229 0 -324.97005521452229 -1096.0087362544873 0 0 0 0 -10.615673200403361 -8.7991294535948157 0 -8.7991294535948157 -9.7896161706929092 0 0 0 0 -885.53390064708447 -1203.531256395785 0 -1203.531256395785 -905.72480480542254 0 0 0 0 -2096.3105483464151 -795.78918911617075 0 -795.78918911617075 1.9107733079290483 0 0 0 0 -1310.7986596052838 -21.909446233417839 0 -21.909446233417839 -1052.961275179623 0 0 0 0 149.89714061292477 -45.145462787470478 0 -45.145462787470478 6.5859376279258868 0 0 0 0 42.388560093915657 -38.512907172869745 0 -38.512907172869745 12.930185427234392 0 0 0 0 -272.29661451307493 46.991447757209244 0 46.991447757209244 52.24894655092794 0 0 0 0 -469.11857347224122 -389.49253514895099 0 -389.49253514895099 -171.46879302937305 0 0 0 0 -83.112446749831179 -255.88687696717898 0 -255.88687696717898 -486.94243162385101 0 0 0 0 1.5287091005572968 -2.1397610836711856 0 -2.1397610836711856 4.0253636485186917 0 0 0 0 263.52374142593726 -70.902933616598602 0 -70.902933616598602 -14.724842888739659 0 0 0 0 260.93361040211744 -15.644324726351442 0 -15.644324726351442 102.26517242263071 0 0 0 0 875.6076977475077 -17.165295674174558 0 -17.165295674174558 -194.45728587793565 0 0 0 0 -731.61126752792643 -554.74316228352473 0 -554.74316228352473 -203.71903936575109 0 0 0 0 -0.21993891574022051 -0.014845812137973979 0 -0.014845812137973979 0.84367959119418856 0 0 0 0 -812.24441167086889 -634.66199672016955 0 -634.66199672016955 -265.39309012118611 0 0 0 0 -948.7416344465621 -685.61653943262718 0 -685.61653943262718 -164.97108072013361 0 0 0 0 -890.32910818617438 -605.42189891978705 0 -605.42189891978705 -96.980238229385577 0 0 0 0 -267.7886537679733 -356.05691045177809 0 -356.05691045177809 -0.22549574271298317 0 0 0 0 -1228.6646093181121 -649.03899985329917 0 -649.03899985329917 3.0329523718102678 0 0 0 0 -1061.0896818515466 -545.07979292987511 0 -545.07979292987511 0.048909767727309372 0 0 0 0 -1354.4436237706686 -329.50811474464899 0 -329.50811474464899 140.83919179768418 0 0 0 0 -775.67555602353787 -466.7725363682257 0 -466.7725363682257 0.29212392337649362 0 0 0 0 -642.27718822559791 -368.83047206571064 0 -368.83047206571064 -217.90406264541525 0 0 0 0 58.672921879167831 -384.03697850781828 0 -384.03697850781828 -297.90795586734021 0 0 0 0 -608.85342015308879 -484.22439355111419 0 -484.22439355111419 178.79869641176811 0 0 0 0 -332.88743485210807 -66.081517930299015 0 -66.081517930299015 66.463211224458064 0 0 0 0 736.67300141752162 -127.25458653645956 0 -127.25458653645956 -19.95010471616115 0 0 0 0 159.24896422952406 -425.86045242841647 0 -425.86045242841647 -0.11144678571819025 0 0 0 0 700.66935822796859 -503.17013786933603 0 -503.17013786933603 106.09835483621282 0 0 0 0 267.38931039423915 -695.40017059152888 0 -695.40017059152888 1043.8104500691552 0 0 0 0 1142.3716489366168 -653.8947848537623 0 -653.8947848537623 102.15084374591243 0 0 0 0 1105.0777099107636 -255.54578038714681 0 -255.54578038714681 -49.776117595585674 0 0 0 0 58.238354304267432 -404.73645455748374 0 -404.73645455748374 840.56890971098619 0 0 0 0 642.9174421322341 -1167.8552874455563 0 -1167.8552874455563 0.69246047882188577 0 0 0 0 1121.6670016634571 -372.56543516947931 0 -372.56543516947931 104.10282189476129 0 0 0 0 6.3758463878466856 -5.4299362343692223 0 -5.4299362343692223 -4.0770096851366873 0 0 0 0 2.6893096719373659 -8.069683238985192 0 -8.069683238985192 -1.0164550990589447 0 0 0 0 245.35952984794221 -272.70645738639723 0 -272.70645738639723 -907.74707527971987 0 0 0 0 78.920954576530676 188.57736732580088 0 188.57736732580088 -988.04110974873129 0 0 0 0 216.27463193027938 -651.49441672233661 0 -651.49441672233661 -565.44809265137883 0 0 0 0 -414.36124646679718 -723.44853158609476 0 -723.44853158609476 -1112.8049846441572 0 0 0 0 -1160.2671572782992 -821.76016515724041 0 -821.76016515724041 -111.1806174154699 0 0 0 0 -1065.3082408403907 -548.88903108265004 0 -548.88903108265004 17.18228215284762 0 0 0 0 -409.22645427977295 -834.13644018963532 0 -834.13644018963532 19.988866351472097 0 0 0 0 -2729.3741354502426 -1491.1898036353705 0 -1491.1898036353705 1.1250714608031558 0 0 0 0 -9.7644375126742418 -5.5212375349965725 0 -5.5212375349965725 -4.7250916982214335 0 0 0 0 -3065.1735945780401 -1021.2793217901162 0 -1021.2793217901162 171.67388167468016 0 0 0 0 -2186.1602759464895 365.40038672703304 0 365.40038672703304 8.7962685107049765 0 0 0 0 -997.01497759609629 -666.9649214088131 0 -666.9649214088131 202.24314404840334 0 0 0 0 -191.96787653845968 302.64352201430302 0 302.64352201430302 -109.8896396443015 0 0 0 0 180.75142621259874 -192.41311698104255 0 -192.41311698104255 -26.260957592050545 0 0 0 0 231.37642991075518 -117.02355832424291 0 -117.02355832424291 -233.86819988218485 0 0 0 0 220.90370450718547 -194.93357772393938 0 -194.93357772393938 0.57018772121227812 0 0 0 0 327.51845779427913 -391.77827040400007 0 -391.77827040400007 299.49328958788828 0 0 0 0 580.7564818582232 -387.67016476323624 0 -387.67016476323624 -0.075514615421086215 0 0 0 0 271.48547131899613 -292.37396260936657 0 -292.37396260936657 282.82328197172046 0 0 0 0 -17.367890271965109 -18.570054860582701 0 -18.570054860582701 -10.237190696835768 0 0 0 0 44.449569722054548 -81.267358828397846 0 -81.267358828397846 -361.68582079993212 0 0 0 0 11.232184501051051 -1.1240994436957408 0 -1.1240994436957408 -524.55318479976268 0 0 0 0 148.29102606783999 -220.81023015624669 0 -220.81023015624669 -651.08908117774263 0 0 0 0 38.273929341092298 -164.37842481739062 0 -164.37842481739062 -429.45418484632683 0 0 0 0 136.85748854556186 -281.79844366601901 0 -281.79844366601901 -322.92104464450676 0 0 0 0 6.4995749616709872 -180.65158341019196 0 -180.65158341019196 -245.13261291131494 0 0 0 0 46.329654536434873 -11.620270977630014 0 -11.620270977630014 -1.656950631672089 0 0 0 0 59.825702735171944 -8.6520031673426274 0 -8.6520031673426274 44.387969509203685 0 0 0 0 -54.167621594497177 140.74751646788354 0 140.74751646788354 -143.84010835341178 0 0 0 0 -1144.539766083737 -88.256184599558765 0 -88.256184599558765 140.6579784679634 0 0 0 0 -188.92510912149464 -283.41973327679807 0 -283.41973327679807 -167.22225239558611 0 0 0 0 73.40481552160054 -32.272499791644805 0 -32.272499791644805 -13.463780124773621 0 0 0 0 45.206112500415969 -15.354651803549132 0 -15.354651803549132 1.4445947687558913 0 0 0 0 4.4662849857722904 -182.89058068739178 0 -182.89058068739178 -233.25700853769376 0 0 0 0 5.2136195627623891 -1.3854355056720351 0 -1.3854355056720351 0.041929972742366317 0 0 0 0 -8.4370937814819627 -147.63626783699146 0 -147.63626783699146 -212.53586325405922 0 0 0 0 0.56994696281981305 -118.55794281700582 0 -118.55794281700582 -150.39860985835548 0 0 0 0 -19.210907851892443 -11.435380198498194 0 -11.435380198498194 7.7958196079640061 0 0 0 0 23.802858864127991 -54.539548039648594 0 -54.539548039648594 -11.097492436828304 0 0 0 0 -781.48813734130817 280.31072646797111 0 280.31072646797111 -62.844597326242365 0 0 0 0 -74.432004603557289 -86.734374232823029 0 -86.734374232823029 5.006776520749554 0 0 0 0 -9.4597683654892535 -91.163076279692177 0 -91.163076279692177 -99.569570796622429 0 0 0 0 -2866.9787447728959 -2115.9186215374066 0 -2115.9186215374066 -1280.173341337766 0 0 0 0 -1101.1203914009757 -1636.0058489027842 0 -1636.0058489027842 -1447.7482933878491 0 0 0 0 -1908.4638080114164 -1554.1962697603813 0 -1554.1962697603813 -336.50659380294383 0 0 0 0 -3199.9531579633622 -962.75680126050429 0 -962.75680126050429 -588.76648306794959 0 0 0 0 -1898.5109206766583 -1592.354435931401 0 -1592.354435931401 -1113.7189948956366 0 0 0 0 -982.1294025765601 -283.95594728006108 0 -283.95594728006108 -496.81755571279791 0 0 0 0 -85.210885873166603 -134.29449541864687 0 -134.29449541864687 -121.80490152802668 0 0 0 0 -84.846499373717961 -167.67773286066949 0 -167.67773286066949 -93.052070978854317 0 0 0 0 -74.428340393050121 -179.21448897253322 0 -179.21448897253322 -101.4700200445368 0 0 0 0 -72.971574888670148 -167.43919617356732 0 -167.43919617356732 -106.47626429735828 0 0 0 0 -87.170506531940191 -162.76774544850923 0 -162.76774544850923 -102.7249871721433 0 0 0 0 -59.639353127326558 -147.6252809942016 0 -147.6252809942016 -115.02271974724135 0 0 0 0 -67.252252681247228 -169.11065865178534 0 -169.11065865178534 -108.98592261434533 0 0 0 0 -51.283968047948292 -139.9240493770485 0 -139.9240493770485 -85.4725710117782 0 0 0 0 -38.713240874896655 -162.68039336995571 0 -162.68039336995571 -126.92389476048993 0 0 0 0 -37.384746975123562 -171.37572561642446 0 -171.37572561642446 -131.08464054725482 0 0 0 0 -45.015273561650247 -166.28881732036825 0 -166.28881732036825 -128.91942313512845 0 0 0 0 -56.211899493576311 -182.41922202068417 0 -182.41922202068417 -132.39089158712886 0 0 0 0 -52.361220318653068 -165.76763716973073 0 -165.76763716973073 -108.2406848600076 0 0 0 0 -66.594008143667452 -187.8142926091532 0 -187.8142926091532 -107.54932568230288 0 0 0 0 -68.215750738303086 -196.89231915083838 0 -196.89231915083838 -122.52910088235512 0 0 0 0 -45.639853057309665 -210.32836620630405 0 -210.32836620630405 -143.89475382395904 0 0 0 0 -39.047824889734329 -197.13220453393296 0 -197.13220453393296 -184.03055536917236 0 0 0 0 -47.225325139208678 -242.75517316360515 0 -242.75517316360515 -116.18573192632175 0 0 0 0 -87.193836334685329 -203.27129421818245 0 -203.27129421818245 -93.553345567459473 0 0 0 0 -106.7346828658201 -241.52967242386148 0 -241.52967242386148 -116.20945913114701 0 0 0 0 -88.151858475152039 -179.29656157083809 0 -179.29656157083809 -70.431538499382441 0 0 0 0 -88.93211328144389 -173.57463974358689 0 -173.57463974358689 -100.96176052038209 0 0 0 0 -142.94828478311138 -161.70287644918426 0 -161.70287644918426 -64.627150829765014 0 0 0 0 -269.6398732104235 -101.58041666848294 0 -101.58041666848294 0.98242275242228061 0 0 0 0 -154.44835078371034 -183.81468527174729 0 -183.81468527174729 -3.8292324732392444 0 0 0 0 -392.88964247940839 -254.25558292259666 0 -254.25558292259666 261.84118517971365 0 0 0 0 -916.37535441614091 -123.44225296369405 0 -123.44225296369405 229.38929231239308 0 0 0 0 -184.99017489185007 -347.58976397289734 0 -347.58976397289734 47.973081786331022 0 0 0 0 -293.70257575401592 -368.16421479779819 0 -368.16421479779819 106.79769525886513 0 0 0 0 -150.84287927250443 -239.96683081495576 0 -239.96683081495576 -46.181132274330594 0 0 0 0 0.1933151389403065 -273.88435254247452 0 -273.88435254247452 -235.88898924627574 0 0 0 0 4.2137974882671188 -278.48378673337538 0 -278.48378673337538 -297.30601086551906 0 0 0 0 93.011572816149055 -446.31336568168626 0 -446.31336568168626 -148.87736849374051 0 0 0 0 80.82585005731255 -347.98806790580875 0 -347.98806790580875 -274.62715022597695 0 0 0 0 166.05801735997829 -427.45031099519838 0 -427.45031099519838 -390.77770385285839 0 0 0 0 481.60062480014858 -557.6476131888594 0 -557.6476131888594 -176.9251520804246 0 0 0 0 -477.46051700733187 -297.56694263924146 0 -297.56694263924146 236.16134019714082 0 0 0 0 -210.3014028524733 -762.57280713753789 0 -762.57280713753789 445.71140517617459 0 0 0 0 555.82557753703895 -457.62675704088542 0 -457.62675704088542 206.83975944947451 0 0 0 0 -62.695827787460772 -36.12238306498142 0 -36.12238306498142 -26.089097818390456 0 0 0 0 -18.071786945861266 -23.071539794864321 0 -23.071539794864321 -17.061775018634819 0 0 0 0 -628.99524480001492 -1052.4373114582486 0 -1052.4373114582486 -241.42002872297599 0 0 0 0 -783.88137315705535 -1335.4333983409088 0 -1335.4333983409088 -726.57393285316357 0 0 0 0 -25.986628223078959 24.846311001340695 0 24.846311001340695 -79.770070747231671 0 0 0 0 -718.30265538865717 1390.9942043517106 0 1390.9942043517106 -572.09398388762202 0 0 0 0 -385.93446356974164 -385.68713911683881 0 -385.68713911683881 -210.32431076445209 0 0 0 0 -277.32900099796825 -198.64700849509973 0 -198.64700849509973 -398.62860181776705 0 0 0 0 -1194.6414215629047 -451.65238606726052 0 -451.65238606726052 -164.60146682313643 0 0 0 0 -474.31914634848658 -285.64093173136825 0 -285.64093173136825 -353.5247088301694 0 0 0 0 -58.54396051303334 -73.616038343990652 0 -73.616038343990652 -27.380536096983377 0 0 0 0 -5.2904860425437334 -10.058804984148736 0 -10.058804984148736 -10.559617118049459 0 0 0 0 -244.62743566601421 300.99209181575497 0 300.99209181575497 -69.302681921049953 0 0 0 0 -166.54440268999042 -105.48805052380158 0 -105.48805052380158 -7.6393626816279721 0 0 0 0 -9.2176989831780531 9.3955452732789411 0 9.3955452732789411 25.475001403812954 0 0 0 0 -64.892664701774677 -65.492746469456094 0 -65.492746469456094 19.827496660974134 0 0 0 0 -288.24158486055239 -279.16625813224164 0 -279.16625813224164 -182.61212782055372 0 0 0 0 -134.92311334014812 -111.31444847924286 0 -111.31444847924286 -10.313759646989638 0 0 0 0 -92.856068613931711 -109.57905066016974 0 -109.57905066016974 -25.720844665062032 0 0 0 0 -375.23819602344884 -317.05089326700545 0 -317.05089326700545 -51.998520428955089 0 0 0 0 -150.40643408081087 -252.17250791371043 0 -252.17250791371043 -179.03018287391023 0 0 0 0 -266.17850707376783 -256.55877431597037 0 -256.55877431597037 -26.30255227276939 0 0 0 0 -53.766367955278838 -94.055417183662939 0 -94.055417183662939 -74.019285245707579 0 0 0 0 -122.4614307499869 -76.08249113376587 0 -76.08249113376587 62.83163849599805 0 0 0 0 -317.25016924287047 -180.82245936623804 0 -180.82245936623804 17.136769972603361 0 0 0 0 -110.46146920151023 -154.47717271304646 0 -154.47717271304646 -136.39035045015771 0 0 0 0 -81.824095072706186 -75.799247207724989 0 -75.799247207724989 29.843344268481367 0 0 0 0 -82.042828792935325 -128.11469414174644 0 -128.11469414174644 -115.64653113771055 0 0 0 0 -697.25346338406507 -718.51552228367655 0 -718.51552228367655 -16.940038966291468 0 0 0 0 -736.05213778045163 -805.74026478131418 0 -805.74026478131418 -148.6468857134314 0 0 0 0 -652.08737931924134 -686.5609387750701 0 -686.5609387750701 -4.1090774582262384 0 0 0 0 57.924188880576821 -399.61045561697028 0 -399.61045561697028 -285.99740182915411 0 0 0 0 -167.65345363346569 -710.90323561534024 0 -710.90323561534024 -571.58219025941798 0 0 0 0 101.47745363101149 -376.73594481487089 0 -376.73594481487089 302.07548820790544 0 0 0 0 170.27656378866686 -366.68678700785676 0 -366.68678700785676 -277.99309809792794 0 0 0 0 -501.66279924814171 -384.80865081707816 0 -384.80865081707816 277.41857757260732 0 0 0 0 283.46661395826129 -240.44285235838288 0 -240.44285235838288 303.8033196910983 0 0 0 0 151.99304443025449 -579.94918931229768 0 -579.94918931229768 330.33701325519723 0 0 0 0 457.6253335106976 -327.176069177096 0 -327.176069177096 -1674.4766543669393 0 0 0 0 338.72580999382626 -449.42425405819085 0 -449.42425405819085 -769.04651812370139 0 0 0 0 -1034.5382614558903 -566.81909203461692 0 -566.81909203461692 1037.1668123057643 0 0 0 0 545.77507848348068 -419.20461353248538 0 -419.20461353248538 -3484.7949050865718 0 0 0 0 -22.109649275796176 -16.252226398072764 0 -16.252226398072764 -8.1228577870864029 0 0 0 0 -1379.8907866842565 -1444.0907553444922 0 -1444.0907553444922 -160.55354495642678 0 0 0 0 -809.50998906423411 -763.47398589909426 0 -763.47398589909426 121.25962478968722 0 0 0 0 111.31449639366895 -574.55175672505356 0 -574.55175672505356 -1516.4252794779604 0 0 0 0 86.429397660784161 -179.14377776088077 0 -179.14377776088077 109.92436401371378 0 0 0 0 -700.407841931451 673.74706971924024 0 673.74706971924024 -810.90510976677251 0 0 0 0 -1780.0974285058332 -394.0923166494249 0 -394.0923166494249 64.689681598334573 0 0 0 0 -981.13936258013473 -1430.9782782392067 0 -1430.9782782392067 -1441.4990426250297 0 0 0 0 -776.13813869246951 -501.16000022825028 0 -501.16000022825028 432.29221237925231 0 0 0 0 -318.26166015404851 86.588775378404534 0 86.588775378404534 21.017893759171784 0 0 0 0 49.215297181647657 746.89632138816523 0 746.89632138816523 255.2886845658586 0 0 0 0 -336.57142854345602 -49.084401542379055 0 -49.084401542379055 452.45461215219984 0 0 0 0 -73.141318704402693 -34.642382267833455 0 -34.642382267833455 446.86820655141491 0 0 0 0 -192.89531395706399 -213.25480651195539 0 -213.25480651195539 694.25501555802475 0 0 0 0 -27.180607365049966 -60.769490814839685 0 -60.769490814839685 -30.536842592473988 0 0 0 0 40.919124198862846 -119.96620824480487 0 -119.96620824480487 120.66793771570156 0 0 0 0 -40.081120520431718 -27.331760008816829 0 -27.331760008816829 20.937208725150128 0 0 0 0 -5.9803919770852332 -104.38940080912585 0 -104.38940080912585 -26.960047687314102 0 0 0 0 -12.336956075335426 -70.531773171976312 0 -70.531773171976312 26.94904113354832 0 0 0 0 -86.116055823865281 11.877737120434176 0 11.877737120434176 304.52973081350501 0 0 0 0 -1.2543589535634965 -74.126817036929424 0 -74.126817036929424 95.617221739452361 0 0 0 0 20.670562274790427 -36.924273127508059 0 -36.924273127508059 -3.5566561824962264 0 0 0 0 -100.75153369620239 -38.781934159531374 0 -38.781934159531374 32.554818369353598 0 0 0 0 13.797748663841048 -98.324921689210896 0 -98.324921689210896 29.109051334598917 0 0 0 0 -12.953222520693089 -58.900948573202186 0 -58.900948573202186 32.796383219698328 0 0 0 0 258.31379454400849 -248.48418149726058 0 -248.48418149726058 396.54571713770565 0 0 0 0 87.421695557197381 -125.17488519767358 0 -125.17488519767358 61.116253572461574 0 0 0 0 -50.599696308259681 -49.719713459642279 0 -49.719713459642279 -41.792892213312086 0 0 0 0 15.818929503800263 -5.9245529076179793 0 -5.9245529076179793 -14.406198415871216 0 0 0 0 -156.88198649654805 -194.42601605891832 0 -194.42601605891832 -71.310567128297407 0 0 0 0 97.809055619654828 -1078.6732893249064 0 -1078.6732893249064 492.82544327141659 0 0 0 0 -108.98489617730229 -33.772188455230207 0 -33.772188455230207 102.27311081773951 0 0 0 0 55.978808132418635 -8.2179391765857872 0 -8.2179391765857872 26.169555527187185 0 0 0 0 -3.6975059074643468 1.672000012179069 0 1.672000012179069 3.9701545354242569 0 0 0 0 85.408758434903575 -241.04059231854626 0 -241.04059231854626 55.002206120145274 0 0 0 0 983.03756614533631 663.42787537709228 0 663.42787537709228 -288.2324011613091 0 0 0 0 -782.48670573651907 -75.820163455733564 0 -75.820163455733564 -191.43987183892023 0 0 0 0 -279.96985181481068 -439.70352358130913 0 -439.70352358130913 598.32556930986175 0 0 0 0 -114.35556791289309 -353.04319917097746 0 -353.04319917097746 -429.79224176802381 0 0 0 0 817.20694254549016 -117.77821865732403 0 -117.77821865732403 -1573.5152284289652 0 0 0 0 733.78148351009622 -479.07986045559483 0 -479.07986045559483 -2137.3590035419475 0 0 0 0 -88.457025294588675 -1200.3710780796864 0 -1200.3710780796864 -2087.9023900062602 0 0 0 0 -17.200690851136969 -18.738505908281155 0 -18.738505908281155 -21.877751685131699 0 0 0 0 -2163.8900095153876 -839.20338920835638 0 -839.20338920835638 -144.70305644176551 0 0 0 0 -2043.0786291888217 -1886.2054298727307 0 -1886.2054298727307 -674.68762016658729 0 0 0 0 -381.72383650678967 -2170.4215446192247 0 -2170.4215446192247 -1774.1615325572711 0 0 0 0 284.55705392870732 -1416.2141156772632 0 -1416.2141156772632 -1418.5178407846543 0 0 0 0 -732.99990099390993 -1200.6998782024284 0 -1200.6998782024284 -333.97160106667434 0 0 0 0 -742.99312347223986 -1403.6867310968837 0 -1403.6867310968837 -843.98107401048765 0 0 0 0 -483.07586126500246 -1173.6904720525636 0 -1173.6904720525636 -643.28525085446017 0 0 0 0 -1019.7963468977177 -1030.1776206704671 0 -1030.1776206704671 -432.15370817440271 0 0 0 0 -1523.0588478266145 -204.34474884498923 0 -204.34474884498923 -191.61010757787153 0 0 0 0 -742.53475684411387 -373.76674933820323 0 -373.76674933820323 59.634579989229678 0 0 0 0 -173.6509580072161 174.75346634142625 0 174.75346634142625 153.31711577267561 0 0 0 0 -682.69351249383908 -359.69643010661821 0 -359.69643010661821 -111.50212807310163 0 0 0 0 -1210.5426600856445 -63.576021730172215 0 -63.576021730172215 260.94804214066244 0 0 0 0 -951.51270879713047 -599.93023749903296 0 -599.93023749903296 -164.40201147209154 0 0 0 0 -196.98267185417353 58.355714266021096 0 58.355714266021096 282.40375696906995 0 0 0 0 -114.56274269392543 -97.939741221621262 0 -97.939741221621262 25.782527440605918 0 0 0 0 -482.09305433830741 -130.23932120449899 0 -130.23932120449899 159.87088909812883 0 0 0 0 -9.5988616319328486 29.136501950876323 0 29.136501950876323 -61.73897715403703 0 0 0 0 -446.93356069327274 -377.07823041599477 0 -377.07823041599477 -19.134580988352809 0 0 0 0 416.43897941414616 104.29899420005677 0 104.29899420005677 -1210.9689002113591 0 0 0 0 198.35267158237502 -776.75174382359091 0 -776.75174382359091 -1071.4916928090388 0 0 0 0 -654.73286955142976 -796.02618580120907 0 -796.02618580120907 -887.97416520948173 0 0 0 0 -554.53949644840031 41.199025050525961 0 41.199025050525961 181.34091088476271 0 0 0 0 -179.45729877013309 -1769.4217568162585 0 -1769.4217568162585 -1645.6281981565844 0 0 0 0 -8.5174868635973269 -2.549879739802293 0 -2.549879739802293 0.48536821957163312 0 0 0 0 -1976.2843937443226 -2047.8040658181762 0 -2047.8040658181762 -1248.7020871213026 0 0 0 0 50.36128408210061 622.8359789948081 0 622.8359789948081 -505.05698880029377 0 0 0 0 -7.9312912383862795 10.395312151981301 0 10.395312151981301 -23.019046871416293 0 0 0 0 -939.56355314882239 -595.44080422060506 0 -595.44080422060506 -937.34429157052728 0 0 0 0 -1768.9304348608775 -810.93961195802603 0 -810.93961195802603 -681.87615759781329 0 0 0 0 -694.20456262621155 -1021.2095111830713 0 -1021.2095111830713 -1068.5222874747415 0 0 0 0 -775.20232180928724 -851.24699906282331 0 -851.24699906282331 -524.86182782871765 0 0 0 0 -528.20372349744866 -169.05568375033909 0 -169.05568375033909 40.793562174367253 0 0 0 0 -610.20939952981644 -762.35479893616139 0 -762.35479893616139 -916.85208804013382 0 0 0 0 -415.5369237891864 155.46979751628533 0 155.46979751628533 -835.07739710206806 0 0 0 0 -732.02903883382533 171.88143577295341 0 171.88143577295341 247.35049374723167 0 0 0 0 -711.72392130961089 -1684.6236500005734 0 -1684.6236500005734 -2223.055872309531 0 0 0 0 115.99519002871239 191.77022518250305 0 191.77022518250305 -2295.6074359857303 0 0 0 0 -295.02873642274062 -79.193112882509013 0 -79.193112882509013 55.942275526947924 0 0 0 0 -112.36884086648934 -60.681455145830114 0 -60.681455145830114 -88.84433588097454 0 0 0 0 -19.901661428782973 -495.41779438470257 0 -495.41779438470257 -526.78125736613583 0 0 0 0 -577.62611054380977 -693.33469689114281 0 -693.33469689114281 -201.82396367523324 0 0 0 0 -473.7853214120405 -949.47954686550656 0 -949.47954686550656 -879.03567206578737 0 0 0 0 -331.04290023180511 -412.35401122218536 0 -412.35401122218536 -819.3237555759697 0 0 0 0 -474.35979404143291 -454.45320200761125 0 -454.45320200761125 -39.819771601818502 0 0 0 0 0.60495678429288091 33.937647712824401 0 33.937647712824401 -332.58455567227793 0 0 0 0 -0.18098676354560439 -1.2570857526374084 0 -1.2570857526374084 2.0982317462331821 0 0 0 0 2.7343821908107202 -108.02462338132318 0 -108.02462338132318 -9.9637246290731127 0 0 0 0 -88.713620607813937 -96.815077678133093 0 -96.815077678133093 39.190310017977026 0 0 0 0 -23.00217226273071 -56.800179466514692 0 -56.800179466514692 -35.820155727778911 0 0 0 0 -21.588770510118025 -40.864341284814543 0 -40.864341284814543 12.520355608944371 0 0 0 0 -53.394141700198816 -67.987999715852311 0 -67.987999715852311 -49.957120723556727 0 0 0 0 -53.842543916354771 -70.914548158965772 0 -70.914548158965772 -42.279506806931749 0 0 0 0 -12.567108506946241 -19.023348015471797 0 -19.023348015471797 -5.8372059638837186 0 0 0 0 -41.174356220595655 -44.516417353366705 0 -44.516417353366705 15.689400762244986 0 0 0 0 -41.194356519397559 -42.609335514387908 0 -42.609335514387908 7.5030619197894453 0 0 0 0 -25.899116338692011 -30.130519662554178 0 -30.130519662554178 8.2514538841405596 0 0 0 0 -18.941356901887048 -42.920003530605754 0 -42.920003530605754 48.152323254533258 0 0 0 0 -41.735695302779959 -37.804850404792887 0 -37.804850404792887 33.52612214184046 0 0 0 0 -33.620147443385918 -20.393312405848896 0 -20.393312405848896 -0.1778332669252336 0 0 0 0 -162.69704173356877 -385.43856342968138 0 -385.43856342968138 -116.46387989602226 0 0 0 0 -419.49432864300616 -669.96850258148334 0 -669.96850258148334 5.791879380478349 0 0 0 0 -723.34280706970458 -239.4580907075142 0 -239.4580907075142 552.56050812290778 0 0 0 0 -69.533320353317578 -54.33517927493466 0 -54.33517927493466 -25.781411737800838 0 0 0 0 -348.00047679909039 -25.452056137095497 0 -25.452056137095497 43.007770301048367 0 0 0 0 -370.89269820847403 -179.17978232094538 0 -179.17978232094538 -205.52016877038113 0 0 0 0 -17.713873237234907 -40.247413458913712 0 -40.247413458913712 -20.119675230339084 0 0 0 0 -27.393360573769314 -32.47900552801002 0 -32.47900552801002 0.14541621172975283 0 0 0 0 2.9610717603398342 -18.236369250698289 0 -18.236369250698289 10.233569980640425 0 0 0 0 -4.4768366898625516 -20.671737524524929 0 -20.671737524524929 11.22701287111218 0 0 0 0 -30.25603774022602 -37.43608237751323 0 -37.43608237751323 -2.9201750287429604 0 0 0 0 -221.39065273475717 -741.46858889068244 0 -741.46858889068244 -651.13095149576839 0 0 0 0 -536.67688325569179 -645.68077497700506 0 -645.68077497700506 -229.76234409773315 0 0 0 0 -1.8517266098133405 -25.669302673178208 0 -25.669302673178208 0.29529580024245661 0 0 0 0 -3.2700625659291234 -16.909567789468639 0 -16.909567789468639 17.366511472974111 0 0 0 0 -19.497065933552221 -39.034539760665211 0 -39.034539760665211 3.2180598936429305 0 0 0 0 -32.353331761529262 -42.479769887457223 0 -42.479769887457223 6.3634516371967038 0 0 0 0 -31.686305676612392 -34.883818921276543 0 -34.883818921276543 9.0673493132635485 0 0 0 0 -35.35104720358504 -37.558687901782832 0 -37.558687901782832 10.367008910703589 0 0 0 0 -28.892660010809777 -35.287146064678382 0 -35.287146064678382 8.7873657890704635 0 0 0 0 -31.086548215753282 -37.675579456339619 0 -37.675579456339619 10.305421013423256 0 0 0 0 -26.393220703589435 -28.130667266554866 0 -28.130667266554866 -13.217261839687225 0 0 0 0 91.018524201150285 67.160466122062644 0 67.160466122062644 804.52595772933273 0 0 0 0 0.18841898741342789 -16.789294434611378 0 -16.789294434611378 13.654275596719486 0 0 0 0 -33.186685817745456 -25.31296921941248 0 -25.31296921941248 18.455130189257034 0 0 0 0 -30.012702426960459 -32.058763278904735 0 -32.058763278904735 -0.51753844555059914 0 0 0 0 -32.985140468226746 -23.090152252123517 0 -23.090152252123517 -0.23204218954924727 0 0 0 0 -28.798141340928993 -20.458200727122112 0 -20.458200727122112 -13.501377065325642 0 0 0 0 -34.954911249591532 -39.825511890208873 0 -39.825511890208873 45.426309931750438 0 0 0 0 -23.717282611796691 -36.500675116622006 0 -36.500675116622006 8.3974676705638558 0 0 0 0 -28.277916754588659 -46.623051293157914 0 -46.623051293157914 -14.495301353661489 0 0 0 0 -16.438777820141695 -23.382852684080717 0 -23.382852684080717 2.9064291078902897 0 0 0 0 -14.536296454500274 -12.775266744454825 0 -12.775266744454825 19.772576847280561 0 0 0 0 -31.53944373565173 -38.719452859360899 0 -38.719452859360899 3.7871938507851155 0 0 0 0 -15.49633424399974 -20.862997613625012 0 -20.862997613625012 15.88268900251947 0 0 0 0 -12.503631153289721 -19.024830607049537 0 -19.024830607049537 14.045507516705442 0 0 0 0 -32.52972166296604 -39.983347909175791 0 -39.983347909175791 41.381845217896625 0 0 0 0 -25.724935053025547 -33.666641810084911 0 -33.666641810084911 7.1488868452142924 0 0 0 0 -37.465554545909981 -23.231454699045571 0 -23.231454699045571 5.33847520762356 0 0 0 0 -66.576168680105184 -27.239515789427969 0 -27.239515789427969 68.598196111532161 0 0 0 0 47.954471388664388 -91.334752604896494 0 -91.334752604896494 37.711127293907339 0 0 0 0 -1.0212384776233563 -10.695254060800295 0 -10.695254060800295 2.7239909099866679 0 0 0 0 -1.2167419674078701 -34.672928905958543 0 -34.672928905958543 45.826007730283891 0 0 0 0 -13.146791582474677 -35.435130380567465 0 -35.435130380567465 27.50246644490835 0 0 0 0 -14.844541862352344 -30.440459900950373 0 -30.440459900950373 18.2010080576365 0 0 0 0 -23.314023547388288 -35.339700470646605 0 -35.339700470646605 29.14137634337402 0 0 0 0 -9.8478475568426802 -30.249237422638544 0 -30.249237422638544 19.200106004718691 0 0 0 0 -17.734026112468655 -32.271759654398608 0 -32.271759654398608 12.742326720489899 0 0 0 0 -27.280821231668114 -20.031913393193676 0 -20.031913393193676 -1.6656541317442617 0 0 0 0 -34.904057281266432 -45.13809332204255 0 -45.13809332204255 67.963181810955575 0 0 0 0 -25.976060463814974 -43.892322614534351 0 -43.892322614534351 27.791710128971317 0 0 0 0 -31.722694495518226 -43.982705615046143 0 -43.982705615046143 67.806153253047341 0 0 0 0 -44.246123608361813 -49.091996115294023 0 -49.091996115294023 89.729756103057298 0 0 0 0 -13.899948930040409 -37.960708774488012 0 -37.960708774488012 76.077433825631616 0 0 0 0 9.718952239403734 -77.804929339956288 0 -77.804929339956288 41.983282545072143 0 0 0 0 17.086625879583153 -110.55030047923356 0 -110.55030047923356 114.3784688679807 0 0 0 0 -42.313309291602742 -37.546711283737963 0 -37.546711283737963 5.4286720014447383 0 0 0 0 19.456600639387034 -103.12688139851525 0 -103.12688139851525 130.89301386807347 0 0 0 0 -31.741201652063236 -19.076542259109303 0 -19.076542259109303 22.056089919013914 0 0 0 0 -13.426063762811282 -74.286164318227748 0 -74.286164318227748 -6.3979238260653801 0 0 0 0 -23.320654624232702 -56.007958147567479 0 -56.007958147567479 31.630741138760641 0 0 0 0 1.5497648002088056 -49.567109753247067 0 -49.567109753247067 20.902311370714955 0 0 0 0 -19.792014524871774 -49.771166372393054 0 -49.771166372393054 40.789197904610774 0 0 0 0 -25.912100521651155 -72.064138737675876 0 -72.064138737675876 -24.358548363452428 0 0 0 0 -4.9038168358716518 -36.206631559332862 0 -36.206631559332862 25.887196757050688 0 0 0 0 -13.228021990231355 -60.794878571177833 0 -60.794878571177833 11.267919521891599 0 0 0 0 -24.638853888551239 -58.220444134865829 0 -58.220444134865829 64.471939754737832 0 0 0 0 -15.272801476166023 -33.737805284687056 0 -33.737805284687056 37.083281358558452 0 0 0 0 -11.089083931710775 -52.379720478857053 0 -52.379720478857053 40.987132820431725 0 0 0 0 -1107.6605075389912 -1058.8687676284853 0 -1058.8687676284853 980.8045100305535 0 0 0 0 -1427.1434063816851 -1653.0646917659615 0 -1653.0646917659615 485.5429388905759 0 0 0 0 -1087.9259675577778 -1496.5687960449504 0 -1496.5687960449504 884.18318530857505 0 0 0 0 -482.78996393612761 -1456.3607625486147 0 -1456.3607625486147 212.12136595824268 0 0 0 0 -726.27070384247054 -1171.2805701390316 0 -1171.2805701390316 1078.3770719247805 0 0 0 0 -958.19364402431529 -1288.9702455812076 0 -1288.9702455812076 1182.4229344399791 0 0 0 0 -1306.0385334684979 -755.00572989275679 0 -755.00572989275679 2776.4312851199429 0 0 0 0 -592.34597879269131 -1113.9915646236841 0 -1113.9915646236841 1037.1802466540394 0 0 0 0 -1331.4885678230348 -1110.9099764003549 0 -1110.9099764003549 1037.1751251615553 0 0 0 0 -963.21071645520715 -787.69660312571068 0 -787.69660312571068 -227.21450570339948 0 0 0 0 -1293.4305741234421 -1533.3185479102212 0 -1533.3185479102212 -243.65011760995515 0 0 0 0 -986.66258756949537 -629.05296072814417 0 -629.05296072814417 524.64681820885744 0 0 0 0 -1201.6304380037764 -2237.85699596411 0 -2237.85699596411 -1333.5859984375475 0 0 0 0 -1058.8221237984762 -1514.6547813057641 0 -1514.6547813057641 -1130.7419556792011 0 0 0 0 -1053.695139873671 -1272.2030453837178 0 -1272.2030453837178 -2446.8575277917553 0 0 0 0 -2628.0871382003534 -2499.2929282301338 0 -2499.2929282301338 -1673.8801924232484 0 0 0 0 639.11472889364813 282.37488789289637 0 282.37488789289637 -1006.0294491854729 0 0 0 0 -1882.3706536421087 -1000.1979595973353 0 -1000.1979595973353 -52.127957434171549 0 0 0 0 -593.9596495866499 -1339.5801515918429 0 -1339.5801515918429 207.04781677952997 0 0 0 0 -1311.0142674510498 -2081.2273812263775 0 -2081.2273812263775 -560.0345847318531 0 0 0 0 -60.777618119547697 -811.34438289067475 0 -811.34438289067475 -356.55703022332455 0 0 0 0 195.49176594034361 -1076.5768119175555 0 -1076.5768119175555 -2194.0510299707239 0 0 0 0 41.74779104051413 -540.46895914680499 0 -540.46895914680499 -720.9294290446669 0 0 0 0 48.430493530731837 -468.67389912616818 0 -468.67389912616818 -2.1415543833572883 0 0 0 0 -52.731390398883377 -805.07606039187522 0 -805.07606039187522 -128.83473691048493 0 0 0 0 124.0950170418073 -303.24203626954841 0 -303.24203626954841 -348.03304663965537 0 0 0 0 -18.270837125572143 -319.5980231494832 0 -319.5980231494832 250.85720047915675 0 0 0 0 19.672854229775027 -12.860991646550133 0 -12.860991646550133 8.3011203406924494 0 0 0 0 -120.08621837367537 -613.88935468342243 0 -613.88935468342243 2694.0815382695182 0 0 0 0 -126.6556567032676 -820.28157694927359 0 -820.28157694927359 890.48837200379057 0 0 0 0 365.16643608360027 -1581.2944300887029 0 -1581.2944300887029 447.90317139595572 0 0 0 0 555.42310227734561 -1859.2333031230191 0 -1859.2333031230191 1243.1462572207674 0 0 0 0 520.87513738642156 -1549.5728716292033 0 -1549.5728716292033 40.921507171718986 0 0 0 0 -22.370608814017032 -1274.9610267566095 0 -1274.9610267566095 217.08320185336925 0 0 0 0 -87.153859524172731 -1448.6024512470394 0 -1448.6024512470394 -223.70930161308206 0 0 0 0 -52.490722302973154 -759.49740164716786 0 -759.49740164716786 -256.96828027693846 0 0 0 0 1688.9491353653575 -1960.0838761468694 0 -1960.0838761468694 1303.2091991244724 0 0 0 0 1928.1155148751131 -1395.5294237864582 0 -1395.5294237864582 431.18856177529779 0 0 0 0 464.07953574054409 -2623.5797666385624 0 -2623.5797666385624 1658.8894776532179 0 0 0 0 1492.5975190206154 -1963.7208299874655 0 -1963.7208299874655 -110.35291140782647 0 0 0 0 871.49259029632958 -2015.158095253908 0 -2015.158095253908 -316.57343638455495 0 0 0 0 939.40779219917022 -1932.8204301437218 0 -1932.8204301437218 -250.62860635726247 0 0 0 0 863.61914106478798 -1284.394842403417 0 -1284.394842403417 -647.16609049191175 0 0 0 0 793.19956142018782 -1134.5218613776087 0 -1134.5218613776087 -968.91727588594949 0 0 0 0 1125.4370772552065 -1787.7186047024152 0 -1787.7186047024152 -1218.3041760713677 0 0 0 0 925.89757776097395 -1652.5809935961588 0 -1652.5809935961588 -758.18409511708887 0 0 0 0 836.62504868753604 -1154.5424571409822 0 -1154.5424571409822 -1359.6498993327841 0 0 0 0 969.37041652773041 -2255.0907965911028 0 -2255.0907965911028 -2024.2879864736187 0 0 0 0 475.28106496832334 -684.59542895265622 0 -684.59542895265622 -1969.8769439762609 0 0 0 0 499.29095872672042 -567.98080884743831 0 -567.98080884743831 -3407.9010707633715 0 0 0 0 903.97221511629323 -1869.5286514343316 0 -1869.5286514343316 -4233.7792125399574 0 0 0 0 -0.84656514390593429 -1.3692928023036472 0 -1.3692928023036472 3.0761407165601895 0 0 0 0 1426.796587360921 -2500.7605478486439 0 -2500.7605478486439 50.511478318483569 0 0 0 0 971.78367182216607 -2681.2518299771327 0 -2681.2518299771327 1235.7167188792373 0 0 0 0 1411.4316568112117 114.94444975588704 0 114.94444975588704 -175.34643704571499 0 0 0 0 -11.022032023596694 -24.584639960128698 0 -24.584639960128698 16.511057019735745 0 0 0 0 -5.8879894676410913 -13.732413214530425 0 -13.732413214530425 19.290328192590096 0 0 0 0 -18.391169537070482 -8.2267936962982269 0 -8.2267936962982269 8.8167424424185867 0 0 0 0 2.8166606759822059 -14.607152605776037 0 -14.607152605776037 6.8993087442641468 0 0 0 0 645.66185961800511 -159.67605417501909 0 -159.67605417501909 1860.9586187622899 0 0 0 0 43.183545098945615 -1091.8023997322161 0 -1091.8023997322161 -1760.6010793565583 0 0 0 0 -149.27353995457815 -459.12097873743187 0 -459.12097873743187 -1169.1773314493184 0 0 0 0 -110.30722648868687 -1048.5711429567455 0 -1048.5711429567455 -838.25879396551318 0 0 0 0 -569.36404805473285 -817.58131844672607 0 -817.58131844672607 -953.05154367169598 0 0 0 0 127.10436742681486 -616.55619003719039 0 -616.55619003719039 -543.48225994395034 0 0 0 0 -265.20532865153655 -786.80371561061111 0 -786.80371561061111 249.766519748664 0 0 0 0 300.81620343324903 -889.04048536103801 0 -889.04048536103801 -347.83258258117712 0 0 0 0 44.285500402198522 -574.4304615801957 0 -574.4304615801957 -732.56451487640152 0 0 0 0 137.42322058154969 -853.30454459223256 0 -853.30454459223256 -1077.5844759954198 0 0 0 0 -377.92523148987675 -281.16039672270199 0 -281.16039672270199 -1690.3534599872655 0 0 0 0 385.47488044315833 -582.97150416123623 0 -582.97150416123623 -1178.364611836143 0 0 0 0 559.95131628017407 -931.65434614935657 0 -931.65434614935657 -599.01181378317415 0 0 0 0 973.08287955675041 -1211.5040337550163 0 -1211.5040337550163 -1043.1330852803076 0 0 0 0 569.38351653398786 -900.63906005905301 0 -900.63906005905301 -65.700990916433511 0 0 0 0 528.54789773387893 -735.47310677510541 0 -735.47310677510541 -731.51541721035028 0 0 0 0 542.45392047492351 -781.58783162403233 0 -781.58783162403233 -171.49253815086558 0 0 0 0 138.95207343580842 -369.01195830720098 0 -369.01195830720098 1001.5687356369235 0 0 0 0 331.07624097882217 -995.94757117012523 0 -995.94757117012523 365.68581652306602 0 0 0 0 -10.468069201597245 -535.96650884628616 0 -535.96650884628616 24.303381150915811 0 0 0 0 71.391571512751398 -801.63169843181095 0 -801.63169843181095 222.00124693283942 0 0 0 0 -69.852936027685217 -53.441276624870156 0 -53.441276624870156 -28.274185797566219 0 0 0 0 -482.63591138317861 -857.91837580735591 0 -857.91837580735591 982.79507234258199 0 0 0 0 -137.30947887069487 -997.4284120997545 0 -997.4284120997545 732.57619991756656 0 0 0 0 145.39554838818731 -1201.4776646857717 0 -1201.4776646857717 63.259525791596388 0 0 0 0 461.57442795607494 -1319.8102370125052 0 -1319.8102370125052 106.92330349282201 0 0 0 0 595.038967323213 -1443.3168479941451 0 -1443.3168479941451 54.854028316380209 0 0 0 0 838.57772772735916 -1279.2742467643984 0 -1279.2742467643984 -573.3661225780379 0 0 0 0 626.57248601905303 -952.81434557305329 0 -952.81434557305329 701.89438870830782 0 0 0 0 411.24894756737922 -808.51289542034647 0 -808.51289542034647 635.45002667940571 0 0 0 0 -736.60722564697789 -1109.6021452334535 0 -1109.6021452334535 878.78407611779039 0 0 0 0 11.383522184110916 -489.71123412007728 0 -489.71123412007728 1390.9063091269127 0 0 0 0 -1005.7930708102649 -1491.3256598699954 0 -1491.3256598699954 2074.2781734407545 0 0 0 0 156.42774348094099 -461.61281683147899 0 -461.61281683147899 -1231.535713983365 0 0 0 0 530.39448587103834 346.02229653960967 0 346.02229653960967 -3338.1847282867202 0 0 0 0 9.7292721098554011 -5.2252393929948937 0 -5.2252393929948937 1.8827027690272971 0 0 0 0 -2704.0774834951735 -985.36147724300099 0 -985.36147724300099 462.15504111908376 0 0 0 0 -15.308462983171609 -15.965158081786839 0 -15.965158081786839 -10.028357082690562 0 0 0 0 422.87888395054324 197.5346879594872 0 197.5346879594872 -1457.5581053322821 0 0 0 0 -1951.2292159572971 -1439.6248796402288 0 -1439.6248796402288 516.84695733997796 0 0 0 0 411.46069950565288 -267.69160476030083 0 -267.69160476030083 -1455.4305314822341 0 0 0 0 -46.700413544695039 -41.526934339578148 0 -41.526934339578148 -23.314976375626841 0 0 0 0 125.54248134071531 -1151.2736057977527 0 -1151.2736057977527 1704.769272319827 0 0 0 0 121.65417298210741 -420.88416072445762 0 -420.88416072445762 -1272.7394388117391 0 0 0 0 -39.245211779016245 -334.14657183737654 0 -334.14657183737654 -1197.8554807509863 0 0 0 0 -31.418162303802092 -188.91283648269746 0 -188.91283648269746 -1035.8967751790478 0 0 0 0 41.821645956035354 335.48053194987733 0 335.48053194987733 -1077.4172878284953 0 0 0 0 -331.5015060530859 -76.947874281206168 0 -76.947874281206168 -660.32701328165422 0 0 0 0 -589.68845391697596 -388.58180909453768 0 -388.58180909453768 -892.76561852917075 0 0 0 0 -219.45757945367222 -482.08572086122876 0 -482.08572086122876 -1459.9373579965468 0 0 0 0 -32.202602724603054 -15.151015827977091 0 -15.151015827977091 10.499732070533256 0 0 0 0 34.62119839056686 -411.66150433389339 0 -411.66150433389339 -1116.6803522708506 0 0 0 0 38.333473018025785 -19.899909255721155 0 -19.899909255721155 0.14992537839108167 0 0 0 0 -44.723363265220542 -126.93429963519156 0 -126.93429963519156 -93.616433288389089 0 0 0 0 -0.84489954351010965 -114.48852044724117 0 -114.48852044724117 -0.77883668709546328 0 0 0 0 5.5007227039241116 -127.26318352569069 0 -127.26318352569069 -110.18294915385195 0 0 0 0 -55.60001227002067 -147.3809663308275 0 -147.3809663308275 49.774180033782613 0 0 0 0 -64.882962555733684 -77.864500355346536 0 -77.864500355346536 85.167452348279767 0 0 0 0 17.784680996777986 -45.337575502079829 0 -45.337575502079829 13.129563589379785 0 0 0 0 -115.14191441837193 -94.841568818664655 0 -94.841568818664655 21.704473852922092 0 0 0 0 -11.313670667361293 -67.499050492708193 0 -67.499050492708193 28.744999997346895 0 0 0 0 -322.56363429015619 -486.3540118537494 0 -486.3540118537494 -546.97526320223551 0 0 0 0 -155.81908837106312 -257.06619484799012 0 -257.06619484799012 -364.9931324310528 0 0 0 0 -82.03604989064479 -80.221729934011819 0 -80.221729934011819 -141.21779899862304 0 0 0 0 -405.57029784470797 -273.4659275743179 0 -273.4659275743179 184.23638292287069 0 0 0 0 -64.965709352996782 -194.35905215383536 0 -194.35905215383536 -179.99635148018569 0 0 0 0 -414.30111552256858 -469.83579076358001 0 -469.83579076358001 -283.52646274634026 0 0 0 0 -411.74584365397459 -324.23120200051198 0 -324.23120200051198 -98.086578627968265 0 0 0 0 -2511.963411961493 -2679.9917817682508 0 -2679.9917817682508 -1985.253892343444 0 0 0 0 -1957.5160813063703 -1998.3313643676374 0 -1998.3313643676374 -2219.733138792144 0 0 0 0 -16.518024475772933 -24.005077235279771 0 -24.005077235279771 60.351589103236734 0 0 0 0 -411.01505844956046 -229.03356005162883 0 -229.03356005162883 -138.64557935918856 0 0 0 0 -1529.8797963641846 -1586.2882917020179 0 -1586.2882917020179 -1800.5134239080144 0 0 0 0 -2608.1376045389479 -2026.4857412687998 0 -2026.4857412687998 -1537.8343632850301 0 0 0 0 -1654.2807531222643 -2152.4763006884896 0 -2152.4763006884896 -1810.4094587073923 0 0 0 0 -2172.1652841448013 -2333.9734816222153 0 -2333.9734816222153 -2093.2271769133731 0 0 0 0 -2173.3632057611831 -1680.7738163846479 0 -1680.7738163846479 -1619.680666975255 0 0 0 0 -642.3533469515678 -376.12490669824911 0 -376.12490669824911 -88.356507333466652 0 0 0 0 321.07812603939965 280.44429937237874 0 280.44429937237874 171.43291736512037 0 0 0 0 -58.759313383496192 -322.93676445914389 0 -322.93676445914389 -497.17696601171338 0 0 0 0 672.48506767378422 -455.69615692435764 0 -455.69615692435764 -1893.545767595002 0 0 0 0 -76.973536869260897 -243.71340209832988 0 -243.71340209832988 263.53068811383855 0 0 0 0 -7.4395691914184852 -19.5279470241328 0 -19.5279470241328 41.54830770207343 0 0 0 0 -819.3259166576172 -689.42601059793378 0 -689.42601059793378 1676.4858504659314 0 0 0 0 -218.80967242583574 -110.70148347045688 0 -110.70148347045688 398.00795694992121 0 0 0 0 -350.64838671807229 -1150.8083734018728 0 -1150.8083734018728 735.79843762794189 0 0 0 0 -780.55562699407164 -2078.736288426262 0 -2078.736288426262 -1255.4254747322866 0 0 0 0 -842.49373993190056 -1020.3083414526407 0 -1020.3083414526407 916.26856692811998 0 0 0 0 -1745.8095542496521 -2191.6452509059782 0 -2191.6452509059782 -121.49849100726715 0 0 0 0 -1799.9767144174111 -2504.9896339937077 0 -2504.9896339937077 -1903.1519495330722 0 0 0 0 -158.97035721471184 820.71440204513783 0 820.71440204513783 2575.9914491710133 0 0 0 0 -1.1512400722497205 -8.24473830961918 0 -8.24473830961918 14.558070074247468 0 0 0 0 -1885.7198347469821 -1316.2729627730878 0 -1316.2729627730878 -1322.0785304108285 0 0 0 0 -1345.5335152543662 -1358.1467335825232 0 -1358.1467335825232 -1674.4136962235498 0 0 0 0 -2135.1889973742072 -1501.0271725690836 0 -1501.0271725690836 -1379.8126402539201 0 0 0 0 -1672.0972821487012 -1578.9039823631538 0 -1578.9039823631538 -1768.8689493916754 0 0 0 0 -1590.926813637132 -1757.6056764969762 0 -1757.6056764969762 -923.18724152877985 0 0 0 0 -1126.0839056499972 -1256.5798635607935 0 -1256.5798635607935 -1751.732821763504 0 0 0 0 -872.36028869209986 -1748.8685223132052 0 -1748.8685223132052 -1070.8682459523407 0 0 0 0 -1046.270049660292 -1401.9091918523791 0 -1401.9091918523791 419.74325424259587 0 0 0 0 -860.72798233899084 -570.52761366976483 0 -570.52761366976483 89.03057522031304 0 0 0 0 -807.34885404309171 -515.22975676017813 0 -515.22975676017813 -177.80738788678718 0 0 0 0 -290.31278975222813 -59.330764224636368 0 -59.330764224636368 352.6119689001207 0 0 0 0 -304.92800795953735 -124.42568382559602 0 -124.42568382559602 -83.699828993238043 0 0 0 0 -495.67707052471815 48.986308608175023 0 48.986308608175023 184.63813059448148 0 0 0 0 -384.77200409563375 -525.59723578178819 0 -525.59723578178819 -666.67875364388601 0 0 0 0 -678.02257602604368 -149.49165455757975 0 -149.49165455757975 181.41126322530909 0 0 0 0 -1122.9039527763816 -701.27602174017375 0 -701.27602174017375 -442.86247448173526 0 0 0 0 -1073.6090612559892 -1242.155001479372 0 -1242.155001479372 -1222.8630836326047 0 0 0 0 -2153.8476309986509 -2146.7159318853883 0 -2146.7159318853883 -1332.577785161644 0 0 0 0 -1842.1084163819469 -1492.7144901874635 0 -1492.7144901874635 -1422.4784445223913 0 0 0 0 -1722.6207625096094 -2272.425790575996 0 -2272.425790575996 -1619.2267475255067 0 0 0 0 -455.269837998203 -915.1315544568206 0 -915.1315544568206 -977.97935993653664 0 0 0 0 -1935.2258102040432 -2224.3400604348317 0 -2224.3400604348317 -1054.3999626590667 0 0 0 0 -1194.248607484049 -1796.9870184653919 0 -1796.9870184653919 -1393.379302525922 0 0 0 0 522.15811739122728 251.03151275635173 0 251.03151275635173 -14.327143163573055 0 0 0 0 -558.82715613941764 -953.19879386262437 0 -953.19879386262437 -854.45740576143726 0 0 0 0 -63.134519513823761 -1524.4079865008625 0 -1524.4079865008625 -1237.4472732505092 0 0 0 0 -16.484196095422845 -8.8040951053846896 0 -8.8040951053846896 -4.756849694900211 0 0 0 0 164.78076117167075 403.13156829743821 0 403.13156829743821 -354.37899559590733 0 0 0 0 -1376.960804969618 383.77715406549396 0 383.77715406549396 -205.79354768793564 0 0 0 0 -42.937130621961813 -20.608106445671197 0 -20.608106445671197 -6.6776099980787365 0 0 0 0 -109.02945200639078 -709.64899277758377 0 -709.64899277758377 1234.4701772220551 0 0 0 0 -461.81333542359062 -82.219301793913473 0 -82.219301793913473 1305.3649616488401 0 0 0 0 -129.87994397470175 11.495565847668331 0 11.495565847668331 379.86695722158765 0 0 0 0 -259.21482396943611 -200.64143463002983 0 -200.64143463002983 793.75195320490457 0 0 0 0 -324.34956630921806 23.511390667394153 0 23.511390667394153 454.82248003178393 0 0 0 0 -102.95933346420497 144.1780040857775 0 144.1780040857775 487.05216034332989 0 0 0 0 310.0802457514219 101.10645228260546 0 101.10645228260546 317.66536528099095 0 0 0 0 467.89043162217422 -377.7230974661652 0 -377.7230974661652 479.47125151148066 0 0 0 0 -233.22842230455717 15.397435484992457 0 15.397435484992457 576.50463187653804 0 0 0 0 -501.38675288163358 129.39642339933198 0 129.39642339933198 520.81006424788939 0 0 0 0 -496.16509538303217 122.23032732985303 0 122.23032732985303 560.13020466061425 0 0 0 0 -287.0854710272688 186.63605226032087 0 186.63605226032087 497.52419726764492 0 0 0 0 -618.00793556544522 50.890612676841556 0 50.890612676841556 440.80211686046096 0 0 0 0 -658.8852744452015 92.564103953685844 0 92.564103953685844 532.4799345114734 0 0 0 0 -494.44679732102668 127.91609900172625 0 127.91609900172625 504.14338510995003 0 0 0 0 -464.14261579290178 109.5315701835134 0 109.5315701835134 513.46642714124755 0 0 0 0 -572.95195140788564 88.316040375095326 0 88.316040375095326 526.79547162653762 0 0 0 0 -459.52175737060315 113.70801062707324 0 113.70801062707324 448.5016013776185 0 0 0 0 -366.46348088893865 190.50107021801523 0 190.50107021801523 506.32698780042847 0 0 0 0 -435.93193687053281 129.88105485793494 0 129.88105485793494 444.43754135492418 0 0 0 0 -407.01402067359595 101.90878136469109 0 101.90878136469109 323.13486877991818 0 0 0 0 -393.26995693481877 -56.683033874389366 0 -56.683033874389366 293.55976989283226 0 0 0 0 -358.46839663335049 49.443966544506111 0 49.443966544506111 187.14419102709508 0 0 0 0 -174.65985458238356 6.508190727148758 0 6.508190727148758 -77.616489663778339 0 0 0 0 -391.00482042468502 -233.45862793138076 0 -233.45862793138076 205.88584415233345 0 0 0 0 -348.16543253519922 160.609824309955 0 160.609824309955 395.13780659417898 0 0 0 0 28.991677486599656 -165.20148815975699 0 -165.20148815975699 -243.50621273153956 0 0 0 0 -166.89309359410072 -134.57658086642914 0 -134.57658086642914 -107.89690805622377 0 0 0 0 26.164576823695413 -87.128552400174044 0 -87.128552400174044 -109.02591479883304 0 0 0 0 3.5197180890027084 -93.028740480927809 0 -93.028740480927809 -6.7168911289918469 0 0 0 0 -0.52860081657787106 -64.8864054077861 0 -64.8864054077861 15.566743150149648 0 0 0 0 -48.312805988243781 -152.97929370814381 0 -152.97929370814381 57.478169025605894 0 0 0 0 -15.04298173326066 -29.336105703345424 0 -29.336105703345424 -11.9901620604345 0 0 0 0 -114.37120490962116 -97.626422862878826 0 -97.626422862878826 14.582110130486399 0 0 0 0 19.092532482987735 -60.495583913769224 0 -60.495583913769224 39.010442916294778 0 0 0 0 -306.04161526006646 -425.07084687169117 0 -425.07084687169117 -271.45415392983341 0 0 0 0 -69.005267597560305 -229.98936666171721 0 -229.98936666171721 -406.2059572077851 0 0 0 0 -203.21966174004774 -182.24487155858515 0 -182.24487155858515 -113.62672016630677 0 0 0 0 -42.560495777578026 -16.498632967563793 0 -16.498632967563793 78.860528778718617 0 0 0 0 -2308.6626848668884 -2260.6716707543665 0 -2260.6716707543665 -2173.213065572505 0 0 0 0 -2277.9455098159815 -1841.3766354354739 0 -1841.3766354354739 -1900.915327835668 0 0 0 0 -427.12429936649278 -561.29356061570434 0 -561.29356061570434 -694.68634963697696 0 0 0 0 -218.27972564055381 -7.7228533596316993 0 -7.7228533596316993 454.75071874160494 0 0 0 0 0.46991997656317608 2.9913811997562618 0 2.9913811997562618 -0.93797457317023714 0 0 0 0 -2649.567320778413 -2474.3085584909641 0 -2474.3085584909641 -1641.4369037222932 0 0 0 0 -675.11910560177057 -478.73313436105673 0 -478.73313436105673 -155.74281855189474 0 0 0 0 -2751.2059115218508 -1927.3233657695746 0 -1927.3233657695746 -1625.143803705374 0 0 0 0 -29.62713371162198 -22.785569590243568 0 -22.785569590243568 72.536218848340695 0 0 0 0 -2633.1965974569466 -1634.9767058650905 0 -1634.9767058650905 -1455.2874938257955 0 0 0 0 -2519.7772078319103 -2235.4452434949344 0 -2235.4452434949344 -1177.2097152673232 0 0 0 0 -2592.2318201254966 -1959.4303416818148 0 -1959.4303416818148 -1926.0815658023275 0 0 0 0 -2478.6510449721063 -1519.6178924754895 0 -1519.6178924754895 -2352.8038895380741 0 0 0 0 -1773.9408622039628 -2006.8073275200368 0 -2006.8073275200368 -2475.5523630232201 0 0 0 0 -2107.9580829570332 -1103.8637246464205 0 -1103.8637246464205 -95.737441694174777 0 0 0 0 -287.38769637169025 -726.68309429295186 0 -726.68309429295186 -227.98762370919576 0 0 0 0 -2798.5733396117175 -1980.8861050952255 0 -1980.8861050952255 -941.54268671400496 0 0 0 0 -1782.8982264573351 -1619.0652867101453 0 -1619.0652867101453 -485.83407976437593 0 0 0 0 -1602.4089445361751 -2165.1703632307817 0 -2165.1703632307817 -1561.8618469773646 0 0 0 0 -1746.120609891208 -2181.3562643445766 0 -2181.3562643445766 -2214.5569464673317 0 0 0 0 -2099.650890801553 -2109.7283960547938 0 -2109.7283960547938 -1567.8165434518851 0 0 0 0 -306.53534713168528 -90.008147870931836 0 -90.008147870931836 -114.24199371146096 0 0 0 0 -2691.7593782987678 -2117.2765066236316 0 -2117.2765066236316 -1370.1171725990571 0 0 0 0 -1668.3502538952744 -2496.005293944334 0 -2496.005293944334 -1285.983832096972 0 0 0 0 -55.929072163042292 -152.08206245976908 0 -152.08206245976908 -109.93590565804334 0 0 0 0 -2609.9363234393322 -2408.2307839315254 0 -2408.2307839315254 -1245.8947904012603 0 0 0 0 -3137.1104049289133 -2025.2054391221609 0 -2025.2054391221609 -1347.8781526566017 0 0 0 0 -72.174748442173353 -13.214376056722898 0 -13.214376056722898 78.479054043756776 0 0 0 0 35.236241497115898 -82.908870792567541 0 -82.908870792567541 -102.69350437263267 0 0 0 0 -0.53019980746828566 -13.1067406890662 0 -13.1067406890662 -3.5066390597713166 0 0 0 0 -1267.4588738920138 660.12694761973398 0 660.12694761973398 1209.0372993407072 0 0 0 0 -2661.1407001610496 -934.26688604688388 0 -934.26688604688388 -614.76630853232928 0 0 0 0 -215.31803164346638 -265.59078664563276 0 -265.59078664563276 -158.3086602454714 0 0 0 0 -3999.7629051492549 -1920.9708408734659 0 -1920.9708408734659 -575.37123827994219 0 0 0 0 -3945.3327877152133 -2126.8761996626254 0 -2126.8761996626254 -793.26965205310262 0 0 0 0 -3430.0708239161177 -1549.4223217048129 0 -1549.4223217048129 -706.32950505620101 0 0 0 0 -3748.1776758416381 -2413.9844969421392 0 -2413.9844969421392 -210.13698149794072 0 0 0 0 -3595.8999346639321 -1827.3107757631806 0 -1827.3107757631806 492.23278346052393 0 0 0 0 -3577.3227340873673 -1870.5208064723956 0 -1870.5208064723956 -1123.0391188600624 0 0 0 0 -3260.792100742754 -2551.4655824611582 0 -2551.4655824611582 -1540.2810553800955 0 0 0 0 -2663.7603503866703 -2168.2356536909065 0 -2168.2356536909065 -1306.291469169686 0 0 0 0 -720.57889603762305 -1755.5033755969271 0 -1755.5033755969271 -1600.2065338460234 0 0 0 0 -2618.8145388315943 -2444.8327784074663 0 -2444.8327784074663 -900.41095360027975 0 0 0 0 -26.510711103529957 -7.3712639448293373 0 -7.3712639448293373 2.4257888262556619 0 0 0 0 -1402.0223738233872 180.48455471459602 0 180.48455471459602 2102.9224283474432 0 0 0 0 -2475.3501310625215 -2763.6544695688863 0 -2763.6544695688863 -2102.9468221956195 0 0 0 0 -237.43540279923673 107.51833735615946 0 107.51833735615946 472.38126207730966 0 0 0 0 -1659.4812837567661 -1611.4909615079232 0 -1611.4909615079232 -517.17737841103371 0 0 0 0 -1087.9769209513397 -261.92162627947982 0 -261.92162627947982 1550.1783652312733 0 0 0 0 -791.01186677407532 -376.4836766766166 0 -376.4836766766166 429.72948733455269 0 0 0 0 -678.10160275945964 -709.10009722894756 0 -709.10009722894756 1128.1054413063684 0 0 0 0 -685.4269755196292 -854.46557856253639 0 -854.46557856253639 494.07554686788353 0 0 0 0 30.261074474459747 -289.52731947055145 0 -289.52731947055145 742.2522913965513 0 0 0 0 627.55399338528514 913.85693939932389 0 913.85693939932389 2321.4612854982261 0 0 0 0 19.302148801798467 -755.07825732135097 0 -755.07825732135097 1128.5060318363976 0 0 0 0 653.42639152701304 -527.30064913436945 0 -527.30064913436945 776.02229447179707 0 0 0 0 -11.206796077839954 -3.8085449861007206 0 -3.8085449861007206 6.7527748631052305 0 0 0 0 26.422016236683703 -404.43958195469168 0 -404.43958195469168 788.31429988575837 0 0 0 0 213.98154013136082 -391.43023165075647 0 -391.43023165075647 285.18573499453487 0 0 0 0 -53.793246905949758 -7.2366209692934547 0 -7.2366209692934547 7.0754595571618282 0 0 0 0 409.70321556822819 -437.55094604600163 0 -437.55094604600163 283.28858720351127 0 0 0 0 192.75804641162358 -768.0698503334188 0 -768.0698503334188 -0.0291079329472268 0 0 0 0 -462.05995121986598 -367.27579712581428 0 -367.27579712581428 414.22019306512084 0 0 0 0 141.52790344966888 -463.8745090593402 0 -463.8745090593402 428.08747041791503 0 0 0 0 -1113.447056027122 -1024.8068455477296 0 -1024.8068455477296 0.045089210674632341 0 0 0 0 -1783.3715101934213 -605.71640745476179 0 -605.71640745476179 714.27005785400843 0 0 0 0 -3319.2148515062308 -1546.3323754972771 0 -1546.3323754972771 659.35274512675824 0 0 0 0 -1324.364001996204 -1279.6058049891144 0 -1279.6058049891144 -325.15185143786948 0 0 0 0 -1043.4290094120806 -718.67069796301075 0 -718.67069796301075 244.64428753621178 0 0 0 0 -731.84219757576648 -680.52676132073975 0 -680.52676132073975 162.09600443282397 0 0 0 0 -853.27631210781692 -674.94508725343621 0 -674.94508725343621 168.20911410478584 0 0 0 0 -404.81395905592944 -289.34910221432801 0 -289.34910221432801 485.03048686659895 0 0 0 0 -837.83643981514615 -466.05538011013414 0 -466.05538011013414 479.46034413244342 0 0 0 0 836.92041741714638 -276.3606298230734 0 -276.3606298230734 207.25253160964348 0 0 0 0 -202.5840109936762 156.10197664895895 0 156.10197664895895 725.95878878416261 0 0 0 0 -546.31734219048667 -158.20522761415486 0 -158.20522761415486 830.94990049270564 0 0 0 0 -1168.3815938968037 -746.71356749691768 0 -746.71356749691768 448.01160088102552 0 0 0 0 -689.84839288861258 137.58293929122738 0 137.58293929122738 302.82884741385351 0 0 0 0 2110.7128838572826 -1729.9816619624035 0 -1729.9816619624035 -268.60272643246572 0 0 0 0 -1104.478245310449 -862.10702669254533 0 -862.10702669254533 458.87486270855879 0 0 0 0 -1188.6229907113011 -2606.1862890659831 0 -2606.1862890659831 -297.49866175599163 0 0 0 0 -21.724576585031372 -14.348079933090773 0 -14.348079933090773 -7.3442721211839341 0 0 0 0 -10.266407803787956 -12.286837828034322 0 -12.286837828034322 -9.6344938769431394 0 0 0 0 -388.57558789585892 232.64464596241305 0 232.64464596241305 332.79665832177852 0 0 0 0 -862.57149200161803 49.842677022563294 0 49.842677022563294 351.86145014721842 0 0 0 0 -679.65880235302029 49.883794120436505 0 49.883794120436505 370.68763931369176 0 0 0 0 -712.61495027867204 21.758659274957608 0 21.758659274957608 357.01576719759032 0 0 0 0 -763.32973631738423 95.289915224682773 0 95.289915224682773 435.34119710337836 0 0 0 0 -494.27859941712813 119.14586573117413 0 119.14586573117413 434.33989615578321 0 0 0 0 -712.13715554092778 129.58174878385398 0 129.58174878385398 449.82802865514532 0 0 0 0 -99.863451508528669 241.39537379625835 0 241.39537379625835 333.00154060358182 0 0 0 0 -181.1160674541461 776.4770831076894 0 776.4770831076894 2177.3110319746484 0 0 0 0 4354.2455212461355 -2033.133461020072 0 -2033.133461020072 -3607.8413241887174 0 0 0 0 -1066.4438332865393 -2310.271859928187 0 -2310.271859928187 -2750.4691642804537 0 0 0 0 -1604.1037880658696 -1629.7297352591995 0 -1629.7297352591995 -453.81281860516174 0 0 0 0 -248.67704778767074 -932.99984344393306 0 -932.99984344393306 -762.23158196262375 0 0 0 0 41.762788216321496 418.60506518471811 0 418.60506518471811 1290.5898726064188 0 0 0 0 -10.597269774612613 0.21269446346670406 0 0.21269446346670406 0.9827002997119223 0 0 0 0 -360.98671365262271 -716.13374273664158 0 -716.13374273664158 -580.015614067961 0 0 0 0 -271.25348951795604 764.14530142978765 0 764.14530142978765 2043.5335211462116 0 0 0 0 -30.02050159722333 -4.7865522083251903 0 -4.7865522083251903 2.0224966037346803 0 0 0 0 -30.608957114083751 9.6078785551208057 0 9.6078785551208057 1114.7626220346137 0 0 0 0 -726.16508574963564 179.67874795351736 0 179.67874795351736 966.46434487379156 0 0 0 0 784.63768834493385 664.92213345863001 0 664.92213345863001 1000.933857189666 0 0 0 0 -125.87030843943649 276.63892639369442 0 276.63892639369442 3374.2220825344557 0 0 0 0 -11.496225419693779 -5.7858118437831081 0 -5.7858118437831081 -1.9252707880483513 0 0 0 0 -308.23726584916585 -66.922568959984346 0 -66.922568959984346 1.3795478143983928 0 0 0 0 -311.41018344074109 -126.07987912458339 0 -126.07987912458339 -71.798914302853518 0 0 0 0 -569.9556123053917 -683.61039753063233 0 -683.61039753063233 -542.61166713504645 0 0 0 0 -240.36362140208075 -289.53265277938044 0 -289.53265277938044 -73.857996514576371 0 0 0 0 -843.42095413245261 -459.89380388899008 0 -459.89380388899008 -82.162031310159364 0 0 0 0 -444.99826327656046 -61.493563913056278 0 -61.493563913056278 93.373683606041595 0 0 0 0 -0.71463617189485262 -1.7865434316816646 0 -1.7865434316816646 -2.0659850528036259 0 0 0 0 754.92374638648107 -623.71461575663125 0 -623.71461575663125 0.39344643471122254 0 0 0 0 -944.26960945972678 -596.49114686318353 0 -596.49114686318353 -0.30825263065344188 0 0 0 0 -1616.5568458694142 71.010069091957121 0 71.010069091957121 105.07580287498013 0 0 0 0 -1316.4491416901474 -557.58407285352223 0 -557.58407285352223 206.28682345000561 0 0 0 0 -607.89133145328378 -476.93928682759724 0 -476.93928682759724 -41.099994791497011 0 0 0 0 -533.11263448510545 -247.85206717398069 0 -247.85206717398069 241.15256687866349 0 0 0 0 -1041.8207541556039 -287.2081803872934 0 -287.2081803872934 210.35506188968429 0 0 0 0 -834.62335354990137 -531.72313245874102 0 -531.72313245874102 145.21674713783432 0 0 0 0 -804.55416841233819 -449.50733034162113 0 -449.50733034162113 354.45592059916817 0 0 0 0 -598.69350868512993 -514.94463346644625 0 -514.94463346644625 197.70114903504145 0 0 0 0 -95.912193868760369 -379.07485244133659 0 -379.07485244133659 305.27829493841273 0 0 0 0 -65.719630693783984 -184.90352679103671 0 -184.90352679103671 348.85352857000544 0 0 0 0 -42.871639869543287 -511.68727876207413 0 -511.68727876207413 0.1829408999910811 0 0 0 0 131.96224171415815 -306.2103403746878 0 -306.2103403746878 148.25047665467719 0 0 0 0 638.36892827435804 -265.03496841214655 0 -265.03496841214655 85.304994293954223 0 0 0 0 439.19578181185352 -403.24012556821981 0 -403.24012556821981 -0.14925095617521392 0 0 0 0 -26.796271976287244 -12.415358753321925 0 -12.415358753321925 94.223743258364266 0 0 0 0 373.21714570780568 -325.84003889686937 0 -325.84003889686937 78.820040928258095 0 0 0 0 -18.853302803253683 -15.603535798215447 0 -15.603535798215447 -10.593883100626329 0 0 0 0 565.02855213499424 -716.38937168669509 0 -716.38937168669509 403.76839544623999 0 0 0 0 476.72868092230055 -358.22820675880939 0 -358.22820675880939 67.215074152722082 0 0 0 0 347.42234601002201 -309.06413298591542 0 -309.06413298591542 431.80823073207284 0 0 0 0 -148.41283401711553 -356.83214583114022 0 -356.83214583114022 585.78477689555439 0 0 0 0 -1977.9375264009577 1877.8698793612639 0 1877.8698793612639 442.67313979237224 0 0 0 0 -24.137845219739489 -20.645385190450426 0 -20.645385190450426 -14.548590673687954 0 0 0 0 -285.68723323164159 -528.8499804995372 0 -528.8499804995372 -1059.7792285448741 0 0 0 0 -57.516653887907523 152.1225931613526 0 152.1225931613526 71.095938936166931 0 0 0 0 49.76977364684717 105.09137551835738 0 105.09137551835738 -78.512475431052735 0 0 0 0 44.496683254445088 -38.797162835468043 0 -38.797162835468043 -346.90253427915741 0 0 0 0 -9.2379514116873906 23.012848472513724 0 23.012848472513724 -22.263693561719265 0 0 0 0 38.836981270324031 -35.885838935340871 0 -35.885838935340871 -86.189962972915964 0 0 0 0 -135.17680232774546 -180.29554521228238 0 -180.29554521228238 -4.73536796119879 0 0 0 0 -123.16186252138868 -94.209467178079649 0 -94.209467178079649 193.90552783900057 0 0 0 0 -423.45694008280407 -291.58225962703 0 -291.58225962703 167.54466289648553 0 0 0 0 -492.51257990195882 -125.35945120023825 0 -125.35945120023825 328.82341217805515 0 0 0 0 -732.30560254663578 -282.37888502923306 0 -282.37888502923306 219.51483081232436 0 0 0 0 -612.01064221988781 -242.19615044834791 0 -242.19615044834791 215.32651955623078 0 0 0 0 -607.91424930741778 -76.152338947955286 0 -76.152338947955286 375.41247582764481 0 0 0 0 -831.16403210393037 14.395136952487519 0 14.395136952487519 448.39096732488906 0 0 0 0 -789.97351643818729 -221.21066635242823 0 -221.21066635242823 267.05954188702162 0 0 0 0 -682.3930040881387 -192.16510512836976 0 -192.16510512836976 232.30604497563036 0 0 0 0 -1171.3919281213311 -157.17466122464975 0 -157.17466122464975 242.2414351690677 0 0 0 0 -1019.1261122424694 -413.62436058765161 0 -413.62436058765161 90.9806480408879 0 0 0 0 -1285.7509461163609 -556.42112128900771 0 -556.42112128900771 83.951942590589169 0 0 0 0 -384.2792456150637 -435.03616037817847 0 -435.03616037817847 -244.7618666124763 0 0 0 0 101.33627326323767 172.23471575800795 0 172.23471575800795 120.96990853013267 0 0 0 0 38.456088116065985 -73.402146719182383 0 -73.402146719182383 754.65501882805256 0 0 0 0 59.788509653604706 43.752018513216171 0 43.752018513216171 283.5108890292031 0 0 0 0 38.811223284807056 24.830051048716996 0 24.830051048716996 189.77285821097212 0 0 0 0 97.280298092999146 -48.123977242124965 0 -48.123977242124965 106.62332386300841 0 0 0 0 46.381517249326862 41.905971318403317 0 41.905971318403317 -37.24309340894979 0 0 0 0 57.939442894974491 69.413561058216146 0 69.413561058216146 6.8960908753433614 0 0 0 0 32.27459141111558 -139.11544653219244 0 -139.11544653219244 -65.120422727777623 0 0 0 0 -3.0060214111131245 -4.5798625644705169 0 -4.5798625644705169 14.299624233993768 0 0 0 0 -894.97100382740064 -477.22118443488762 0 -477.22118443488762 70.932041346735787 0 0 0 0 -9.7639747547595306 -2.0984264678909028 0 -2.0984264678909028 11.284284550915743 0 0 0 0 -931.75478044083866 -112.93283820004581 0 -112.93283820004581 17.565628838550765 0 0 0 0 -29.333751184327411 -29.96903411342646 0 -29.96903411342646 -10.193256384358392 0 0 0 0 -11.986129816214088 -9.1745595698448597 0 -9.1745595698448597 0.0033894564548972994 0 0 0 0 -1351.1825246045628 1.4436556578948512 0 1.4436556578948512 -13.095650098090118 0 0 0 0 -1.8431570182263499 -1.4681468000008948 0 -1.4681468000008948 -2.2369854355587222 0 0 0 0 -7.150510397723906 -2.6122651916262782 0 -2.6122651916262782 1.7977799125209231 0 0 0 0 -1304.4194071856773 -407.34892864648828 0 -407.34892864648828 67.08028464842937 0 0 0 0 -712.18200539360259 -676.8971640478012 0 -676.8971640478012 0.4309827603501617 0 0 0 0 -178.44423246655788 -552.6521830769525 0 -552.6521830769525 -227.63222450535977 0 0 0 0 -161.62153451087715 -345.38975172706182 0 -345.38975172706182 107.67776076158043 0 0 0 0 -583.5091217876834 -359.22110260435875 0 -359.22110260435875 -113.56203829609149 0 0 0 0 1222.8416100000832 -854.58224703582528 0 -854.58224703582528 -193.45628958290035 0 0 0 0 605.71440750773763 -747.97499501730636 0 -747.97499501730636 -0.86487269930055188 0 0 0 0 1166.920806957176 -735.66416024234786 0 -735.66416024234786 -96.789690863646683 0 0 0 0 906.3845842337978 -477.28274293167851 0 -477.28274293167851 -190.41549842181848 0 0 0 0 2052.2513606738212 -753.12414053334214 0 -753.12414053334214 304.98093829717254 0 0 0 0 1894.1165797945541 -960.21750297203471 0 -960.21750297203471 756.50061474958784 0 0 0 0 1509.5821170746822 -961.35249596922222 0 -961.35249596922222 228.73067013008404 0 0 0 0 1561.9252662670651 -501.74321611665164 0 -501.74321611665164 40.450772699725349 0 0 0 0 2133.4802384198701 -513.78322646238666 0 -513.78322646238666 343.82223281847837 0 0 0 0 1252.5458027995192 -656.29353865247685 0 -656.29353865247685 336.68794134349446 0 0 0 0 640.12072966204869 -546.59173245863349 0 -546.59173245863349 332.34917185592349 0 0 0 0 1055.8200423209673 -315.63944944541072 0 -315.63944944541072 364.93207597712171 0 0 0 0 555.25953563990333 -844.49730670539793 0 -844.49730670539793 687.61919965426205 0 0 0 0 746.76929133740487 -1049.3871573232464 0 -1049.3871573232464 432.76603892564162 0 0 0 0 1060.7866790074622 -748.42970471912122 0 -748.42970471912122 286.10467747254006 0 0 0 0 1524.6938946845476 -737.23383332884987 0 -737.23383332884987 781.80200642636919 0 0 0 0 1156.0461860108735 -429.25892036301957 0 -429.25892036301957 1048.874946268741 0 0 0 0 837.75247267539453 -733.05822319022263 0 -733.05822319022263 985.86055683047744 0 0 0 0 1653.3908963000285 -1474.6697562834743 0 -1474.6697562834743 -285.52149351930711 0 0 0 0 2028.1438199331751 229.12275615912949 0 229.12275615912949 1968.0329257428239 0 0 0 0 892.81954444703297 -2510.6922167539014 0 -2510.6922167539014 3252.0707417294034 0 0 0 0 3880.6573972024853 -978.81541632403969 0 -978.81541632403969 663.01378999368171 0 0 0 0 -117.0815494074086 -306.97170093691238 0 -306.97170093691238 -663.15598977301852 0 0 0 0 -1043.2979928542991 -763.61579576169606 0 -763.61579576169606 -67.194756191362103 0 0 0 0 37.719420659268508 -746.44484341766656 0 -746.44484341766656 322.87927701172885 0 0 0 0 639.00354746368248 -572.16047092783265 0 -572.16047092783265 -252.83570008428069 0 0 0 0 540.9846365322901 -946.57757545458662 0 -946.57757545458662 -26.918935961060924 0 0 0 0 39.864506488840561 -1332.25570903466 0 -1332.25570903466 604.61531097969419 0 0 0 0 -112.28744747264864 -10.670378862108919 0 -10.670378862108919 1225.4944170983945 0 0 0 0 48.339984294623719 -1390.1575044364217 0 -1390.1575044364217 -181.71065075295337 0 0 0 0 -0.63702849124820204 -3.2292984666554219 0 -3.2292984666554219 7.2204539591167531 0 0 0 0 248.64755169019918 -743.36217469888652 0 -743.36217469888652 1374.2409759703296 0 0 0 0 600.97479227474832 -830.65876407791802 0 -830.65876407791802 1050.7394053145399 0 0 0 0 640.66658288704639 -715.70835599097427 0 -715.70835599097427 941.73184774168476 0 0 0 0 229.53066165627388 -779.20096923269739 0 -779.20096923269739 1119.7410951847487 0 0 0 0 0.49873756936415248 -13.053642207995949 0 -13.053642207995949 -12.214222586264242 0 0 0 0 565.62010102212298 -675.24396928622082 0 -675.24396928622082 955.88693745515775 0 0 0 0 1024.6610596104292 -1198.4060199734668 0 -1198.4060199734668 900.0864982620169 0 0 0 0 272.75866133533418 -1113.268050075043 0 -1113.268050075043 923.78562265773871 0 0 0 0 386.96915733143396 -750.11713313943619 0 -750.11713313943619 1155.3191345853556 0 0 0 0 360.29438082361594 -657.71601213751637 0 -657.71601213751637 1031.0042792464956 0 0 0 0 523.56476124015171 -739.34430961244652 0 -739.34430961244652 1044.9758994050208 0 0 0 0 414.40592165879207 -774.21368237385104 0 -774.21368237385104 1039.5160589267616 0 0 0 0 1991.7048466610868 -2675.2374072596831 0 -2675.2374072596831 1864.4796156235097 0 0 0 0 2729.6830885843665 -1899.8206665462749 0 -1899.8206665462749 284.71182668612164 0 0 0 0 2897.9801363335791 -2171.7835745655539 0 -2171.7835745655539 561.33143118370208 0 0 0 0 1536.3820786742435 -1049.724196064868 0 -1049.724196064868 438.75150328184827 0 0 0 0 0.49208792907379006 -6.4416695092421321 0 -6.4416695092421321 -3.2825940246309244 0 0 0 0 1683.8644659419078 -2042.0078474894835 0 -2042.0078474894835 2162.6327941433046 0 0 0 0 904.64278307133645 -524.02660772742092 0 -524.02660772742092 -348.39509889462033 0 0 0 0 239.78891477722209 -788.47808007346612 0 -788.47808007346612 361.69763154654356 0 0 0 0 1016.5867012546369 -1082.5895837651988 0 -1082.5895837651988 1856.2554081435956 0 0 0 0 1285.8227078524214 -804.17116404216358 0 -804.17116404216358 878.00229010169278 0 0 0 0 1103.5495765478991 -1071.9420678435126 0 -1071.9420678435126 867.56534409791948 0 0 0 0 1166.1011081071192 -813.3427549145199 0 -813.3427549145199 873.79685410438105 0 0 0 0 1591.7825448849035 -1017.7137147283865 0 -1017.7137147283865 617.49525876759435 0 0 0 0 -12.33839250967867 -242.8319047572586 0 -242.8319047572586 392.47173932577789 0 0 0 0 961.94596103079675 -410.01523012709004 0 -410.01523012709004 254.69105197128374 0 0 0 0 746.01353284645302 -498.02151188426797 0 -498.02151188426797 520.84953599792243 0 0 0 0 1200.219335644535 -1028.3617271091134 0 -1028.3617271091134 500.88202043604542 0 0 0 0 1181.2554903688433 -1120.4267642809427 0 -1120.4267642809427 622.12374691900914 0 0 0 0 1076.4582505816215 -1051.5323820800986 0 -1051.5323820800986 645.70661951420698 0 0 0 0 1180.1611579837336 -978.34721894183895 0 -978.34721894183895 657.40441552648554 0 0 0 0 243.39324483543169 -593.43231160875803 0 -593.43231160875803 724.33181658577814 0 0 0 0 689.34599922291818 -331.43663391479276 0 -331.43663391479276 -19.030903058548574 0 0 0 0 21.002221443396195 -6.2444096474988271 0 -6.2444096474988271 -4.8096881469585213 0 0 0 0 -0.29589073652249454 -4.7421070839343855 0 -4.7421070839343855 -3.7174820320779531 0 0 0 0 -37.520487962930929 142.03498209334794 0 142.03498209334794 -422.96877381607192 0 0 0 0 -0.35491962357670559 -11.126679413792914 0 -11.126679413792914 -12.105028790602859 0 0 0 0 579.29312458426284 287.91665889006981 0 287.91665889006981 -931.71286449448962 0 0 0 0 1132.3439754976607 -1132.6653128374455 0 -1132.6653128374455 1206.7747716454614 0 0 0 0 1127.5089903615008 -1232.8588576120237 0 -1232.8588576120237 746.22722227303893 0 0 0 0 1082.0438863333984 -1141.2768931994651 0 -1141.2768931994651 591.49787552320413 0 0 0 0 1173.4694734130171 -1082.1621870606614 0 -1082.1621870606614 569.97405437429552 0 0 0 0 947.71158169848059 -1417.1341134313479 0 -1417.1341134313479 1586.482231752947 0 0 0 0 1646.0244502863425 -1202.6983911311982 0 -1202.6983911311982 732.24113593207585 0 0 0 0 1591.7892284322879 -845.94971299971803 0 -845.94971299971803 459.7649670644023 0 0 0 0 624.45896192255896 -747.34519148885738 0 -747.34519148885738 1013.6366361969704 0 0 0 0 418.72664792340947 -577.86173345311545 0 -577.86173345311545 636.28870561480653 0 0 0 0 -4.7429565880149482 -12.049399135768553 0 -12.049399135768553 -10.187769851395046 0 0 0 0 411.32461978090578 -596.57469627066166 0 -596.57469627066166 813.63678548534881 0 0 0 0 -365.04399580878089 18.3402499336662 0 18.3402499336662 -356.2443448748636 0 0 0 0 268.60728199967707 -463.25379607982904 0 -463.25379607982904 714.13278543189517 0 0 0 0 371.88482279000164 -420.71448644931661 0 -420.71448644931661 807.65282155279283 0 0 0 0 383.25298412943084 -406.40104632284783 0 -406.40104632284783 695.12712253544669 0 0 0 0 517.45439289306523 -894.42933183691639 0 -894.42933183691639 1128.6814013868861 0 0 0 0 672.81122915426749 -510.40764498701174 0 -510.40764498701174 1014.2943617205019 0 0 0 0 406.21366951894015 -609.58618550526444 0 -609.58618550526444 982.61387698107865 0 0 0 0 732.99855917690729 -750.09580985268985 0 -750.09580985268985 944.33242209191667 0 0 0 0 262.02746128538274 -693.10849486234656 0 -693.10849486234656 1328.4368157515491 0 0 0 0 242.92929475205892 -598.58029765306856 0 -598.58029765306856 861.49776478411513 0 0 0 0 252.4928328139431 -539.20572990678193 0 -539.20572990678193 968.24179722499684 0 0 0 0 369.5830851738574 -459.17921117745573 0 -459.17921117745573 929.62221785551083 0 0 0 0 332.10574244879535 -644.00240624361322 0 -644.00240624361322 1014.7921767833468 0 0 0 0 423.65171276775072 -488.71661577510531 0 -488.71661577510531 1226.2636407064565 0 0 0 0 243.26470920962311 -684.41995327961195 0 -684.41995327961195 807.56071958082612 0 0 0 0 318.31825676400331 -809.66029219262418 0 -809.66029219262418 991.15832981361018 0 0 0 0 -0.46771263591941192 -4.2705318042791305 0 -4.2705318042791305 -3.6727512507804079 0 0 0 0 519.53441003098851 841.8626147761679 0 841.8626147761679 408.51813840208342 0 0 0 0 482.9213689127937 -1059.998818660024 0 -1059.998818660024 619.13889590190956 0 0 0 0 336.34822240620269 -1053.2022448856442 0 -1053.2022448856442 1177.7198616953028 0 0 0 0 222.08614038393716 -402.18273379516904 0 -402.18273379516904 698.00962430716027 0 0 0 0 -10.192541874786173 -15.267599232630516 0 -15.267599232630516 -11.670098202953369 0 0 0 0 -313.75356605698471 -1735.0321569194784 0 -1735.0321569194784 -383.40693253601785 0 0 0 0 721.34041890896333 -937.58587080075085 0 -937.58587080075085 230.93933327839477 0 0 0 0 408.2211701925844 -514.86615210043965 0 -514.86615210043965 334.86304086312884 0 0 0 0 472.83218434557784 -1008.4825145199429 0 -1008.4825145199429 358.74270298980991 0 0 0 0 347.14474143012194 -831.29182608690462 0 -831.29182608690462 478.6444184211141 0 0 0 0 364.89014604082331 -910.93201647611568 0 -910.93201647611568 835.81299807102187 0 0 0 0 417.79903290743823 -755.48934192722663 0 -755.48934192722663 559.94109822408063 0 0 0 0 1024.1984212990792 -364.55518583618687 0 -364.55518583618687 200.14887922319031 0 0 0 0 134.88745411064883 -382.69630717037944 0 -382.69630717037944 293.54095579285058 0 0 0 0 162.86796389234951 -372.64723585153115 0 -372.64723585153115 167.0199856365798 0 0 0 0 -134.37321635225089 -88.423323796960176 0 -88.423323796960176 251.94139729753806 0 0 0 0 -28.738936364417896 -302.93065632195794 0 -302.93065632195794 457.47232867465937 0 0 0 0 28.393320299306652 -267.06743218102201 0 -267.06743218102201 382.05534513448947 0 0 0 0 -144.6692354088882 -103.74165250442456 0 -103.74165250442456 410.99711670797478 0 0 0 0 -293.31430627701229 -193.89061717195909 0 -193.89061717195909 306.68248566647526 0 0 0 0 -348.53961050136422 19.411616103854612 0 19.411616103854612 365.8483449781379 0 0 0 0 276.95058987753873 -697.0605010218278 0 -697.0605010218278 747.37897585015162 0 0 0 0 203.92225656437222 -569.64676817716099 0 -569.64676817716099 525.64294979316037 0 0 0 0 86.269053386553423 -293.15479273433448 0 -293.15479273433448 342.48283632968287 0 0 0 0 291.18382154466235 -481.63525489604217 0 -481.63525489604217 491.68251094594598 0 0 0 0 10.39659419840973 -317.56946720346241 0 -317.56946720346241 526.58476726902882 0 0 0 0 112.86131416755961 -345.75729722641699 0 -345.75729722641699 488.62803929846268 0 0 0 0 156.59634003322572 -451.19620660091459 0 -451.19620660091459 681.77509189224656 0 0 0 0 114.04665585880866 -458.36209227636573 0 -458.36209227636573 705.18092110968428 0 0 0 0 52.522270732806646 -286.56161069254449 0 -286.56161069254449 604.1124310575542 0 0 0 0 32.04885732542607 -311.06565421106643 0 -311.06565421106643 575.6094466256327 0 0 0 0 -46.008966216882982 -170.11171020258189 0 -170.11171020258189 433.35809294419596 0 0 0 0 -78.28584447762114 -232.97305898591003 0 -232.97305898591003 591.18677523068618 0 0 0 0 -104.19758774572983 -191.95584648870863 0 -191.95584648870863 479.95540528840502 0 0 0 0 -88.762610385310836 -159.73443427274469 0 -159.73443427274469 541.04691708738756 0 0 0 0 24.971528816429782 -306.6143689889941 0 -306.6143689889941 568.1792833127256 0 0 0 0 -228.20887147716712 -50.59478799412318 0 -50.59478799412318 376.48153443462797 0 0 0 0 -248.95421865451499 -111.29941523190064 0 -111.29941523190064 489.42887711175717 0 0 0 0 -168.34992457136104 -170.91575534116419 0 -170.91575534116419 503.78149896379909 0 0 0 0 -250.61373084332445 -69.171624574009911 0 -69.171624574009911 483.22370374505408 0 0 0 0 -297.2514034959022 -86.663284354523057 0 -86.663284354523057 500.19455051817204 0 0 0 0 -398.040719157696 27.261309693625662 0 27.261309693625662 457.57305778899172 0 0 0 0 -329.85027207994426 9.77656712047974 0 9.77656712047974 453.81335130688967 0 0 0 0 -444.82921696107951 2.0361684574309038 0 2.0361684574309038 491.65500753297238 0 0 0 0 -471.4744667991763 80.615937494279933 0 80.615937494279933 457.95841666192428 0 0 0 0 -386.35220639209729 43.303061999424244 0 43.303061999424244 462.60547668702202 0 0 0 0 -382.09846766915871 -6.1838580604817253 0 -6.1838580604817253 477.27621464368713 0 0 0 0 -545.97083406837191 -39.182901220716303 0 -39.182901220716303 474.28820459268172 0 0 0 0 -405.76151540855062 -33.999083528164192 0 -33.999083528164192 491.32568335076212 0 0 0 0 -415.0689155049331 -154.81175015673216 0 -154.81175015673216 337.55347653530771 0 0 0 0 -412.73811574182764 -132.63024397251138 0 -132.63024397251138 417.95312295178883 0 0 0 0 -558.64574244321557 -36.55687841254985 0 -36.55687841254985 474.28741723315034 0 0 0 0 -597.29257178923581 -94.765725836936326 0 -94.765725836936326 388.94836152077187 0 0 0 0 -680.37781414568599 13.402169540247996 0 13.402169540247996 503.64535472082207 0 0 0 0 -501.70982156108948 31.141730198956793 0 31.141730198956793 478.18180356797529 0 0 0 0 -35.708944125333801 -137.07282336350181 0 -137.07282336350181 513.22812373397755 0 0 0 0 -86.774746004419285 -223.46413236713852 0 -223.46413236713852 377.35293501627166 0 0 0 0 -236.73419491735694 -95.80479252137593 0 -95.80479252137593 487.36912796398337 0 0 0 0 -261.73019991539331 -140.08587246759271 0 -140.08587246759271 409.05861227313289 0 0 0 0 -167.80629678776313 -204.75425527598418 0 -204.75425527598418 178.43112177034891 0 0 0 0 -179.58115857304074 -134.39152513015142 0 -134.39152513015142 268.67797449772479 0 0 0 0 -78.258015286424779 -75.09486461088818 0 -75.09486461088818 358.23030661206576 0 0 0 0 39.895793829869945 -72.536841132096015 0 -72.536841132096015 422.65173135322402 0 0 0 0 7.7087372938258341 -182.90776471044228 0 -182.90776471044228 224.65358503167408 0 0 0 0 53.266436797464848 -290.13240176469844 0 -290.13240176469844 554.0046637120322 0 0 0 0 185.629773250781 -406.0548127306829 0 -406.0548127306829 763.91910028994607 0 0 0 0 80.192953270652652 -215.60995988352806 0 -215.60995988352806 619.3012197293283 0 0 0 0 202.54700176000188 -328.49653149237565 0 -328.49653149237565 658.69318692728848 0 0 0 0 2.6305030877774698 -381.28836962955756 0 -381.28836962955756 962.58124867192237 0 0 0 0 99.831564206106123 -200.2871775591484 0 -200.2871775591484 631.20807841443457 0 0 0 0 255.34900851150724 -398.81038205875166 0 -398.81038205875166 745.60715492122108 0 0 0 0 364.82483347988455 -676.54259906614607 0 -676.54259906614607 984.93870784885257 0 0 0 0 238.67741784166719 -617.1003705268231 0 -617.1003705268231 998.25870936104911 0 0 0 0 446.99914930190425 -784.48265533798258 0 -784.48265533798258 1039.8196408486274 0 0 0 0 439.37665031611232 -673.39298020870365 0 -673.39298020870365 923.50412722752662 0 0 0 0 471.98593322844863 -528.32899397650544 0 -528.32899397650544 860.94391839101445 0 0 0 0 307.08802909438964 -549.46048094582511 0 -549.46048094582511 897.33510988640774 0 0 0 0 434.79050425824244 -740.92164848381071 0 -740.92164848381071 1004.8520007252228 0 0 0 0 246.687716967499 -355.60272945108591 0 -355.60272945108591 746.19097985055123 0 0 0 0 271.78524692617066 -534.21080119376711 0 -534.21080119376711 872.52735115023097 0 0 0 0 188.53631920114276 -375.15549990358704 0 -375.15549990358704 756.67201619926345 0 0 0 0 133.60022194047633 -427.49654458364239 0 -427.49654458364239 706.99858633801341 0 0 0 0 78.313904686452588 -246.23003298608819 0 -246.23003298608819 636.5285977421081 0 0 0 0 162.12893956085463 -409.13243091613913 0 -409.13243091613913 716.83575881950674 0 0 0 0 110.27430739262491 -229.28702872761642 0 -229.28702872761642 618.26309084938839 0 0 0 0 -0.22754600776534062 -1677.278630676934 0 -1677.278630676934 372.76244807224339 0 0 0 0 -4.3830206474331703 -5.8645029072244483 0 -5.8645029072244483 -3.3174285688859975 0 0 0 0 614.00798270822634 -646.7112833516203 0 -646.7112833516203 -1504.4868477225536 0 0 0 0 539.8736130472098 -284.68630529315851 0 -284.68630529315851 -1371.0371828925126 0 0 0 0 -72.594630806215719 -1866.154580674176 0 -1866.154580674176 -436.20675993472105 0 0 0 0 -68.348417743880418 -1510.3295951843029 0 -1510.3295951843029 -4142.7588645427159 0 0 0 0 -1367.4331728715915 -2569.7302117318832 0 -2569.7302117318832 -2.179344129654055 0 0 0 0 1.0233927376585188 -2716.3059395556611 0 -2716.3059395556611 -2096.8722403485008 0 0 0 0 -219.82479512199643 -920.53390025658882 0 -920.53390025658882 220.09738989395555 0 0 0 0 -6.4902464362033925 -3.698453653724215 0 -3.698453653724215 1.263631649131014 0 0 0 0 -898.57066163397394 -1789.546578767935 0 -1789.546578767935 -2739.9686005896583 0 0 0 0 -255.23709465451248 -680.62368928599608 0 -680.62368928599608 -928.73999006449594 0 0 0 0 -12.535384047997809 -5.8863430493707369 0 -5.8863430493707369 3.1427676142591565 0 0 0 0 -991.51513716849513 -1676.8902393681947 0 -1676.8902393681947 -1322.0454549654823 0 0 0 0 -1344.0704455622908 -858.41324837098364 0 -858.41324837098364 -1404.9800190526694 0 0 0 0 -810.94953241213807 -1358.5594220081257 0 -1358.5594220081257 -1678.5063141747014 0 0 0 0 -1931.4525832668878 -1235.3347786856611 0 -1235.3347786856611 -737.85723366096499 0 0 0 0 -2507.0970165195613 -764.04502122660051 0 -764.04502122660051 2467.7696844236489 0 0 0 0 -2754.6395437895262 -911.54598126362544 0 -911.54598126362544 648.2011410286068 0 0 0 0 -3585.1983759335417 -1935.6982818776451 0 -1935.6982818776451 1369.9047477827989 0 0 0 0 -1240.6306137592474 -1487.7574410967063 0 -1487.7574410967063 -889.33123024255474 0 0 0 0 -1251.2381818724716 -1448.0638819926426 0 -1448.0638819926426 -207.76223218784435 0 0 0 0 231.84372519729368 -1471.3860763642733 0 -1471.3860763642733 -1357.6237021617417 0 0 0 0 515.2751189913979 -512.68004034981277 0 -512.68004034981277 287.51367399678566 0 0 0 0 -378.85065957764164 -425.15953408746282 0 -425.15953408746282 -814.63976231006291 0 0 0 0 -12.06193768445155 -10.59072419036832 0 -10.59072419036832 -1.2971012534360717 0 0 0 0 -234.60572488271282 -504.22712485945522 0 -504.22712485945522 -1348.0939068356965 0 0 0 0 -7.717590032334158 -5.1074645711125299 0 -5.1074645711125299 -0.048055893091087043 0 0 0 0 -1417.0290168090578 -1745.1835118644813 0 -1745.1835118644813 -2608.9589428754116 0 0 0 0 10.787255681621962 -22.725965873587143 0 -22.725965873587143 -60.254109698349055 0 0 0 0 100.07408841310826 -232.57663256779779 0 -232.57663256779779 280.6787482000218 0 0 0 0 -1906.9662279897602 -1598.0876024673489 0 -1598.0876024673489 -953.33436976600206 0 0 0 0 -881.50289497688937 37.911678366894193 0 37.911678366894193 -1144.8208625136831 0 0 0 0 179.57779947668314 -210.35556366059791 0 -210.35556366059791 251.08272069966188 0 0 0 0 94.241717264885665 -28.143405719725706 0 -28.143405719725706 224.49806102082221 0 0 0 0 209.94762595536304 -412.77324956509983 0 -412.77324956509983 616.76000028032286 0 0 0 0 114.53244863555301 -631.81694969831733 0 -631.81694969831733 375.50047659606207 0 0 0 0 420.22346526348792 -624.88480807425776 0 -624.88480807425776 266.58910144478432 0 0 0 0 -4.1199456326339519 -7.0874283237469342 0 -7.0874283237469342 -21.787845779122108 0 0 0 0 1633.9906754813055 -683.75667212865665 0 -683.75667212865665 -674.32886991307896 0 0 0 0 -5877.4949489552528 -1695.8556860543977 0 -1695.8556860543977 897.74182173007284 0 0 0 0 455.48395511367562 -342.4596513518627 0 -342.4596513518627 289.00767098114011 0 0 0 0 -3509.5340447885101 -793.63988886331208 0 -793.63988886331208 -267.99065156540019 0 0 0 0 -839.85172809097276 -568.11091639252118 0 -568.11091639252118 -1.4628438066138187 0 0 0 0 -2427.7500800304479 -2713.8887184621253 0 -2713.8887184621253 -2459.8554818707926 0 0 0 0 -4664.3265577757338 -2778.6611360106763 0 -2778.6611360106763 -526.60018856245733 0 0 0 0 -697.68466295745748 -1304.9890864113404 0 -1304.9890864113404 -2610.9040536541906 0 0 0 0 -1744.7297619131023 -2285.5005311930981 0 -2285.5005311930981 -2687.4184957886173 0 0 0 0 -9.814496357230837 -5.8481644897345575 0 -5.8481644897345575 2.1996930526653102 0 0 0 0 -693.91310207069364 -1625.3822911547941 0 -1625.3822911547941 -98.09640166418103 0 0 0 0 -1138.4950651204417 -3154.69548437509 0 -3154.69548437509 -1503.2623762373114 0 0 0 0 891.84909904163214 -1451.3939856552242 0 -1451.3939856552242 -1468.3375852706668 0 0 0 0 95.386044867998862 -1043.3507840570855 0 -1043.3507840570855 129.97442877858703 0 0 0 0 644.70320232414815 -979.41563625167328 0 -979.41563625167328 -707.61097919450549 0 0 0 0 621.53202320430864 -1074.0480776797631 0 -1074.0480776797631 145.08967593693524 0 0 0 0 341.2978004252509 -1127.1564739163732 0 -1127.1564739163732 -7.4252868031180697 0 0 0 0 684.43630673982261 -1312.1371220701985 0 -1312.1371220701985 -299.50674653951137 0 0 0 0 1035.4600297493598 -938.95365466255316 0 -938.95365466255316 1.4907945498853223 0 0 0 0 1695.0995665538503 -952.50854465494922 0 -952.50854465494922 -136.93372525537961 0 0 0 0 1273.665731695146 -1024.3407124175574 0 -1024.3407124175574 -394.07409630090115 0 0 0 0 1092.064574773096 -919.60318042457948 0 -919.60318042457948 -138.25729511385725 0 0 0 0 1954.4699665979279 -1523.0332993655757 0 -1523.0332993655757 712.09785751311574 0 0 0 0 1156.1983759864088 -988.9779535773705 0 -988.9779535773705 355.67276478165877 0 0 0 0 1120.6555785069922 -1293.0515226670423 0 -1293.0515226670423 241.15133199839329 0 0 0 0 420.22327634529211 -784.73937758074317 0 -784.73937758074317 748.6803447183338 0 0 0 0 226.62410637228459 -911.52704869634908 0 -911.52704869634908 1066.3390054925403 0 0 0 0 -142.22350760741392 -31.853445844302769 0 -31.853445844302769 833.36103190014182 0 0 0 0 -65.839195765525801 -370.11551961751684 0 -370.11551961751684 2080.0388535270249 0 0 0 0 2154.1276065910279 -2169.9500138202638 0 -2169.9500138202638 2065.1270961664268 0 0 0 0 429.33011952976813 -1105.4579756245148 0 -1105.4579756245148 2965.1781133924887 0 0 0 0 33.797507457372944 -9.5265514697988749 0 -9.5265514697988749 6.0993694641894223 0 0 0 0 1073.8935519108636 -1222.5885433406656 0 -1222.5885433406656 1423.152104807552 0 0 0 0 1093.7429796576034 -1261.4754706856038 0 -1261.4754706856038 1045.3341933304037 0 0 0 0 1544.4303775674925 -613.83164174867125 0 -613.83164174867125 -1086.499439373205 0 0 0 0 683.02019226853736 -210.0606367116925 0 -210.0606367116925 351.78393229799985 0 0 0 0 2197.0527152304057 -1074.3684028874013 0 -1074.3684028874013 -441.82077551490511 0 0 0 0 -386.97459985486421 -347.42112079498656 0 -347.42112079498656 48.139986581736594 0 0 0 0 -205.11337146946607 329.82165754919697 0 329.82165754919697 -219.59682620181775 0 0 0 0 654.65808460228436 -346.37948629131279 0 -346.37948629131279 181.43914920940006 0 0 0 0 371.23580968512397 101.11741401944164 0 101.11741401944164 71.223594897566727 0 0 0 0 1241.4451205312707 -493.31937376356655 0 -493.31937376356655 166.94593410717789 0 0 0 0 429.36428253707709 -393.32515821086417 0 -393.32515821086417 548.57163725201099 0 0 0 0 219.28885398390594 206.96133371968426 0 206.96133371968426 -153.92694422291243 0 0 0 0 14.738496698005918 -3.9095712606434745 0 -3.9095712606434745 -3.6795059336471496 0 0 0 0 0.97648701260550297 -64.685807451693108 0 -64.685807451693108 -126.15579674745095 0 0 0 0 25.495699870341923 -103.06811245839344 0 -103.06811245839344 -400.96550925575866 0 0 0 0 -97.050280413553992 1.081003288652937 0 1.081003288652937 102.55815739775426 0 0 0 0 -96.341143425182963 -14.861386287419009 0 -14.861386287419009 214.76966831030586 0 0 0 0 -116.2673454463802 -49.123318071819085 0 -49.123318071819085 -9.4131980401143664 0 0 0 0 14.464714279031 -25.828088236252682 0 -25.828088236252682 -10.722106087350426 0 0 0 0 14.081325998762622 -94.491910829179687 0 -94.491910829179687 -62.282669156731572 0 0 0 0 104.56334854749002 -87.717050499435572 0 -87.717050499435572 -85.141054094419815 0 0 0 0 -7.2852760792966764 -94.154418289806557 0 -94.154418289806557 -18.609301900009996 0 0 0 0 387.95340793871583 -224.80906322522605 0 -224.80906322522605 -177.46737832613871 0 0 0 0 425.80081380464253 -233.79040454549613 0 -233.79040454549613 -476.68006809036888 0 0 0 0 155.58812648519961 -61.989471589396999 0 -61.989471589396999 -98.978929721110035 0 0 0 0 -128.10434593277887 -288.27677714963971 0 -288.27677714963971 -184.68612761775148 0 0 0 0 9.556307060654909 -95.351864180289411 0 -95.351864180289411 -38.235464126876764 0 0 0 0 28.118065416687159 -53.878237067188152 0 -53.878237067188152 -21.464250108808756 0 0 0 0 -199.26320100121666 -189.22344229296141 0 -189.22344229296141 731.16457662818721 0 0 0 0 -52.501397521292972 -104.79101666566788 0 -104.79101666566788 38.692339376328164 0 0 0 0 7.8817739397806461 -95.168425609205372 0 -95.168425609205372 -33.020768081018105 0 0 0 0 -212.83486741631242 -121.37751526392339 0 -121.37751526392339 7.1667926328518661 0 0 0 0 -589.77290738842566 70.333962576114573 0 70.333962576114573 -39.871524923782999 0 0 0 0 59.553303312357457 -131.5074615878475 0 -131.5074615878475 -119.5813117914804 0 0 0 0 -208.28478587941208 -96.808270034816815 0 -96.808270034816815 206.00231767055084 0 0 0 0 -200.56520590816217 -188.95562555444485 0 -188.95562555444485 -6.5130142762354808 0 0 0 0 -84.28279369934171 -350.15150575732696 0 -350.15150575732696 -354.3787401883892 0 0 0 0 226.15721917246992 -227.4384544135828 0 -227.4384544135828 19.857142575201578 0 0 0 0 83.253411039030482 -41.028454701941513 0 -41.028454701941513 -4.5655369434957151 0 0 0 0 -19.87807449365755 -15.793119726369582 0 -15.793119726369582 -10.573979694316492 0 0 0 0 -1896.8293048540945 -1259.2674314344331 0 -1259.2674314344331 -550.40123608395515 0 0 0 0 -902.96114081973792 420.25379285190138 0 420.25379285190138 -172.9496776452761 0 0 0 0 -2028.9657646099222 -919.41365104054785 0 -919.41365104054785 -1218.4477266798931 0 0 0 0 -28.962184051619261 -217.5476432233263 0 -217.5476432233263 -1404.2563845969416 0 0 0 0 -1166.3149873475195 -1141.4299097700132 0 -1141.4299097700132 -325.6002693487826 0 0 0 0 -1775.5205526540594 -275.63816198206405 0 -275.63816198206405 485.39918021157791 0 0 0 0 -1027.1235730679036 -353.8112885395858 0 -353.8112885395858 548.65552656032378 0 0 0 0 -1066.5081259327999 -288.87493661361077 0 -288.87493661361077 443.18579405911441 0 0 0 0 -1438.5582833509543 -382.53054339496157 0 -382.53054339496157 548.00416499295397 0 0 0 0 -535.60517836798681 -1038.580917187337 0 -1038.580917187337 -555.37484858831158 0 0 0 0 468.05204582161241 -418.81478985345711 0 -418.81478985345711 -689.05863110069185 0 0 0 0 -1521.2781243428763 -980.23539067490492 0 -980.23539067490492 141.88058125391035 0 0 0 0 -7.1987626078030189 -7.7151965072835509 0 -7.7151965072835509 -3.7928817769385148 0 0 0 0 -1074.6387960261272 -61.831061781862445 0 -61.831061781862445 483.80027995560522 0 0 0 0 -741.87144820218964 -48.838852285520261 0 -48.838852285520261 436.35451866668882 0 0 0 0 168.57423323560215 -384.02489099343074 0 -384.02489099343074 -44.090770777649595 0 0 0 0 387.7789575689967 -505.99743847463105 0 -505.99743847463105 215.70908873040753 0 0 0 0 -10.008971481021291 -13.503594706159703 0 -13.503594706159703 -11.192166138584639 0 0 0 0 151.50285870335938 -174.21359864371698 0 -174.21359864371698 34.217856625826244 0 0 0 0 190.39955633823411 -487.08899650852982 0 -487.08899650852982 255.58844198977022 0 0 0 0 -0.33877194770320784 -379.10745808175852 0 -379.10745808175852 326.99084967159433 0 0 0 0 311.69159425681573 -264.57657911013666 0 -264.57657911013666 264.39208192841033 0 0 0 0 0.58901820930623217 -175.58766850870597 0 -175.58766850870597 240.72796671393007 0 0 0 0 724.04499620833667 161.44528393343353 0 161.44528393343353 -443.25181339299161 0 0 0 0 271.93045482571324 -1097.4710670444074 0 -1097.4710670444074 503.76208604959538 0 0 0 0 148.93409420466196 -502.91560840901366 0 -502.91560840901366 -1210.4426881700783 0 0 0 0 -4.3968936080674723 -6.5294776439466489 0 -6.5294776439466489 -5.8376763525068895 0 0 0 0 1131.6209745412816 -413.8149001292968 0 -413.8149001292968 -1436.2251555448311 0 0 0 0 -135.50097049484611 -484.46341468657192 0 -484.46341468657192 53.372989106515888 0 0 0 0 -135.50097049481701 -484.4634146865501 0 -484.4634146865501 53.37298910647587 0 0 0 0 -135.50097049477336 -484.46341468656101 0 -484.46341468656101 53.372989106486784 0 0 0 0 -11.894281696710834 -2.2236286101781388 0 -2.2236286101781388 1.2091756953588657 0 0 0 0 -1.8819582304276992 -30.645928647987603 0 -30.645928647987603 -3.2384492522678556 0 0 0 0 3.264749738820683 -14.737998661405072 0 -14.737998661405072 -7.2466170353145571 0 0 0 0 -13.583785357252054 -11.70403712006555 0 -11.70403712006555 -7.3316921198565979 0 0 0 0 -7.355070328048896 -28.241543148506025 0 -28.241543148506025 -3.5276031527118903 0 0 0 0 11.230763833012247 -0.87993171557999972 0 -0.87993171557999972 -4.45267518318893 0 0 0 0 106.37665493917302 -571.77473010630638 0 -571.77473010630638 -901.36930213114829 0 0 0 0 80.311356576363323 -548.29024352382476 0 -548.29024352382476 -908.43271054624347 0 0 0 0 27.762359120810288 -506.24896849439938 0 -506.24896849439938 -654.41873301294982 0 0 0 0 0.76401052907200429 -576.48208791251363 0 -576.48208791251363 -591.90495785991516 0 0 0 0 581.05647467619565 -820.96656021780473 0 -820.96656021780473 -831.87216572329635 0 0 0 0 6.4104345274245134 -419.46256371217532 0 -419.46256371217532 -911.26437659971293 0 0 0 0 -194.18271042834022 -807.05787735036574 0 -807.05787735036574 -531.38136421296804 0 0 0 0 5.6448998262460464 0.085352746271411206 0 0.085352746271411206 -3.0013139476383373 0 0 0 0 -102.46859991553356 -59.723460068955319 0 -59.723460068955319 -54.824812695253058 0 0 0 0 -627.37539007379382 -531.85796092237797 0 -531.85796092237797 -186.14829655988433 0 0 0 0 -650.13519894483034 -987.91828454263305 0 -987.91828454263305 -602.88643264935672 0 0 0 0 -1209.9733506219054 -686.53161565208211 0 -686.53161565208211 -212.73696214517986 0 0 0 0 -1183.9605907741934 -823.7477301169929 0 -823.7477301169929 -773.07709507891559 0 0 0 0 -0.45740102121819959 -5.0962569473965686 0 -5.0962569473965686 -7.5111453138615047 0 0 0 0 589.7266838006326 -155.03867364843973 0 -155.03867364843973 -248.57240653882036 0 0 0 0 -383.78628838222357 146.87037015408714 0 146.87037015408714 -53.029583330062451 0 0 0 0 401.64418120936716 -55.269575331714123 0 -55.269575331714123 -26.651716435313574 0 0 0 0 -0.0522241372478085 -7.8415724770659949 0 -7.8415724770659949 -19.060649183829668 0 0 0 0 -175.17339211111539 -32.273556390649901 0 -32.273556390649901 75.496038555837004 0 0 0 0 -142.64115973750449 -21.04593639198356 0 -21.04593639198356 -42.003345994729898 0 0 0 0 -67.126377476495691 -62.528402419840859 0 -62.528402419840859 -54.768563651273212 0 0 0 0 -84.475945959537057 -19.397987140611804 0 -19.397987140611804 -42.130716450878026 0 0 0 0 -102.16602590812545 -4.3370016065164236 0 -4.3370016065164236 36.832060939712392 0 0 0 0 -0.35089909176589895 -8.2897800134187207 0 -8.2897800134187207 -27.253606848097519 0 0 0 0 -177.6282725011115 0.92274314128007973 0 0.92274314128007973 117.01140986615337 0 0 0 0 -62.684157493451494 -75.842672871174727 0 -75.842672871174727 28.750337393576046 0 0 0 0 268.98587625867549 -56.097080582552053 0 -56.097080582552053 -22.645806185435504 0 0 0 0 -146.3027095295256 -42.717306820111844 0 -42.717306820111844 114.66522630359395 0 0 0 0 274.04800349153811 -58.913504981988808 0 -58.913504981988808 -30.87789788578084 0 0 0 0 142.1790153789334 -47.364775218949944 0 -47.364775218949944 -31.540363564950894 0 0 0 0 -146.46893532259855 -100.30508763820399 0 -100.30508763820399 56.623269829389756 0 0 0 0 -92.020801747537917 -134.60842999597662 0 -134.60842999597662 -24.709996168048747 0 0 0 0 -140.12952722833143 -106.80309485286125 0 -106.80309485286125 -30.2645794323671 0 0 0 0 -133.95042954436212 -165.01046628272161 0 -165.01046628272161 6.4348416705033742 0 0 0 0 -89.090644628780865 -154.86038286264738 0 -154.86038286264738 -13.279252368185553 0 0 0 0 -69.904194799200923 -179.18139882326068 0 -179.18139882326068 4.8606197378685465 0 0 0 0 278.01727181708304 -54.144081099312075 0 -54.144081099312075 -25.153278540878091 0 0 0 0 -76.777259409231192 -148.11935444634219 0 -148.11935444634219 -15.105489247551304 0 0 0 0 0.29558081487184795 -89.832419369967326 0 -89.832419369967326 -28.073151525820947 0 0 0 0 272.45208760202513 -51.203836141612555 0 -51.203836141612555 -15.947723075631075 0 0 0 0 91.415815462635209 -153.06761213106142 0 -153.06761213106142 -60.862478490395006 0 0 0 0 0.65773222702111434 -90.730068103252535 0 -90.730068103252535 -24.442759639408848 0 0 0 0 431.43440649329568 -3.5327721999419737 0 -3.5327721999419737 55.40734477902879 0 0 0 0 418.32551567911287 -56.687040928991337 0 -56.687040928991337 111.56973617884796 0 0 0 0 98.081763825219241 -43.790865590068279 0 -43.790865590068279 -55.153908736378071 0 0 0 0 26.017426885911846 -152.69075149598939 0 -152.69075149598939 -25.884027442720253 0 0 0 0 -26.338268619477276 -215.80998483243002 0 -215.80998483243002 -40.358437098751892 0 0 0 0 -43.063994961834396 -134.9041619123891 0 -134.9041619123891 -10.411642107491389 0 0 0 0 -31.459902299429814 -240.51308329257881 0 -240.51308329257881 -66.65806572605652 0 0 0 0 34.628251154521422 -171.14091180773266 0 -171.14091180773266 -179.76983796262357 0 0 0 0 16.662461608841113 -198.79333298873098 0 -198.79333298873098 -218.26335096683033 0 0 0 0 -62.042791684194526 -437.49131814922293 0 -437.49131814922293 -79.823436134254734 0 0 0 0 -31.624055732488614 -247.98588614449613 0 -247.98588614449613 -254.34252398891113 0 0 0 0 -185.7589599283092 -311.55926479783375 0 -311.55926479783375 65.631880602275487 0 0 0 0 -136.48188729261165 -238.86496500499197 0 -238.86496500499197 -26.066065998515114 0 0 0 0 -151.99065412218624 -259.91728473726107 0 -259.91728473726107 62.465376748514245 0 0 0 0 -291.87506588988617 -215.2966130796267 0 -215.2966130796267 90.071041223036445 0 0 0 0 -195.43662826590298 -131.75446959928013 0 -131.75446959928013 37.062776705199212 0 0 0 0 -233.99782485402829 -257.45390756558481 0 -257.45390756558481 41.619540514409891 0 0 0 0 -133.76223959877098 -362.36115813492142 0 -362.36115813492142 113.73437461089634 0 0 0 0 -262.35515396338087 -262.5080800548094 0 -262.5080800548094 220.72753929026658 0 0 0 0 -302.01525452351234 -38.783318470584163 0 -38.783318470584163 342.05862522263487 0 0 0 0 -292.70713847415755 -112.44146815592103 0 -112.44146815592103 63.719928072851872 0 0 0 0 -11.710040064693032 -11.612356737994617 0 -11.612356737994617 -14.30665127470786 0 0 0 0 -388.35198276375013 -140.14501618534632 0 -140.14501618534632 125.0884897470969 0 0 0 0 -325.67588251302732 -198.89404423991073 0 -198.89404423991073 -127.82848056670628 0 0 0 0 -136.68831763833018 -74.594084906625667 0 -74.594084906625667 29.060696406445651 0 0 0 0 -360.51838675174076 19.562915358326791 0 19.562915358326791 101.33252381241618 0 0 0 0 -493.88151178526459 -8.0208547930742498 0 -8.0208547930742498 125.15450652685558 0 0 0 0 -3.3747358452166623 31.241475237815443 0 31.241475237815443 25.677700742473526 0 0 0 0 -303.23744568648817 -70.171590172457513 0 -70.171590172457513 118.94024144051946 0 0 0 0 -158.28876116859465 -38.327150975820587 0 -38.327150975820587 91.502520001173252 0 0 0 0 -279.35221708845347 -321.28110544457013 0 -321.28110544457013 64.227268172779077 0 0 0 0 -303.87564508637297 -59.272523698069563 0 -59.272523698069563 139.52819706433002 0 0 0 0 -492.17614362617314 -48.932782598860285 0 -48.932782598860285 154.26477860119485 0 0 0 0 -307.08464130452194 -11.038130398192152 0 -11.038130398192152 100.93688391175965 0 0 0 0 -296.48552150921023 -103.21198461107576 0 -103.21198461107576 88.937049841995758 0 0 0 0 -349.82113170568482 -32.892906863937242 0 -32.892906863937242 93.330468448613829 0 0 0 0 -384.32784875470679 -47.18950375303757 0 -47.18950375303757 109.52534458987793 0 0 0 0 -366.34519303291745 -67.854477973343819 0 -67.854477973343819 82.864259829650109 0 0 0 0 -468.5546919775079 -70.282377815648942 0 -70.282377815648942 83.883818162296848 0 0 0 0 -394.58722201894852 4.6793950609553576 0 4.6793950609553576 8.0231619384940132 0 0 0 0 -255.48217529148678 -40.980690903190407 0 -40.980690903190407 -9.5550106840637454 0 0 0 0 -313.19587305020104 7.210807311445933 0 7.210807311445933 47.444597618094122 0 0 0 0 -346.94163675663003 -47.5963763618347 0 -47.5963763618347 63.637107226044463 0 0 0 0 -335.43342510875664 -20.860587683539052 0 -20.860587683539052 69.034166925548561 0 0 0 0 -233.47676495088672 -4.0169063147204724 0 -4.0169063147204724 44.904991996780154 0 0 0 0 -286.06225625480874 -28.300558249444293 0 -28.300558249444293 93.029411209896352 0 0 0 0 -313.17903145088349 -46.668697171975509 0 -46.668697171975509 95.09507033573027 0 0 0 0 -348.47164214827353 -40.418480342964358 0 -40.418480342964358 133.57231760799186 0 0 0 0 -237.56246764383104 -70.15716498992515 0 -70.15716498992515 100.10414967952238 0 0 0 0 -191.48001340284827 -11.790502464842575 0 -11.790502464842575 74.290600439352602 0 0 0 0 -158.4354800182191 -49.251969602326426 0 -49.251969602326426 96.190464253762912 0 0 0 0 -169.10959054921113 6.7662600759249472 0 6.7662600759249472 54.902042641657317 0 0 0 0 -80.867424537776969 -22.216769476948684 0 -22.216769476948684 41.013467323413352 0 0 0 0 -193.40527017912245 -46.537198794310825 0 -46.537198794310825 65.486102279714032 0 0 0 0 -145.89379299108987 -26.383940578001784 0 -26.383940578001784 31.98844766008915 0 0 0 0 -88.173327646800317 22.994267656755255 0 22.994267656755255 22.33554771805575 0 0 0 0 -75.635638989508152 0.001965076746273553 0 0.001965076746273553 144.3321451421798 0 0 0 0 -21.16950133809587 -76.146401380217867 0 -76.146401380217867 -24.471840963800787 0 0 0 0 -8.5626280094733289 -8.7932016762735259 0 -8.7932016762735259 19.328274250413017 0 0 0 0 -42.020000206073746 -7.3784699106327025 0 -7.3784699106327025 46.885420714112115 0 0 0 0 5.6681225485954201 -38.49726117530372 0 -38.49726117530372 -31.771774920052849 0 0 0 0 -37.86553056644334 -7.8484186668483744 0 -7.8484186668483744 17.377971899375552 0 0 0 0 -23.585985861660447 -66.037765985180158 0 -66.037765985180158 -64.812120942602633 0 0 0 0 -5.8211458816626305 1.2883705182645073 0 1.2883705182645073 11.757088131841101 0 0 0 0 -82.240364967205096 -19.171593584431776 0 -19.171593584431776 85.750313137396006 0 0 0 0 -39.971115528140217 -56.314794750112924 0 -56.314794750112924 54.603983896930004 0 0 0 0 -23.976551474702774 -14.258685376275679 0 -14.258685376275679 42.360148418141989 0 0 0 0 -29.283926823263755 -19.39712308892922 0 -19.39712308892922 57.821709632287821 0 0 0 0 -2.4832836415561133 -5.7757687166387512 0 -5.7757687166387512 -1.0899965422751592 0 0 0 0 -49.08554733073106 -32.96054360200651 0 -32.96054360200651 105.26343852310674 0 0 0 0 4.4555072979419492 -100.88054655156884 0 -100.88054655156884 -130.78345091764641 0 0 0 0 -9.3060765686677769 -40.570978387084324 0 -40.570978387084324 -76.028053709756932 0 0 0 0 -44.92861299883225 -86.894342316918483 0 -86.894342316918483 -9.4874995203281287 0 0 0 0 36.860727011075426 -39.422617418774394 0 -39.422617418774394 -26.278660780545863 0 0 0 0 142.67740239048726 -61.540604627909488 0 -61.540604627909488 -37.308724054339109 0 0 0 0 -86.266592011677034 -54.296157748017635 0 -54.296157748017635 5.5632623663103971 0 0 0 0 -135.11143943876959 -108.81712485753815 0 -108.81712485753815 -51.23799125563437 0 0 0 0 -41.643394839682855 -52.921106385577161 0 -52.921106385577161 -14.134912730485667 0 0 0 0 -33.580273367944585 -31.947057286785906 0 -31.947057286785906 27.031816614197631 0 0 0 0 -30.232876201796785 -61.05993039117817 0 -61.05993039117817 -7.7666079616756178 0 0 0 0 -42.948423560420537 -32.462541466094336 0 -32.462541466094336 29.360125058792221 0 0 0 0 -63.666614736401243 15.428423628341989 0 15.428423628341989 83.975520366961291 0 0 0 0 -29.903972191574194 -52.012980708304525 0 -52.012980708304525 -23.371436244732564 0 0 0 0 -27.812749903758252 -41.247789533518755 0 -41.247789533518755 17.125424389915793 0 0 0 0 -188.24696095677791 -41.011126454737678 0 -41.011126454737678 135.12491120277991 0 0 0 0 -56.477214907325106 -59.352763167866215 0 -59.352763167866215 88.09076809965336 0 0 0 0 -71.245035707619365 -37.164618586179202 0 -37.164618586179202 20.24591913187864 0 0 0 0 -49.642337212280836 -3.1239659855200443 0 -3.1239659855200443 80.563039311578905 0 0 0 0 -77.472503712968745 -26.790693956038311 0 -26.790693956038311 38.970429892964532 0 0 0 0 -51.36467766619171 -56.437268478737678 0 -56.437268478737678 2.94547674448404 0 0 0 0 -78.166699713772687 -78.124232109344291 0 -78.124232109344291 -35.344772507472243 0 0 0 0 -111.17634756095846 -82.651209164203735 0 -82.651209164203735 -28.102634111099178 0 0 0 0 -111.12829621134006 -38.782418202266854 0 -38.782418202266854 44.457146276661661 0 0 0 0 -7.1984800552587291 -92.00999527226702 0 -92.00999527226702 -31.949201501918367 0 0 0 0 -174.44300764847236 -97.208227329234489 0 -97.208227329234489 0.92617175754276104 0 0 0 0 151.61652653569945 -54.167307836915882 0 -54.167307836915882 -38.699641623883508 0 0 0 0 -163.16237815241038 -82.628035406378331 0 -82.628035406378331 11.155957193201175 0 0 0 0 175.71279946310096 -31.602226860391966 0 -31.602226860391966 -421.65931133277627 0 0 0 0 132.17574840465386 -54.684798337595566 0 -54.684798337595566 -30.538499482208863 0 0 0 0 -251.53770240943413 -82.203579468521639 0 -82.203579468521639 281.12420504623151 0 0 0 0 4.4640660295218861 -11.767291137434739 0 -11.767291137434739 -34.202103658255368 0 0 0 0 -142.21908097737469 43.059270566409396 0 43.059270566409396 32.251284875032979 0 0 0 0 -5.875424166943958 0.13008192614804415 0 0.13008192614804415 1.0849411076478077 0 0 0 0 94.957380705280229 -144.70823450209718 0 -144.70823450209718 -249.81767391962785 0 0 0 0 2.3205235817754328 -10.919712801602486 0 -10.919712801602486 10.260648057177605 0 0 0 0 -0.52058271238786347 -2.5274521409081387 0 -2.5274521409081387 -0.78237539500983289 0 0 0 0 -8.2379914660829741 -0.96007817473233104 0 -0.96007817473233104 2.2045965533619949 0 0 0 0 2.3174384866185846 -11.151990010817087 0 -11.151990010817087 -7.2130781290616142 0 0 0 0 -15.744246817863313 -61.918548631689191 0 -61.918548631689191 -42.183348649879918 0 0 0 0 0.25278025704905449 -27.95497868285787 0 -27.95497868285787 0.91824956778319233 0 0 0 0 1.1188488545158179 -24.236191851654439 0 -24.236191851654439 6.3826432876303443 0 0 0 0 6.9785020623242531 -5.5590443172220461 0 -5.5590443172220461 -6.9252511774974117 0 0 0 0 -25.93487348780036 -123.99339491580031 0 -123.99339491580031 -65.18303002504399 0 0 0 0 -17.580682157509727 -55.382048555402434 0 -55.382048555402434 62.598669556697132 0 0 0 0 -11.733352799359636 -12.981887186836115 0 -12.981887186836115 0.87013748864698925 0 0 0 0 -42.623273500388677 -29.463593221493284 0 -29.463593221493284 43.328667808469618 0 0 0 0 -56.365335026305729 -32.426777997105489 0 -32.426777997105489 46.434558882581769 0 0 0 0 -5.4249393920932594 -28.870911044369763 0 -28.870911044369763 18.145099174288049 0 0 0 0 -11.773172037035692 -22.063953904202208 0 -22.063953904202208 14.293969351958367 0 0 0 0 -25.85697668355715 -77.399935350284977 0 -77.399935350284977 -65.971638476257795 0 0 0 0 -22.613460979787817 -30.193781867608436 0 -30.193781867608436 17.490811468778716 0 0 0 0 -4.9935412857817028 -19.611375706516071 0 -19.611375706516071 18.115040365112179 0 0 0 0 2.6182656457157556 -7.214089489379262 0 -7.214089489379262 14.353846463306553 0 0 0 0 -75.974386398127535 9.1162536175033893 0 9.1162536175033893 -2.572730302621494 0 0 0 0 15.766306223018205 -18.214330427232085 0 -18.214330427232085 18.695244249661641 0 0 0 0 -60.212550599710084 -101.20446767495741 0 -101.20446767495741 9.1852965606376529 0 0 0 0 -92.132921057214844 -7.7998458893271163 0 -7.7998458893271163 168.57660710505297 0 0 0 0 -32.715475750667792 -1.7068166386393386 0 -1.7068166386393386 54.938273476182076 0 0 0 0 -33.023895053047454 -5.0589031808085565 0 -5.0589031808085565 20.562108835889376 0 0 0 0 152.03572842106223 11.267670120843832 0 11.267670120843832 44.370737009974619 0 0 0 0 0.83812105795368552 -227.68459901605092 0 -227.68459901605092 217.49258545571502 0 0 0 0 236.76140703955571 -206.1152764114222 0 -206.1152764114222 102.16863743802969 0 0 0 0 26.396755700727226 -104.61222045645991 0 -104.61222045645991 68.800248674535396 0 0 0 0 0.032075481080710233 2.8417400869021066 0 2.8417400869021066 0.0058875731150820343 0 0 0 0 27.233536408879445 -84.653086980670196 0 -84.653086980670196 76.897420167413657 0 0 0 0 -0.12033426239213441 -94.670703297244472 0 -94.670703297244472 84.011844729800941 0 0 0 0 62.438392774696695 -92.491662325974175 0 -92.491662325974175 64.557108480592433 0 0 0 0 53.568265283931396 28.80294089076051 0 28.80294089076051 -10.757621814012964 0 0 0 0 77.062968508269137 141.16555910821063 0 141.16555910821063 -286.41582397813909 0 0 0 0 83.514828048282652 -118.60403675598354 0 -118.60403675598354 -159.86272545768588 0 0 0 0 0.044281781883910298 -15.911665253217507 0 -15.911665253217507 -3.8562493054441802 0 0 0 0 -4.7384450115420691 -0.42344758299082486 0 -0.42344758299082486 1.5270450845744961 0 0 0 0 264.69062185342773 -1007.1026022660808 0 -1007.1026022660808 -195.46587482289215 0 0 0 0 -226.15594289808359 -60.566950152871868 0 -60.566950152871868 -159.75883364686888 0 0 0 0 -908.19020381222072 -1306.559078117687 0 -1306.559078117687 -261.48514537930896 0 0 0 0 -244.92124632809282 -1767.9812789124917 0 -1767.9812789124917 24.191619418110349 0 0 0 0 136.38387746100489 -1710.5330705483284 0 -1710.5330705483284 -701.41549896238394 0 0 0 0 -1026.426694413989 -1280.866488858901 0 -1280.866488858901 914.9119469898942 0 0 0 0 -150.26896146054787 -1447.4041058644216 0 -1447.4041058644216 -1407.9090256673444 0 0 0 0 -285.06292423544801 -1536.8424503627539 0 -1536.8424503627539 -660.44987109044268 0 0 0 0 21.00246655207593 -1456.9967800385675 0 -1456.9967800385675 -1007.7644440159274 0 0 0 0 127.40972183334816 -901.98006683391395 0 -901.98006683391395 -785.84835262944398 0 0 0 0 -118.11094327689352 -1507.5608205263343 0 -1507.5608205263343 -2225.1204521702166 0 0 0 0 -1359.7337214211361 -1545.7448171519775 0 -1545.7448171519775 -1353.9958402886987 0 0 0 0 -628.98358013806137 -652.31432140968172 0 -652.31432140968172 1754.8851819381089 0 0 0 0 228.3519840468216 -86.41950329059182 0 -86.41950329059182 -2521.7332304393476 0 0 0 0 -6.8709463482351794 -6.892917268707194 0 -6.892917268707194 -5.1425601676223209 0 0 0 0 108.93047135773304 -125.70886997979869 0 -125.70886997979869 -302.95229594870762 0 0 0 0 110.01979115555878 -478.71552921636612 0 -478.71552921636612 7.2834280261831736 0 0 0 0 155.72737772489199 -385.13996032440627 0 -385.13996032440627 18.95945661458245 0 0 0 0 97.9374452123011 -394.54141434901976 0 -394.54141434901976 146.14403453212799 0 0 0 0 239.97055334557808 -273.25393969869037 0 -273.25393969869037 131.80713431950426 0 0 0 0 413.04858618261642 -555.43253382953117 0 -555.43253382953117 -296.91869280852552 0 0 0 0 423.12597490711778 -766.66006009636476 0 -766.66006009636476 -968.3431409756522 0 0 0 0 305.49525785113656 -768.09226379698521 0 -768.09226379698521 -226.52205364545807 0 0 0 0 423.69336686445877 -321.77830715342679 0 -321.77830715342679 -294.63427018543007 0 0 0 0 361.41429860785865 -907.32169853122832 0 -907.32169853122832 -453.82850931865687 0 0 0 0 433.54818665687344 -617.45708196425403 0 -617.45708196425403 -185.88144131278386 0 0 0 0 613.52095279969217 -704.65897617925657 0 -704.65897617925657 -143.92171944909933 0 0 0 0 336.12688843956857 -389.51934210398758 0 -389.51934210398758 326.11788520548726 0 0 0 0 411.68093211457381 -609.22761347575579 0 -609.22761347575579 282.61511224826972 0 0 0 0 601.79709405979747 -542.49638158957578 0 -542.49638158957578 342.5498093788774 0 0 0 0 1277.5965031577944 -802.34788481131545 0 -802.34788481131545 -359.02074046578491 0 0 0 0 1022.3286124793667 -488.58933539213831 0 -488.58933539213831 325.90214001497952 0 0 0 0 1069.2103152769887 -349.89971663058714 0 -349.89971663058714 -939.09026571067807 0 0 0 0 343.42453147761989 463.68749580303847 0 463.68749580303847 -1628.7048364544389 0 0 0 0 9.6929178373252398 -1.7454642631068822 0 -1.7454642631068822 -1.1744054321665942 0 0 0 0 593.10433710868529 37.75416613159905 0 37.75416613159905 -723.46200293339643 0 0 0 0 696.04304080920701 -412.8716870833523 0 -412.8716870833523 -449.07854036626668 0 0 0 0 126.79511044294486 -118.75059759801661 0 -118.75059759801661 -935.86790938035301 0 0 0 0 47.410165298430002 -307.79808036922532 0 -307.79808036922532 -431.57937935812515 0 0 0 0 223.92963325091841 -405.39015539982574 0 -405.39015539982574 -133.9349127572932 0 0 0 0 293.62089744596597 -401.37710376637551 0 -401.37710376637551 -426.71446093359441 0 0 0 0 -29.084545021458325 -522.10559450992514 0 -522.10559450992514 130.24916971044149 0 0 0 0 -129.84878942498472 -350.12888256509177 0 -350.12888256509177 151.8649700838796 0 0 0 0 689.68073472681863 -581.09835629611189 0 -581.09835629611189 -72.118363888032036 0 0 0 0 478.80850951073808 -442.83485084742279 0 -442.83485084742279 166.3373182505602 0 0 0 0 457.54275833249267 -933.94067599862319 0 -933.94067599862319 830.56937807196664 0 0 0 0 792.23784617050842 -829.84750869443087 0 -829.84750869443087 557.71154326110263 0 0 0 0 870.74975057554548 -615.30076838526293 0 -615.30076838526293 711.77915927840513 0 0 0 0 96.376737610695272 -725.06937896811723 0 -725.06937896811723 772.41872272084584 0 0 0 0 977.68373990838154 -325.53208015252312 0 -325.53208015252312 -470.41149458367727 0 0 0 0 671.70481058893347 -240.18162303256395 0 -240.18162303256395 -325.46260483455262 0 0 0 0 798.95112548625912 -491.47389833202033 0 -491.47389833202033 -300.05745498678516 0 0 0 0 976.66965862544021 -324.57985661295606 0 -324.57985661295606 -381.26192843835452 0 0 0 0 706.82383231613358 -238.34558764660505 0 -238.34558764660505 -161.59014909133839 0 0 0 0 979.4202073028282 -569.74503669074329 0 -569.74503669074329 8.9404361954439082 0 0 0 0 779.97587501037924 -336.40621533810554 0 -336.40621533810554 202.19923495015246 0 0 0 0 1025.6804025000456 -384.86704807296337 0 -384.86704807296337 184.38878108659992 0 0 0 0 1060.8303291323828 -778.12784853226913 0 -778.12784853226913 642.54297021400998 0 0 0 0 938.20130693158717 -893.88418363729579 0 -893.88418363729579 1543.4206551561365 0 0 0 0 1060.9112059004547 -387.05732934951084 0 -387.05732934951084 1146.9362471431668 0 0 0 0 1007.0639496389858 -456.48261303589697 0 -456.48261303589697 122.12291816604557 0 0 0 0 972.56801596125297 -1333.1684503758734 0 -1333.1684503758734 992.08435721822752 0 0 0 0 991.68013854977232 -655.42292383490576 0 -655.42292383490576 -720.85793302059756 0 0 0 0 1704.8109678848014 -64.853093487712613 0 -64.853093487712613 2122.3025021060457 0 0 0 0 463.89748305364628 -2611.4597190154382 0 -2611.4597190154382 1940.0570372048123 0 0 0 0 719.59019941926817 -804.00040520287439 0 -804.00040520287439 1610.3162815656469 0 0 0 0 -40.809366885199381 -42.561832331326919 0 -42.561832331326919 -29.309969990526369 0 0 0 0 1353.6116244980367 -819.75024393125204 0 -819.75024393125204 1610.6237266147891 0 0 0 0 1432.9260239454161 -895.56977362261387 0 -895.56977362261387 1325.1200211571704 0 0 0 0 2062.2986555421085 -1765.9671914336504 0 -1765.9671914336504 2047.2171655731509 0 0 0 0 -75.992680428585686 -27.456712563063796 0 -27.456712563063796 53.275404251269222 0 0 0 0 -59.548513572895899 -51.98560916466522 0 -51.98560916466522 102.92626082693459 0 0 0 0 -117.00521904795851 -16.57782171170593 0 -16.57782171170593 135.72122660372514 0 0 0 0 -35.089580071826163 -81.830924176373458 0 -81.830924176373458 -78.974822857515932 0 0 0 0 362.86714683219179 -4.6575574580783723 0 -4.6575574580783723 -568.9637428587157 0 0 0 0 -36.125232519620951 -53.67754106877122 0 -53.67754106877122 -62.461101417134046 0 0 0 0 103.86051827050687 -251.42512942742724 0 -251.42512942742724 -255.44474449350855 0 0 0 0 -31.37026921425786 -456.86251412782349 0 -456.86251412782349 79.894535741677828 0 0 0 0 -444.07748883950262 -185.60543461680572 0 -185.60543461680572 224.5910014538822 0 0 0 0 -125.37728142418908 -71.439587972721256 0 -71.439587972721256 36.022183138161758 0 0 0 0 -106.73116374900201 -33.782078016211017 0 -33.782078016211017 211.26241055730497 0 0 0 0 141.20310447888914 -484.72789576786454 0 -484.72789576786454 1212.5914006615931 0 0 0 0 -78.176447361940518 -253.08846719377107 0 -253.08846719377107 -269.68841746696671 0 0 0 0 -129.06859093003732 169.28422381063137 0 169.28422381063137 76.573580871438025 0 0 0 0 -8.4756446641658556 1.6018759906725109 0 1.6018759906725109 15.058612984254665 0 0 0 0 -113.88031496090073 -74.577110049324972 0 -74.577110049324972 31.674557443819783 0 0 0 0 -19.104359540584468 -10.907079702539331 0 -10.907079702539331 16.617044759076009 0 0 0 0 -217.10480859268864 -283.85670519751511 0 -283.85670519751511 123.22752463065262 0 0 0 0 -104.06224954804929 -305.6365089723804 0 -305.6365089723804 -151.94773459136923 0 0 0 0 -252.4176108771353 -115.74116100079482 0 -115.74116100079482 41.232618046796233 0 0 0 0 -217.07093495034496 -196.88542833183783 0 -196.88542833183783 -36.62246823222813 0 0 0 0 -415.47829506520065 -96.076124483894091 0 -96.076124483894091 100.2602044198884 0 0 0 0 -341.23785746993963 -190.47782179632122 0 -190.47782179632122 132.07368769040477 0 0 0 0 -259.173089164462 -298.66073641740422 0 -298.66073641740422 144.38498557126877 0 0 0 0 -341.22643472872733 -196.03980272896843 0 -196.03980272896843 107.45905987127708 0 0 0 0 -388.66840247991786 -285.72426370562971 0 -285.72426370562971 92.456028755790612 0 0 0 0 -197.70318473472435 -222.7540259129928 0 -222.7540259129928 76.435202948936421 0 0 0 0 -551.53693703524186 -104.59017795992258 0 -104.59017795992258 120.96731770460474 0 0 0 0 -441.85384420374612 -65.329316917683173 0 -65.329316917683173 -51.003447440110904 0 0 0 0 -442.60513972198532 -905.33682397972552 0 -905.33682397972552 -466.18015231282334 0 0 0 0 -218.14036367486551 214.27323557293857 0 214.27323557293857 -112.36789634938032 0 0 0 0 -194.33663538913243 -206.21844572627379 0 -206.21844572627379 154.9153312635317 0 0 0 0 -251.07246159476563 -270.72957385857808 0 -270.72957385857808 240.31309190977481 0 0 0 0 447.71241566946992 -925.80798726054218 0 -925.80798726054218 250.97565511534413 0 0 0 0 -20.424220197418137 -36.829326957505344 0 -36.829326957505344 -60.311725198632075 0 0 0 0 -1184.1248126048158 -726.09508605846349 0 -726.09508605846349 539.17277002281116 0 0 0 0 -551.5882445508978 -687.37846823169093 0 -687.37846823169093 -283.32887183007551 0 0 0 0 -659.7136210396493 327.94992770675526 0 327.94992770675526 1200.456968597724 0 0 0 0 -1249.0896676081575 -852.22769838872591 0 -852.22769838872591 1851.6630810029164 0 0 0 0 1013.9919519724917 -2264.3700678292853 0 -2264.3700678292853 -664.44953186729981 0 0 0 0 556.66791015717899 608.65587775465247 0 608.65587775465247 -4915.8055645212007 0 0 0 0 -1150.4409270392061 -856.40466571375509 0 -856.40466571375509 67.482609363782103 0 0 0 0 -1622.5059526055848 -2051.4304379641526 0 -2051.4304379641526 689.5392813130602 0 0 0 0 -912.87019228222198 -1868.7892642774459 0 -1868.7892642774459 -1295.7150085410467 0 0 0 0 -24.143499583971334 -13.281515082392055 0 -13.281515082392055 -5.7541020811111139 0 0 0 0 -194.88481907933601 -165.11346935715483 0 -165.11346935715483 -2361.4939044517887 0 0 0 0 -2614.485134978313 -1381.3109417546657 0 -1381.3109417546657 2861.8627476731999 0 0 0 0 -576.00270455425198 -8.1465539080745657 0 -8.1465539080745657 1856.1786883586756 0 0 0 0 -16.357976254475261 -19.890124580303237 0 -19.890124580303237 -11.071226931374184 0 0 0 0 -3122.4580694243487 -8.2780271994415671 0 -8.2780271994415671 2826.7562889002947 0 0 0 0 2263.1892557397296 -1263.0679309795341 0 -1263.0679309795341 122.63667818787508 0 0 0 0 558.94012960875989 -1854.8096716298096 0 -1854.8096716298096 23.138687985519823 0 0 0 0 -2889.6201961128536 -2495.8679262450387 0 -2495.8679262450387 836.59823486657115 0 0 0 0 -786.78049089446722 -800.6238249860844 0 -800.6238249860844 988.34189592768962 0 0 0 0 -414.50429460781743 -690.10089029964729 0 -690.10089029964729 922.61437255242345 0 0 0 0 -373.42000488302801 -586.36161111431284 0 -586.36161111431284 1162.4308781483123 0 0 0 0 112.38346450657264 -724.60815403434754 0 -724.60815403434754 767.30941667889419 0 0 0 0 34.300835354690207 -870.34472620256565 0 -870.34472620256565 1018.5877372587784 0 0 0 0 -895.5287335725734 -857.10410839893302 0 -857.10410839893302 990.0800947080952 0 0 0 0 -529.98875958288409 -410.13603593298103 0 -410.13603593298103 747.23107013600384 0 0 0 0 -1804.1851189330773 -1552.836538043055 0 -1552.836538043055 450.18431173004819 0 0 0 0 -25.491244512792917 -37.216062492809591 0 -37.216062492809591 -32.343306818639292 0 0 0 0 625.07733400265715 -636.43785113939521 0 -636.43785113939521 253.23069965270042 0 0 0 0 769.66963369495352 -1285.6985453992856 0 -1285.6985453992856 628.30239356744278 0 0 0 0 -13.394122628390576 -19.038375661204199 0 -19.038375661204199 -18.275132558403612 0 0 0 0 -3433.1855193836309 -1515.6105417685976 0 -1515.6105417685976 13.479106045133449 0 0 0 0 -1006.8243915180574 -148.44449950314811 0 -148.44449950314811 543.91282899261569 0 0 0 0 -500.63639937803964 -1504.0306228107584 0 -1504.0306228107584 -3456.401715473583 0 0 0 0 -1769.2886265579873 -3107.0111946407887 0 -3107.0111946407887 -2642.0027627499585 0 0 0 0 1911.6287748575924 -1933.4140595409845 0 -1933.4140595409845 -2664.131904667287 0 0 0 0 -346.02384383118624 -2451.2827601461559 0 -2451.2827601461559 -2708.1580672762866 0 0 0 0 -2206.1536475164321 -1321.0510365606278 0 -1321.0510365606278 -1563.4873471547617 0 0 0 0 -762.29582582216244 -1529.0523649991592 0 -1529.0523649991592 -1633.3729523746169 0 0 0 0 -234.65014337928733 -643.49452043277051 0 -643.49452043277051 -1215.3005534430376 0 0 0 0 -640.70857459279796 -919.23731253810729 0 -919.23731253810729 -899.78373706630373 0 0 0 0 -235.76737962580228 121.19090811506612 0 121.19090811506612 -528.6227798884338 0 0 0 0 -740.32124748479691 -527.07042611225188 0 -527.07042611225188 -209.6204134113068 0 0 0 0 -49.132080504467012 23.386420336333686 0 23.386420336333686 -225.22828944554931 0 0 0 0 -297.31574382609688 -387.55990059762553 0 -387.55990059762553 -405.67962186296427 0 0 0 0 -53.683333083579782 -1010.7845121539794 0 -1010.7845121539794 -2575.2889702421562 0 0 0 0 88.344852078473195 -326.42777195488088 0 -326.42777195488088 -1623.5434001452631 0 0 0 0 -1011.6620224154976 -761.00013622188089 0 -761.00013622188089 -2574.7346266530076 0 0 0 0 -363.91060948473387 -1392.4537053144813 0 -1392.4537053144813 -1980.5475205180483 0 0 0 0 -1937.1996344077197 -2252.4956216808787 0 -2252.4956216808787 -2230.3215168274328 0 0 0 0 -831.39978999851155 -103.23280283756321 0 -103.23280283756321 117.56095260689472 0 0 0 0 -3783.5737672696523 -1793.6083186733213 0 -1793.6083186733213 -732.27780722113675 0 0 0 0 300.2034174517903 -1837.6277320269728 0 -1837.6277320269728 -3249.2217604044981 0 0 0 0 -10.337465166943872 -15.796939832598341 0 -15.796939832598341 -23.880376983063059 0 0 0 0 -501.25430235559179 -1819.36105921126 0 -1819.36105921126 -2383.5126194236618 0 0 0 0 1280.6624952139246 -294.87718775897065 0 -294.87718775897065 -1726.8886216520114 0 0 0 0 -629.79943040617218 -423.54139826410392 0 -423.54139826410392 291.09937619179254 0 0 0 0 -352.75298188314991 -97.11876980209945 0 -97.11876980209945 -585.443723751363 0 0 0 0 -218.13593075687822 -372.43979171706087 0 -372.43979171706087 -1325.2095503043129 0 0 0 0 -481.11103072987316 -206.7127368595975 0 -206.7127368595975 -428.75312043177473 0 0 0 0 -604.41661236274376 -116.36576577235974 0 -116.36576577235974 -44.63020982612943 0 0 0 0 -633.79884093781584 -122.51043765906434 0 -122.51043765906434 42.648455521978576 0 0 0 0 -659.12696591504209 -547.59168345555008 0 -547.59168345555008 -649.02538216271978 0 0 0 0 -675.94913798039488 -205.2403486920266 0 -205.2403486920266 -400.18930947665285 0 0 0 0 -716.2068088772794 -610.06907610139024 0 -610.06907610139024 -882.96106397990297 0 0 0 0 -1007.043220348387 -1308.5290077301088 0 -1308.5290077301088 -1518.1260266406534 0 0 0 0 -770.1283455735138 -639.49792423324561 0 -639.49792423324561 -795.50163402355247 0 0 0 0 -1242.1019429712469 -1221.7306617140894 0 -1221.7306617140894 -1003.6408012993688 0 0 0 0 -2115.7996895199904 -2263.4004052798773 0 -2263.4004052798773 -1823.5725574298976 0 0 0 0 -805.29746361450088 -1275.0672630637273 0 -1275.0672630637273 -1736.1276394705092 0 0 0 0 -3691.5179145770962 -2985.9483849607095 0 -2985.9483849607095 -1829.0884771686799 0 0 0 0 -1988.8055437122894 -0.13855635207528394 0 -0.13855635207528394 5848.4989400158192 0 0 0 0 -26.304046317853306 -18.127501397417859 0 -18.127501397417859 -1.9459527129157905 0 0 0 0 -627.36804252329603 -2584.7094044703426 0 -2584.7094044703426 -5896.3562093822839 0 0 0 0 -2285.7568312645853 -2496.3817836550761 0 -2496.3817836550761 -1073.1934909822157 0 0 0 0 -1127.1480999775085 276.62629871035097 0 276.62629871035097 1517.4549310849752 0 0 0 0 -2714.0932228378952 -1817.3156495218377 0 -1817.3156495218377 2136.2195539449458 0 0 0 0 -699.71960361683159 -138.73524966396144 0 -138.73524966396144 1578.7109617985334 0 0 0 0 517.3434771415923 475.51054334002401 0 475.51054334002401 1877.5494830194184 0 0 0 0 -800.11664980149362 -1705.6302117192299 0 -1705.6302117192299 -2394.3411997427611 0 0 0 0 1.6696068563865936 -5.5624051575046281 0 -5.5624051575046281 2.3146092682086419 0 0 0 0 -782.4227037110104 -1203.1317396334307 0 -1203.1317396334307 -997.52270785606379 0 0 0 0 -1767.524882235135 -1391.2238645748967 0 -1391.2238645748967 812.06372492023002 0 0 0 0 -1577.0654994441429 -1391.9966446315611 0 -1391.9966446315611 -1040.063154935523 0 0 0 0 -1600.2609021507305 -1346.3965900767698 0 -1346.3965900767698 -624.7274929708874 0 0 0 0 5.2911302368997326 -11.497211598139728 0 -11.497211598139728 8.4354133392423876 0 0 0 0 -1511.0286154874648 -753.37058564551262 0 -753.37058564551262 -232.2815012012943 0 0 0 0 -1350.2032512132355 -750.51389187076165 0 -750.51389187076165 -397.09236985623284 0 0 0 0 -1619.3407906723733 -755.7602263172048 0 -755.7602263172048 -25.325145359169255 0 0 0 0 -1430.306006933446 -464.4503073894939 0 -464.4503073894939 121.74937833222066 0 0 0 0 -1536.1560268648464 -629.8258969399285 0 -629.8258969399285 -134.99373749007646 0 0 0 0 -1281.8080196637457 -507.19260519033469 0 -507.19260519033469 -232.44885050465746 0 0 0 0 -1393.1107394439605 -518.62201288622236 0 -518.62201288622236 -114.52808653440115 0 0 0 0 -1382.5940777644573 -652.11422680800388 0 -652.11422680800388 -233.7629358907958 0 0 0 0 -516.60380217960483 -212.56354801539419 0 -212.56354801539419 182.22888841480744 0 0 0 0 -818.80494943956728 -187.06081682079821 0 -187.06081682079821 189.3843016062051 0 0 0 0 -1712.0121669215732 -530.95168081609336 0 -530.95168081609336 405.2961346078082 0 0 0 0 -1112.7926227786811 -80.196107192896307 0 -80.196107192896307 291.91838584680227 0 0 0 0 -871.03645485268498 -384.0618219313692 0 -384.0618219313692 -334.71802631382161 0 0 0 0 -1421.6956640290191 -461.15075738813539 0 -461.15075738813539 -162.69496313702257 0 0 0 0 -1213.6010107304901 -408.63668764882459 0 -408.63668764882459 -175.26200886670085 0 0 0 0 -1014.7286578342027 -440.26875310604373 0 -440.26875310604373 -328.35783008751605 0 0 0 0 -1051.6597120565566 -524.29520040901116 0 -524.29520040901116 -483.03377223461939 0 0 0 0 -785.46999307005899 -586.3668024558483 0 -586.3668024558483 -672.72809202409553 0 0 0 0 -388.25051283331413 -444.48215919554423 0 -444.48215919554423 -689.66694692846067 0 0 0 0 -960.77335163860698 -779.51978827517814 0 -779.51978827517814 -689.2078837218279 0 0 0 0 -750.41688910168887 -950.01912379270107 0 -950.01912379270107 -888.96860837253917 0 0 0 0 -1420.4007604789804 -887.8141838791289 0 -887.8141838791289 -656.53493478285964 0 0 0 0 -1015.0382354932954 -1214.3669402645119 0 -1214.3669402645119 -1091.4886395304347 0 0 0 0 -399.83172837705933 -688.14617091937907 0 -688.14617091937907 -1037.2124151084786 0 0 0 0 -437.89452070095285 98.311085649853339 0 98.311085649853339 -1122.6733321281499 0 0 0 0 -625.30569769453723 -654.37661456324167 0 -654.37661456324167 -622.79505677917041 0 0 0 0 -920.85573484469205 -1599.1004167381816 0 -1599.1004167381816 -1680.6409222636357 0 0 0 0 -736.19338486569177 -193.99400810745101 0 -193.99400810745101 1573.9287363367766 0 0 0 0 -157.55805779236834 22.517001058149617 0 22.517001058149617 -397.25419481746849 0 0 0 0 -1514.3985610462987 -1236.2240640028058 0 -1236.2240640028058 1436.9116553968561 0 0 0 0 -415.36946726287715 -1728.1416516470599 0 -1728.1416516470599 -628.39908530447065 0 0 0 0 178.11882928421255 -171.20795763138449 0 -171.20795763138449 -1891.4248498289674 0 0 0 0 133.68003977742046 -817.51948843125865 0 -817.51948843125865 -1890.7495350060249 0 0 0 0 -47.007362364427536 -411.25211387014861 0 -411.25211387014861 -1304.9923303034593 0 0 0 0 -179.82648261042777 -259.97707368264673 0 -259.97707368264673 -1093.5438646828406 0 0 0 0 5.893362969095552 -2.5514190033828186 0 -2.5514190033828186 -18.530054055740834 0 0 0 0 1.8576433539657842 1.7641871179595228 0 1.7641871179595228 -6.1951105238344724 0 0 0 0 136.13140979324817 10.781509999091213 0 10.781509999091213 -676.22891052688647 0 0 0 0 -2282.1638551484939 -1495.5100479983557 0 -1495.5100479983557 -705.53663142942969 0 0 0 0 -159.14747851187713 9.8428577188897179 0 9.8428577188897179 730.53522034391062 0 0 0 0 -30.782936443458311 -52.773265148804057 0 -52.773265148804057 -35.586632910650223 0 0 0 0 0.25515679903872979 -31.001680650990522 0 -31.001680650990522 9.6200307559797551 0 0 0 0 158.55166018312593 -13.876127622477725 0 -13.876127622477725 32.205499283300014 0 0 0 0 40.925164860797452 -41.310204501519252 0 -41.310204501519252 -3.1987161631295464 0 0 0 0 150.38214241806418 -37.811319990527409 0 -37.811319990527409 98.379798898975423 0 0 0 0 168.26910029503051 103.49735558139582 0 103.49735558139582 188.30982589074119 0 0 0 0 161.17001263366546 -63.433314631874964 0 -63.433314631874964 0.38744197860614804 0 0 0 0 258.26306799062877 149.21487077870552 0 149.21487077870552 -515.93723271859926 0 0 0 0 548.26927490351954 200.59196159830753 0 200.59196159830753 79.943291996569315 0 0 0 0 40.411976866495053 -37.037199147334434 0 -37.037199147334434 22.803381364346819 0 0 0 0 354.73226143754437 116.66015022375359 0 116.66015022375359 -27.068414773940276 0 0 0 0 404.14404440811268 -271.14684552445237 0 -271.14684552445237 -101.04327521942469 0 0 0 0 -143.91221538727405 -171.58466938047059 0 -171.58466938047059 -30.089336848595849 0 0 0 0 342.46504108555382 -182.9688327618278 0 -182.9688327618278 -72.683093173247471 0 0 0 0 935.18509481707588 -359.44722773568355 0 -359.44722773568355 -52.282789397177112 0 0 0 0 -204.39558696615859 -413.56593519862872 0 -413.56593519862872 -56.695940781475429 0 0 0 0 -634.60417211303138 -21.965777086887101 0 -21.965777086887101 -74.400847860006479 0 0 0 0 -209.56193718056602 -534.52758238614297 0 -534.52758238614297 342.80460113351728 0 0 0 0 12.573483849049722 -10.420026817328377 0 -10.420026817328377 10.357350093652357 0 0 0 0 -3.7278734300806349 2.0224395356802773 0 2.0224395356802773 0.55187977710454561 0 0 0 0 -212.06662649463397 -583.26099379732477 0 -583.26099379732477 997.97585064393934 0 0 0 0 -113.70635979893996 1257.8718341888671 0 1257.8718341888671 294.96003120926616 0 0 0 0 -9.0246327890527027 88.884449569966364 0 88.884449569966364 88.815279590286082 0 0 0 0 836.83759154152358 1572.6528922084399 0 1572.6528922084399 -4875.9535126243136 0 0 0 0 2.6809512733314484 -9.0062916258400492 0 -9.0062916258400492 8.9185606666555088 0 0 0 0 -1539.7187235626043 -300.50368658261868 0 -300.50368658261868 199.545560487888 0 0 0 0 -442.12197178666247 -957.86191977438284 0 -957.86191977438284 1299.8120199641126 0 0 0 0 -325.10246385048958 -1129.8362458191732 0 -1129.8362458191732 1156.7400152834452 0 0 0 0 -2294.0315534841357 -74.015915075317025 0 -74.015915075317025 6862.4660068550293 0 0 0 0 4156.3814087588471 -1340.9411982469692 0 -1340.9411982469692 311.92314793568221 0 0 0 0 120.12909054767806 -1013.360454977701 0 -1013.360454977701 -981.90824523107221 0 0 0 0 143.58654085232411 -599.12010984088556 0 -599.12010984088556 307.52167690756323 0 0 0 0 -81.700567794323433 -341.20267731113563 0 -341.20267731113563 198.54505318368319 0 0 0 0 -113.26654114830308 -169.78241736385826 0 -169.78241736385826 -712.48147859868186 0 0 0 0 -157.78180136121227 -1388.167654944602 0 -1388.167654944602 1083.6504291076999 0 0 0 0 -264.82896595867351 -952.35613817434205 0 -952.35613817434205 -57.366892564074078 0 0 0 0 -295.35290952672949 -951.29831192288839 0 -951.29831192288839 797.10394194939727 0 0 0 0 -165.78753091755789 -1127.1521881272893 0 -1127.1521881272893 679.13762866467005 0 0 0 0 -95.745635548315477 -949.68745767892324 0 -949.68745767892324 495.77388874358257 0 0 0 0 -702.59377781160583 -629.5654695448975 0 -629.5654695448975 413.58978380638291 0 0 0 0 -511.3689857808713 -1691.1990099487339 0 -1691.1990099487339 3294.2540615120233 0 0 0 0 420.25858485125354 -1619.0212541222372 0 -1619.0212541222372 1752.0971109219608 0 0 0 0 -737.06618063971109 -1048.0390483318588 0 -1048.0390483318588 1570.2913658260659 0 0 0 0 -373.11304613994434 -1356.2879851053112 0 -1356.2879851053112 1433.8625299741252 0 0 0 0 -195.57842725308728 -1097.3709427047179 0 -1097.3709427047179 1528.2256085731497 0 0 0 0 -2030.0194019888004 -936.20013454637228 0 -936.20013454637228 1864.3840611577325 0 0 0 0 0.77793889274313344 -0.2352122796156948 0 -0.2352122796156948 7.8393851926098534 0 0 0 0 3554.7683148633805 -2272.5641404748421 0 -2272.5641404748421 967.98045446895412 0 0 0 0 -809.57825615553884 -1625.9758480661612 0 -1625.9758480661612 2247.9531051627782 0 0 0 0 257.76855121564586 -1062.0470279844485 0 -1062.0470279844485 2455.5794038196409 0 0 0 0 -38.911390648725501 249.06946851220891 0 249.06946851220891 178.48721239545557 0 0 0 0 -924.61397351480991 -1167.1998293121042 0 -1167.1998293121042 4008.4909882059183 0 0 0 0 -295.12646594999023 -408.44778697413904 0 -408.44778697413904 259.49788953141979 0 0 0 0 -32.768315225868946 -58.013824876763778 0 -58.013824876763778 -5.2484188612179423 0 0 0 0 -849.2382519011735 -854.56119399033196 0 -854.56119399033196 5460.7836537122103 0 0 0 0 -838.53194959043685 -1065.0003143728172 0 -1065.0003143728172 -958.78794322726026 0 0 0 0 -53.512959502099534 -46.675879994502793 0 -46.675879994502793 -2.7178403166329428 0 0 0 0 565.73603649137749 -953.65927654385257 0 -953.65927654385257 1750.4279716009696 0 0 0 0 264.91091399126162 -79.782591561759546 0 -79.782591561759546 1844.3455599011577 0 0 0 0 627.32747456096695 -884.75424767273216 0 -884.75424767273216 63.324363651921885 0 0 0 0 730.592580947643 -1061.3273119229416 0 -1061.3273119229416 -106.50715138979285 0 0 0 0 647.9247377808033 -1295.1175755653801 0 -1295.1175755653801 1034.9771939297498 0 0 0 0 780.67239081705338 -484.67069021404677 0 -484.67069021404677 1127.4510808529667 0 0 0 0 0.5595781056326814 -1135.9854814421742 0 -1135.9854814421742 631.41981453049812 0 0 0 0 -0.31114968581187458 -703.10012870019227 0 -703.10012870019227 1568.1136873790529 0 0 0 0 695.19758229309809 -913.10550793252514 0 -913.10550793252514 764.18135553588036 0 0 0 0 9.656636751020983 -6.6254638447022955 0 -6.6254638447022955 4.7443517708822753 0 0 0 0 706.96871328687473 -168.45183408032477 0 -168.45183408032477 -117.73432719131233 0 0 0 0 143.02937647988438 -805.22333493181941 0 -805.22333493181941 1504.1442326143697 0 0 0 0 253.86636130679108 -439.51240331056215 0 -439.51240331056215 393.08834381410998 0 0 0 0 25.365958466922166 -144.18279534405156 0 -144.18279534405156 1219.2584067918233 0 0 0 0 66.708663526071177 269.17088169377166 0 269.17088169377166 176.19038394569361 0 0 0 0 -184.95962566417029 -84.155202107798232 0 -84.155202107798232 100.85165722211241 0 0 0 0 1.8549169486068422 21.615221394895343 0 21.615221394895343 -89.539891826228995 0 0 0 0 679.57789704592142 -791.57337862966961 0 -791.57337862966961 680.61879934857643 0 0 0 0 -0.28995426313683748 -1.2225338726030941 0 -1.2225338726030941 7.3567790372810578 0 0 0 0 -373.16369951657407 13.553526021446032 0 13.553526021446032 396.97419850472943 0 0 0 0 463.244794252867 -867.59816280878658 0 -867.59816280878658 501.38420614919232 0 0 0 0 463.12918884538522 -882.70721441475689 0 -882.70721441475689 674.06913074212935 0 0 0 0 654.11451353023585 -895.91293481049433 0 -895.91293481049433 -101.26776866568252 0 0 0 0 617.81943347869674 -1003.9421275881723 0 -1003.9421275881723 457.61145647951798 0 0 0 0 637.32526623259764 -555.66574903068977 0 -555.66574903068977 545.65391108743643 0 0 0 0 987.86739405426488 -831.20055551796213 0 -831.20055551796213 51.501514782532468 0 0 0 0 417.99428816710133 -679.69534988979285 0 -679.69534988979285 13.443534577007085 0 0 0 0 336.06157615088159 -507.25364181781333 0 -507.25364181781333 -349.16163568135744 0 0 0 0 -174.93239165644627 -527.68564193569364 0 -527.68564193569364 -407.95308804632077 0 0 0 0 -170.06004412462062 -583.60772750543038 0 -583.60772750543038 157.49372970847435 0 0 0 0 -252.53728503067396 -132.33401885876447 0 -132.33401885876447 273.99316620452009 0 0 0 0 -280.4109820374797 -224.02536918558872 0 -224.02536918558872 -17.526636705777491 0 0 0 0 46.519957508062362 -391.79570024389977 0 -391.79570024389977 -52.92027377366685 0 0 0 0 -197.11973536171718 -230.5113192294375 0 -230.5113192294375 490.54802062969611 0 0 0 0 45.337403175188228 -475.99126756115584 0 -475.99126756115584 698.74715918736547 0 0 0 0 335.0576024557231 -56.157643913604261 0 -56.157643913604261 53.359643835137831 0 0 0 0 0.13382601491279744 -0.2087626567838754 0 -0.2087626567838754 2.16556349139384 0 0 0 0 -84.643771714441073 -19.335007828467752 0 -19.335007828467752 1.0022036983427824 0 0 0 0 49.942669795840629 261.93987545778327 0 261.93987545778327 -123.1606897439633 0 0 0 0 0.72195691345089741 0.82796155750844491 0 0.82796155750844491 8.9009719302451344 0 0 0 0 24.497912869686843 -249.32392529094068 0 -249.32392529094068 -121.5077744332513 0 0 0 0 -31.723132802005694 4.182247757054995 0 4.182247757054995 -43.879480342839088 0 0 0 0 198.13972435777202 -55.617769965721891 0 -55.617769965721891 -60.464412802117295 0 0 0 0 -197.85863635094574 40.344971764701768 0 40.344971764701768 -16.561936064550537 0 0 0 0 -145.5137192139664 13.651296908665245 0 13.651296908665245 28.559955441429338 0 0 0 0 -168.18297885485663 -51.498797067372834 0 -51.498797067372834 -66.339226774020062 0 0 0 0 -290.48727416453767 -34.150765552241864 0 -34.150765552241864 15.51124009036721 0 0 0 0 -143.52136297774268 -60.579316282866785 0 -60.579316282866785 -7.5314961937547196 0 0 0 0 -177.82055790295999 6.003996778875262 0 6.003996778875262 -27.275739373908436 0 0 0 0 -288.53623874331242 -91.957713731688273 0 -91.957713731688273 -194.1537244144165 0 0 0 0 -489.68943503142509 -120.71943386684688 0 -120.71943386684688 -40.767504170267785 0 0 0 0 -374.03581391262924 19.85536319815219 0 19.85536319815219 -13.809864856521017 0 0 0 0 -419.73617067979649 -87.087261818137449 0 -87.087261818137449 -51.099332741454418 0 0 0 0 -472.1396078953403 -3.5419498261107947 0 -3.5419498261107947 -180.62894912928823 0 0 0 0 -516.6460211136291 -311.23503492437158 0 -311.23503492437158 -380.60850453394414 0 0 0 0 -667.90621761534567 -240.8217195573734 0 -240.8217195573734 -366.03583191125654 0 0 0 0 -306.71158205871689 -148.53446001451903 0 -148.53446001451903 -232.76423974705904 0 0 0 0 -664.89411820161331 -414.73264960682536 0 -414.73264960682536 -230.97633712832612 0 0 0 0 -500.41484425155795 -544.85190740691542 0 -544.85190740691542 -155.44878759284802 0 0 0 0 -681.98553979172721 -713.0619498948181 0 -713.0619498948181 -706.73394158687915 0 0 0 0 -1058.5870883769476 -639.48565283238804 0 -639.48565283238804 -531.88438259924078 0 0 0 0 -1136.8885219453805 -1154.6413543008621 0 -1154.6413543008621 -847.03919329443852 0 0 0 0 -359.45699886837974 -395.69071776083729 0 -395.69071776083729 -483.82418095237881 0 0 0 0 -643.20960671301873 -862.57959758327797 0 -862.57959758327797 -391.70513210579156 0 0 0 0 -879.12281930584868 -596.50157179787948 0 -596.50157179787948 -547.39048090595679 0 0 0 0 -1488.8748284108915 -910.35625671959042 0 -910.35625671959042 -401.54108148604791 0 0 0 0 -1082.7294965868932 -745.95146589878641 0 -745.95146589878641 -389.57409993882027 0 0 0 0 -830.69540424540992 -773.42014445087489 0 -773.42014445087489 -406.037969482466 0 0 0 0 -880.03494502171816 -1154.2509366110098 0 -1154.2509366110098 -932.60257954170265 0 0 0 0 6.2110791913508763 -11.868722479682589 0 -11.868722479682589 9.8453438124759884 0 0 0 0 63.668016336392611 -546.75464857529914 0 -546.75464857529914 -830.53918270285794 0 0 0 0 3.7224403093566139 -5.8013059761765362 0 -5.8013059761765362 3.2190333138978673 0 0 0 0 359.46030824082845 -1207.5641083202809 0 -1207.5641083202809 -747.01626674025147 0 0 0 0 413.9540092508978 -821.22521581904039 0 -821.22521581904039 -283.19801969873151 0 0 0 0 348.16328029769647 -1317.5516699416348 0 -1317.5516699416348 -156.65354504026936 0 0 0 0 164.51984599828938 -1005.665692800193 0 -1005.665692800193 -393.17540008616925 0 0 0 0 387.69161001854809 -587.14370114511985 0 -587.14370114511985 -667.06117988116966 0 0 0 0 469.41903687832382 -757.75532125800146 0 -757.75532125800146 -378.3345929632851 0 0 0 0 -46.90552380211011 -565.07442853662724 0 -565.07442853662724 -732.39299943020887 0 0 0 0 -11.007156229446991 -717.07510215749608 0 -717.07510215749608 -310.76452443309608 0 0 0 0 630.11208158682712 -591.71705142552855 0 -591.71705142552855 -516.76796638038286 0 0 0 0 331.34053491869417 -820.62982490401555 0 -820.62982490401555 -393.40402847915902 0 0 0 0 728.6167808897153 -746.03239945105088 0 -746.03239945105088 -351.18234827251763 0 0 0 0 924.31116924095841 -742.73306815154501 0 -742.73306815154501 -376.88479970521803 0 0 0 0 872.91433267281536 -690.07556469972587 0 -690.07556469972587 -252.31952118835761 0 0 0 0 1046.0442914433952 -765.72469442028887 0 -765.72469442028887 -411.59951218361311 0 0 0 0 983.19667603030393 -642.03398091090639 0 -642.03398091090639 -528.1135766131024 0 0 0 0 928.91134794549725 -648.41752638979597 0 -648.41752638979597 -528.85595928447947 0 0 0 0 748.38538485956815 -542.93244693084671 0 -542.93244693084671 -298.40207221504534 0 0 0 0 468.70420767213 -923.16256531956606 0 -923.16256531956606 -150.08447526686723 0 0 0 0 797.89042475676979 -562.38279421287007 0 -562.38279421287007 236.29006972888328 0 0 0 0 887.16371899994556 -622.22317692718661 0 -622.22317692718661 -14.803259527863702 0 0 0 0 929.70489610060758 -1621.3213374382431 0 -1621.3213374382431 370.69502524007112 0 0 0 0 1350.2525191219538 -937.65081095438836 0 -937.65081095438836 -21.292932360764098 0 0 0 0 -5.2339724538208259 -12.910429409461315 0 -12.910429409461315 -14.488661525311883 0 0 0 0 741.75216303039633 -651.02050211610731 0 -651.02050211610731 682.52053104021797 0 0 0 0 1.4189482056390261 -873.4820116737319 0 -873.4820116737319 1088.0498350890393 0 0 0 0 1035.7238185157184 -507.38110976042299 0 -507.38110976042299 -1924.5326123764862 0 0 0 0 -3.3086707928152634 -6.3397876913536066 0 -6.3397876913536066 -5.9221960682556016 0 0 0 0 1030.9761459104047 -434.52187436830172 0 -434.52187436830172 -529.27958634844981 0 0 0 0 1012.2937839014903 -922.59223851878687 0 -922.59223851878687 -996.0487510905441 0 0 0 0 502.98805377441749 -1237.8666477497391 0 -1237.8666477497391 -183.24595480804783 0 0 0 0 0.81563406361387858 -1595.625285918635 0 -1595.625285918635 -630.19361536481301 0 0 0 0 495.95354662308819 -1018.7193333354262 0 -1018.7193333354262 34.407085517478663 0 0 0 0 89.78337075872696 -71.154710149973653 0 -71.154710149973653 58.399885026940183 0 0 0 0 23.162326974794269 -71.699194661106958 0 -71.699194661106958 60.31700246161472 0 0 0 0 -23.894920355549402 40.569039721223817 0 40.569039721223817 -30.344979811776284 0 0 0 0 7.0461201246580458 -69.434666638459476 0 -69.434666638459476 -14.97716340311672 0 0 0 0 702.87529074134636 -734.22149940880513 0 -734.22149940880513 218.08286380216305 0 0 0 0 -31.682160912052495 -26.228281281155432 0 -26.228281281155432 38.000201587889023 0 0 0 0 711.97045930989771 -625.94266897454622 0 -625.94266897454622 245.65240908732085 0 0 0 0 -13.497585254861008 -14.575070199229003 0 -14.575070199229003 -16.124155974938844 0 0 0 0 0.060510819501359947 -48.0846358333838 0 -48.0846358333838 52.446071604565077 0 0 0 0 28.594291186753253 -20.458822151637378 0 -20.458822151637378 11.155825320547592 0 0 0 0 49.67979397403542 -69.070215927080426 0 -69.070215927080426 42.156308191661083 0 0 0 0 -5.256791179438892 -5.6581417055868997 0 -5.6581417055868997 2.0710172278464327 0 0 0 0 -0.89419551634074423 1.138290198430056 0 1.138290198430056 -1.4940242464401763 0 0 0 0 0.098183272217283957 -17.642707558594338 0 -17.642707558594338 -23.137458334127587 0 0 0 0 364.36572017525032 355.5256985995893 0 355.5256985995893 -1419.8171713849624 0 0 0 0 -2.4724648296914893 -5.7854598986102417 0 -5.7854598986102417 -9.6531733456263709 0 0 0 0 1170.8589201753057 -744.22531842779972 0 -744.22531842779972 -2402.2562488507228 0 0 0 0 -0.18269881059162632 -1422.0128544786435 0 -1422.0128544786435 -117.40366650566284 0 0 0 0 1160.1229125391874 -794.35868895187775 0 -794.35868895187775 -1180.1665474426882 0 0 0 0 1160.4045039854536 -198.60397174069112 0 -198.60397174069112 -101.21138841467291 0 0 0 0 555.59865498867293 -181.05175648262593 0 -181.05175648262593 56.482817806554522 0 0 0 0 1085.6397608951083 -466.57781957085899 0 -466.57781957085899 -1336.5891156907201 0 0 0 0 1109.3655402093682 -640.09291401897508 0 -640.09291401897508 -440.19155262179265 0 0 0 0 887.38607708310883 -1154.6598179755256 0 -1154.6598179755256 -1550.4640514431469 0 0 0 0 1194.4544002268722 -356.47181562573201 0 -356.47181562573201 -1472.0365262647574 0 0 0 0 -2.397101408255935 -6.8756012023981725 0 -6.8756012023981725 -7.7379226897010369 0 0 0 0 498.86732667963952 -1518.5387280127816 0 -1518.5387280127816 613.26281939920909 0 0 0 0 467.8132012697024 -1252.7163389061197 0 -1252.7163389061197 -479.08266607058613 0 0 0 0 212.01956161266571 -588.442080293863 0 -588.442080293863 -202.90049202426962 0 0 0 0 550.16364566666016 -566.11001480601317 0 -566.11001480601317 -955.61278198598666 0 0 0 0 844.93186804561992 -743.96701907798251 0 -743.96701907798251 -165.09486581638339 0 0 0 0 446.69519987485546 -415.24910208027723 0 -415.24910208027723 248.15182775070571 0 0 0 0 996.72620900336187 -762.36714256587584 0 -762.36714256587584 -466.6560876510357 0 0 0 0 539.15308535641816 -844.2625392526279 0 -844.2625392526279 1040.6713545097373 0 0 0 0 790.17085291859985 -1046.6337060325768 0 -1046.6337060325768 187.52560211031596 0 0 0 0 692.46270698528679 -662.53730657398046 0 -662.53730657398046 325.87445970204135 0 0 0 0 603.41421598783927 -960.27555805970769 0 -960.27555805970769 1054.5360583649804 0 0 0 0 -24.456848509376869 -108.05191714418288 0 -108.05191714418288 13.413296166196233 0 0 0 0 1513.4991549662955 -948.65926049275731 0 -948.65926049275731 420.58706463831186 0 0 0 0 -23.859776378099525 -27.544766782395413 0 -27.544766782395413 -17.839867205261328 0 0 0 0 338.09227242661291 -1220.2110147844542 0 -1220.2110147844542 2179.9340330710111 0 0 0 0 -0.96384953776369287 -10.862677521721395 0 -10.862677521721395 -1.8805926955237737 0 0 0 0 672.57588110960205 -1136.7308546139357 0 -1136.7308546139357 1642.9513264781272 0 0 0 0 2217.3715010674787 -1336.3289550563168 0 -1336.3289550563168 982.33244188531171 0 0 0 0 708.85283271301887 -949.08332016582426 0 -949.08332016582426 473.48545263257074 0 0 0 0 815.65109472455515 -679.38065877913141 0 -679.38065877913141 284.97870003697972 0 0 0 0 337.88319896423491 -450.06607053030893 0 -450.06607053030893 703.22895601406162 0 0 0 0 988.65703606793249 -307.74257940921416 0 -307.74257940921416 954.41784860031476 0 0 0 0 249.65705847099889 -689.85032791354388 0 -689.85032791354388 52.301368460550293 0 0 0 0 -182.76715691303252 -842.84386781591274 0 -842.84386781591274 502.59523520369112 0 0 0 0 212.2680714106391 -682.1335124055513 0 -682.1335124055513 385.30629408462119 0 0 0 0 -137.67402759270044 -894.30116269176688 0 -894.30116269176688 -157.39502308201918 0 0 0 0 -548.00512435098062 -673.21042121742357 0 -673.21042121742357 123.67346869663379 0 0 0 0 1.95976207156491 -786.37278186290132 0 -786.37278186290132 -191.0619460716116 0 0 0 0 191.4368979458086 -422.36549170994476 0 -422.36549170994476 105.82769580348668 0 0 0 0 472.34418456775893 -472.65976539901385 0 -472.65976539901385 -302.55494005459695 0 0 0 0 428.90061847111792 -590.8709825511869 0 -590.8709825511869 -272.63063319878256 0 0 0 0 287.66279464873514 -719.35667691572689 0 -719.35667691572689 -75.149571147478127 0 0 0 0 244.2147248254696 -1293.1854370000819 0 -1293.1854370000819 51.063737262003997 0 0 0 0 229.26269103184313 -640.8903763748267 0 -640.8903763748267 -159.84697468399099 0 0 0 0 -348.9019264850067 -1175.0188167123451 0 -1175.0188167123451 95.683906758833473 0 0 0 0 -1165.1733291447454 -630.97968178956671 0 -630.97968178956671 245.01642081940554 0 0 0 0 -1180.6194684069342 -870.7772029006519 0 -870.7772029006519 -171.82800600390328 0 0 0 0 -1154.7519606679125 -777.643780010706 0 -777.643780010706 92.812586806516265 0 0 0 0 -584.02691384998616 -1038.1173216806637 0 -1038.1173216806637 -163.83100754771749 0 0 0 0 -1257.7100070352462 -922.78349865928794 0 -922.78349865928794 -37.954597515976275 0 0 0 0 -610.15024492194061 -1111.4653248951718 0 -1111.4653248951718 -517.83816412970646 0 0 0 0 -1167.8539310289489 -1197.5593032126981 0 -1197.5593032126981 -390.53881772012028 0 0 0 0 -773.89617747547891 -1499.9013240041845 0 -1499.9013240041845 -661.29229702929479 0 0 0 0 -916.14019936705881 -1244.8642575734066 0 -1244.8642575734066 -1113.3483793861415 0 0 0 0 -1281.7426890067873 -1000.9761406412731 0 -1000.9761406412731 -720.35018461779146 0 0 0 0 32.446794331409734 -55.240800024247505 0 -55.240800024247505 74.682868513572117 0 0 0 0 -1764.6822796564302 -1668.3893962753632 0 -1668.3893962753632 -1014.7602222996557 0 0 0 0 -668.09898269700352 -1194.6073440362561 0 -1194.6073440362561 -141.45702608053034 0 0 0 0 -587.39238680039125 -104.05707786007952 0 -104.05707786007952 1575.3673354068032 0 0 0 0 -282.14667592007754 212.98153707450001 0 212.98153707450001 222.77857224292893 0 0 0 0 44.020813453855226 -1835.5551154899895 0 -1835.5551154899895 -1120.0472330403118 0 0 0 0 -57.714959084027214 -1372.3879445836733 0 -1372.3879445836733 -1477.5133337098068 0 0 0 0 11.846655415605284 -20.915261552889376 0 -20.915261552889376 29.78828575301738 0 0 0 0 -613.3347774213471 -924.92415671652634 0 -924.92415671652634 -1310.5772807204194 0 0 0 0 -298.84403746607859 -1443.8071820245982 0 -1443.8071820245982 -930.134209639853 0 0 0 0 -65.968405210398487 -1456.7169648296626 0 -1456.7169648296626 -986.68330353302463 0 0 0 0 49.503581879165722 -1600.1171421490376 0 -1600.1171421490376 -982.83145877139668 0 0 0 0 -161.82759544954752 -1689.9783333387293 0 -1689.9783333387293 -632.33143621435534 0 0 0 0 -280.51492857580888 -1522.5595159513703 0 -1522.5595159513703 -656.1506268479568 0 0 0 0 -192.09825790351897 -1716.994910809773 0 -1716.994910809773 -239.04874455275171 0 0 0 0 -71.288395544935383 -1313.2153062095667 0 -1313.2153062095667 -698.23850774243147 0 0 0 0 -618.1137099070329 -1423.4595050086348 0 -1423.4595050086348 -670.53241571881597 0 0 0 0 120.8447567752155 -1429.5643289791838 0 -1429.5643289791838 -628.02188757754811 0 0 0 0 -544.01845425281499 -1106.2097354092402 0 -1106.2097354092402 -612.06924304158565 0 0 0 0 -692.37083684657409 -988.1664008962955 0 -988.1664008962955 125.36006985701169 0 0 0 0 -51.959633075253805 -1346.0284211611624 0 -1346.0284211611624 -518.85273087662245 0 0 0 0 852.75648501310206 -1539.3768843086655 0 -1539.3768843086655 203.65779190509784 0 0 0 0 -35.588617122766209 -1022.2139350161372 0 -1022.2139350161372 -89.513064010188828 0 0 0 0 -115.69293282444414 -327.72094161701352 0 -327.72094161701352 -674.02702742284964 0 0 0 0 7.235494557450437 -1.18631990706821 0 -1.18631990706821 -2.2342366174140196 0 0 0 0 828.5531987047907 -1528.0535804860579 0 -1528.0535804860579 984.47127631538388 0 0 0 0 12.397605605253034 -31.393899588243187 0 -31.393899588243187 -21.789454171752837 0 0 0 0 94.537353769192123 -32.174565537497529 0 -32.174565537497529 -61.641259237188024 0 0 0 0 -7.9435605277831201 -41.544951400319405 0 -41.544951400319405 26.126289193536422 0 0 0 0 67.847230174214928 -90.488247108660289 0 -90.488247108660289 -67.727388092567708 0 0 0 0 -139.54465545139101 -631.48133027246558 0 -631.48133027246558 -353.12122734797458 0 0 0 0 -631.95384716541298 -1040.2664800748364 0 -1040.2664800748364 -603.40848016354039 0 0 0 0 -1776.746526467723 -902.79775979830606 0 -902.79775979830606 -445.54175644329825 0 0 0 0 -1300.3418554372547 -1016.1492658857137 0 -1016.1492658857137 -415.73960564894014 0 0 0 0 14.386610406768312 -30.10055949936293 0 -30.10055949936293 -9.8705031468931175 0 0 0 0 306.66148349798823 -121.50962859645824 0 -121.50962859645824 3.9654348297644901 0 0 0 0 88.525949719944037 -240.7292965373872 0 -240.7292965373872 82.327488489303619 0 0 0 0 751.58525787241888 -410.42550411790342 0 -410.42550411790342 118.28788820314298 0 0 0 0 9.5099690173620957 -25.295553492028858 0 -25.295553492028858 0.54300970132933024 0 0 0 0 -0.13279647651761195 -183.05119268111244 0 -183.05119268111244 79.241462689190485 0 0 0 0 68.575617067559506 -182.49889226620962 0 -182.49889226620962 73.526135254718156 0 0 0 0 82.928225039693643 -175.50099637906305 0 -175.50099637906305 -11.958175092522652 0 0 0 0 16.019236970154452 -85.186496101855482 0 -85.186496101855482 2.3883163933705873 0 0 0 0 -2.429458009986007 -2.6115771083015886 0 -2.6115771083015886 1.4601426776079052 0 0 0 0 -175.50619824934984 22.898780273350894 0 22.898780273350894 23.495737589768396 0 0 0 0 134.5790991451795 -134.72410342849435 0 -134.72410342849435 -1.0337289701583359 0 0 0 0 -178.59233206507633 -72.591095429721463 0 -72.591095429721463 19.151654639847948 0 0 0 0 -75.663613683122094 -144.48334958580199 0 -144.48334958580199 -46.761384101566364 0 0 0 0 0.13527051498887763 -129.74907379307385 0 -129.74907379307385 49.171248413969806 0 0 0 0 27.993520257718046 -128.16761562554711 0 -128.16761562554711 -62.574723323815306 0 0 0 0 -19.186158410392068 -67.122754671810796 0 -67.122754671810796 -45.354149963224508 0 0 0 0 -66.870688449933368 -114.27185850545902 0 -114.27185850545902 -46.400677103854832 0 0 0 0 189.01981813473685 -44.87591611769858 0 -44.87591611769858 -158.51563754611561 0 0 0 0 28.852337269949203 -84.485005777526567 0 -84.485005777526567 8.7615893791917188 0 0 0 0 51.369375900190789 -129.17434048229188 0 -129.17434048229188 65.326495287395119 0 0 0 0 28.100072892738183 -67.811802376139099 0 -67.811802376139099 -16.718587960726019 0 0 0 0 258.79250532077276 -74.149888323916457 0 -74.149888323916457 -307.74935627298692 0 0 0 0 1.9770069177816296 -16.459502377842796 0 -16.459502377842796 -13.691430863854009 0 0 0 0 167.04429702703783 -179.38991087500654 0 -179.38991087500654 -325.52016650640144 0 0 0 0 261.47974938740663 -141.98808780655054 0 -141.98808780655054 -560.49148563183917 0 0 0 0 409.31787701696157 -128.89027142956184 0 -128.89027142956184 -827.54465978395456 0 0 0 0 -254.10790271347651 -373.62285818363671 0 -373.62285818363671 -387.56493842837517 0 0 0 0 36.956736866079154 -86.154123354162948 0 -86.154123354162948 -256.21079112661573 0 0 0 0 34.444128918534261 -111.689287221021 0 -111.689287221021 -381.18716935383463 0 0 0 0 24.234470455470728 -38.989398009667639 0 -38.989398009667639 -314.69790662597734 0 0 0 0 7.4477654110651201 -47.778944690220897 0 -47.778944690220897 -374.01437108881328 0 0 0 0 14.068338656820966 -35.363853320503296 0 -35.363853320503296 -111.11336472273332 0 0 0 0 11.160425083312617 -16.06293298711514 0 -16.06293298711514 -16.847862003643822 0 0 0 0 -15.121774625004036 -72.863053526693875 0 -72.863053526693875 105.52413151226574 0 0 0 0 10.022696514854033 -54.654151695288419 0 -54.654151695288419 54.745656265960861 0 0 0 0 68.800408054870786 -55.637193850197946 0 -55.637193850197946 -49.099968472197361 0 0 0 0 1.6857805921757887 -41.003607200416951 0 -41.003607200416951 36.836867323188365 0 0 0 0 -13.433504046935468 -66.002421055593828 0 -66.002421055593828 -44.352149791791803 0 0 0 0 15.31488663010532 -168.4844363191487 0 -168.4844363191487 -119.50720302296395 0 0 0 0 -50.118179392826278 -101.82783674026723 0 -101.82783674026723 76.249112868010343 0 0 0 0 -126.58854528890515 -103.06709986002897 0 -103.06709986002897 96.185129440211313 0 0 0 0 65.352578672522213 -150.40770209157017 0 -150.40770209157017 -117.91278448252888 0 0 0 0 -125.28001746226073 -141.81904763933062 0 -141.81904763933062 -68.80508276369801 0 0 0 0 45.225147529101378 -24.0891198692957 0 -24.0891198692957 -11.841775989552843 0 0 0 0 -198.48636099752184 -203.07415775431627 0 -203.07415775431627 -73.725929879015894 0 0 0 0 9.0743858004284021 -19.826141373249385 0 -19.826141373249385 -2.9002726180162455 0 0 0 0 8.2384928214221222 -16.659839952675057 0 -16.659839952675057 -37.662589133363568 0 0 0 0 89.924657564144582 -65.960047954672518 0 -65.960047954672518 -52.204210260118998 0 0 0 0 24.677806400319952 -41.782525801673913 0 -41.782525801673913 -1.2471881396092754 0 0 0 0 -1.3544947825150189 -8.0383040296374233 0 -8.0383040296374233 4.852825521079362 0 0 0 0 -63.644620093218691 -35.063202999547684 0 -35.063202999547684 86.422371885339089 0 0 0 0 -104.30024008068722 -202.40143220410391 0 -202.40143220410391 -185.28179856757401 0 0 0 0 65.938821542145888 48.152928315207191 0 48.152928315207191 -11.565521725191502 0 0 0 0 24.077841316960985 -66.365832105107984 0 -66.365832105107984 -3.6155386760550527 0 0 0 0 3.5079795871208734 -1.1381534947809655 0 -1.1381534947809655 -6.947248355575482 0 0 0 0 -703.36765380463839 -270.67651780576398 0 -270.67651780576398 73.317637048094184 0 0 0 0 -1.0349890128641732 -14.181402950977031 0 -14.181402950977031 -6.0873127851001101 0 0 0 0 -174.50487015751423 -164.9836069876892 0 -164.9836069876892 -108.95369597099852 0 0 0 0 18.478676939907018 -116.20023827053228 0 -116.20023827053228 -85.703372325071541 0 0 0 0 123.63144386949716 -223.6118993169257 0 -223.6118993169257 -132.0439834703102 0 0 0 0 -125.53704920582823 -250.4352927703585 0 -250.4352927703585 -57.182538875575119 0 0 0 0 92.728042373986682 -150.4957160092672 0 -150.4957160092672 -102.66810937735136 0 0 0 0 176.03424689570602 -48.835602776211999 0 -48.835602776211999 -49.222102871601237 0 0 0 0 24.314494688362224 -38.082462791529764 0 -38.082462791529764 -11.907794557636919 0 0 0 0 143.04324307403294 -71.185011201672751 0 -71.185011201672751 -23.51566848256698 0 0 0 0 177.83652460068333 12.318219129387217 0 12.318219129387217 19.431507246263209 0 0 0 0 154.67994417946466 -57.140897952165687 0 -57.140897952165687 -57.877715618134971 0 0 0 0 139.91589609108632 -28.683200215742545 0 -28.683200215742545 35.695931442483015 0 0 0 0 58.734112794121089 -45.863021091700176 0 -45.863021091700176 -17.199159195072326 0 0 0 0 145.37910111335805 -54.742561123700398 0 -54.742561123700398 -59.263603372659418 0 0 0 0 39.588132416072767 -123.72094197936531 0 -123.72094197936531 -66.317089161617105 0 0 0 0 112.90771420116653 -40.298218081568848 0 -40.298218081568848 -46.703644344226632 0 0 0 0 51.726205634811777 -128.24279222969199 0 -128.24279222969199 -82.824459666062467 0 0 0 0 11.621726700780279 -60.345227393658178 0 -60.345227393658178 -33.080838169839311 0 0 0 0 66.128561914109014 -62.948111463581199 0 -62.948111463581199 -10.848035620972951 0 0 0 0 1.7890119040384889 -82.769829520076655 0 -82.769829520076655 10.07846211940705 0 0 0 0 18.956422417031717 -42.414960256224731 0 -42.414960256224731 -13.805704193629936 0 0 0 0 -114.44857695942483 238.33559675860232 0 238.33559675860232 40.617604526618379 0 0 0 0 14.512291822180487 -60.680911840897579 0 -60.680911840897579 -24.617538157315721 0 0 0 0 23.390722313046865 -29.420590616349102 0 -29.420590616349102 12.744044493553417 0 0 0 0 -132.59579520160332 -196.91703828532991 0 -196.91703828532991 71.311162885700469 0 0 0 0 -999.19410306154168 -752.91870152954652 0 -752.91870152954652 -623.99095685897737 0 0 0 0 -14.851843747635485 -8.8604314892050411 0 -8.8604314892050411 -0.6051537113992751 0 0 0 0 -74.864169037518877 -53.29723204840684 0 -53.29723204840684 -79.351446191722061 0 0 0 0 -928.60433398315581 -974.34394239723906 0 -974.34394239723906 -854.81024998448993 0 0 0 0 -1405.3160612000065 -909.14733563530535 0 -909.14733563530535 -543.03875178075759 0 0 0 0 -1232.7629165196849 -1413.7294926867489 0 -1413.7294926867489 -1315.0172109711712 0 0 0 0 -2.2300512273512823 -0.79039152162295068 0 -0.79039152162295068 -0.47965380423016768 0 0 0 0 -1240.3093605096528 -815.34333466485259 0 -815.34333466485259 -505.8973429283069 0 0 0 0 -1064.7981198357593 -846.24814778937434 0 -846.24814778937434 -792.86723747385804 0 0 0 0 -1115.8467861038807 -608.02431609365885 0 -608.02431609365885 -414.9229121436656 0 0 0 0 -1232.0261709032347 -726.01510168780806 0 -726.01510168780806 -506.16208221322449 0 0 0 0 -1245.6980686402221 -776.73662877409856 0 -776.73662877409856 -427.60598672195192 0 0 0 0 -1268.6374515882344 -836.23356518362925 0 -836.23356518362925 -466.2258957043141 0 0 0 0 -1272.2180573795849 -844.20422064990908 0 -844.20422064990908 -475.2294346905619 0 0 0 0 -1255.6527052060119 -826.95380971692066 0 -826.95380971692066 -504.77468889245938 0 0 0 0 -725.12043359418749 -1251.947367583216 0 -1251.947367583216 -962.38406985592519 0 0 0 0 11.206806958592324 -24.316257373571556 0 -24.316257373571556 25.051581132087811 0 0 0 0 53.197423653214258 -46.735076732073964 0 -46.735076732073964 11.759898978607296 0 0 0 0 -652.76711350644473 -425.47656458311394 0 -425.47656458311394 108.20911614689976 0 0 0 0 -1276.6292747288826 -847.13825906139209 0 -847.13825906139209 -484.64610190082021 0 0 0 0 -1333.681850626228 -561.44593998282926 0 -561.44593998282926 -99.076866224728292 0 0 0 0 -1355.095831296203 -744.14099886919212 0 -744.14099886919212 26.856095417173492 0 0 0 0 -1363.3806008032625 -695.00641684449693 0 -695.00641684449693 -249.59516547275416 0 0 0 0 -1312.2705902857997 -648.58243990951451 0 -648.58243990951451 -221.81249424422867 0 0 0 0 -1219.6475817732207 -656.46104223475049 0 -656.46104223475049 -332.48755255699507 0 0 0 0 -1341.9862793011416 -781.45479896787174 0 -781.45479896787174 -145.06560700016416 0 0 0 0 -1348.5357275082788 -819.16517701524936 0 -819.16517701524936 -356.6268230248088 0 0 0 0 -1367.2218564659415 -819.24142690692406 0 -819.24142690692406 -89.05802272942492 0 0 0 0 -1295.2306701907146 -997.87876237256842 0 -997.87876237256842 -500.16732929733735 0 0 0 0 -1412.1121914341202 -981.76146057069127 0 -981.76146057069127 -307.23123193300489 0 0 0 0 -1595.0271979878744 -1351.0353301588102 0 -1351.0353301588102 -585.84186280819176 0 0 0 0 49.896766563225185 -82.18368803086021 0 -82.18368803086021 119.42361279965527 0 0 0 0 -1207.7693180971783 -1158.0891550397337 0 -1158.0891550397337 -427.52714889498384 0 0 0 0 50.850656982542489 -94.336867714701924 0 -94.336867714701924 122.14117969517599 0 0 0 0 -1448.9989111782779 -838.62991171080466 0 -838.62991171080466 -240.71005179132135 0 0 0 0 28.043207729191636 -217.60940244265657 0 -217.60940244265657 -147.71813638417007 0 0 0 0 24.75459737392157 -206.10770251072836 0 -206.10770251072836 -156.95402875616128 0 0 0 0 -1271.2203439746809 -953.48541782166103 0 -953.48541782166103 -526.95311770033663 0 0 0 0 -1271.2612073624623 -953.14214055242701 0 -953.14214055242701 -416.87066992577184 0 0 0 0 5.2032665225997334 -234.67043021982499 0 -234.67043021982499 -149.412283218943 0 0 0 0 74.869759162284026 -274.07563427737296 0 -274.07563427737296 -267.27814865077744 0 0 0 0 166.38869945428451 -182.69327143538612 0 -182.69327143538612 -183.94406958588479 0 0 0 0 123.51017841044086 -320.23517421453198 0 -320.23517421453198 17.530437549074122 0 0 0 0 44.712789414654253 -161.12940799036915 0 -161.12940799036915 -41.655360422631929 0 0 0 0 118.62693905390915 -261.03222030213874 0 -261.03222030213874 -274.52296337267398 0 0 0 0 -231.61696858428695 -521.40110997465263 0 -521.40110997465263 -326.52452388640995 0 0 0 0 83.139441606241235 -313.24494583667229 0 -313.24494583667229 -440.07990796191007 0 0 0 0 72.154865133634303 -74.192904474216448 0 -74.192904474216448 -227.88879803878808 0 0 0 0 48.812001096550375 -167.39299692584973 0 -167.39299692584973 16.170917373186967 0 0 0 0 118.9404009468999 36.588554430198201 0 36.588554430198201 150.18316474574567 0 0 0 0 51.892885001638206 -61.274604248585547 0 -61.274604248585547 231.24494180212423 0 0 0 0 25.495669600597466 -165.96003891369764 0 -165.96003891369764 -32.238983453738911 0 0 0 0 -1757.7934923188004 -1597.1470795902223 0 -1597.1470795902223 -793.25527022728033 0 0 0 0 -1406.6130443628062 -982.42152101038209 0 -982.42152101038209 -582.36844974236919 0 0 0 0 -74.715210046306311 -98.584651214971018 0 -98.584651214971018 17.223224739591387 0 0 0 0 45.415875727038667 -73.952407053190313 0 -73.952407053190313 100.67104271165735 0 0 0 0 -184.44817885277007 -830.52459889976944 0 -830.52459889976944 -694.54959830154621 0 0 0 0 158.40254051872762 -33.535374778892219 0 -33.535374778892219 -48.878281556887487 0 0 0 0 -797.4939907140797 -710.38229224096085 0 -710.38229224096085 971.36827499188075 0 0 0 0 1044.0220145180292 433.78923376257467 0 433.78923376257467 466.43414763312467 0 0 0 0 852.95073321550444 -842.1558745913851 0 -842.1558745913851 832.90151671457716 0 0 0 0 -175.05296438229561 -616.97143057988069 0 -616.97143057988069 2726.3496668887728 0 0 0 0 -349.15815929062956 72.335796402830965 0 72.335796402830965 873.82094258193683 0 0 0 0 -26.67826826502278 -52.910945757263107 0 -52.910945757263107 299.47954519182531 0 0 0 0 45.811507685750257 162.16154351180921 0 162.16154351180921 614.1157114945654 0 0 0 0 140.85657916530909 -201.14716899190898 0 -201.14716899190898 47.183703686618173 0 0 0 0 273.85991859532078 56.666119399138552 0 56.666119399138552 146.78158362298109 0 0 0 0 -402.34217501168314 243.25052754417811 0 243.25052754417811 2707.4158765359462 0 0 0 0 -362.54041676869838 -324.59022495902082 0 -324.59022495902082 796.31997648307515 0 0 0 0 -309.75103198540455 -357.10849258273629 0 -357.10849258273629 667.92414087549332 0 0 0 0 -341.43455209453532 -393.24097500177868 0 -393.24097500177868 781.0591297785395 0 0 0 0 -305.91478042961899 -666.50040108040594 0 -666.50040108040594 163.61445418109724 0 0 0 0 -82.123612263501855 -478.54932113510949 0 -478.54932113510949 308.41400551141487 0 0 0 0 76.164161346969195 -555.21670509199248 0 -555.21670509199248 -68.258349278656283 0 0 0 0 110.56822121245204 -529.7094354636447 0 -529.7094354636447 -160.14565828960986 0 0 0 0 73.775500090618152 -199.84166182786976 0 -199.84166182786976 158.86103385436218 0 0 0 0 159.5542460878678 -267.03160881872736 0 -267.03160881872736 -67.051253249108413 0 0 0 0 65.700510353592108 -187.31357065975862 0 -187.31357065975862 204.79815035844604 0 0 0 0 -40.342055271084973 -114.41303232323844 0 -114.41303232323844 200.5321800554193 0 0 0 0 133.39973392742104 -194.89762639244395 0 -194.89762639244395 145.27228039075635 0 0 0 0 165.73858073075826 -76.336415355166537 0 -76.336415355166537 201.6353110773216 0 0 0 0 535.81232542813814 -85.916516442888678 0 -85.916516442888678 172.10808879734941 0 0 0 0 7.784473824184488 0.49014398270337267 0 0.49014398270337267 0.093394868768086337 0 0 0 0 198.0851510616485 288.99031699638545 0 288.99031699638545 -40.847025622548244 0 0 0 0 113.71251665845193 -329.5546432018582 0 -329.5546432018582 490.84402708271227 0 0 0 0 114.77509241553344 31.714074119019642 0 31.714074119019642 -313.81894281004861 0 0 0 0 685.54535077771288 272.81015082568047 0 272.81015082568047 -711.3975471933154 0 0 0 0 -315.36675307832047 -832.13077292116668 0 -832.13077292116668 392.28209195736417 0 0 0 0 129.64828220085474 -617.14802690681245 0 -617.14802690681245 -639.87928343568547 0 0 0 0 -66.11556930289953 -306.08013331465918 0 -306.08013331465918 34.660844638212438 0 0 0 0 9.897043142322218 -10.892575578978722 0 -10.892575578978722 683.31954531836527 0 0 0 0 -24.800625309859754 -66.333013243142233 0 -66.333013243142233 -8.0267531098242291 0 0 0 0 -116.15677687535936 -142.49236493389071 0 -142.49236493389071 -91.658832710923889 0 0 0 0 21.577033323463752 -10.317436963862107 0 -10.317436963862107 -17.216455803422484 0 0 0 0 53.374222587823169 -15.828663672415132 0 -15.828663672415132 -300.39671664061825 0 0 0 0 74.21374949766323 -24.502554450711614 0 -24.502554450711614 -359.9073116229165 0 0 0 0 219.51625486359262 -138.7951945491468 0 -138.7951945491468 24.441753721424561 0 0 0 0 89.590403856407647 -218.53416372538004 0 -218.53416372538004 138.50296876665925 0 0 0 0 -100.79834625920921 -300.0705409049624 0 -300.0705409049624 -194.10618949806189 0 0 0 0 -264.54375110213005 -251.20212929423997 0 -251.20212929423997 -166.78607737437414 0 0 0 0 -3.2587099710733156 -8.1607725774553757 0 -8.1607725774553757 -0.7873299435050285 0 0 0 0 -124.0053485330136 -519.23537483889231 0 -519.23537483889231 -219.84587932846807 0 0 0 0 -69.07747343871597 -315.56295797609528 0 -315.56295797609528 -159.57878931150844 0 0 0 0 -18.445503688970348 -415.70870908421784 0 -415.70870908421784 5.4958310326046558 0 0 0 0 -10.003939504622394 -564.12329667968424 0 -564.12329667968424 -661.0210446562196 0 0 0 0 33.824386429812876 -390.59311340991007 0 -390.59311340991007 -385.71565770173493 0 0 0 0 -140.76840496019577 -380.21030864367276 0 -380.21030864367276 -674.14963523080587 0 0 0 0 -92.569377331776195 -606.95157067191758 0 -606.95157067191758 -465.89923260758042 0 0 0 0 -42.984857861752971 -585.49448701056099 0 -585.49448701056099 -642.31247049556259 0 0 0 0 79.816563016291184 -452.77792281690108 0 -452.77792281690108 -510.13053252427562 0 0 0 0 70.278118115835241 -445.24280029323745 0 -445.24280029323745 -478.21589177717578 0 0 0 0 135.6588118245345 -407.33294462308368 0 -407.33294462308368 -502.54970143218452 0 0 0 0 94.324274484068155 -332.67809087107707 0 -332.67809087107707 -360.81671209208071 0 0 0 0 29.194795025483472 -424.08520552351547 0 -424.08520552351547 -479.20820872738022 0 0 0 0 32.627169441911974 -401.63317673585698 0 -401.63317673585698 -454.67701896848666 0 0 0 0 -4.0813145835272735 -502.24457667504612 0 -502.24457667504612 -504.48393336220443 0 0 0 0 -67.973492852393974 -118.90189400104191 0 -118.90189400104191 -235.09221609876658 0 0 0 0 -339.8218126319407 -341.45760840785442 0 -341.45760840785442 -416.51500105329251 0 0 0 0 103.27836884905628 -394.93092099587739 0 -394.93092099587739 -395.95710428847451 0 0 0 0 18.523769047344103 -277.87924978441515 0 -277.87924978441515 -503.17666126577569 0 0 0 0 73.620069912089093 -393.50813408706563 0 -393.50813408706563 -493.55391164926914 0 0 0 0 23.275396359298611 -386.66148013601014 0 -386.66148013601014 -250.2054743823428 0 0 0 0 6.7625844616559334 -320.85223003291685 0 -320.85223003291685 -546.94716244946358 0 0 0 0 -101.58127497638634 -316.39324178123024 0 -316.39324178123024 -501.94233566578805 0 0 0 0 -1.0257106593198841 -344.08383434375264 0 -344.08383434375264 -599.49399431460915 0 0 0 0 -269.62066203713039 -190.04756065780748 0 -190.04756065780748 -508.71386602372149 0 0 0 0 -82.195783022114483 -287.4496897539475 0 -287.4496897539475 -686.7366732384362 0 0 0 0 -8.7994442045714862 -48.21920449175758 0 -48.21920449175758 -84.383245037426974 0 0 0 0 -243.20079474251907 -238.07170969038361 0 -238.07170969038361 -868.70928777630252 0 0 0 0 -316.46211918743211 -144.57956297651072 0 -144.57956297651072 -614.19588277560433 0 0 0 0 -294.55934944135151 -67.583286144469412 0 -67.583286144469412 -751.66198783413347 0 0 0 0 -239.23350204363305 -197.08540236241151 0 -197.08540236241151 -606.16114051139448 0 0 0 0 -106.34180081727391 -205.56611422961214 0 -205.56611422961214 -697.79736004292317 0 0 0 0 -3.461825935417437 -202.22955589179583 0 -202.22955589179583 -672.53404961336128 0 0 0 0 -124.05366659921492 -224.38434024052322 0 -224.38434024052322 -560.03080991759271 0 0 0 0 10.262425143897417 -131.48509976226524 0 -131.48509976226524 -389.39234765880155 0 0 0 0 -19.866518910725745 -64.157834652715124 0 -64.157834652715124 -5.8811896443925793 0 0 0 0 -40.862306801493105 -115.62421400091444 0 -115.62421400091444 -392.79911873192941 0 0 0 0 -149.0533450893854 -248.25528165412743 0 -248.25528165412743 -630.63057985699925 0 0 0 0 -2.3767579668435985 -10.51839472171266 0 -10.51839472171266 -22.153953417462159 0 0 0 0 1.2270982124973671 -127.5421573640333 0 -127.5421573640333 -264.50589520989888 0 0 0 0 22.686687437068031 -64.911108705200604 0 -64.911108705200604 -459.80166066016864 0 0 0 0 -12.688664688277242 -4.1020484302648583 0 -4.1020484302648583 16.205960573174934 0 0 0 0 0.79420583891624119 -155.56395909983075 0 -155.56395909983075 -337.10631686784109 0 0 0 0 -49.207580687994778 -299.88599070686996 0 -299.88599070686996 -331.26137722370913 0 0 0 0 -3.4591802286231541 -204.7104240366607 0 -204.7104240366607 -421.29881977872355 0 0 0 0 -8.4931200938772236 -297.33359099508198 0 -297.33359099508198 -525.62322877926636 0 0 0 0 34.028239408551599 -96.067496460035727 0 -96.067496460035727 -430.90360567378457 0 0 0 0 -22.119508002677009 -64.367886110641408 0 -64.367886110641408 7.0890204261845318 0 0 0 0 -32.268831608394976 -201.44034528009979 0 -201.44034528009979 -398.9195061467326 0 0 0 0 9.7921032946760533 -44.423235349613606 0 -44.423235349613606 -385.49978352020611 0 0 0 0 73.605486031352484 -107.92016195767792 0 -107.92016195767792 -270.5028742067625 0 0 0 0 -40.367645412628917 -94.759021292764146 0 -94.759021292764146 -266.31397754912177 0 0 0 0 8.7983185676130233 -60.756625675268879 0 -60.756625675268879 -142.96522847034976 0 0 0 0 34.5121143051947 -178.12743678027482 0 -178.12743678027482 -98.764006077578415 0 0 0 0 -44.346171134042379 -46.938997054426636 0 -46.938997054426636 109.14357484907805 0 0 0 0 -25.42046474518429 -141.25437717477689 0 -141.25437717477689 37.987980634557971 0 0 0 0 44.271983748010825 -20.170776883392136 0 -20.170776883392136 90.543354201900911 0 0 0 0 4.2246193091881103 -24.57744540919181 0 -24.57744540919181 3.3246481617916537 0 0 0 0 45.459805509279249 -27.632082090304721 0 -27.632082090304721 -59.688098025977069 0 0 0 0 -33.472671239775082 -138.27183151009172 0 -138.27183151009172 -126.19927013962842 0 0 0 0 8.936942054759129 -52.636150492444358 0 -52.636150492444358 -236.1526039672417 0 0 0 0 -66.508324446629558 -94.512695262483248 0 -94.512695262483248 -252.00454794942925 0 0 0 0 -28.00640567058872 -48.702591628886694 0 -48.702591628886694 -288.5202950895291 0 0 0 0 -30.983604849043331 -141.50863954224837 0 -141.50863954224837 -208.14184433215087 0 0 0 0 -57.872165835360647 -151.78993275499761 0 -151.78993275499761 -257.21697786806726 0 0 0 0 0.15270423458423465 -101.61785714142479 0 -101.61785714142479 -217.12769400953493 0 0 0 0 -10.697809074510587 -97.81892102875463 0 -97.81892102875463 -111.61271035297432 0 0 0 0 57.817127175014321 -89.09027645725746 0 -89.09027645725746 -113.8482028670187 0 0 0 0 4.1080209087231196 -141.84464910655242 0 -141.84464910655242 -175.31145493381337 0 0 0 0 -13.971800809405977 -134.042473148515 0 -134.042473148515 -47.709820992213281 0 0 0 0 -1.4632980189489899 -47.279802762258441 0 -47.279802762258441 -132.35755104696364 0 0 0 0 -36.586953172998619 -36.212715667831503 0 -36.212715667831503 81.043470418318975 0 0 0 0 161.2668448612385 -140.6824173919631 0 -140.6824173919631 -10.316922451947903 0 0 0 0 -4.0985414641358773 -59.204689799342688 0 -59.204689799342688 4.7792677314402745 0 0 0 0 -121.96321818559227 105.13697014705826 0 105.13697014705826 48.56287546618114 0 0 0 0 -129.36736235544322 137.1490625589131 0 137.1490625589131 827.56694421501743 0 0 0 0 -209.58499157518236 -574.10880398361041 0 -574.10880398361041 1717.4133110945368 0 0 0 0 -130.77938488475047 -409.12166287816035 0 -409.12166287816035 555.45304028470309 0 0 0 0 -86.301850884672604 -280.95268695317282 0 -280.95268695317282 645.71061342713801 0 0 0 0 -36.546203841455281 -33.990475021188104 0 -33.990475021188104 113.13332441551029 0 0 0 0 219.41317204099323 -440.48203439916506 0 -440.48203439916506 508.80821414835009 0 0 0 0 259.27830387503491 -130.37893275554961 0 -130.37893275554961 -21.399209653225626 0 0 0 0 12.517219880385625 -58.427015666194947 0 -58.427015666194947 1.2515053408659056 0 0 0 0 158.94881632399483 -80.001185611434266 0 -80.001185611434266 -126.21027015945583 0 0 0 0 -52.24397924488585 -44.778010972808261 0 -44.778010972808261 54.320938604683761 0 0 0 0 1554.0199904058172 -459.26818115040624 0 -459.26818115040624 94.524173939463253 0 0 0 0 598.68489975802368 -1162.2389434340112 0 -1162.2389434340112 1741.2505752521247 0 0 0 0 921.76647146059258 -363.50208809284959 0 -363.50208809284959 1524.1466741949525 0 0 0 0 1761.0378821771992 -1287.2700347251821 0 -1287.2700347251821 1519.073276335941 0 0 0 0 412.53403453237115 -884.54952486893671 0 -884.54952486893671 1333.012928767148 0 0 0 0 333.54889331601589 -1061.1115104270298 0 -1061.1115104270298 1029.2953943624925 0 0 0 0 252.44962008744915 -589.22705335118917 0 -589.22705335118917 1181.5518740687949 0 0 0 0 462.31871390881133 -500.30347903301845 0 -500.30347903301845 879.51079658172239 0 0 0 0 484.26491473336137 -649.8826047264522 0 -649.8826047264522 1378.5735539769885 0 0 0 0 318.86342682344548 -530.97985381623039 0 -530.97985381623039 968.02250741389798 0 0 0 0 742.48728700933862 -245.01849386343019 0 -245.01849386343019 902.38956891174894 0 0 0 0 626.12757895061077 -711.71246117743067 0 -711.71246117743067 1446.5079199257634 0 0 0 0 918.950672822255 -706.96622564915742 0 -706.96622564915742 1080.4773191266431 0 0 0 0 445.41707421164028 -1087.6853115484464 0 -1087.6853115484464 1946.9526594005256 0 0 0 0 947.35903051503192 -1004.760681059086 0 -1004.760681059086 1437.4095196229755 0 0 0 0 1107.8411549635784 -1847.0486749734846 0 -1847.0486749734846 2640.9759164771431 0 0 0 0 7.6715705376729204 3.0227869683261801 0 3.0227869683261801 3.3429076543634579 0 0 0 0 -84.719539678389992 -2.224665711124544 0 -2.224665711124544 204.87733056608704 0 0 0 0 -22.800286765833931 -58.866796160880256 0 -58.866796160880256 2.277346885369159 0 0 0 0 -86.317774968774756 -52.560171985960551 0 -52.560171985960551 99.174909872592025 0 0 0 0 6.2256033990429387 9.3228791258010411 0 9.3228791258010411 32.00693120138326 0 0 0 0 534.29114057475817 -1097.8904451128183 0 -1097.8904451128183 1947.5541167523309 0 0 0 0 621.06833843795903 -1388.1550493111117 0 -1388.1550493111117 2893.6362341165368 0 0 0 0 7.6416136159378141 -7.1726160714580871 0 -7.1726160714580871 -1.0799796826034935 0 0 0 0 -18.769176352686245 -32.496113229328657 0 -32.496113229328657 -21.700435132597246 0 0 0 0 -33.182097047767002 -199.45660996524219 0 -199.45660996524219 10.378791297946009 0 0 0 0 49.799902045619092 -100.8797496476036 0 -100.8797496476036 -198.19213302608296 0 0 0 0 42.755392541381298 -135.38829838894526 0 -135.38829838894526 -353.15991701801158 0 0 0 0 -56.942040580882349 59.89431047671016 0 59.89431047671016 -113.04631514958237 0 0 0 0 16.170509023277191 -154.19496476308905 0 -154.19496476308905 -256.40372763392588 0 0 0 0 -20.146749533261755 -136.40813404515939 0 -136.40813404515939 -265.10955812993598 0 0 0 0 -155.28868311873521 -483.12521314009427 0 -483.12521314009427 -1093.3109204440316 0 0 0 0 -351.82025950943353 65.700505030695695 0 65.700505030695695 -100.5614688554333 0 0 0 0 -100.65411721067358 -208.06118859104572 0 -208.06118859104572 -177.05387986845653 0 0 0 0 185.24782057612174 -84.339469010307766 0 -84.339469010307766 -1463.1576008141469 0 0 0 0 -362.13674541361252 -1214.3839089464418 0 -1214.3839089464418 -2102.8245734706024 0 0 0 0 1034.0587800166468 -1345.6345563480445 0 -1345.6345563480445 1280.1141885654797 0 0 0 0 445.14167878506123 -1467.8071226308384 0 -1467.8071226308384 945.88800189165568 0 0 0 0 888.50597571536127 -1096.0035502677219 0 -1096.0035502677219 852.18825075151108 0 0 0 0 -4.4336332298106527 -10.117483822554373 0 -10.117483822554373 -15.060747073308569 0 0 0 0 373.01782343787636 35.380092715268347 0 35.380092715268347 -2409.3860153688329 0 0 0 0 425.73312390804995 -1728.5723692122915 0 -1728.5723692122915 -184.94886346409476 0 0 0 0 -227.81618202046957 -361.67166629319399 0 -361.67166629319399 -283.8846621334269 0 0 0 0 259.07902385424313 -450.63376989835433 0 -450.63376989835433 -277.32562219390456 0 0 0 0 717.15244763474766 -1550.8569880314408 0 -1550.8569880314408 -1875.3354893081637 0 0 0 0 -1773.9414446438095 -1503.0334650098266 0 -1503.0334650098266 -854.44750635107994 0 0 0 0 3.1685638797962739 -4.4916481630813649 0 -4.4916481630813649 -1.2766087261873196 0 0 0 0 2306.082209794029 30.991489341696251 0 30.991489341696251 -950.09209323913456 0 0 0 0 772.05865880257625 204.15506480420299 0 204.15506480420299 68.857765979933902 0 0 0 0 -508.20990258265738 -482.8546658977757 0 -482.8546658977757 270.36845451248087 0 0 0 0 -0.72484515413430017 -3.2330410792261262 0 -3.2330410792261262 -1.0202928766120953 0 0 0 0 -124.33761753790168 -581.91571004198795 0 -581.91571004198795 -663.54357675576125 0 0 0 0 -37.854122131546319 -94.913432582833366 0 -94.913432582833366 -27.708351339621004 0 0 0 0 -315.14210754331725 -904.0775300554742 0 -904.0775300554742 -1608.9649561632405 0 0 0 0 -369.94925382769111 -409.69933376615194 0 -409.69933376615194 -931.95568439471026 0 0 0 0 -320.5176972484478 -855.77275976572673 0 -855.77275976572673 -1209.5338614558823 0 0 0 0 -1279.3586620643109 -641.15297214981729 0 -641.15297214981729 -513.32138004535955 0 0 0 0 -550.20753203643108 -289.96279732734183 0 -289.96279732734183 -348.08324513070693 0 0 0 0 -673.60445291693941 -679.75993589524046 0 -679.75993589524046 -204.4100052908434 0 0 0 0 -82.801594511649455 -434.02695154817684 0 -434.02695154817684 -1003.8866339610431 0 0 0 0 -778.75296305718803 -160.61637328748839 0 -160.61637328748839 -447.55941803459791 0 0 0 0 -707.93616632804333 3.4259264519964745 0 3.4259264519964745 -603.32085361086865 0 0 0 0 -517.81365938366798 -404.18935030044668 0 -404.18935030044668 -684.74689345008301 0 0 0 0 -11.399527941823777 -44.566868299817358 0 -44.566868299817358 -88.735873591534556 0 0 0 0 -417.10979196568223 -407.55878650385421 0 -407.55878650385421 -260.42599939507181 0 0 0 0 -381.30964124256207 -320.97479949190802 0 -320.97479949190802 -224.13373347955348 0 0 0 0 -238.48113450990058 -734.74203188922002 0 -734.74203188922002 -231.70217501120078 0 0 0 0 48.319045344833285 -33.808369291237341 0 -33.808369291237341 -35.319259677506125 0 0 0 0 -2.969762378859734 -22.236747060603619 0 -22.236747060603619 -59.249583470664348 0 0 0 0 15.961730931010692 -9.3123498730020486 0 -9.3123498730020486 -64.123108410036977 0 0 0 0 -16.064274033015316 -52.947589773291952 0 -52.947589773291952 -55.663678071030411 0 0 0 0 45.258772461231274 54.261905337504231 0 54.261905337504231 -42.149369741953706 0 0 0 0 -513.48126065581164 3.0224258422476851 0 3.0224258422476851 -112.05173770280635 0 0 0 0 -709.79991677893486 -152.10028472692193 0 -152.10028472692193 -176.94105869981286 0 0 0 0 -496.30965789458423 -134.54254641899024 0 -134.54254641899024 -575.59463779064345 0 0 0 0 -540.8741713357158 -275.0417918200983 0 -275.0417918200983 -496.0603511472782 0 0 0 0 -562.55617727709068 -204.09728227825121 0 -204.09728227825121 -187.70949797752837 0 0 0 0 -392.44816946172796 -95.438772135301406 0 -95.438772135301406 -283.74251393197846 0 0 0 0 0.47137780299593501 -2.1774442280068058 0 -2.1774442280068058 -3.9513988505519322 0 0 0 0 373.03645894632791 -203.52873109982556 0 -203.52873109982556 -172.96064402171942 0 0 0 0 460.31150544464253 -9.1949891613053296 0 -9.1949891613053296 -48.900671249757579 0 0 0 0 7.07977595795073 -18.681739985693966 0 -18.681739985693966 -0.12136627040148795 0 0 0 0 144.54691731860657 -199.94668859857757 0 -199.94668859857757 -162.50350410192186 0 0 0 0 12.762308245737785 -2.5633921924436578 0 -2.5633921924436578 -6.0894889723296544 0 0 0 0 165.64903588980087 -249.35067882770454 0 -249.35067882770454 -49.696599919354163 0 0 0 0 0.75621466407867999 -5.3775108985172295 0 -5.3775108985172295 -11.280440357779973 0 0 0 0 -27.277438420554518 -302.61464640921611 0 -302.61464640921611 -64.621294783883059 0 0 0 0 478.02155282114472 -40.219354890798968 0 -40.219354890798968 -305.09944607147236 0 0 0 0 -938.9199268415141 -513.35309985832737 0 -513.35309985832737 234.42778887783061 0 0 0 0 900.29205345888477 -498.12910046544766 0 -498.12910046544766 205.04923277603734 0 0 0 0 1147.9991181417281 -370.63578850977638 0 -370.63578850977638 -135.29286751794461 0 0 0 0 4.576847171204335 -5.9336627243419287 0 -5.9336627243419287 2.9522832085742508 0 0 0 0 2575.7820734334928 252.12529654703303 0 252.12529654703303 36.106847680877934 0 0 0 0 1118.1726979398227 -279.05911721626762 0 -279.05911721626762 186.84603026543391 0 0 0 0 1518.1955169477096 -896.91407473012941 0 -896.91407473012941 382.97082488229171 0 0 0 0 636.35535178445934 -629.90480150913027 0 -629.90480150913027 368.84677398023268 0 0 0 0 563.94187350778884 -443.57533775915954 0 -443.57533775915954 160.03414300246004 0 0 0 0 925.20773023829679 -385.10185895294126 0 -385.10185895294126 341.21047444140345 0 0 0 0 969.15173994549696 -369.76337323064308 0 -369.76337323064308 -34.281810520135878 0 0 0 0 709.79124910473911 -403.64952558677851 0 -403.64952558677851 -13.428115042944228 0 0 0 0 678.92625101072736 -513.98258960519547 0 -513.98258960519547 -310.63905290387629 0 0 0 0 100.16924299007951 -512.9459011106901 0 -512.9459011106901 -47.274268792194562 0 0 0 0 1404.452878961456 -780.39560226006324 0 -780.39560226006324 -202.46759737061348 0 0 0 0 1002.4514631099009 -514.6581038080999 0 -514.6581038080999 -231.01680656317512 0 0 0 0 929.89824483702978 -278.74782508517455 0 -278.74782508517455 -399.36709191464593 0 0 0 0 667.71649681348936 -511.96946206173379 0 -511.96946206173379 -365.06812453583507 0 0 0 0 466.78516780300924 -669.42209456420642 0 -669.42209456420642 -106.42135848376711 0 0 0 0 1002.9837582810023 -464.12091794655078 0 -464.12091794655078 -36.852308599169191 0 0 0 0 1038.297886704695 -453.92753523640567 0 -453.92753523640567 -134.36202755895101 0 0 0 0 65.317229260778731 13.18370962636709 0 13.18370962636709 -56.144494110401865 0 0 0 0 44.915455344398652 -113.45956206537812 0 -113.45956206537812 -104.83033235993207 0 0 0 0 -3.8264154567623336 -112.03343101323844 0 -112.03343101323844 -12.23868462673272 0 0 0 0 -5.7943995490006941 -22.785129850812673 0 -22.785129850812673 -53.853481231787576 0 0 0 0 -73.476219970470993 -16.959304583106132 0 -16.959304583106132 1.347822383075254 0 0 0 0 -143.47101250384912 -15.153090116533463 0 -15.153090116533463 20.432737878294574 0 0 0 0 -6.3711357486899942 -17.094738840656646 0 -17.094738840656646 6.7769616987352492 0 0 0 0 -6.2927433925756837 -27.69621454216162 0 -27.69621454216162 -7.2969463542330004 0 0 0 0 2.2764569026767276 1.4605496020412829 0 1.4605496020412829 35.319692410179414 0 0 0 0 -14.738450764539209 -20.17425681071223 0 -20.17425681071223 2.9337513822106303 0 0 0 0 -11.735305735968922 -41.181494345162349 0 -41.181494345162349 -12.569897396482204 0 0 0 0 -0.72519104435893667 -7.025545337965319 0 -7.025545337965319 -11.875337284983615 0 0 0 0 310.60556009066204 31.509819867847 0 31.509819867847 -33.719442136251928 0 0 0 0 204.81187671928637 -401.15644612440974 0 -401.15644612440974 264.65923990820556 0 0 0 0 196.01570514313062 -385.5076801459636 0 -385.5076801459636 293.16020615705656 0 0 0 0 -34.719914684719697 52.81652697505524 0 52.81652697505524 -45.254184731202258 0 0 0 0 -32.828839983805665 76.399306387053002 0 76.399306387053002 -222.68383464002909 0 0 0 0 -3.4433824487064584 -2.1424639916967934 0 -2.1424639916967934 -0.90595502168557829 0 0 0 0 -79.912490467548196 -574.22818886023742 0 -574.22818886023742 271.35948650715636 0 0 0 0 -216.24581323001621 -179.17332008068752 0 -179.17332008068752 160.09651515306541 0 0 0 0 78.429560992342886 -564.14705853604573 0 -564.14705853604573 548.02828201938109 0 0 0 0 200.3441572603333 -383.45346977107147 0 -383.45346977107147 263.34535716526807 0 0 0 0 211.06839763872267 -398.03467943631949 0 -398.03467943631949 241.04137595354769 0 0 0 0 215.98194239264558 -496.1332083580528 0 -496.1332083580528 452.46569235493553 0 0 0 0 211.90815791412751 -524.80095193849138 0 -524.80095193849138 278.81529024678821 0 0 0 0 185.95016710973505 -529.374445019007 0 -529.374445019007 246.91230145122063 0 0 0 0 171.77616551521896 -396.27911821241349 0 -396.27911821241349 -209.27720345582202 0 0 0 0 153.6339694410708 -493.70157449566068 0 -493.70157449566068 -483.34829520360654 0 0 0 0 -73.388630680201459 -385.61029242847599 0 -385.61029242847599 -129.86249126598341 0 0 0 0 -389.27698572903319 -812.82721936742928 0 -812.82721936742928 -19.303728028478872 0 0 0 0 -390.53277863719995 -763.69529174162562 0 -763.69529174162562 -516.57642541746645 0 0 0 0 -508.92409819945169 -429.00938254738503 0 -429.00938254738503 -30.007560044938145 0 0 0 0 -540.04613000694007 -381.51764287890273 0 -381.51764287890273 283.49503626101796 0 0 0 0 561.68291402120667 270.58484874675469 0 270.58484874675469 92.57337874451332 0 0 0 0 13.775038747364306 -77.353070169090643 0 -77.353070169090643 -276.27710181046587 0 0 0 0 19.209597046341514 -114.42627054771947 0 -114.42627054771947 -84.009428497409317 0 0 0 0 -1010.0451486774036 -719.15668830858522 0 -719.15668830858522 41.056859243741201 0 0 0 0 -769.40820805702242 -1956.3696788722664 0 -1956.3696788722664 -1977.6699136199859 0 0 0 0 -2707.7901683160453 -1655.0289501820553 0 -1655.0289501820553 1572.6686039004289 0 0 0 0 -643.40893218543169 574.65793878675481 0 574.65793878675481 1739.9919718473502 0 0 0 0 402.30933941742114 -61.479794777886127 0 -61.479794777886127 -12.111508403711923 0 0 0 0 189.64222487372172 -125.31725100200856 0 -125.31725100200856 20.693714987231942 0 0 0 0 266.94139285370147 -135.75986239577469 0 -135.75986239577469 -73.470003983107745 0 0 0 0 189.59281901584473 -69.934957465477055 0 -69.934957465477055 -55.722432232247229 0 0 0 0 -2.0447801826505199 -19.097333749141328 0 -19.097333749141328 -69.013653672308067 0 0 0 0 236.92846334751448 -353.95134324878745 0 -353.95134324878745 -481.56173795477662 0 0 0 0 435.68738781061256 52.633795476813248 0 52.633795476813248 209.89034910846931 0 0 0 0 -3.4339827114933286 -21.887968467275257 0 -21.887968467275257 -59.88954363793431 0 0 0 0 695.96566433865519 -292.75120445447646 0 -292.75120445447646 -46.542337266859249 0 0 0 0 180.94048949203352 -137.22008610230478 0 -137.22008610230478 75.788803612827905 0 0 0 0 194.23077243413718 -277.92422667732899 0 -277.92422667732899 101.39330104325927 0 0 0 0 298.99424556091435 -379.50901143556621 0 -379.50901143556621 243.23022417129687 0 0 0 0 -5.5552552313383785 -26.92327460506749 0 -26.92327460506749 -1759.6367982367119 0 0 0 0 -1228.2475835532168 423.62800971825891 0 423.62800971825891 378.74957918663858 0 0 0 0 -569.78597182092562 -1210.0025410416092 0 -1210.0025410416092 -3580.9869769768557 0 0 0 0 -1175.4730977783365 368.09991685603745 0 368.09991685603745 -213.23067017589347 0 0 0 0 -20.223538616407311 -17.87161412976025 0 -17.87161412976025 -10.923506223459484 0 0 0 0 -1523.7120219676726 -614.92800043588977 0 -614.92800043588977 889.86350563440647 0 0 0 0 2.4322288660983133 -0.36056892467294865 0 -0.36056892467294865 -2.1500257756610353 0 0 0 0 -2757.3817779971578 -438.73609797917379 0 -438.73609797917379 971.50293748485274 0 0 0 0 -1153.0902243912933 117.86087582710388 0 117.86087582710388 749.41390638748271 0 0 0 0 587.97724273639324 -127.24019892748038 0 -127.24019892748038 22.868042128498928 0 0 0 0 -52.51271273985185 -33.962813983299384 0 -33.962813983299384 79.589039675323875 0 0 0 0 15.537922009316389 147.78969795735429 0 147.78969795735429 -511.51385473699338 0 0 0 0 136.70591506682103 -364.42612997058859 0 -364.42612997058859 -1062.344292692218 0 0 0 0 153.29702634605928 -258.6804736766785 0 -258.6804736766785 -397.14943944688275 0 0 0 0 26.102354342729086 -192.51465517168981 0 -192.51465517168981 -421.26276448340286 0 0 0 0 4.8724985308044211 -23.308523503642167 0 -23.308523503642167 -31.329666685759495 0 0 0 0 -52.511397402202419 -45.208623082433405 0 -45.208623082433405 20.765568632446957 0 0 0 0 0.5459370670359931 -177.72864390143332 0 -177.72864390143332 91.214843447554244 0 0 0 0 0.9653120471193688 -9.2347020019569754 0 -9.2347020019569754 -231.16155078973316 0 0 0 0 103.39834267345213 -47.168514504098312 0 -47.168514504098312 4.8523806349876395 0 0 0 0 -24.719755417981375 -36.283620782311097 0 -36.283620782311097 -5.4766369545721574 0 0 0 0 37.790296334293089 -99.754120555495319 0 -99.754120555495319 20.386544842964213 0 0 0 0 19.734112968884801 42.511566490831683 0 42.511566490831683 70.860730495740427 0 0 0 0 11.145648617379877 0.92738853348581074 0 0.92738853348581074 -23.019661798950608 0 0 0 0 129.28617680843877 -198.49787059004242 0 -198.49787059004242 -286.31783366182208 0 0 0 0 474.71343066269037 363.30478449155635 0 363.30478449155635 256.30886534399542 0 0 0 0 95.771930363831672 -61.363558249375657 0 -61.363558249375657 18.677081100575478 0 0 0 0 759.35135771519253 -88.333845624358673 0 -88.333845624358673 -1344.645371490762 0 0 0 0 503.67548706133311 -597.08325875144146 0 -597.08325875144146 -117.53492267464753 0 0 0 0 -1233.2234925854427 -1430.4699402613296 0 -1430.4699402613296 -763.92534748296021 0 0 0 0 -2.8417211480521551 -11.203087897541351 0 -11.203087897541351 -22.251304894822567 0 0 0 0 -186.50021581673354 1063.427789870002 0 1063.427789870002 657.81153872980099 0 0 0 0 -1101.7894347038455 555.08993560930685 0 555.08993560930685 671.35186306176183 0 0 0 0 646.20836010919447 83.886324610084557 0 83.886324610084557 4.8599700212868129 0 0 0 0 -1347.1656194896104 -597.46955552318559 0 -597.46955552318559 -4.0632808133668732 0 0 0 0 -258.11845517319671 -1176.2684188614967 0 -1176.2684188614967 -1112.9631877889624 0 0 0 0 109.37694285338512 -559.01169148654662 0 -559.01169148654662 -287.62795844998618 0 0 0 0 1202.6397124281621 -204.14746424527402 0 -204.14746424527402 -812.82012265006779 0 0 0 0 619.18307135310897 -797.62389800211167 0 -797.62389800211167 -1414.5162466924921 0 0 0 0 277.68140613022842 -353.41331317227741 0 -353.41331317227741 -481.77511834671168 0 0 0 0 482.57824571705714 -892.00084578612041 0 -892.00084578612041 429.50074870173393 0 0 0 0 673.87365529813542 -942.04806396344611 0 -942.04806396344611 428.82197230487776 0 0 0 0 320.39225069034001 -938.97326738233824 0 -938.97326738233824 715.85541254137888 0 0 0 0 276.84401238973078 -1213.920713870988 0 -1213.920713870988 790.10633090023475 0 0 0 0 533.048555518988 -1224.941589679067 0 -1224.941589679067 -100.6089590373449 0 0 0 0 786.201172844947 -1071.0807662888042 0 -1071.0807662888042 -48.242697723111633 0 0 0 0 989.42279228406551 -697.6546241207925 0 -697.6546241207925 -818.17748769996251 0 0 0 0 816.54432014960184 -1068.8916539716811 0 -1068.8916539716811 -1634.5040111273483 0 0 0 0 520.42612439076765 -99.823393100119574 0 -99.823393100119574 -1318.1981673747978 0 0 0 0 971.03870039662797 -954.02471493090206 0 -954.02471493090206 -148.58456908362859 0 0 0 0 1002.4986496357669 -568.95895857782307 0 -568.95895857782307 68.590148602244881 0 0 0 0 -0.18588038301851384 -2.5760760552255277 0 -2.5760760552255277 2.1187694059006432 0 0 0 0 1984.7204458735068 -576.56799983551173 0 -576.56799983551173 -205.6086376372732 0 0 0 0 -22.377376038328293 -124.83968453755233 0 -124.83968453755233 -115.02800488392313 0 0 0 0 -384.53051916627373 -289.75253677257933 0 -289.75253677257933 -148.36492167150209 0 0 0 0 31.907788259130029 -13.126709411726097 0 -13.126709411726097 -99.691287086132434 0 0 0 0 -42.158106533781392 -64.801867674797904 0 -64.801867674797904 -15.746646700314159 0 0 0 0 1249.5912959188281 -801.73538495811954 0 -801.73538495811954 162.56171811819513 0 0 0 0 -2.4199608699932398 -5.1803498840548343 0 -5.1803498840548343 8.7876366103645793 0 0 0 0 1088.8761082225683 -661.67885462444065 0 -661.67885462444065 362.75061889873905 0 0 0 0 -107.5079391788131 0.087552325106571516 0 0.087552325106571516 38.927500520061585 0 0 0 0 35.829859694917104 -15.216107059706701 0 -15.216107059706701 -5.7473009180885128 0 0 0 0 48.124816535710124 2.7356402944878937 0 2.7356402944878937 -82.393233843835333 0 0 0 0 21.787609984668961 -105.52112091779782 0 -105.52112091779782 75.460611521424653 0 0 0 0 1.6199013417399328 -16.438429804002926 0 -16.438429804002926 -22.629133713074154 0 0 0 0 -0.76149813974188874 -109.28305109150097 0 -109.28305109150097 120.5769947627011 0 0 0 0 54.739243366631854 29.789986709816731 0 29.789986709816731 -58.810708193210303 0 0 0 0 17.03577206988848 -30.805866585849799 0 -30.805866585849799 3.7645607262675185 0 0 0 0 2.2459869249651092 -27.466935601360092 0 -27.466935601360092 119.73403670425614 0 0 0 0 20.895404549759405 -31.014543941737429 0 -31.014543941737429 -97.08876085414613 0 0 0 0 58.764834751861898 -16.346141885190615 0 -16.346141885190615 -79.591690971834964 0 0 0 0 132.44768523156029 78.267741271404674 0 78.267741271404674 -195.00666492689197 0 0 0 0 8.1482137655646341 -14.44014090039536 0 -14.44014090039536 -19.903590417165692 0 0 0 0 -4.1343777907607659 -7.752628889124928 0 -7.752628889124928 18.953927187507418 0 0 0 0 -17.634375900470332 -42.54287078872494 0 -42.54287078872494 70.307475527978568 0 0 0 0 3.0838176536199171 73.624369269064118 0 73.624369269064118 -121.51505632823319 0 0 0 0 365.88408308086946 -492.68503783017695 0 -492.68503783017695 473.43666708614182 0 0 0 0 273.1136221794477 -378.67785964997029 0 -378.67785964997029 385.32375615392448 0 0 0 0 754.53038625115732 -550.24777790268854 0 -550.24777790268854 304.14892449671243 0 0 0 0 237.20637017198533 -674.53880913181911 0 -674.53880913181911 915.29134243872249 0 0 0 0 363.40515874034099 -886.99520643043434 0 -886.99520643043434 763.84722625287759 0 0 0 0 181.70813951431046 -537.41058197257735 0 -537.41058197257735 609.20991682289969 0 0 0 0 284.33193373419635 -370.76798445955137 0 -370.76798445955137 592.34333381388024 0 0 0 0 130.50384941991797 -420.35834475784213 0 -420.35834475784213 637.4586723142238 0 0 0 0 393.53790483458579 -379.09520546006752 0 -379.09520546006752 291.89365724481104 0 0 0 0 32.8202144761417 77.463849531276992 0 77.463849531276992 -124.71566413589971 0 0 0 0 0.067397440325663638 -0.45490642043861307 0 -0.45490642043861307 -0.90749215789207938 0 0 0 0 32.018289195091711 128.9044754689362 0 128.9044754689362 -130.15470829045444 0 0 0 0 31.282113708207362 61.980660237067923 0 61.980660237067923 -220.19450966829027 0 0 0 0 37.201567760377657 122.40975815651473 0 122.40975815651473 -173.50296745894957 0 0 0 0 -201.51086205869797 -110.91581934425176 0 -110.91581934425176 -1.7407024294784605 0 0 0 0 59.431405223778881 -10.472828901477392 0 -10.472828901477392 -75.01330629164903 0 0 0 0 -63.76677709670912 321.41258266211935 0 321.41258266211935 -229.57133927051473 0 0 0 0 1.2641867294246296 -3.2170441582081182 0 -3.2170441582081182 -1.339344613758513 0 0 0 0 -0.55273994546271865 -4.0143130658827459 0 -4.0143130658827459 -0.023152843240140442 0 0 0 0 -28.091167369384493 -54.357062680293893 0 -54.357062680293893 -46.586537710812991 0 0 0 0 72.129465940248338 -75.218645207103691 0 -75.218645207103691 234.42779644463189 0 0 0 0 -47.053481967975586 236.22122003300905 0 236.22122003300905 -124.91948838262761 0 0 0 0 48.759381611154623 -6.4337551942569 0 -6.4337551942569 -80.732043462608985 0 0 0 0 -5.370420223029214 4.6783547441136761 0 4.6783547441136761 -102.25422112678416 0 0 0 0 181.71802191687311 67.628793122716161 0 67.628793122716161 -31.354337900775135 0 0 0 0 272.28694280252967 -74.63719395584485 0 -74.63719395584485 -229.36484785524954 0 0 0 0 -35.814707089957665 -75.460019993392052 0 -75.460019993392052 -81.547732162711327 0 0 0 0 265.0563753867682 -65.46158630132777 0 -65.46158630132777 -50.012625825758732 0 0 0 0 152.13149155930296 166.26741834642598 0 166.26741834642598 66.668109075653774 0 0 0 0 -143.73402548438025 9.4942183067178121 0 9.4942183067178121 103.07055497285182 0 0 0 0 71.919052076191292 9.792872820784396 0 9.792872820784396 -194.17236698046327 0 0 0 0 124.63210997088754 -260.31982299336232 0 -260.31982299336232 208.79909352547111 0 0 0 0 100.98929317507009 -78.141911202780193 0 -78.141911202780193 -171.89449141612567 0 0 0 0 -126.48821295543166 -132.05366612766375 0 -132.05366612766375 152.44189930522083 0 0 0 0 146.35720461523306 -220.26544751738948 0 -220.26544751738948 275.08607573440531 0 0 0 0 207.78959134922843 -386.6821460651372 0 -386.6821460651372 612.18226031561062 0 0 0 0 365.00919558689202 -508.06440141697021 0 -508.06440141697021 279.29310956347763 0 0 0 0 246.20730903312869 -635.25612862549315 0 -635.25612862549315 718.93084336240281 0 0 0 0 232.26282370484114 -522.14781321606279 0 -522.14781321606279 476.18934626238479 0 0 0 0 257.59624475398596 -303.07896067227193 0 -303.07896067227193 167.18456456535205 0 0 0 0 181.11557952765725 -346.14750327565707 0 -346.14750327565707 150.4233985085375 0 0 0 0 76.301495591538696 -75.38414404053492 0 -75.38414404053492 -16.100189478383982 0 0 0 0 29.962544465321116 -106.33476865272678 0 -106.33476865272678 -36.770016657501401 0 0 0 0 112.30102206530864 -252.25485858516913 0 -252.25485858516913 110.00631528121812 0 0 0 0 -36.865372749296512 109.44796126622077 0 109.44796126622077 -153.76411883787659 0 0 0 0 -9.4994695093988923 -37.424535297328902 0 -37.424535297328902 -46.823967111250397 0 0 0 0 201.3017997387833 -64.265240153673403 0 -64.265240153673403 -239.18608347796544 0 0 0 0 90.046042227295686 0.87540370627649722 0 0.87540370627649722 -22.098735106448089 0 0 0 0 69.886525596826687 18.022084546202677 0 18.022084546202677 -200.86408274027781 0 0 0 0 -136.98413215167238 45.159649624150916 0 45.159649624150916 -132.24287875140726 0 0 0 0 -2.4221531175130337 5.3648056047148742 0 5.3648056047148742 -24.894322656358028 0 0 0 0 -78.719695266336203 -165.25340243788378 0 -165.25340243788378 58.237345956760691 0 0 0 0 -224.60995558211289 -479.43271196843125 0 -479.43271196843125 951.71933488654759 0 0 0 0 -16.436163286162923 -13.426317507884463 0 -13.426317507884463 8.0198451359280227 0 0 0 0 -133.71884726556891 -739.21925441755957 0 -739.21925441755957 1375.3426731016516 0 0 0 0 -47.896753873140824 360.27647840348482 0 360.27647840348482 580.95678224018047 0 0 0 0 43.155155009689153 -32.836292785928734 0 -32.836292785928734 19.849446413479313 0 0 0 0 169.7341357344194 -704.24560138305969 0 -704.24560138305969 -155.44174403852594 0 0 0 0 -68.867268172222794 40.6027844111386 0 40.6027844111386 274.32885324434028 0 0 0 0 -13.341704100334027 -254.24411651712944 0 -254.24411651712944 -34.606436327132542 0 0 0 0 65.056238577450216 -40.132225410701608 0 -40.132225410701608 28.753312225997817 0 0 0 0 -3.2203353632407641 -8.8006762840421544 0 -8.8006762840421544 0.71594112478661032 0 0 0 0 178.60155789076816 -553.72299936730633 0 -553.72299936730633 -574.34007075615136 0 0 0 0 -2.9593210220677975 -36.162194081219923 0 -36.162194081219923 288.23379705096886 0 0 0 0 309.70436318044085 -67.767463548618252 0 -67.767463548618252 -237.20466022235269 0 0 0 0 17.159279472602066 -242.89511609648252 0 -242.89511609648252 723.15059342620953 0 0 0 0 385.51948038132832 -363.91626223321873 0 -363.91626223321873 198.32295993175649 0 0 0 0 417.38690717105055 -0.73939931116910884 0 -0.73939931116910884 -236.71343119539233 0 0 0 0 453.67857028407161 212.66256671296287 0 212.66256671296287 341.52748933861585 0 0 0 0 1.0913992854272578 -5.120071041933997 0 -5.120071041933997 0.4741917322337148 0 0 0 0 553.17634748612181 -165.10342030104948 0 -165.10342030104948 -974.24028417021964 0 0 0 0 197.70659179601398 -870.69521730225802 0 -870.69521730225802 1906.4916736081359 0 0 0 0 147.15678885298257 -465.76913465638063 0 -465.76913465638063 513.59530669487867 0 0 0 0 1112.9926748895596 -1249.4290405675674 0 -1249.4290405675674 576.95968356503727 0 0 0 0 584.4834220424018 698.01495757924931 0 698.01495757924931 619.24160987151117 0 0 0 0 666.93749078218798 -1506.6404951362156 0 -1506.6404951362156 853.61180494826112 0 0 0 0 -618.39349150035559 -870.81160979191918 0 -870.81160979191918 1974.092307429135 0 0 0 0 -208.24163486131874 -13.296473259251798 0 -13.296473259251798 1388.6286544656614 0 0 0 0 7.9764171997574778 -11.774870450278044 0 -11.774870450278044 22.926071861643621 0 0 0 0 1205.1008867601849 -445.09165989448593 0 -445.09165989448593 29.813741148551344 0 0 0 0 -1041.5539325608006 -550.63898255918593 0 -550.63898255918593 911.16966923421569 0 0 0 0 -374.52185664082936 -637.02424582664389 0 -637.02424582664389 921.02400014410432 0 0 0 0 -254.92703221084957 -412.68741135025448 0 -412.68741135025448 -347.52326464529688 0 0 0 0 -518.54646201512514 -729.60045841134342 0 -729.60045841134342 1432.1557855899737 0 0 0 0 -700.10515779192428 -643.30770952331841 0 -643.30770952331841 1392.1713154690078 0 0 0 0 -562.23652299892274 -604.64446857821895 0 -604.64446857821895 1680.286740799449 0 0 0 0 14.839027052857745 -39.391581696139696 0 -39.391581696139696 54.11178714825472 0 0 0 0 -187.68172845683148 -196.45585088488588 0 -196.45585088488588 117.9585666180501 0 0 0 0 -83.424059846322052 -5.0444334779458586 0 -5.0444334779458586 -44.783996090642177 0 0 0 0 -127.06379626978924 -112.82541320789005 0 -112.82541320789005 -10.242633076464699 0 0 0 0 -63.46062491661209 -43.081828592666611 0 -43.081828592666611 27.330982995431185 0 0 0 0 -89.476492269255687 -71.435745466122171 0 -71.435745466122171 2.1248477455228567 0 0 0 0 21.369614994613613 -78.679021109882356 0 -78.679021109882356 27.046600048355202 0 0 0 0 -19.258076286031297 -10.830580559555159 0 -10.830580559555159 11.191626502574934 0 0 0 0 47.848606187428231 -150.10698316321032 0 -150.10698316321032 -310.48474736960998 0 0 0 0 -257.68236381816314 153.42832579141805 0 153.42832579141805 376.38473230996897 0 0 0 0 255.93070140124473 29.378164591529639 0 29.378164591529639 -109.15983943874744 0 0 0 0 -0.25195960734151868 1.3668190304221355 0 1.3668190304221355 -1.3608367061794837 0 0 0 0 -88.878696805637446 -308.06067630405596 0 -308.06067630405596 -170.62395087207551 0 0 0 0 -122.83261820925691 -26.014137801164907 0 -26.014137801164907 52.972043565096101 0 0 0 0 95.306750013056444 -100.88833236774371 0 -100.88833236774371 148.57592771314376 0 0 0 0 126.69285928063618 -197.21444874021108 0 -197.21444874021108 399.89352574839722 0 0 0 0 336.56759314415103 -300.69654741275008 0 -300.69654741275008 -34.836372774785559 0 0 0 0 -91.033949595308513 -171.6016168188944 0 -171.6016168188944 285.20946948017081 0 0 0 0 736.71730860471507 -700.12714079717443 0 -700.12714079717443 180.14094416057924 0 0 0 0 524.76236783862987 -767.07668233303411 0 -767.07668233303411 312.29393566528961 0 0 0 0 631.17750926588633 -887.36486020136363 0 -887.36486020136363 392.74024354873109 0 0 0 0 620.39378971812403 -895.1792689791946 0 -895.1792689791946 538.36157835094491 0 0 0 0 421.80282280419488 -658.37270460922446 0 -658.37270460922446 440.4484277520678 0 0 0 0 609.96480979011903 -766.19576624413912 0 -766.19576624413912 710.54377800790826 0 0 0 0 599.9917886909825 -812.14330947580311 0 -812.14330947580311 555.79783370095538 0 0 0 0 412.66807711742149 -637.36478441986765 0 -637.36478441986765 508.11671688324714 0 0 0 0 291.37339329678798 -460.18648616295832 0 -460.18648616295832 372.95374865174381 0 0 0 0 227.49530488125311 -658.94552914658561 0 -658.94552914658561 847.8872407310264 0 0 0 0 9.9859046714555006 -196.70944799581775 0 -196.70944799581775 638.99285720536136 0 0 0 0 -47.005189450661419 1.2593660294951405 0 1.2593660294951405 455.01410764385218 0 0 0 0 -172.94677786150714 -265.51339168433333 0 -265.51339168433333 1300.0237843620125 0 0 0 0 407.67005481015804 -937.92889274321715 0 -937.92889274321715 1660.6398271042854 0 0 0 0 266.78371726657497 -543.17978666699491 0 -543.17978666699491 730.71571364853298 0 0 0 0 -26.25161951033806 -11.578729525633207 0 -11.578729525633207 3.0682311485943501 0 0 0 0 0.090503570604141714 -8.1383614397844184 0 -8.1383614397844184 -0.30417278035153572 0 0 0 0 28.3471380525516 -214.00784898301936 0 -214.00784898301936 1965.2119535053789 0 0 0 0 0.53946533126872964 3.9107109803808271 0 3.9107109803808271 479.48616959195351 0 0 0 0 -4.2219299616190256 1.2652619743919615 0 1.2652619743919615 5.1650992614910933 0 0 0 0 124.45038942729298 -56.489726517240342 0 -56.489726517240342 248.1918428583449 0 0 0 0 -29.173712093950599 -19.235532801700174 0 -19.235532801700174 4.7202883145691885 0 0 0 0 -21.351644238215158 -25.27099613691189 0 -25.27099613691189 -5.053721684795164 0 0 0 0 -25.484581919978893 -13.326303913355829 0 -13.326303913355829 8.8938422654208367 0 0 0 0 12.834906011419662 64.1149814681321 0 64.1149814681321 187.40356689326654 0 0 0 0 29.278312600334175 -19.876374787854729 0 -19.876374787854729 257.44049569431627 0 0 0 0 -68.271742617886048 37.695321633400454 0 37.695321633400454 239.36479608333866 0 0 0 0 -104.39854024923989 -29.983742465354226 0 -29.983742465354226 74.152168276763405 0 0 0 0 -40.823212229108321 -35.767174974233058 0 -35.767174974233058 44.933078672824195 0 0 0 0 -33.2473173899416 -31.530659598778584 0 -31.530659598778584 20.26748357553879 0 0 0 0 -30.711052839586046 -28.566890840476844 0 -28.566890840476844 8.483456375040987 0 0 0 0 -34.628603001409743 -15.496062920370804 0 -15.496062920370804 14.107904445374821 0 0 0 0 -7.454220197308846 -38.596751445767474 0 -38.596751445767474 7.2129344883862245 0 0 0 0 -4.3965708897958393 -44.477911340793071 0 -44.477911340793071 -10.117970331280958 0 0 0 0 -46.18396132664202 -45.404747801745543 0 -45.404747801745543 24.573902419353544 0 0 0 0 -79.192331228733778 -52.352699277432095 0 -52.352699277432095 57.574895247456737 0 0 0 0 540.28968323289882 -809.44655024826716 0 -809.44655024826716 384.26245797945739 0 0 0 0 329.62419011930615 -774.29093581880988 0 -774.29093581880988 693.1958507172094 0 0 0 0 352.62711799031968 -804.99231469939332 0 -804.99231469939332 668.82481792266481 0 0 0 0 398.24855318455957 -534.52010452524701 0 -534.52010452524701 64.267915738462762 0 0 0 0 453.97952735210129 -496.34717662157345 0 -496.34717662157345 90.373628609751904 0 0 0 0 58.669600602413993 -184.35085250304473 0 -184.35085250304473 -86.2836619627451 0 0 0 0 304.0804999666143 -199.95908904043608 0 -199.95908904043608 -167.63091579205138 0 0 0 0 292.32157435813861 -266.19931142737187 0 -266.19931142737187 49.718487002275651 0 0 0 0 323.07974283772091 -488.26999717748913 0 -488.26999717748913 220.80882341567485 0 0 0 0 378.07444469422626 -480.29002917472098 0 -480.29002917472098 214.71397886141131 0 0 0 0 328.19542532808009 -653.42622134566864 0 -653.42622134566864 555.15085906663444 0 0 0 0 226.80459444248663 -492.53796261699335 0 -492.53796261699335 406.04366071814729 0 0 0 0 355.67693044664338 -637.0034121569297 0 -637.0034121569297 613.78930875251535 0 0 0 0 412.80514290752762 -515.38030163627263 0 -515.38030163627263 358.04054761214502 0 0 0 0 551.25160094410239 -877.77518146531656 0 -877.77518146531656 634.4903584129479 0 0 0 0 409.33057501198346 -725.97637843226767 0 -725.97637843226767 568.10793761587411 0 0 0 0 509.5051245643117 -591.05335880247003 0 -591.05335880247003 382.03704843300875 0 0 0 0 704.44283474276017 -875.04885786954401 0 -875.04885786954401 497.02553949758294 0 0 0 0 733.23976173115079 -673.07427232476039 0 -673.07427232476039 544.01957029724872 0 0 0 0 550.63032562081935 -710.49511716866255 0 -710.49511716866255 756.72042113510543 0 0 0 0 446.24847041789326 -626.68825117068627 0 -626.68825117068627 1384.9996825307389 0 0 0 0 1052.7501505449909 -1010.4497511880763 0 -1010.4497511880763 839.08949849347846 0 0 0 0 1016.013240565575 -490.54947235841246 0 -490.54947235841246 860.61303299675637 0 0 0 0 354.74413081539387 -682.9415483106568 0 -682.9415483106568 698.23570328434289 0 0 0 0 414.22629267111188 -695.81240236951271 0 -695.81240236951271 531.41907743752381 0 0 0 0 359.74663801012503 -717.10420375254034 0 -717.10420375254034 920.7879791898813 0 0 0 0 570.85072926807516 -604.79189220412763 0 -604.79189220412763 612.59346546667803 0 0 0 0 436.21366548797232 -747.36654446949251 0 -747.36654446949251 880.32245897675602 0 0 0 0 311.66185505832982 -794.32209235237679 0 -794.32209235237679 900.1800224044855 0 0 0 0 214.14360687095905 -887.44139892316889 0 -887.44139892316889 963.97434273118415 0 0 0 0 321.29016786551801 -820.35424653133668 0 -820.35424653133668 883.61959101518732 0 0 0 0 271.98518630889885 -819.39983304280031 0 -819.39983304280031 1007.0448695688538 0 0 0 0 326.17907065676081 -793.37288950387665 0 -793.37288950387665 1011.0636629141663 0 0 0 0 408.86609667318407 -873.70526828333823 0 -873.70526828333823 998.6517330648494 0 0 0 0 390.40645087556913 -807.30674155896122 0 -807.30674155896122 1001.8508553053107 0 0 0 0 -22.473048673153272 -16.771735767007982 0 -16.771735767007982 -3.7256200370646724 0 0 0 0 524.58139150470379 -238.86779209760425 0 -238.86779209760425 305.49587488737598 0 0 0 0 1166.2779979128391 -704.01610708724183 0 -704.01610708724183 76.28607123906113 0 0 0 0 450.53948096495878 -1063.4835850365707 0 -1063.4835850365707 1144.5368358705164 0 0 0 0 481.81766706990311 -841.52610351559997 0 -841.52610351559997 880.68469610124885 0 0 0 0 486.99772718222812 -860.59657641252852 0 -860.59657641252852 935.17011560499668 0 0 0 0 -132.47661137432442 -1037.7671087815252 0 -1037.7671087815252 1168.7475634696893 0 0 0 0 464.97014588923776 -812.18083117797505 0 -812.18083117797505 938.19033474861408 0 0 0 0 -5.5471981066361877 -6.0065828431511363 0 -6.0065828431511363 -1.3060473218953632 0 0 0 0 464.07603055218351 -798.47458398323215 0 -798.47458398323215 894.9982610231491 0 0 0 0 -33.502253253049275 -43.105778305562126 0 -43.105778305562126 -23.211607203222229 0 0 0 0 -21.999578334878748 -15.372154430605946 0 -15.372154430605946 12.35767906221372 0 0 0 0 520.11308306093997 -707.36666300314391 0 -707.36666300314391 803.81198992198551 0 0 0 0 -35.148344392250692 -29.661833537256371 0 -29.661833537256371 -1.5424232298028073 0 0 0 0 -32.941032154241469 -29.434686240980312 0 -29.434686240980312 -20.779440211377704 0 0 0 0 172.90635948532872 -741.05167499431991 0 -741.05167499431991 984.31624145084606 0 0 0 0 90.724714202780888 -863.95802092439953 0 -863.95802092439953 1087.1676141979988 0 0 0 0 155.73544074287202 -1025.7995781425052 0 -1025.7995781425052 1481.4076632468932 0 0 0 0 372.87690899382869 -981.71809837562614 0 -981.71809837562614 755.08759611479582 0 0 0 0 249.54632642717479 -950.90223785481248 0 -950.90223785481248 1076.2467538890851 0 0 0 0 1050.3783089223725 -986.43845931459509 0 -986.43845931459509 311.12744793864476 0 0 0 0 398.96970703316401 -1055.1310388812726 0 -1055.1310388812726 961.59016892330692 0 0 0 0 342.89148492003733 -1086.421765700703 0 -1086.421765700703 971.95202741613139 0 0 0 0 -106.23084727840978 -158.06644063647218 0 -158.06644063647218 2554.9970048063551 0 0 0 0 771.64557107423752 -1854.1664395534372 0 -1854.1664395534372 2217.4719559991863 0 0 0 0 889.71757285071362 402.15490338321615 0 402.15490338321615 774.31682308819654 0 0 0 0 1077.1782784354655 -2042.827176690218 0 -2042.827176690218 1920.6360371599221 0 0 0 0 601.66722983555337 -876.25797454126496 0 -876.25797454126496 -459.82353267069993 0 0 0 0 232.22848356457689 -327.450989930172 0 -327.450989930172 -31.810883554557222 0 0 0 0 2381.3219454976715 -1066.6694468663809 0 -1066.6694468663809 253.68546640477871 0 0 0 0 604.64107381857684 -261.20963768599904 0 -261.20963768599904 11.611790314149403 0 0 0 0 417.01018167308939 -409.5062350836215 0 -409.5062350836215 -103.49584026878802 0 0 0 0 416.1608998725485 -9.5789586380477658 0 -9.5789586380477658 -535.24435057274968 0 0 0 0 -177.2835856375732 796.99398962001669 0 796.99398962001669 -473.89085952407913 0 0 0 0 -6.7608886804046051 -10.285096165568081 0 -10.285096165568081 -15.304395835795148 0 0 0 0 365.32907522255846 -439.76051355499658 0 -439.76051355499658 88.321184423518389 0 0 0 0 363.03076274944033 -170.23596170091241 0 -170.23596170091241 -172.76136472982034 0 0 0 0 137.80231467333215 -68.094145320872485 0 -68.094145320872485 193.18937417654161 0 0 0 0 -173.17396955008735 373.67410483409549 0 373.67410483409549 -384.88413190592109 0 0 0 0 -12.784587611848252 -20.220129410870999 0 -20.220129410870999 -31.741094554946017 0 0 0 0 271.01921900086381 -407.56386580427989 0 -407.56386580427989 58.727106255428225 0 0 0 0 -9.6719955964190376 20.182269301740689 0 20.182269301740689 -393.91809645826288 0 0 0 0 12.117123689457003 -97.01414123889208 0 -97.01414123889208 -315.37284856800397 0 0 0 0 209.76703570227255 -159.80224648866351 0 -159.80224648866351 -274.64929662629584 0 0 0 0 58.542900024964183 56.575800662943948 0 56.575800662943948 -84.201619208375632 0 0 0 0 152.44241356851126 -76.973979043959844 0 -76.973979043959844 209.32496882886335 0 0 0 0 -40.736435925886326 -254.23661140394324 0 -254.23661140394324 47.424654890977763 0 0 0 0 -23.714617165602249 -160.86065377300019 0 -160.86065377300019 -136.1504042066299 0 0 0 0 -2.4855451289622579 -457.88236127332129 0 -457.88236127332129 212.96842221693484 0 0 0 0 10.945945179380942 -421.55043404648859 0 -421.55043404648859 -155.61078504248871 0 0 0 0 -5.9787772321851094 -2.9120838559493976 0 -2.9120838559493976 -0.78609195557666567 0 0 0 0 -744.86577154946281 632.48334466505548 0 632.48334466505548 -59.064388792437967 0 0 0 0 -626.68068972204856 959.47236278444325 0 959.47236278444325 -657.62438792470493 0 0 0 0 -614.69946248369524 -106.35738322840189 0 -106.35738322840189 410.11691962553596 0 0 0 0 -71.588014340180962 -114.56354332787669 0 -114.56354332787669 -1137.2166059315641 0 0 0 0 58.963682713984724 -36.142830461504246 0 -36.142830461504246 23.177431031093747 0 0 0 0 -641.99979399869335 -5.7897646796845947 0 -5.7897646796845947 -324.02112928074348 0 0 0 0 1.671640543063404 -131.47655812822632 0 -131.47655812822632 -245.40980339269481 0 0 0 0 -0.41262505458871601 -20.429863568562723 0 -20.429863568562723 -583.58348984138684 0 0 0 0 -24.717369395671994 -115.38061829002982 0 -115.38061829002982 -77.436772762695909 0 0 0 0 -2.4648367366956165 0.88435740805024921 0 0.88435740805024921 -19.682598347433384 0 0 0 0 24.611907784562362 -3.22434135601506 0 -3.22434135601506 -59.07269946140724 0 0 0 0 -34.856087261370703 -83.376081708509446 0 -83.376081708509446 123.4601900659618 0 0 0 0 94.351633687751587 -64.818963943154486 0 -64.818963943154486 28.51477689191978 0 0 0 0 221.85997504414991 -177.43037885416561 0 -177.43037885416561 -134.91476486721149 0 0 0 0 124.34359945444157 -156.19965519946709 0 -156.19965519946709 -3.5036529250010062 0 0 0 0 98.226332023012219 -288.16789876655093 0 -288.16789876655093 21.396162837331758 0 0 0 0 -858.5978863709388 -1981.2813656685685 0 -1981.2813656685685 -2122.9107584915037 0 0 0 0 -774.07415653029602 -1147.2687452543396 0 -1147.2687452543396 -804.95536254839681 0 0 0 0 -302.87167069314819 -844.56488402417017 0 -844.56488402417017 -1248.3611348301056 0 0 0 0 274.86123278006562 -60.114766761907958 0 -60.114766761907958 -189.10063052669284 0 0 0 0 -437.63165936022415 -982.36664126710457 0 -982.36664126710457 -543.81874431496544 0 0 0 0 -52.537796071730554 -1045.6873105413179 0 -1045.6873105413179 -1606.7426589271163 0 0 0 0 -836.87843380743288 -1385.6147116656321 0 -1385.6147116656321 -1353.8140792515078 0 0 0 0 -1088.2596548084312 -308.8176278477722 0 -308.8176278477722 -846.49235516104818 0 0 0 0 -344.55974527689978 -709.1470454593873 0 -709.1470454593873 -643.0847760039178 0 0 0 0 -375.38019067553978 -35.489871978083102 0 -35.489871978083102 -458.68804684236238 0 0 0 0 -386.02933736115847 -60.923546048067237 0 -60.923546048067237 125.54691072311834 0 0 0 0 48.01991651466949 -78.582247500030888 0 -78.582247500030888 27.5505071741606 0 0 0 0 176.94835560297361 -173.42399646906779 0 -173.42399646906779 -297.96008004483883 0 0 0 0 706.46101093375182 61.169803409429733 0 61.169803409429733 -287.19401470833691 0 0 0 0 318.69391991916928 65.266894517306355 0 65.266894517306355 -294.95624982788286 0 0 0 0 161.64963300633826 -166.59734685695003 0 -166.59734685695003 -410.06135550889667 0 0 0 0 -98.082987945497734 106.56626408830198 0 106.56626408830198 45.600700498907827 0 0 0 0 532.99111030036875 285.93792169100197 0 285.93792169100197 -131.96951349941082 0 0 0 0 571.1855672779493 218.96105380931112 0 218.96105380931112 -157.37300860071991 0 0 0 0 580.80172776599647 126.09925469259906 0 126.09925469259906 34.668256147007924 0 0 0 0 898.76742781710345 -299.50545306655113 0 -299.50545306655113 594.38009546755347 0 0 0 0 -17.009947919583567 -14.122184577557192 0 -14.122184577557192 8.8565658429740211 0 0 0 0 106.76544709631708 -76.150424953768379 0 -76.150424953768379 -426.75935986838886 0 0 0 0 15.647723801768734 -24.688335618018755 0 -24.688335618018755 -440.69383504654979 0 0 0 0 -146.08415721775964 -188.03918724296818 0 -188.03918724296818 -366.71713094807637 0 0 0 0 -223.02583327213506 -376.96650010765734 0 -376.96650010765734 -504.64635850247578 0 0 0 0 -56.496632609909284 -428.42688632397039 0 -428.42688632397039 -759.66906940344779 0 0 0 0 165.26263022125931 201.95793332101312 0 201.95793332101312 250.97427545830033 0 0 0 0 257.08025231357897 -257.81903556639736 0 -257.81903556639736 164.65168500728032 0 0 0 0 691.74764740277897 -167.09786783108666 0 -167.09786783108666 -162.85181160958018 0 0 0 0 8.0202374926429911 -294.24449630006256 0 -294.24449630006256 -287.57212496164721 0 0 0 0 -43.016551361550228 -74.923230428234092 0 -74.923230428234092 68.558924400116666 0 0 0 0 118.45607551472494 -11.089000872641918 0 -11.089000872641918 -4.4187584036990302 0 0 0 0 -54.282329784560716 124.04673296536203 0 124.04673296536203 -104.93724309143727 0 0 0 0 -84.317550005187513 -196.97000141074386 0 -196.97000141074386 -141.6518761520756 0 0 0 0 -21.072309123686864 -270.26018793458206 0 -270.26018793458206 24.244457532807246 0 0 0 0 -37.844362406758592 -122.86827212663047 0 -122.86827212663047 -9.0351313581704744 0 0 0 0 -24.05323137967207 -188.20211264826503 0 -188.20211264826503 -141.18032861113898 0 0 0 0 -80.671634155965876 -211.66909365015454 0 -211.66909365015454 130.76050455990026 0 0 0 0 -94.346871420129901 -164.83132872107672 0 -164.83132872107672 94.790086761349812 0 0 0 0 -45.055347740053548 -111.77959091289813 0 -111.77959091289813 -26.887858490139479 0 0 0 0 55.461424696113681 -297.80298766388296 0 -297.80298766388296 22.527185627186554 0 0 0 0 19.161654520736192 -224.95208994985296 0 -224.95208994985296 -98.488315509472159 0 0 0 0 118.77181479327555 -246.1949855663479 0 -246.1949855663479 -267.66811089757539 0 0 0 0 -29.328201508033089 -164.07775720920472 0 -164.07775720920472 -144.80558740355627 0 0 0 0 41.904719981597736 -127.18125980684272 0 -127.18125980684272 -385.74610868759919 0 0 0 0 43.667831439161091 -206.27719797661848 0 -206.27719797661848 -487.01781783555634 0 0 0 0 -63.368336013969383 -94.139717945960001 0 -94.139717945960001 -263.00750646568486 0 0 0 0 -0.14087356091840775 -232.20715049365026 0 -232.20715049365026 -163.0431804072432 0 0 0 0 52.560581567158806 -41.435792783311626 0 -41.435792783311626 -808.39773596264422 0 0 0 0 202.53233415527939 -86.669607976939005 0 -86.669607976939005 -1253.7774239974242 0 0 0 0 6.1587240262306295 -222.08924542794557 0 -222.08924542794557 -485.8004185974155 0 0 0 0 -39.753972223858 184.93675039960362 0 184.93675039960362 -784.38062843311036 0 0 0 0 35.274758204122008 -213.24424976414639 0 -213.24424976414639 -466.8436887501739 0 0 0 0 -34.793672185682226 -114.10953505802172 0 -114.10953505802172 -565.17541571667971 0 0 0 0 48.891791142799775 -203.80470998246165 0 -203.80470998246165 -771.88272644327662 0 0 0 0 -180.42034247459378 107.21259420103888 0 107.21259420103888 -538.75317794509647 0 0 0 0 -44.456982006384351 -141.45054204492226 0 -141.45054204492226 -426.19145092037797 0 0 0 0 -26.661249345139368 -82.368894377847027 0 -82.368894377847027 -368.32664750731783 0 0 0 0 -52.219803685133229 -209.69243070885204 0 -209.69243070885204 -184.98162146090544 0 0 0 0 -90.105179785881774 -78.710606730368454 0 -78.710606730368454 -474.75710812543912 0 0 0 0 972.08698700570676 73.095359698842003 0 73.095359698842003 555.65810616084491 0 0 0 0 -710.57151779480773 -444.33999297139417 0 -444.33999297139417 2211.7701268557257 0 0 0 0 3.1790699992085649 1.4145000241145951 0 1.4145000241145951 1.517184080845599 0 0 0 0 -143.5500758195376 -434.01485997152713 0 -434.01485997152713 654.13980689538221 0 0 0 0 -76.577442960595363 -597.13945473410422 0 -597.13945473410422 538.209151020852 0 0 0 0 25.655035929530641 -211.57686706237246 0 -211.57686706237246 -516.69879063818735 0 0 0 0 -74.665150059518055 -579.19598995073648 0 -579.19598995073648 45.497518589276297 0 0 0 0 -39.699078248593054 -10.03325309681378 0 -10.03325309681378 -2.5163328983568825 0 0 0 0 -272.67021625687266 54.808947599130079 0 54.808947599130079 -732.05484748630988 0 0 0 0 -194.08226232841844 12.279825703208189 0 12.279825703208189 536.23275519016897 0 0 0 0 14.175474094818838 -67.48289065034588 0 -67.48289065034588 -4.4076049491343809 0 0 0 0 111.96913756192953 -53.35796982015745 0 -53.35796982015745 393.13421703366839 0 0 0 0 -168.98373507955694 54.069138605958869 0 54.069138605958869 368.73308326394181 0 0 0 0 93.235576860970468 176.57211172657844 0 176.57211172657844 96.976188426313456 0 0 0 0 319.25919485038321 -10.186277222011995 0 -10.186277222011995 242.88688979017024 0 0 0 0 -194.23601082656933 -169.65652264931668 0 -169.65652264931668 882.81093666478409 0 0 0 0 428.49391642860428 163.28000808789875 0 163.28000808789875 95.606060012542002 0 0 0 0 -84.339041419568758 -30.138337661884151 0 -30.138337661884151 14.987180778118473 0 0 0 0 24.090167524907294 -88.56095519491808 0 -88.56095519491808 59.391262018013904 0 0 0 0 458.38005105169213 -640.98854606680652 0 -640.98854606680652 186.04820685947197 0 0 0 0 79.040562265989138 -186.75810410927079 0 -186.75810410927079 122.65230344313613 0 0 0 0 -148.81570260747685 -712.11062790545111 0 -712.11062790545111 1150.658511616668 0 0 0 0 81.996285902481759 -873.27771243608004 0 -873.27771243608004 1232.4968737015388 0 0 0 0 -4.9658743806659231 -18.611502380944756 0 -18.611502380944756 -9.0890925646416747 0 0 0 0 -280.1139962120069 113.66569620881091 0 113.66569620881091 1268.9782173000604 0 0 0 0 1217.8890282596694 -255.93246794275365 0 -255.93246794275365 1263.6032315104603 0 0 0 0 579.75073448839248 -1599.5629077101221 0 -1599.5629077101221 2545.1940371753808 0 0 0 0 -728.67636436448811 -474.27961238748048 0 -474.27961238748048 1707.97299270441 0 0 0 0 1050.6130477832339 -1908.1540567036573 0 -1908.1540567036573 2213.9824081682254 0 0 0 0 2538.8252551788173 -2374.4072030018579 0 -2374.4072030018579 1899.4472356630722 0 0 0 0 1066.1563052045822 -1602.5859984206218 0 -1602.5859984206218 1627.9763596117045 0 0 0 0 1591.2489558231755 -697.68064632551977 0 -697.68064632551977 233.93224736323828 0 0 0 0 800.69381295438507 -969.67489463111815 0 -969.67489463111815 629.49659317427722 0 0 0 0 1199.4346335629816 -885.67771031579832 0 -885.67771031579832 688.46592442030669 0 0 0 0 2959.927017830676 -1402.8708383513331 0 -1402.8708383513331 729.7170976264897 0 0 0 0 1619.0363270990492 -962.58553049682087 0 -962.58553049682087 606.08455262469215 0 0 0 0 326.67475862106949 -1272.5660709800977 0 -1272.5660709800977 1705.2632677244837 0 0 0 0 1706.1829215318194 -1447.4990503709973 0 -1447.4990503709973 771.43791270819202 0 0 0 0 1275.3669366954127 -1283.4817753005154 0 -1283.4817753005154 744.56678613122494 0 0 0 0 134.93879359704442 -1011.0897224989312 0 -1011.0897224989312 1298.8671455698604 0 0 0 0 141.65320959544624 -1013.7161112826325 0 -1013.7161112826325 899.46373367024898 0 0 0 0 247.61990983511714 -866.57592906648733 0 -866.57592906648733 988.91850222342327 0 0 0 0 -10.570781353228085 -854.81098413451764 0 -854.81098413451764 861.43039585185034 0 0 0 0 177.97883349247604 -566.32949647593341 0 -566.32949647593341 377.10975350929948 0 0 0 0 86.324505330409011 -792.45084923177046 0 -792.45084923177046 1039.1137623970499 0 0 0 0 451.78858520252106 -847.43857789501635 0 -847.43857789501635 659.74561388476104 0 0 0 0 207.28508936868548 -211.41382494637173 0 -211.41382494637173 168.4673748176574 0 0 0 0 1077.5340832350048 -282.3628652221596 0 -282.3628652221596 -88.502565714836237 0 0 0 0 349.48893220367609 -771.45145838434473 0 -771.45145838434473 531.54990836009438 0 0 0 0 63.935494792065583 -919.29469667359808 0 -919.29469667359808 492.40514861339943 0 0 0 0 198.76462781599366 -456.20366453947145 0 -456.20366453947145 59.283060951107473 0 0 0 0 183.58087342280487 -700.97211561048516 0 -700.97211561048516 22.166653458501969 0 0 0 0 -140.7045755494546 -806.25045412901636 0 -806.25045412901636 762.59576303480935 0 0 0 0 -42.513463242532453 -907.89437847918089 0 -907.89437847918089 774.82549205411306 0 0 0 0 -14.440280444701784 -915.21582182161728 0 -915.21582182161728 828.39469796928097 0 0 0 0 -33.863351696745667 -988.05099469832567 0 -988.05099469832567 1195.4183663536969 0 0 0 0 -41.62094142967544 -943.74386719478935 0 -943.74386719478935 900.30028956951901 0 0 0 0 377.79397412211983 -1141.2139785950203 0 -1141.2139785950203 1251.9416646855825 0 0 0 0 80.815546057870961 -728.850975348676 0 -728.850975348676 1174.9224187996515 0 0 0 0 799.03899937913229 -494.94119196797783 0 -494.94119196797783 1129.3616945679933 0 0 0 0 102.92850844161876 -498.78271282849528 0 -498.78271282849528 2531.2634584306084 0 0 0 0 706.56823155823804 -799.89076300169472 0 -799.89076300169472 1028.2630819832666 0 0 0 0 407.7873513993909 -870.02833555717007 0 -870.02833555717007 455.38253444345901 0 0 0 0 116.06308461019762 -233.27143655080317 0 -233.27143655080317 849.91024806407222 0 0 0 0 -196.99714435572969 -222.11405590799041 0 -222.11405590799041 49.268057800629322 0 0 0 0 352.18671977237682 -265.8908123719284 0 -265.8908123719284 638.89321378763179 0 0 0 0 214.16661414723785 -297.34428870584088 0 -297.34428870584088 -99.013115304815074 0 0 0 0 367.67249467229703 -527.81336014166118 0 -527.81336014166118 155.96307450495715 0 0 0 0 405.62010192604293 21.952237554812427 0 21.952237554812427 53.027501120948727 0 0 0 0 722.91357105763745 -398.9007117585661 0 -398.9007117585661 593.37765442359159 0 0 0 0 346.95863189424563 -405.76339712892513 0 -405.76339712892513 1453.4236950852935 0 0 0 0 507.5094816835699 -291.08920061711433 0 -291.08920061711433 972.25915739510128 0 0 0 0 683.98956608719527 -184.5533039885886 0 -184.5533039885886 421.04215723883681 0 0 0 0 347.89093133350252 12.583080738029821 0 12.583080738029821 213.20621496572721 0 0 0 0 456.07865478440362 -285.87177176160185 0 -285.87177176160185 382.83753486404203 0 0 0 0 466.95161445545091 -184.22975578778278 0 -184.22975578778278 547.0143332729167 0 0 0 0 442.76025625821785 -340.69978765349697 0 -340.69978765349697 894.81598520091939 0 0 0 0 393.52233081214945 6.9075946407192532 0 6.9075946407192532 -25.876552220765916 0 0 0 0 620.19760352579033 -24.595638412802145 0 -24.595638412802145 -38.431071715158396 0 0 0 0 267.61234723661255 -381.07947439556665 0 -381.07947439556665 242.35772213726705 0 0 0 0 505.46036128819833 -104.69986418235112 0 -104.69986418235112 -271.80610808412166 0 0 0 0 127.3435860143145 -130.33616660137704 0 -130.33616660137704 -62.313235319725209 0 0 0 0 274.83801384241087 96.186535123649264 0 96.186535123649264 -236.39996685944789 0 0 0 0 239.84172485469026 -87.170152185706684 0 -87.170152185706684 -273.70672705614106 0 0 0 0 -47.169389948859134 -144.01071735168853 0 -144.01071735168853 140.42509353524656 0 0 0 0 56.901218874611402 -7.7227773457537445 0 -7.7227773457537445 -2.4087310304529765 0 0 0 0 231.85839847634634 95.610089278485248 0 95.610089278485248 -537.55403915582065 0 0 0 0 -5.7784403636815114 120.87529264966315 0 120.87529264966315 -158.00638951615838 0 0 0 0 -58.762884536365164 -98.040304433456186 0 -98.040304433456186 -210.76216033117271 0 0 0 0 -383.0819750396513 -758.36911329142276 0 -758.36911329142276 2231.0054997652805 0 0 0 0 -54.915668555579032 172.63794803429846 0 172.63794803429846 -381.50098578089637 0 0 0 0 22.976821919875505 -6.0284848253724448 0 -6.0284848253724448 -1.8861065138552107 0 0 0 0 57.783624451520154 82.668502878195795 0 82.668502878195795 -657.2543620685592 0 0 0 0 -9.6066588622331039 -6.0381216683633241 0 -6.0381216683633241 -1.0568621238851374 0 0 0 0 249.61873678746633 92.215594008015614 0 92.215594008015614 1629.7176561497472 0 0 0 0 435.31146212969907 -117.80387820843316 0 -117.80387820843316 -2047.3540461619668 0 0 0 0 -66.019461369636701 -628.95627229036472 0 -628.95627229036472 -31.086718076110628 0 0 0 0 157.99104800616624 -839.32890038309051 0 -839.32890038309051 -1288.4582348669428 0 0 0 0 213.50469760983833 -203.68351553190951 0 -203.68351553190951 -891.82106737202412 0 0 0 0 -56.377737469309068 -69.314249363842464 0 -69.314249363842464 -162.96024948803097 0 0 0 0 -244.97870247306128 -783.80995290197097 0 -783.80995290197097 -577.90086659178269 0 0 0 0 314.21106055263954 -689.83626821597136 0 -689.83626821597136 -243.4914230601571 0 0 0 0 443.248224495881 -860.36604668069776 0 -860.36604668069776 -1486.4374733714503 0 0 0 0 
</DataArray>
<DataArray type="Float64" Name="cross_section_updated" format="ascii">
0.011363278943622553 1 1 1 1 1 1 1 1 0.0096597659264293367 1 1 1 0.010429231374726816 1 1 1 1 1 1 1 1 1 1 1 1 1 1 1 0.0096604472083353862 1 1 0.013340246426139506 1 1 1 0.01354422682350883 1 1 1 0.011566804401972344 1 1 1 1 1 1 1 1 0.010140814225324223 1 1 1 1 1 1 0.0074098136282426813 1 1 1 1 1 1 1 1 1 0.014129243462744405 1 1 0.010099516280236143 1 1 1 0.0055565328291426533 1 0.010675168190337612 1 0.008102100107865419 0.0036065006244622513 1 1 1 1 1 1 1 1 1 0.0082912585155258678 1 0.011232597210651625 1 1 0.010963683380724188 1 1 1 1 1 1 1 1 1 1 1 1 1 1 1 0.010040237455790515 1 1 1 1 0.0046909715765189042 1 1 0.0099996578236191194 0.0067200060467892883 1 1 0.01000185025981868 1 1 1 0.0097552497493422277 0.0065035211009551591 0.01073902185130594 1 0.006029185849182217 1 1 1 1 1 1 1 1 1 0.010156966669919996 0.0043685882050023064 1 1 1 1 1 1 0.0099966141326426269 1 1 1 1 1 0.0039814695360126176 0.011977943817227815 1 1 0.0057548035627146832 1 1 0.0061975689238655575 0.00900295752701415 1 0.010369372224720895 0.011121694208521398 1 1 1 1 1 1 1 1 1 1 1 1 0.010963090494998974 1 1 0.0089144808291834743 1 1 1 1 1 1 1 1 1 1 1 1 1 1 1 1 1 1 1 1 0.010428914169721429 1 1 1 1 1 1 1 1 1 1 1 1 1 1 1 0.0038738144705979874 1 1 0.004680940679923265 1 1 1 1 0.0055453216486505419 0.0061402782222702013 1 1 1 1 1 1 1 1 1 1 1 1 1 1 1 0.0097285402688022452 1 1 1 0.0093893066396092302 1 1 1 1 1 1 1 1 0.0035251350471271897 0.010946872277206955 1 1 1 1 1 1 1 1 1 0.0079587684882450813 1 1 1 1 1 0.0092636476938810462 1 0.010044486924208784 1 1 1 1 1 0.010429497984347197 0.010122869463061672 1 1 1 0.0064409674815057681 1 0.0096798731062206697 1 1 1 0.011259074347086478 1 0.0096125392171962573 1 1 0.010933784825803393 1 1 1 0.0083869541729249195 1 1 1 1 1 0.015066805230776421 0.012968514284339332 1 1 0.0049767152627165114 1 0.014480237063428901 0.0045106146379388264 1 1 0.009347386115448995 1 0.0015054436538872347 1 1 1 1 0.010459233950480228 1 0.0046629363516919424 1 1 0.0139372653963298 0.014152263704462455 0.0053432536159351424 1 0.01333933652319611 1 0.004703946133651913 0.013323510483692146 1 1 1 1 1 1 1 1 1 0.010054798885610271 1 1 1 1 1 1 1 1 1 1 1 1 1 1 1 1 1 1 1 1 1 1 1 1 0.0040602856882519592 1 0.0094935301837122746 1 1 1 1 1 0.0043508441581560468 1 0.011537432494260022 1 1 0.0019651088485836965 1 1 1 1 0.0089536815421203501 1 0.0058401768612465453 1 1 1 1 1 1 1 1 1 1 1 1 1 0.0084447119014467945 1 1 0.011783631192413805 1 1 1 1 1 1 1 1 1 1 1 1 1 1 1 1 1 0.01043497156258629 1 1 1 1 1 1 1 1 1 1 0.0097161869383807983 1 1 1 0.010198554667258867 0.011151656523792366 1 1 1 1 1 1 1 1 1 1 1 1 1 1 1 1 1 1 1 1 1 1 1 0.013396745506663376 1 1 0.0092935372196213464 1 1 0.014930636428425093 1 0.0093289370448978778 1 1 1 0.010059849419273331 1 0.015913795817795555 0.010160357758801624 1 1 1 1 1 1 1 1 1 1 0.0097707014758013615 1 1 1 1 1 1 1 1 1 1 1 1 1 1 1 1 1 1 1 1 1 1 1 1 1 1 1 1 1 1 1 1 0.010148701561813075 1 1 1 1 0.0099109847596760732 1 1 1 1 1 1 1 0.008955565579725145 1 1 1 1 1 1 1 1 1 0.0073988250444876162 1 0.0094252857155921153 0.01081813657900006 1 1 0.0036205797062805432 1 0.013534225246856442 1 1 1 1 1 1 1 1 0.01019357237074859 1 1 1 1 1 0.013425823419278553 1 1 1 1 1 1 0.011710174189245529 1 1 1 1 1 1 1 1 0.011032651019922905 1 0.014176075677118918 1 1 1 1 1 0.014289493736035523 1 0.01033981369873457 1 1 1 1 1 1 0.0099426042206893755 1 1 1 1 1 1 1 1 1 1 0.0095859844453577668 0.012706868665453033 1 1 1 1 0.013106042021390934 1 1 1 1 1 1 1 1 1 1 1 1 0.011561159309660276 1 1 0.01032304829615651 1 1 1 1 1 1 1 1 1 1 0.01031799775712245 0.010959562961324967 1 1 1 1 1 1 1 1 1 1 0.010438348527866324 1 0.011038973619751202 1 1 1 1 1 1 1 1 1 1 1 1 1 1 1 1 1 1 1 1 1 1 1 1 1 1 1 1 1 1 1 1 1 1 1 1 1 1 1 0.0095964384072853709 1 1 1 0.010595141628631906 1 0.0051345293136368271 1 0.0097909288313443796 1 1 0.010222381989542652 1 0.0070957098553151368 1 0.0087303137032021041 1 1 0.0062578099349095868 1 1 1 1 1 1 1 1 0.0075424352889165228 1 1 0.0130673594427603 1 1 1 1 0.006644199578596445 1 1 1 1 1 1 1 1 1 1 0.0070079398719738312 1 0.010734139598498518 1 0.0049012677526358295 1 0.0065628601800025686 1 0.012119813634006051 1 1 1 0.0099978722844256667 1 0.0053510668479166482 1 1 1 1 1 1 1 1 1 1 1 1 0.01062720479159664 1 1 0.01000001978346584 0.0068554670179288343 1 1 1 0.012083604829399377 1 1 0.0054143079876233964 1 1 0.0087219438378738148 1 1 1 0.0099561566932187852 1 1 1 1 1 0.006480578576063439 1 1 0.0041835155450751851 0.0038095725246689305 1 1 1 0.012221943486253578 0.0031338620960765923 0.0053260280545057437 1 1 0.0094510370931234471 1 1 0.0099286354984714983 1 1 1 1 1 1 0.0098439539810033054 1 1 0.011138119609858698 1 1 0.0038700773694442057 1 1 1 1 1 1 1 1 0.010715289494678816 1 1 1 1 1 0.0032406614050701256 0.012202475332819209 0.0064824265696666892 1 1 1 1 1 1 1 1 1 1 1 0.010283687178127669 1 1 1 1 0.010212557568776806 1 1 1 1 1 1 1 0.0047309723751225025 1 1 1 0.010654350649224034 1 0.0039492396647677411 1 0.0033540483198179066 1 0.010593605353079636 1 1 1 1 1 1 1 1 1 1 0.01024630123168277 1 1 1 1 1 1 1 1 0.00997625533001344 1 1 0.0099307701574111867 1 1 1 1 0.0099663422163468168 1 1 1 1 1 1 0.0069809386718001562 1 0.0098941126611819842 1 1 1 1 1 1 0.0055611733070108221 0.010347138420382292 1 1 1 1 0.010019235197785296 1 0.010125285194679395 1 1 1 0.008363430357175905 1 1 1 1 1 1 1 0.010168838331338071 0.0095601731561942502 1 1 0.0086893142987960331 1 0.010248859461875766 0.010000043378532726 0.0094763175992795892 1 1 1 1 1 1 1 0.0077063554513430192 1 1 1 1 1 1 1 1 1 1 1 1 1 0.0070132648986566577 1 1 1 1 1 1 1 1 1 1 0.0092531781760255838 1 1 0.0082820805914725487 1 1 1 1 1 0.0083109349939488389 1 1 1 1 1 1 1 1 0.005402374276726735 1 0.0032632659820417639 1 1 0.010258311612836846 1 1 0.0033758698401415224 1 1 1 1 0.0097533377082497305 1 1 1 1 1 0.0070929954026545672 1 1 1 1 1 1 1 1 1 0.0028857085303506461 1 1 0.0099628708543927913 0.0060630409886736139 1 1 1 1 0.0095758830001918191 1 0.0074314569088335062 1 1 0.011384439831592947 0.010785656283185986 1 0.0022967334361792694 1 0.011618569195344139 1 1 1 1 1 0.010339660114370021 1 1 1 0.021615870807466506 1 1 1 0.019821055278335407 1 1 1 1 1 1 1 1 1 1 0.010428016951051902 1 1 1 1 1 1 1 1 1 1 1 1 1 1 1 1 1 1 0.017618417390202739 1 1 0.014990866503992999 1 1 1 1 0.011796510313868571 1 1 1 1 1 1 1 1 1 1 1 1 1 1 1 1 1 1 1 1 1 1 1 1 1 1 1 1 1 1 1 1 1 1 1 1 1 1 1 1 1 1 1 1 1 1 1 1 1 1 1 1 1 1 1 1 1 1 0.0099017583003666743 1 1 1 1 1 1 1 1 1 1 1 1 1 1 1 1 1 1 1 0.0098540180418682944 1 1 1 1 0.0099522597415016116 1 1 1 1 1 1 1 1 1 1 1 1 1 1 1 1 1 1 0.0094863096402734749 1 1 1 1 0.0098363104952261336 1 1 1 1 1 0.0091724866500439567 0.013394570658546469 1 1 1 1 1 1 1 1 1 1 1 1 1 1 1 1 1 1 0.011980131523876661 1 1 1 0.015435302704511891 1 0.0077567766836939694 1 1 1 1 1 1 1 1 1 0.0080785562026568294 1 1 1 1 0.010302445035753546 0.011025071618708082 1 1 1 1 1 1 1 1 1 1 1 1 1 1 1 1 1 1 1 0.0098781689348969443 1 1 1 1 1 1 1 1 1 1 1 1 1 0.010719992197955091 1 1 1 1 1 1 1 1 1 1 1 1 1 1 1 1 1 1 1 1 1 1 0.0090603115309960888 1 1 1 1 1 1 1 0.0083153569047413264 1 1 1 0.008702329904707819 1 1 1 1 1 1 1 1 1 1 1 1 1 1 1 1 1 1 1 1 1 1 1 1 0.010195103958820928 1 0.010535836848676955 1 1 1 1 0.010532923178699152 1 0.01187688299078162 1 1 1 1 1 1 1 0.01038868852477017 1 1 1 1 0.0095193144386656447 1 1 1 1 1 1 1 1 1 1 1 0.010735465786952636 1 1 1 1 1 1 0.010892207932495478 1 0.0029455365298997529 1 1 1 1 1 0.011607925997252451 1 1 0.0037140416786565211 1 1 0.0098579293416888904 1 1 1 1 1 1 1 1 1 1 1 1 1 1 1 1 1 1 1 1 1 1 1 1 1 1 1 0.0056959687521009501 1 1 1 0.0098165199863648623 1 0.0019338772688195487 1 1 0.010005149086350199 0.010358591084405688 1 1 1 0.010055330103766181 1 1 1 1 0.0099540794700369688 1 0.0054768903625707112 1 1 0.011604044308091418 1 1 1 1 1 0.0081131481030254915 1 1 1 1 1 0.0097737583929904948 1 1 1 1 1 1 1 1 1 1 1 1 1 1 1 1 1 1 1 1 1 1 1 1 1 1 1 1 1 1 1 1 1 1 1 1 1 1 1 1 1 1 1 0.010872906557690907 0.0099673596095957856 1 1 1 1 1 1 1 1 1 1 1 1 1 1 1 1 1 1 1 1 1 1 1 1 1 1 1 1 0.011703443050301758 1 1 1 1 0.011516368022509675 1 1 1 1 0.0088217044543029005 1 1 1 1 1 1 1 0.0085849226805855029 1 2.6184144574781243e-09 1 1 1 1 1 0.009570087699845008 1 1 1 1 1 1 1 1 1 1 0.010029298929597707 1 1 1 1 1 1 1 1 1 1 1 1 1 1 1 1 1 1 1 1 1 1 1 1 1 0.00031168078446487061 1 1 1 1 0.0095359995288479531 1 2.9911396120380074e-09 1 1 0.0071906711402636055 1 0.012564925416548047 1 1 1 1 1 1 0.011691228811357753 1 1 1 0.010572699294582891 1 1 1 1 1 1 1 1 1 1 1 1 1 1 1 1 1 0.0097837574639739727 1 0.0079802728927868515 1 1 1 1 1 0.0076057553468715823 1 0.0097050481895896608 1 1 1 1 1 1 1 1 0.0096542816682511964 1 1 1 1 1 1 1 1 1 1 1 1 1 1 1 1 1 1 1 1 1 1 1 0.0098984656736004033 1 0.0091854816603301279 1 1 1 1 1 1 1 1 1 1 1 1 0.0095635566466193752 1 1 1 1 1 1 1 1 1 1 1 1 1 1 1 1 1 1 1 1 1 1 1 1 1 1 1 0.0016368825869981073 1 1 1 0.0099759777821403304 1 0.01184895312656048 -4.7811205133863055e-09 1 1 1 1 1 0.010271571845385616 1 1 1 1 1 1 1 1 1 1 1 1 1 1 1 1 1 1 1 1 1 1 1 1 0.0087673300514772481 1 1 0.013699489676501621 1 1 1 1 1 1 1 1 0.013995398624043786 0.015446513314131466 1 1 1 1 1 1 1 1 1 1 0.015346307600378849 1 1 0.0092728454599708583 0.010381627005342571 1 0.012585181789790465 1 1 1 1 1 0.0087318501277079928 1 0.0095744808081132567 0.012482606922124603 0.010015734044559608 1 1 1 1 1 1 0.012844096942925636 1 1 1 1 1 1 1 1 1 0.010349148055206382 1 0.0068971365118410295 1 1 0.010905219506721155 1 1 1 1 1 1 1 1 1 1 1 1 1 1 1 1 1 1 1 1 1 1 1 1 1 1 0.011149215079564801 0.0096987980415474042 1 1 1 1 1 1 1 1 1 1 1 1 1 1 1 1 1 1 1 1 1 1 1 1 1 1 1 1 1 1 1 1 1 1 1 1 1 1 1 1 1 1 1 1 1 1 1 1 1 1 1 1 1 1 1 1 0.016450878592255424 1 1 1 1 1 1 1 1 1 0.017290510723994571 0.010153764364193827 1 1 1 0.009711302306853407 1 1 1 1 1 1 1 1 1 1 1 1 1 1 1 1 1 1 1 1 1 1 1 1 1 1 1 1 1 1 0.011806197464227649 1 1 1 1 1 1 1 0.016907228058237654 1 1 1 1 1 1 1 0.012398511896805377 1 1 0.013692138491945473 1 1 1 1 1 1 1 1 1 0.010085333018983933 1 1 0.0075366924877487817 -1.1706256883986521e-09 1 1 1 0.018324391741962855 1 1 1 1 1 1 1 1 1 1 1 0.0062855542209385371 1 1 1 1 0.010031233128951248 1 0.016761967841465386 1 1 0.014633020838901768 1 1 0.012753291884135039 0.010665946338185853 1 1 1 1 1 1 1 1 1 1 0.0087383391870170298 0.013094551502203967 1 1 1 1 1 1 0.010045270787877458 1 1 1 1 1 1 0.0088552991613139297 1 0.0062564777386644628 1 1 1 1 1 0.010000868894460434 0.0099907423150644714 1 1 1 1 1 1 1 1 1 1 1 1 1 1 1 1 1 1 1 0.0077712113877301606 0.016398620011747852 1 1 0.012521123677244625 1 1 1 1 1 1 1 1 1 1 1 0.011542321760856991 1 1 1 1 1 1 1 1 1 1 1 1 1 1 1 1 1 1 1 1 1 1 1 1 1 1 1 1 0.0094177646341876368 1 1 1 1 0.009851373677822987 0.017118657909854087 1 1 1 1 1 1 1 0.0089155695683910477 1 0.031086825376633005 1 1 1 1 1 1 1 1 1 1 1 1 1 1 1 1 1 1 1 1 0.011380311116226319 0.013442412120086339 1 0.011474041014301311 1 1 1 1 1 0.012189761511278046 1 1 1 1 1 1 1 1 1 1 1 1 1 1 1 1 1 0.012452347813090181 1 1 1 1 1 1 1 1 1 1 1 0.01445493999818475 1 1 1 1 1 1 1 1 1 1 0.0082936531216030521 1 1 1 1 1 1 1 1 1 0.0060463515935276855 1 1 1 1 0.013911806638225237 1 1 1 0.0054623170574097032 1 1 1 1 0.0036734380556598806 1 1 1 1 1 1 1 1 1 0.0023812605303193818 1 1 1 1 0.010161195010896358 1 1 1 1 1 1 1 1 0.0099226588123157745 1 0.0081879341054320164 0.0097952640341203781 1 0.010690034393645662 0.0063384814132524826 1 1 1 0.012481446113294506 1 1 1 0.01013574045895542 1 0.010389660298556291 1 1 1 1 1 0.010862717125319511 1 1 1 0.0023757409064768947 1 1 1 1 1 1 0.018528629552461817 0.023178914646128639 1 1 1 1 1 1 1 1 1 1 1 0.0099699495503951605 1 0.015121929096959062 0.011393673029191406 1 1 1 1 1 0.003452382821698647 0.0065863278112353908 1 1 0.011469899597688238 1 1 1 1 0.011239365143985479 1 1 1 1 1 0.011504904034741848 1 1 1 1 0.010699688178875221 0.018610979601486343 1 1 0.014636401543426776 1 0.013208312428389544 0.010449607768987458 1 1 1 1 1 1 1 1 1 1 1 1 1 1 1 1 1 1 1 1 1 0.0093949152897365978 1 1 0.017367252576874173 1 0.010580352842438303 1 1 1 0.017493116792467685 1 1 1 1 1 1 0.0090918089631453324 0.011218859662318378 1 1 1 1 1 1 0.010249638968200072 1 1 0.017565550723310355 1 1 1 1 1 1 0.010601109930896215 1 1 1 0.0087954654141240447 1 1 1 1 1 1 0.0074232984541535377 1 1 1 1 1 1 1 1 1 1 1 1 1 0.0097895929255817204 1 0.010024830438559913 1 1 1 1 1 1 1 1 1 0.0098799496832521431 1 1 1 0.011238843737614329 1 1 1 1 1 1 1 1 1 1 0.010512802718199937 1 1 1 1 1 1 1 1 1 1 1 1 1 1 1 1 1 1 1 1 1 1 1 1 1 0.011623806204830087 1 1 1 0.017198756589664264 1 1 0.016920784212088265 1 1 1 1 1 0.012055711177947372 1 1 1 0.011012257815555581 1 1 1 1 1 1 1 0.011209726162820325 1 1 1 1 1 1 1 1 1 1 1 1 1 1 1 1 1 0.0099809192787619471 1 0.01060749787166293 1 1 1 1 1 1 1 1 1 0.0093751530666654464 1 0.012071432826959926 1 0.012863650936192071 1 0.015329178322347996 0.016696469527252893 1 1 1 1 0.009603428144671345 1 1 1 1 0.0099445179873265937 1 1 1 1 1 0.01149257743988974 1 0.012807928702661189 1 1 0.013498954958096967 1 1 1 1 1 1 1 1 1 1 1 1 1 1 1 1 1 0.010942519471138615 1 1 1 1 1 1 0.010360257624060171 1 1 1 1 1 0.014672119033062285 1 1 1 1 1 1 1 0.012933870116717228 1 1 0.01099950510050348 1 1 1 1 1 1 0.017159924303907469 1 1 1 0.01429093511230763 1 1 1 1 1 1 1 1 1 1 1 1 1 1 1 1 1 0.012861878120514154 1 1 1 1 1 0.010918300028739763 0.0099374166598926034 1 1 1 1 1 0.010524194027983319 1 0.0037422356044948396 1 0.012182892022823945 1 0.0056491033765717867 0.0069192858168936611 1 1 1 0.010176155766124165 0.0099929146846769873 1 1 1 1 1 1 1 1 1 1 1 1 1 1 1 1 1 1 1 1 1 1 1 1 1 1 1 1 1 1 1 1 1 1 1 1 1 1 0.0092040593124112849 1 1 1 1 1 1 1 0.010098864465898902 1 0.0033043338596377113 1 1 1 1 1 1 0.015840081115575638 1 1 1 0.010077205874151243 1 1 1 0.01263217098961647 0.02369183473671406 1 0.023535269211065978 1 1 1 1 1 1 0.0042886241788841171 1 1 0.010413906637478251 1 1 1 1 1 1 1 1 1 1 1 1 0.010264432897486957 0.0099965854720832949 0.016059530681950956 1 1 1 0.010130952631942568 1 1 1 1 1 1 1 1 1 1 1 1 1 1 1 1 1 1 1 1 1 1 0.023095047938757177 1 1 1 1 0.022859177896771811 1 1 1 1 1 1 1 0.020860491901063039 1 1 1 1 1 0.010000638334573465 1 1 1 1 1 0.019062801678807854 1 1 1 1 1 1 1 1 1 0.0097818954300016667 1 1 1 1 0.010002107436788175 1 1 1 1 1 1 1 1 1 1 0.0093748876246322541 1 1 0.0097799780437840666 1 1 1 1 1 1 1 1 1 1 1 1 1 1 1 1 1 1 1 1 0.010284890531609031 1 1 1 1 0.010578620575001038 1 1 1 1 1 1 1 1 0.009641164912096184 1 1 1 1 1 0.0093992860380723627 1 1 0.0097581211259761685 1 1 1 1 1 1 1 1 1 1 1 1 0.0076386296425576469 1 1 1 1 1 1 1 1 1 1 1 1 1 1 1 1 1 1 1 1 1 1 1 1 1 1 1 1 0.010294170379209931 1 1 1 1 1 1 1 1 1 1 1 1 1 1 0.010852675908414239 1 1 1 1 1 1 1 1 1 1 1 1 1 1 1 1 1 1 1 0.012024232720540477 1 1 1 1 1 1 1 0.011172918821708705 1 1 1 1 1 1 1 1 1 1 1 1 1 1 1 1 1 1 1 1 1 1 1 1 0.010148322181498602 1 1 1 1 1 0.010376321741380659 1 1 1 1 1 1 1 1 1 1 0.010029545787455867 1 1 0.0094501528400206744 1 0.010221459993229924 1 1 1 1 1 1 1 0.014427211104247379 1 0.012443497562334581 1 0.010470818981146343 1 1 1 1 1 1 1 1 1 1 1 1 1 1 1 1 1 1 1 1 1 1 1 1 1 1 1 1 1 1 1 1 1 1 1 1 0.011183285750046491 1 1 1 1 1 1 1 1 1 1 1 1 1 1 1 1 1 1 1 1 1 1 1 1 1 1 1 1 1 1 1 0.0098094260208661747 1 1 1 1 1 1 0.010159242300267268 0.0089153599701262912 1 1 1 1 1 1 1 1 1 1 1 1 1 0.010142504876893214 1 1 1 1 1 1 1 1 1 1 0.010857690388700623 0.01465059180873169 1 0.012978411765433477 1 1 1 0.009359810922844939 1 0.009806100554656777 0.01072920102850866 1 3.4753954922250863e-11 1 1 1 1 1 1 1 -1.5328768029204687e-10 0.013299822759116769 1 1 1 1 0.010405375568399676 1 1 1 1 1.7414106788515848e-10 1 0.011563425444823246 1 -1.8702140530679756e-12 0.014133721120230636 1 0.009743632756090222 1 1 1 1 1 0.010008046501346249 1 -2.8729140941208264e-10 0.011065810834895703 0.014866826534210082 0.0090300423464594552 1 1 1 1 1 0.010046088294403552 1 1 0.0028421976026289635 0.014189076944914773 1 1 1 0.010665062856721738 1 1 0.010041362928759434 1 1 1 1 -4.3904681444259519e-09 1 1 0.009858286239196332 1 1 0.014551992340637067 1 1 1 1 1 1 1 1 1 1 1 1 1 1 0.013195441376943132 1 0.011057779444582985 1 1 1 1 1 0.012182694225337602 1 1 0.010591846485223849 1 1 1 1 1 0.0100899430377135 1 1 1 1 1 1 1 1 1 1 0.0064052660617347421 1 1 1 1 1 1 1 1 1 1 1 0.010718320181735075 1 1 1 1 1 1 0.0018444725746296167 1 1 1 1 1 1 1 1 1 1 1 1 1 1 0.0035319991007115494 1 1 1 0.010156812276593912 1 1 1 1 1 1 1 0.0055418609489289138 1 0.0083591437717535216 1 1 1 1 1 1 1 1 1 1 1 1 1 1 1 1 1 1 1 1 1 1 1 1 1 1 1 1 1 1 1 1 1 1 1 1 0.011275279656518375 1 0.010257160831973826 1 1 0.013264178346703754 1 0.0087584012469753871 1 1 1 1 1 1 0.0066618297839488791 1 1 0.011429489976756864 0.0082273910161822453 1 1 1 1 1 1 0.0093261415818007322 1 1 1 1 1 1 1 0.012369298115299458 1 1 1 1 1 1 1 1 1 1 1 1 1 1 1 1 1 1 1 0.010854557397958063 1 1 1 0.0087745182852570491 1 0.010012990553685944 1 0.01030573169871972 1 1 1 1 0.0036623296490064863 1 1 1 1 1 1 0.0079952897560291239 1 1 1 1 1 1 0.0095444093965773164 1 1 0.0093900574543302195 1 1 1 1 1 1 0.0098440935782421746 1 1 1 1 1 1 1 1 1 0.0094519242008891877 1 0.011843166900826881 1 1 1 1 1 0.009112213457199328 0.015090917399966961 1 1 1 0.011044487030054007 0.009316164306599227 1 1 1 1 1 1 0.010260909506954987 1 1 0.0098988367036094912 0.011044584120775455 1 1 0.0086959155544549319 1 1 0.010851649784432316 1 1 1 1 0.011794351212739362 1 1 1 1 1 1 0.010250576046951461 1 1 1 1 1 1 1 1 1 1 0.010706453080470149 1 1 1 0.010350796124546917 0.0098449210182823821 1 1 1 1 1 1 1 1 1 0.011058698555050699 1 1 1 1 1 1 1 1 1 1 1 0.010075698074610374 0.013282380195732787 1 1 1 1 0.014229824297672035 1 1 1 1 0.011154972244945438 1 1 1 1 0.0098120544727781506 1 1 1 0.010384528417349791 1 1 1 1 0.010161847761004698 1 1 1 1 1 0.010064825425735724 1 1 1 1 0.010579730872005699 1 1 1 1 1 1 1 1 1 1 1 1 1 1 1 1 1 1 1 1 1 1 1 1 1 1 1 1 1 1 1 1 0.010891134203215212 1 1 1 1 0.011949832758265916 1 1 1 1 1 1 0.010670297625985741 1 1 1 0.010753691205269131 1 0.011141116607132099 1 1 1 1 1 1 1 1 1 1 1 1 1 1 1 1 1 1 1 1 1 1 1 0.010009979471742488 1 0.010016453327216634 1 1 1 0.0098029521653920509 1 1 1 1 1 1 1 1 1 1 1 1 1 0.0020227230823867647 1 1 0.0021030180443753557 1 1 0.016907881616689477 0.004067503695034563 1 0.003195540296433385 1 1 1 1 1 1 1 1 1 1 1 1 1 1 1 1 1 0.0062456671315641206 1 1 1 1 1 0.0061340133350607211 1 1 1 1 1 1 1 0.0071139037001573535 1 1 1 1 1 1 1 0.0098472796313427997 1 1 1 1 1 1 1 1 1 1 1 1 1 1 1 0.010076869414382773 1 1 1 0.01010385783004919 1 1 1 1 1 1 1 1 1 1 1 0.0098436471678576207 1 1 1 1 1 1 0.011774886583531881 1 1 0.010075800440845776 1 0.010082159457967262 1 1 1 0.0089309638360804446 1 1 1 1 1 1 1 1 1 1 1 0.0094887186734424426 1 1 1 1 1 0.010259813117679949 1 1 1 0.011872047412044631 1 1 1 0.015295149222246843 1 1 1 1 1 0.000497218551226088 1 3.0650509630358869e-09 1 1 1 1 1 1 1 1 0.011144144073401252 1 0.0096942381085560955 1 1 0.0054210940189672978 1 1.1548797872878991e-09 1 0.0099249448608671846 1 1 1 1 1 1 1 1 1 1 0.010141243186224905 1 4.9640961289482144e-09 1 1 1 1 0.010609705760008484 1 1 1 0.015376864421693233 0.0088282223504950671 1 1 1 0.0070966680462522871 1 0.012610686030922285 0.0057076486493040264 1 1 0.010534712026235647 0.001729481590074234 1 0.0045023515921185329 0.010066698166671453 1 1 0.010078469937756275 0.0078083178171190516 1 1 0.0082737898376274016 1 1 0.010016259165487991 1 0.009933308933673779 1 1 0.0087320089215022784 1 1 0.010814567967747692 1 0.010208203732285474 1 1 1 0.0084279537632529558 1 0.0099442385630638397 1 1 0.010138871816909201 0.0092869143999473672 1 1 1 0.0092791229831825431 0.0083010249222830595 1 0.010062557900712012 1 1 1 1 1 1 1 1 0.0097656976421468412 1 1 0.0062296489328108225 0.0089075856624020039 1 0.01074335107457227 1 0.0096276018031380903 0.0079796475714718068 1 1 1 0.0094881665386063116 1 1 0.010608114985323942 1 1 1 1 1 1 0.009892984895373054 0.0082731353684475442 1 1 1 1 1 1 1 0.010451353362542673 0.010130696524497197 1 1 1 1 0.014190763534345794 1 1 1 0.0099617547019676331 1 1 0.0099898237236492674 1 1 1 1 1 0.010815983435364378 1 1 0.0086849108634650674 1 1 1 0.01166741808714751 0.010354110447898281 1 1 0.010027142565810039 1 1 1 0.012175871840154229 1 1 1 0.017419993348625297 0.011391461580206534 1 1 0.014988885302068197 1 1 1 1 0.010019354516577206 0.017730472332017792 1 1 0.0081798601932863146 0.0099355171855878138 1 0.010003922612762554 1.223429891422656e-08 1 1 1 1 1 1 0.0039529479438226781 1 1 1 1 1 1 1 1 1 1 0.01152045302830992 0.01009071897732397 1 1 1 1 1 1 1 0.01032749381212103 1 1 1 1 1 1 1 1 1 0.0079376339990120948 1 1 0.0086832106299859491 1 1 0.0067774835002990808 1 1 1 1 1 1 1 1 1 1 1 1 1 1 1 1 1 1 0.0023905656710576616 0.0060905167195848438 1 1 1 1 0.0076381420478971208 1 1 0.0054508928185955652 1 1 1 1 1 1 1 1 1 0.0039187919896720158 1 1 0.010060575258686213 1 1 1 1 1 1 1 1 1 1 1 0.010416499553159028 1 0.011066069096811432 1 1 1 1 1 1 1 1 1 1 0.010075801575530764 1 1 1 1 1 1 1 1 1 1 1 1 1 1 1 1 1 1 1 1 1 1 1 1 1 1 1 1 1 1 1 1 1 1 1 1 1 1 1 0.0058451853952307571 1 1 1 1 1 1 1 1 1 0.010829508498009569 1 1 0.016578581933628486 1 1 1 1 1 1 1 1 1 1 1 1 1 1 1 1 0.022046208013147287 1 0.00061501719308031111 1 1 0.011089223427631103 1 1 1 0.009723586651065444 0.018934079845412625 1 0.01189250489891288 0.01984377668733936 1 0.0039246156552264662 1 1 0.0099767428572469299 1 1 0.011329459781379329 1 1 1 1 1 1 1 1 1 1 1 1 1 1 1 1 1 1 1 1 1 0.0095970796740560086 1 1 1 1 1 1 1 1 1 1 1 1 1 1 1 1 1 1 1 0.0105023636516852 1 1 1 1 1 0.0077392220435870095 1 1 1 1 1 1 1 1 1 1 1 1 1 1 1 1 1 1 1 1 1 1 1 1 0.0037392669577675196 1 1 1 1 1 1 0.010733856970556406 1 1 1 1 1 1 1 1 1 1 1 1 1 1 1 0.0081999956968948785 1 1 1 0.013473777209362679 0.0061795866295111575 1 1 1 0.012362346910427344 1 1 1 1 1 1 1 1 0.012014057616941326 1 1 1 1 0.010716162140394402 1 1 1 1 1 1 1 1 1 1 1 1 1 0.0084009220376394713 1 1 1 1 1 1 1 1 1 1 1 1 1 1 1 1 1 1 1 1 1 1 1 1 1 1 1 0.010344896369040202 1 1 1 1 1 1 1 1 1 1 1 1 1 1 1 0.008713016769683361 0.010108883033422555 1 1 1 0.0098213517033268194 1 1 1 1 1 1 1 1 1 1 1 1 1 1 1 1 1 1 1 1 1 1 1 1 1 1 1 1 1 1 0.0094166435252919321 1 1 1 1 1 1 1 1 1 1 1 1 1 1 1 1 1 1 1 1 1 1 1 1 1 0.010361567248549079 1 1 1 1 1 1 1 0.010972717908366625 1 1 1 0.011541934972840541 1 1 0.0095644917445529727 1 1 1 1 1 1 1 1 0.0099485993956775036 0.01074500655631358 1 1 1 1 1 0.01152875510361269 1 1 1 1 1 1 1 1 1 1 1 1 1 1 1 1 1 1 1 0.010644007233490429 1 0.011665002905036002 1 0.010141012122531471 1 1 1 0.0015169005192789704 1 0.0081876919613024703 1 1 1 1 1 1 1 1 1 1 1 1 1.6258254222079049e-09 1 1 1 1 0.010030957710969552 1 1 0.0041691320007382366 1 0.0053400806110929944 1 1 0.013149517244195472 1 1 1 0.010995672301231808 1 1 1 1 1 1 1 1 1 0.0068600837780856214 1 1 1 1 0.0063485043852733354 1 1 1 1 0.0051734021293184003 1 1 1 1 1 1 0.010232149988849198 1 0.016728465864978361 1 0.0033267539914330624 1 1 1 0.0067531631291678062 1 1 1 1 1 1 0.033016687022780392 0.031765506731040283 1 1 1 1 1 0.0086426206506084249 1 1 1 1 1 1 1 1 1 1 1 1 1 1 1 1 1 1 1 0.01460398861463851 1 1 1 1 1 1 1 1 1 -9.8602625803884125e-09 1 0.010061378486705441 1 0.01106017040307564 1 1 1 1 1 1 1 1 1 1 1 1 0.011189437726314996 1 1 1.2752663152912347e-09 1 1 1 1 1 1 1 1 1 0.01580864717768856 1 -2.100059860385417e-09 1 1 1 1 1 1 0.01196974184001965 1 1 1 1 1 1 1 1 1 1 1 1 1 1 1 1 1 1 1 1 1 1 1 1 1 1 1 1 1 1 1 1 1 1 1 1 1 1 1 1 1 0.01427394949700431 1 1 0.009980489620957116 1 0.010503509383202991 1 1 1 0.0037138443664284163 0.0099937029053483138 1 1 0.005646646551243935 1 1 1 1 1 1 1 1 1 1 1 1 0.0059599846754975275 1 1 1 1 1 1 1 1 1 1 1 1 0.0083940401752225311 1 1 1 1 1 1 1 1 1 1 1 1 1 1 1 0.0093585601997937494 1 1 1 1 1 0.0096006761453660203 1 1 1 1 1 1 1 1 1 0.010766332486729906 1 1 1 1 0.011268696138415095 1 1 1 1 1 1 1 1 1 1 1 0.0057013659881348898 1 0.010075884393595974 1 0.0099479481293862602 1 1 1 0.013233736401032875 1 1 1 1 1 1 1 1 1 1 1 1 1 1 1 1 1 1 1 1 0.0098391956196282881 1 1 1 1 1 1 1 1 1 1 1 1 1 1 1 1 1 1 0.0096604005945514493 1 1 1 1 1 0.01498322594089539 1 1 1 1 1 1 1 1 0.011149176850687358 1 1 0.013245721650405284 1 1 1 1 1 1 1 0.011185878881341246 1 1 1 1 1 1 1 1 1 0.012929035975552988 1 1 1 1 1 1 1 1 1 1 1 1 1 1 1 1 1 1 1 1 1 1 1 1 0.011406794250292552 1 0.013851695110380369 1 1 1.17642241330429e-08 1 1 1 1 1 1 1 1 0.010056133472230862 1 1 1 1 1 1 0.0073687740802428426 1 1 1 1 1 1 1 1 1 1 1 1 0.01246850175634428 1 1 1 1 1 1 1 1 1 1 1 1 1 1 0.011282622875003033 1 1 1 0.0064561736903850763 1 1 1 1 0.0089139438835970954 1 1 1 1 1 1 1 1 1 1 1 1 1 1 1 1 1 1 1 1 1 1 1 1 1 1 0.012708605751622885 1 1 0.010568517953142521 1 1 1 1 1 1 1 1 1 0.010784854583810337 1 1 0.010236868057869707 1 1 0.012160439074126665 1 1 1 1 1 1 1 1 1 1 1 1 1 1 1 1 1 1 1 1 1 1 1 1 1 1 1 1 1 1 1 1 1 1 1 1 1 1 1 1 1 1 1 1 1 1 1 1 1 1 1 1 1 1 1 1 1 1 1 1 1 1 1 0.01093121408744701 1 1 1 1 1 1 0.016667543150364433 1 1 1 1 1 1 1 1 1 1 1 0.012977273529271603 0.012612009167853986 1 1 0.010714212233886886 1 0.016984105692327226 1 1 0.022370481444125144 1 1 0.019323699177475777 1 1 1 1 1 1 1 1 0.011272069915119488 1 1 1 1 1 1 1 1 1 0.009984367772490798 1 1 1 1 0.011194154315465102 1 1 1 1 1 1 1 1 1 1 1 1 1 1 1 0.00918228473325991 1 1 1 1 0.020896326972223517 1 0.0099725000573025607 1 1 1 0.0099257222519556244 1 1 0.010483549003790071 1 1 1 1 1 1 1 1 1 1 1 0.017543379264798507 1 1 0.0056697392305947404 1 1 1 0.0025068566301024017 1 1 0.010538176803892223 0.023790107646832537 1 1 0.016547947012724429 1 1 1 1 1 1 1 1 0.016655587949134822 1 1 1 1 0.012932721968306068 1 0.023097922225606846 1 0.013263775033921558 1 1 1 1 0.015638901887502835 1 1 1 0.0084769067199615637 1 1 1 1 1 1 1 1 1 1 1 1 1 1 1 1 1 1 0.012267947924649388 1 1 1 1 1 1 1 1 1 1 1 1 1 1 1 1 1 1 1 1 1 1 1 1 1 1 1 1 1 1 1 1 1 1 1 1 1 1 1 1 0.014350385455101493 1 1 1 1 1 0.016724654336506981 1 1 1 1 1 1 1 1 1 1 1 1 1 0.0090411386866855806 1 1 0.0077068205984855073 1 1 1 0.014731300983296038 1 0.015926954559534294 1 1 1 1 0.0094403604292673197 1 1 1 1 1 1 1 1 1 0.017476800701104789 1 1 0.0098364276163125756 0.006659860683379995 1 0.014255037304800251 1 1 1 1 1 1 1 1 1 1 1 1 1 1 1 1 1 1 1 1 1 1 1 0.0039888070084000892 1 1 1 0.0060034118127186894 1 1 1 1 1 1 1 0.0085230009000037237 1 1 1 1 1 1 1 1 1 1 1 1 1 1 1 1 1 1 1 1 1 1 1 0.010782309413826806 1 1 1 1 1 0.011992621533713046 1 0.015347443184956077 0.0047378051338266185 1 1 1 0.014685530308327765 1 1 0.011544365289567475 1 1 1 1 1 1 1 1 1 1 1 0.0099988941877639428 1 1 1 0.00389577630191072 1 0.0080224103578120862 1 1 1 1 1 0.013968869362188399 1 0.0097486567336924346 1 0.007145351830849014 1 1 1 1 1 1 1 1 0.027795050682061111 0.009342549184571421 0.029378719432968704 1 1 0.010255496320452723 1 1 1 1 1 1 1 1 1 1 1 1 1 1 1 1 1 1 1 1 1 1 1 1 1 1 1 1 1 1 1 1 1 1 1 1 1 0.029214577857210922 1 1 1 1 1 1 1 0.027042854048648472 1 1 0.010014057607251303 1 1 1 1 1 1 1 1 1 1 1 1 1 1 1 1 1 1 1 1 1 1 1 0.028655511379639842 1 1 1 1 1 1 1 1 1 1 0.003930618206272286 1 1 1 1 2.1660433339315555e-08 1 1 1 1 0.021221675522843708 1 0.010066597050258043 0.0068034595268565146 1 1 1 1 0.0062568153830423467 1 1 0.011097279655190379 1 1 0.0075640428589493769 0.030127949508331753 1 1 1 1 1 1 1 0.0071315197406876842 1 1 1 1 1 1 1 1 1 1 1 1 1 0.0095928694722665613 1 1 1 1 1 1 1 0.0068496617948285623 0.0088081229553022746 1 0.00067649603030487532 1 0.021026375603238168 1 1 1 0.012257516777807901 1 1 1 1 1 0.011465555411003341 1 1 0.01052599774541968 1 1 1 1 1 1 1 0.0080989759702805343 1 1 1 1 1 1 1 1 0.010237980368853985 1 1 1 0.008156521277691297 1 1 1 1 1 0.0096258226842801213 0.005499922847503157 1 1 0.0088800820567344844 1 1 1 1 1 1 1 1 1 1 1 1 1 1 0.010357681228384062 1 1 0.0091548999492483581 1 0.010857447390578902 1 1 1 1 0.0092497910395262801 1 1 1 1 1 0.0046933776339739344 1 1 0.010125119945345967 0.0044474857279911302 1 1 1 1 0.011015287663025071 1 1 1 1 1 1 1 1 0.0040823494591902335 1 0.0092590769324778031 1 1 1 1 1 1 1 1 0.0039769181027768021 1 1 1 1 0.010290879036511536 1 1 1 1 1 1 1 1 1 1 1 1 1 1 1 1 1 1 1 1 1 1 1 1 1 1 1 1 1 1 1 1 1 0.010461166126919313 1 1 1 1 1 1 1 0.011289791994239965 1 1 1 1 1 1 1 1 1 1 1 1 0.010513659804481441 1 1 1 1 0.01157169440421745 1 1 1 1 1 1 1 1 1 1 1 1 1 0.0099904287653248946 1 1 0.010814168543116339 1 1 1 1 0.010322019261197399 1 1 1 1 1 1 1 1 1 1 1 0.010282470038593118 1 0.0097780880419333638 1 1 0.010097930410757971 1 1 1 1 0.012792426293628202 1 1 1 1 1 1 1 1 1 1 1 1 1 1 1 1 1 1 1 1 1 1 1 1 1 1 1 1 0.010745519575915047 1 1 1 1 0.0075329844681528285 1 1 1 1 1 1 1 1 1 0.01094953311370795 1 1 1 0.012937224185130282 1 1 1 1 1 1 0.0059504161097619201 1 0.014297216141880139 1 0.0088532647208316596 1 1 1 1 1 1 1 1 1 1 1 1 1 1 1 1 1 1 1 1 1 1 1 1 1 1 1 1 1 1 1 1 1 1 1 0.010219076818279191 1 0.011513418889755638 1 1 1 1 1 1 1 1 0.010333555261887886 1 1 1 1 1 1 1 1 1 1 1 1 0.009574955189801105 1 1 1 1 1 1 1 1 1 1 1 1 1 0.0098548097368402476 1 1 0.0090845350844802955 1 1 1 1 0.010144443258385941 1 1 1 1 0.0086963990371850403 1 1 1 1 1 0.0067093261848712726 0.0099855063647982453 1 0.010671407969178766 1 1 0.0072719983553112388 1 1 1 1 0.010111973167376973 1 0.0098718338963329696 1 1 1 1 1 1 1 1 0.009791659127064355 1 1 1 1 0.0083543379787637262 1 1 1 1 1 1 1 1 1 1 1 1 1 1 1 1 1 1 1 1 1 1 0.0084517687486344584 1 1 1 1 1 1 1 1 1 1 1 1 1 1 1 1 1 1 1 1 1 0.0068061067273981965 1 1 1 1 1 1 1 0.0076815597729108735 1 0.00924167973630639 1 1 1 1 1 1 1 1 1 1 1 1 1 1 1 1 1 1 1 1 1 1 1 1 1 1 0.013143195068209504 1 1 1 1 1 0.005967174276645823 1 0.0096240613406676362 1 1 1 1 0.0083124811578223837 0.012593552319911661 0.0092057175715024447 1 0.01482543941033455 1 1 1 0.0079079792696988317 1 1 1 1 0.0098978936994833511 1 0.013493664321838478 1 1 1 1 0.0099659473698968867 1 1 1 0.0084525820633907511 0.0077811488848523944 0.010233066431011975 1 0.014869714174555661 1 0.01354917207924114 1 1 0.01004929366845678 1 1 1 1 1 1 1 1 1 1 0.010528589887454153 1 0.010915703653665038 1 0.010817744400941423 1 1 1 1 0.012490065765833894 1 1 1 1 0.0092010445954961925 1 1 1 1 1 1 1 1 1 1 0.022534581965861989 1 0.0099008120871414331 1 1 0.003229198699393223 1 1 0.02764572337636757 1 1 1 1 1 0.0057219193009477101 1 1 1 1 1 1 1 1 1 1 1 1 0.011118166440076949 1 1 1 0.0075338456754213516 1 1 1 1 1 0.0090938884112051338 1 1 1 1 1 1 1 1 1 1 1 1 1 1 1 1 1 1 1 1 1 0.0099965826994185165 1 1 1 1 0.019884071559595679 1 1 1 0.017103484316899641 1 0.0095223708243027429 1 1 0.016903612647411845 1 0.010163616271076613 1 1 1 1 1 1 0.010252580522721204 1 1 1 1 0.01457405526672248 1 0.01959586710351395 1 1 1 1 1 1 1 0.010091057171655971 1 1 1 1 1 1 1 0.027086675879894575 1 1 1 1 1 1 1 1 1 1 1 1 1 1 1 1 1 0.010381936208167516 1 1 1 0.0097964025624301693 1 1 1 1 1 1 1 1 1 1 1 1 1 1 0.0093697679618040836 1 1 1 1 1 1 1 1 1 1 1 1 1 1 1 1 1 1 1 1 1 1 1 1 1 1 1 0.0075784712597306222 1 0.0048023753020574218 1 1 1 0.011503834950264439 1 1 1 0.0067128616896283272 1 1 0.0099577740603000245 0.00081696471720678343 1 1 1 1 1 1 1 1 0.0022059860419037722 1 1 0.0014088730455816718 1 1 1 1 0.0094969935992122827 1 0.0097930315902727272 1 1 1 0.0096552723774983237 1 1 1 1 1 1 1 1 1 1 0.0093275101292019727 1 1 0.010436895991137854 1 1 0.010000324051493035 1 1 1 1 1 1 1 0.014932945952688882 1 1 0.010349749629091678 0.00971760808699762 1 1 1 0.010017297307093324 1 1 1 1 1 1 0.0089617567353913723 1 1 1 1 0.019050778225640809 1 1 1 0.01088801758747514 1 1 1 1 0.010330560136025922 1 1 0.016138414705481365 1 1 1 1 1 1 1 1 1 1 1 0.0047431894536957148 1 1 1 1 0.0071591311732938142 1 0.0096272092091617984 1 0.0059193795873510868 1 0.0099293501281911556 1 1 1 1 1 1 1 1 1 1 1 0.0099682385127175324 0.008349449396865596 1 1 1 1 1 1 0.0099656255159729784 1 1 0.017210084966269766 1 1 1 1 1 1 0.0068210601896186301 1 1 1 0.0076864780406606173 1 0.017373790362843686 1 1 1 0.0086136769779578161 1 1 1 1 1 1 0.0090682135277162373 1 1 1 1 1 1 0.0094059487806111633 1 0.0099745890244645127 1 1 1 0.013997916541821462 1 1 1 1 0.0054644114171936778 1 1 1 1 1 1 1 0.01001279428957836 1 0.010643458330039809 1 0.0090528998263982117 1 1 1 0.011754564873244652 0.014262103856463117 1 1 0.011047691167750076 1 1 1 1 1 0.0087444749958895743 1 0.011140678312593468 0.013674843251115079 0.0094817235504622965 0.011329149118251954 1 1 1 1 1 0.019474309418343768 0.016411981469473362 1 1 0.01005880336529056 1 1 1 0.0096942633745256048 1 1 1 1 1 1 1 1 1 0.011873016831470354 1 1 1 0.0099843250379452742 1 1 1 1 1 1 1 0.01015829039988402 1 0.010100231160857153 1 1 1 1 0.011126537656899678 1 0.0092166388477366024 1 1 1 1 0.0095009715398931827 1 1 1 1 1 1 1 1 1 0.0098261278638649384 1 1 1 1 1 1 1 1 1 1 1 1 1 1 1 1 1 1 1 1 1 0.010071339613983701 1 1 1 1 0.010026407681429749 1 1 1 1 1 0.0069871049259690801 1 0.0099934361208785169 1 1 1 1 1 1 1 1 1 1 1 0.0099790363343535381 1 0.0099021206858394065 1 0.008961468569791721 0.011037020545240027 1 0.0099667688857490236 1 0.01081280477768754 1 1 1 0.0099138345658657603 1 1 1 0.010352916399390941 1 1 1 1 0.0094624098465851091 1 0.0096068873496872181 1 1 1 1 1 1 1 1 0.0099031016802452534 1 1 1 1 1 1 1 1 0.0098665006087787083 1 1 1 1 1 1 1 1 1 0.0099704374593514167 1 1 0.0096063218817415141 1 1 1 0.0098182948022705954 1 1 1 1 1 1 1 1 1 1 1 1 0.0098689097427917278 1 1 1 1 0.0067206494237373668 1 1 1 1 1 1 0.0088129448614858302 1 1 1 1 0.0099918802687061353 1 0.010390709858775689 1 1 1 1 1 1 1 0.011443696091415431 1 1 1 0.0099426074139675816 0.0099798011142974985 1 1 1 1 0.012372889110979545 1 0.0099963895170719907 1 1 0.005447298591076101 1 1 1 1 1 1 1 1 1 1 1 1 1 1 1 1 1 1 1 1 1 1 1 1 1 1 1 1 1 1 1 1 1 1 1 0.0084300962163546666 1 1 1 0.0040490493967174426 1 1 1 1 1 1 1 1 1 1 1 1 1 0.010076206644237284 1 0.012092396194301296 1 1 1 1 1 1 1 1 1 1 1 1 1 0.023045374386421968 1 1 0.023044210647403369 1 1 1 1 1 0.020021355078811316 1 1 1 1 1 1 1 1 1 1 1 1 1 1 1 1 1 1 1 0.017440501913785374 0.0021397421636210542 1 1 0.010433448707396806 1 1 0.0096810434250094099 1 1 1 1 1 1 1 0.012338898111846 1 1 1 1 0.016162327238592782 1 1 1 1 1 1 1 1 1 1 1 1 1 1 0.0079892792682772218 1 1 0.0081931270404003234 1 1 1 1 1 1 1 0.0086752638770649648 0.0086897127861775905 1 1 1 1 1 1 1 1 1 1 1 1 1 1 1 1 0.0094929866291034101 1 1 1 1 0.0095444252326034318 1 1 0.006104606616416916 1 1 0.024299280681732101 1 1 1 1 1 1 1 1 1 1 1 1 0.023032182076035947 1 1 1 1 0.022380121855453159 1 1 1 1 1 1 1 1 1 0.01250008160189171 0.0049135041578066557 0.0099430841392979582 1 1 1 0.0057215902161392752 1 1 0.015615118237617694 0.012369413383499919 1 0.015528063691455408 1 1 1 0.0097768185822577486 1 1 1 1 1 1 1 1 1 1 1 1 1 1 1 1 1 1 1 1 1 1 1 1 1 1 1 1 1 1 1 1 1 1 1 1 1 1 1 1 1 1 1 1 1 1 1 1 0.010376693411123525 1 0.010707951916869416 1 1 1 1 1 1 1 1 1 0.010508620281045988 1 1 1 1 1 1 0.011025199569278969 1 1 1 1 1 0.010515754235039946 1 1 1 1 1 1 1 1 1 1 1 1 1 1 1 0.0074313275965214101 1 1 1 1 1 1 1 0.010080771503866617 1 1 1 1 1 0.010303321794126654 0.0095187027456225745 1 1 1 1 0.009077309453685534 1 1 1 1 1 1 1 1 1 1 1 1 1 1 1 1 1 1 1 1 1 0.010636472263430792 1 1 1 1 1 1 0.0085790715858456157 1 1 1 0.011808534121026504 1 1 1 1 1 1 1 1 1 1 1 1 1 1 1 1 1 1 0.012759010834143006 1 0.0094086052215631485 1 1 1 1 1 0.0092492896993693202 0.010100332509978681 1 1 1 0.0092839773621261265 1 1 1 1 1 1 0.010224524009939662 1 1 1 1 1 0.0099354068575055951 1 0.0065916421961639063 1 1 0.0074249731486531884 1 1 1 1 0.0078195375533742853 1 1 1 1 0.0064925479198604738 1 1 1 1 0.0099971808349868171 1 1 1 1 1 1 1 1 1 1 1 1 1 0.011157141498116814 1 1 1 1 1 1 1 1 1 1 1 1 1 1 1 1 0.0076829014809998708 1 1 1 1 0.0066147923828567615 1 1 1 1 0.0096124668938839461 1 1 1 1 1 1 1 1 1 1 0.0088851840521559713 1 1 1 1 0.0095216141308892693 1 1 1 1 1 1 1 1 1 1 1 1 1 1 1 0.0093456051629994957 1 1 1 0.0091066937603000303 1 1 1 1 1 1 1 1 1 1 1 1 1 1 0.012070507872456801 1 1 1 1 1 1 1 1 1 1 1 0.0098899820347939163 1 1 0.0099938712803580368 1 1 1 1 1 1 0.015125450153997166 0.009379507928061373 1 1 1 1 0.009600222266064308 1 0.010261417211435281 1 1 1 0.015426277147993522 1 1 0.012076059763238146 1 1 1 1 1 1 1 1 1 1 1 1 1 1 1 1 0.012946840392876698 1 1 1 1 1 1 1 1 0.017353970613114139 0.011108478704110393 1 1 1 0.019055501090715729 0.011501866370788795 1 0.011035773352196679 1 0.011409466282156097 1 1 1 1 0.010633015810365985 1 1 1 1 1 1 1 1 1 1 1 1 1 0.010074124508813962 1 -6.2571592698845713e-10 1 1 1 1 1 1 1 1 0.011199602672900402 0.010000161774520825 1 1 0.0068739665299850988 0.013338231029008815 3.4906080109697868e-10 1 1 1 1 1 1 0.01000567965521067 1 1 0.0018498032802391484 1 1 0.010309245574212859 0.0078860322054644556 0.0092895369833485911 0.0090596788285760323 1 1 1 1 1 1 1 1 1 1 1 1 1 0.010652865315322627 1 1 0.012857987140593496 1 0.010066933573635334 1 1 1 1 1 1 1 0.010034888689325019 0.019834560104227558 1 1 0.018273390332121123 1 1 0.010193784189482663 1 1 1 1 0.0099005102699990851 0.0085810794608817739 0.011026430346368314 0.0079259561811688729 1 1 1 1 1 1 1 1 1 1 1 1 1 1 0.006074126531194636 1 1 0.017948160246904571 1 1 1 1 0.010107941200633996 1 1 1 0.0074413975782160694 1 1 0.017120145708998023 1 1 0.0099930384188501101 1 1 0.0079520486311056432 0.015239400795399946 1 0.015062786524199902 1 1 1 1 1 1 0.010709168729729537 1 1 1 1 0.0081835841917881 1 1 1 1 1 0.015137170599088466 1 1 0.010003307976254365 1 0.0078466563527372461 0.015232921589650174 1 1 1 0.0076374152559203524 1 1 1 1 1 0.0099314659464447494 1 1 1 0.0093485644086388035 1 1 1 0.0099295803874533163 1 1 1 1 1 1 1 0.0096395269285788534 1 1 1 1 1 0.011126447177337647 1 1 1 1 1 1 1 0.0091829838100828468 1 0.012455213594987967 0.0073867711729637842 1 1 0.010972067748007325 1 1 1 1 1 1 0.010729888834644551 1 1 1 1 1 1 0.015841990050938434 1 1 1 1 1 1 0.0090202646672247061 1 0.00078687625554719337 1 0.014199959121526247 1 1 0.0071155298540936836 1 1 1 1 0.018830645411654582 0.0097385002370129151 0.014197267960883005 0.0046486198665906357 1 1 1 1 1 1 1 1 0.018239649424168048 1 1 1 0.010005756701930131 1 0.012380908729893923 1 1 1 1 1 1 1 1 1 1 1 1 1 1 1 1 0.0073919682939867226 1 -2.4112136592924216e-09 1 1 1 1 1 1 1 1 0.0099976160930397556 1 1 1 1 1 0.0075828474484931855 1 1 0.0025731995055245753 1 1 1 1 1 1 0.0087499863791665536 0.00090680351664940151 1 1 7.4343922754072089e-09 1 1 1 1 1 1 1 1 1 1 1 0.010473058260908264 0.012395277453763337 1 1 1 1 0.0099658344048128549 1 1 1 1 1 1 1 1 1.3646073576678575e-09 1 1 1 1 0.0084259821658893719 1 1 1 1 1 1 0.0061604831697889828 1 0.0024610811113477543 1 0.0092731742911626516 1 1 1 1 1 1 1 1 1 1 1 1 1 1 1 1 1 1 0.010589849646909682 1 1 1 1 1 1 1 1 1 1 1 1 1 1 1 1 1 0.0099845871090865103 0.010332305091694015 1 1 1 1 1 1 1 1 1 1 1 1 1 1 1 1 1 1 1 1 1 1 1 1 1 1 1 1 1 1 1 1 1 1 1 1 1 1 1 1 1 1 1 1 1 0.0097994537417387811 1 0.0093580604498017094 1 1 1 1 1 1 1 0.01000563473483862 1 1 1 0.010505410749528942 1 0.0038745247351003424 0.0099784311451740059 0.0091602168431169674 1 0.0046092479240369012 0.011076414350524432 1 1 0.010034891746415218 0.0065886174712060305 0.0017288054849124435 1 1 1 1 1 0.0091724960856338633 1 0.0077445668797428494 0.0074327834250447825 1 1 1 1 1 1 1 0.0090223448087758881 1 1 0.0023803492067297587 1 1 0.0082183030699567415 0.012593012266340286 1 1 1 1 1 1 0.012670454766343433 1 1 0.0074637477552742968 0.013328328600530452 1 1 0.010000576064255865 1 1 1 0.01024456305717162 1 1 1 1 0.013139578003688195 1 1 1 0.0072700322375451945 1 1 0.012275226094842398 1 1 1 1 1 1 1 1 1 1 1 1 1 1 1 1 1 1 1 0.0085322880618196595 0.010248725495468129 1 1 1 0.017767970105405533 1 1 1 1 0.016156428717274157 1 1 1 1 1 0.010770579534105925 0.009557427633119564 1 1 1 1 1 1 1 1 1 0.010735950602397987 1 1 1 1 1 1 1 1 1 1 1 1 1 1 1 1 1 1 1 1 1 1 1 1 1 1 1 0.0099986877550219469 1 0.010775846777593946 0.010475188735741199 1 1 1 1 1 1 1 1 1 1 1 1 1 1 1 1 1 1 1 1 1 1 1 1 1 1 1 0.0095332125077582791 1 1 0.01002475192761215 1 1 0.011379270006144727 1 1 0.012798438803312405 1 0.0099193509836322385 1 1 1 1 1 1 1 0.010918658476972596 1 1 1 1 1 1 1 1 1 1 1 1 0.0088896247830877739 1 0.01024393080415964 1 0.010000954529246681 1 1 1 1 1 0.011279023764552535 1 1 1 1 0.010005272638307704 1 1 0.010084495093063181 1 1 1 1 1 1 1 1 0.0099820352782795801 1 1 1 1 1 1 0.0093803254980483614 1 1 1 1 0.009812382749239637 1 1 1 0.0099608373441200659 1 1 1 1 1 1 1 1 1 1 1 1 1 1 1 1 1 1 0.0099307175892591401 1 0.0099456961374218625 1 1 1 0.0099758060599060144 1 1 1 1 1 1 1 1 1 1 1 1 1 1 1 1 1 1 1 0.0036908298960866559 1 1 1 0.0099733008769599465 1 1 1 0.0099738769412158063 1 1 1 1 1 1 1 1 1 1 1 1 1 1 1 0.011982073173189625 1 1 1 1 0.010125707162661909 1 1 0.0057390177346954008 1 1 1 1 1 1 0.0097693252228049574 1 0.0093437828267291176 1 0.0064973508141607378 0.011820307498567668 0.010019018843947951 1 1 1 0.010052030301140942 0.0083460146033942015 1 1 1 1 1 1 1 0.0093063252871576907 1 1 1 0.0049688410613487229 1 0.011304905468170916 1 1 1 1 1 1 1 1 1 0.0081009827627795614 1 1 1 1 1 1 1 1 0.010484337484061766 1 1 1 1 0.010079534393837138 1 1 1 1 1 1 1 1 1 1 1 1 1 1 1 1 1 1 1 1 1 0.0096748576910344313 0.010727355416605834 1 1 1 1 1 1 1 1 0.0086870722571617161 1 1 1 1 1 1 1 1 1 1 0.0067288963120723591 1 1 1 1 1 1 0.014838792352002172 1 1 1 1 1 0.015001852957985411 1 0.010377971741645772 1 1 0.0090721376431227279 0.015914039243766019 1 1 1 1 1 1 1 1 1 1 1 1 1 1 1 1 1 1 1 1 1 1 1 1 1 1 1 1 1 1 1 1 1 1 1 1 1 1 1 1 1 1 1 1 1 1 1 1 0.0019146264682216602 0.01035878010627133 1 1 0.0013285320255222305 1 1 1 1 1 -9.5729983350112402e-09 0.0099028756663954443 1 1 0.010003560403970794 0.0069855919726153296 1 1 1 1 1 1 1 1 1 1 0.0059150747877791711 1 1 1 1 1 1 1 1 1 1 1 1 1 1 1 0.0069466268239993471 1 1 1 1 1 1 1 1 1 1 1 1 1 0.0014964580023963791 1 0.0062375596995029939 0.01528566864174922 0.013241880121146989 1 1 1 1 1 1 1 1 0.00039930258626856563 0.010055990512719435 1 1 1 1 0.01003313986578281 1 1 1 1 1 1 1 1 0.0061783453306935784 1 1 1 1 1 1 1 1 1 1 1 1 1 1 1 1 1 0.0026945154951819872 1 1 1 1 1 1 0.009311263080874585 1 1 0.0071923617349935881 1 1 1 1 1 1 1 1 1 1 1 1 1 1 1 1 1 1 0.010260157056110469 1 1 1 0.010540330608262309 1 1 0.010920248084317602 1 0.0036711620547490121 0.0094845092959140471 1 1 0.0057071828425666535 1 1 1 1.5804005387351494e-09 1 1 0.011614982224408633 1 0.012443156085689449 0.010903235934549692 1 1 1 1 0.012681680294797517 1 1 1 1 1 1 0.0051768061476869451 1 0.012491538485226349 1 1 1 0.0059583570529116274 1 1 1 1 0.01038442807994833 1 0.01089783490119786 0.010962138567400866 1 1 1 1 1 0.0100368906506089 1 0.011936615389051863 1 0.0059869172779876958 1 0.011606343840556137 0.0062672129585971854 1 1 1 1 1 1 1 0.0043451697652468384 1 0.0067743605971637231 1 1 0.013222998996713437 1 1 0.011906500412593099 1 1 1 1 1 1 1 1 1 1 1 1 1 1 1 1 1 1 1 1 1 1 1 1 1 1 1 1 1 1 1 0.012787865064449854 1 1 1 1 1 1 1 1 1 1 1 1 1 1 1 1 1 1 1 1 1 1 1 0.010031797039719625 1 1 1 1 1 0.0082247734034280942 0.011170634291605808 1 1 1 1 1 1 1 1 1 1 1 1 1 1 1 1 1 1 1 1 1 2.3122961861216096e-09 1 1 1 1 1 1 1 1 1 1 1 1 1 0.011166172379886957 1 0.0074793026876411959 1 1 1 0.0028758568191927479 1 1 1 1 1 1 1 1 0.0077211648714768533 1 0.014517658236786002 1 1 1 1 1 0.012848307671302198 1 1 1 1 1 1 1 1 1 1 1 0.014921855159950995 1 1 1 1 1 1 1 1 1 1 1 0.013866676202661569 1 1 1 1 1 1 1 1 0.011560886026584088 1 1 1 1 1 1 1 1 1 1 1 1 1 1 1 1 1 1 1 1 1 1 1 1 1 1 0.0078821566266103291 1 1 0.0048268450644034008 1 1 1 1 1 1 1 1 1 1 1 1 1 1 1 1 1 1 1 1 1 1 1 1 1 1 1 1 0.0024142434684411573 1 0.013688023859562975 1 0.0098579329946576408 1 1 1 1 1 0.013993949935797383 1 1 1 1 0.0099019816947059081 1 1 1 0.014865711441591441 1 1 1 1 1 1 1 1 1 1 1 1 1 1 1 1 1 1 0.012295946483005492 0.0029137890565128222 0.010097924861476218 1 1 1 1 1 1 1 1 1 1 1 1 1 0.0076594941781034341 1 1 1 1 1 1 1 1 1 1 1 1 0.010154261492145926 1 1 0.0050102890322369937 1 1 1 1 1 1 1 1 1 1 1 1 1 1 1 1 1 1 1 1 1 0.006944688437793077 0.0077896146789040218 1 1 1 1 1 1 1 1 1 1 1 1 1 1 0.0089637142140880383 1 1 0.0072342060903266576 1 1 1 1 0.0092675616369942981 1 1 1 1 1 1 0.0096878616401493492 1 1 1 1 1 1 1 1 1 1 1 1 1 1 1 1 1 1 0.0069191598818946435 1 1 1 1 1 0.0059491459332307681 1 1 1 1 1 1 1 1 1 1 1 1 1 1 1 1 1 1 1 1 1 1 1 1 1 1 1 1 0.011240858709582392 1 0.010564341662405483 1 1 1 1 0.0096548682560443355 0.010105490012603975 1 1 1 1 1 1 1 1 1 1 1 1 1 1 1 1 1 1 1 1 1 1 1 1 1 1 1 1 1 1 1 1 1 1 1 0.010746829701378448 1 1 1 1 0.0084763618210207427 1 1 1 1 1 1 1 1 1 1 1 0.0093472424457098167 1 1 1 1 1 1 1 1 1 1 1 1 1 1 1 1 1 0.011667247855018216 0.0095094041455365055 1 0.0085960225920627149 1 1 1 1 1 1 1 1 1 1 0.0084234644914419621 1 1 1 1 1 1 1 1 1 1 1 1 1 1 1 1 1 0.0094669032167517871 1 1 1 1 0.0076994944501763635 1 1 1 1 1 1 1 1 1 1 1 1 1 1 1 1 1 1 1 1 1 1 1 1 1 1 1 1 1 1 1 1 1 1 1 1 1 1 1 1 1 1 1 1 1 1 1 1 1 1 1 1 1 1 1 1 1 1 1 1 1 1 1 1 1 1 1 1 1 1 1 1 1 1 1 1 1 1 1 1 1 0.0096171226677914182 1 1 1 1 1 1 1 0.0098051318152441516 1 1 0.0095368348649707765 1 1 1 1 1 1 1 1 1 1 1 1 0.0088958595370373927 1 0.009278006913880435 1 0.0039603388494549654 1 1 1 1 1 1 1 1 0.0078167668378822594 1 1 1 1 1 1 1 1 1 0.0097316918886993994 1 1 1 1 1 1 1 1 1 1 1 1 1 1 1 1 1 1 1 1 1 0.013635504258411986 1 1 1 1 1 1 1 1 1 1 1 1 0.011190068791156471 1 1 1 1 1 0.010114529614130899 1 1 0.0080797499027739639 1 1 1 1 0.0061164153152343317 0.010049974386733013 1 1 0.0066379936740333448 1 1 1 1 1 1 1 0.019540941367308294 0.0086364587778555157 1 1 1 1 1 1 1 1 1 1 1 1 0.0088229017757335965 1 1 1 1 0.0076908296317211647 1 1 1 1 1 1 1 1 0.0088659447375148068 1 1 1 1 0.0088530840437463145 1 1 1 1 0.010802178136891834 1 1 1 1 1 1 1 0.010337954138775252 1 1 1 1 1 0.0092358458934740477 1 1 1 0.0080740070943448039 1 1 1 1 1 0.0072536857457875283 1 1 1 1 1 1 1 1 1 1 1 1 1 1 0.0071361053566615824 1 1 0.0074985756499516484 1 1 1 1 1 1 1 1 1 1 1 1 1 1 1 1 1 1 1 1 1 0.0098634079876176797 1 1 1.8628052572688958e-09 1 1 0.0099718507443135526 1 1 1 1 1 1 1 1 1 1 1 1 1 1 1 1 1 1 1 1 1 1 1 1 1 1 1 1 1 1 0.011927258725122028 1 1 1 1 0.0099930717462531835 1 1 0.012257524581847166 1 0.0099881446034521953 1 1 1 1 0.013289525401414606 1 0.00086918642009359628 1 1 0.0081700885309425805 1 0.012470853637536562 1 0.0076300740531612919 0.011686505646173906 1 1 0.004740476103811106 1 0.0020207022924875022 1 0.012077977833907884 1 1 0.0067471245738744343 1 1 1 1 1 1 0.0065500541382347774 1 0.0095300488085371046 1 1 0.0099234078994831776 0.0093660231671695258 1 1 0.010019641803510502 1 0.01064075769990841 1 1 0.0080150903737220627 1 1 0.011739580350485768 1 1 0.0061345330682835361 0.012586219119585081 0.011416564266780185 1 0.013540040682048476 1 1 1 1 1 1 1 1 0.010030716847515553 1 1 1 1 1 1 1 0.0096534790869341469 1 1 1 1 1 1 1 1 1 1 1 1 1 1 0.0087854341042708749 1 1 1 1 1 1 1 1 1 1 1 1 1 1 1 1 1 1 1 0.010827718374007223 1 1 1 1 1 1 1 1 1 1 1 1 1 1 1 1 1 1 1 1 1 1 1 1 1 1 1 1 1 1 1 0.0027373129584169955 1 1 1 0.00280105121819464 1 0.017260368814922419 0.011463340880029212 1 -6.3486661032452485e-09 1 1 1 0.00098702172207840166 1 1 1 1 0.0097546490689441809 0.0021960995515233478 0.010087674826560191 1 1 1 1 1 1 1 1 1 1 1 1 1 1 1 1 1 0.001824135536230358 1 1 1 1 1 1 1 1 1 0.0068907258512092232 1 1 1 0.0071349271063496731 1 1 1 1 1 1 1 1 1 1 1 1 0.0038415338482261727 1 1 0.0067066067418764964 1 1 1 1 1 1 1 1 1 1 1 1 1 1 1 1 1 1 1 1 1 1 0.0066216257305336153 1 1 1 1 1 1 1 1 1 1 1 1 1 1 1 1 1 1 0.0070971867701380593 1 1 1 1 1 1 1 0.010748425339321022 1 1 1 1 0.011841919216941672 1 1 1 1 1 1 1 1 1 1 1 1 1 1 1 1 1 1 1 1 1 1 1 1 1 1 1 1 1 1 1 1 1 1 1 0.0082086476909444244 0.0095455055758784033 1 1 1 1 0.013272709757611099 1 0.015618393674263722 1 1 1 1 1 0.016949376974767939 1 1 1 1 1 1 1 1 0.012167870565618417 0.009996409954349833 1 1 1 1 0.010789370752894687 1 1 1 1 1 1 1 1 1 1 1 1 1 1 1 1 1 1 1 1 1 0.010779106168439969 1 1 1 1 1 1 0.005819375647898653 1 1 0.0039397235013462796 1 1 1 1 1 1 1 1 1 0.011388812532953756 1 1 1 1 1 1 1 1 0.0107323942169491 1 1 1 1 1 1 1 1 1 1 1 1 1 1 1 1 1 0.010216422780968765 1 1 0.010890610811229981 1 1 1 1 1 1 1 1 1 1 1 1 1 1 1 1 1 1 1 1 1 1 1 1 1 1 1 1 1 0.012000127203759862 1 0.010906633326139194 1 1 1 1 1 1 1 1 1 1 1 1 1 1 1 1 1 1 1 1 1 1 0.0076641790588614367 1 1 1 0.0088916068190393518 1 1 1 1 1 1 1 1 1 1 1 1 0.0071142091732832556 1 1 1 0.0096863457581538547 0.0099980672308142265 1 1 0.0087277337026129831 1 1 1 1 1 1 1 1 1 0.0087710566192477808 1 1 1 1 1 1 1 1 1 1 1 1 1 0.0051542676739540425 1 0.010326237911449317 1 1 1 1 1 1 1 1 1 1 1 1 1 1 1 1 1 1 1 1 1 1 1 1 1 1 1 1 1 0.021144189309368327 1 1 1 1 1 1 0.01428844233646903 1 1 1 1 1 1 1 1 1 1 1 1 1 1 1 1 0.010225108291594771 1 0.0094912030131260282 1 1 1 1 1 1 1 0.010564631270565023 1 1 1 0.011291743827537656 1 1 1 1 0.0098978555604388157 1 1 1 1 1 1 0.0040844001724685865 1 1 1 1 0.0086132360372042187 1 0.008923995464348293 1 1 1 1 1 1 1 1 -1.3199148198028698e-10 0.0099717269822473236 1 1 1 0.014673025487965022 0.0046815774534252584 1 1 1 1 1 1 1 0.010236421697085996 0.0060621135903834444 1 0.01275259777975726 0.0099206752250218626 1 1 1 1 0.0092958373717164609 1 0.009762000993221354 1 1 1 1 1 1 0.0094874351790111607 1 1 1 1 0.009120680866339893 1 1 1 1 0.0077572527318206996 1 1 1 1 1 0.01462826488556758 1 1 0.0098330925040688438 1 1 1 1 0.0099107636996565093 1 1 1 1 1 1 1 1 1 0.0098741534032343869 0.017536807430783341 1 1 1 1 1 1 1 1 1 1 1 1 1 0.027129273357476079 1 0.028526887903303558 1 1 1 1 1 1 1 1 1 1 1 1 1 1 1 1 1 1 1 1 1 0.025042373624693769 1 1 1 1 1 1 1 1 1 1 1 1 1 1 1 1 1 1 1 1 1 1 1 1 1 1 0.010771912192188621 1 1 1 1 1 1 1 1 0.008164788344977655 1 0.012248317514977826 1 1 1 1 1 1 0.010125680156110237 1 1 1 1 1 1 1 1 1 1 1 1 1 1 1 1 1 1 1 1 1 1 1 1 1 1 -9.1224983816973193e-10 1 1 1 1 1 1 1 1 0.0086365294807933882 1 1 0.0098593288659783486 1 1 0.009990292304538146 1 1 1 1 1 0.0084168215403266217 1 1 1 1 1 1 1 1 1 0.010058391246414441 1 1 1 1 1 1 1 1 1 1 1 1 1 1 1 0.0099991443021042892 1 1 1 1 1 1 1 1 0.011652968203495899 1 1 1 1 1 1 1 1 1 1 1 1 1 1 1 1 1 1 0.010877403695726517 1 0.0081285666577536018 1 0.012677690482842143 1 1 0.010812547059998172 0.0047698416447854927 1 1 1 1 1 1 1 1 1 1 1 1 1 1 0.0080868477263583809 1 1 1 1 1 1 0.010167693346992473 1 1 1 0.0099586848438621631 1 1 1 1 1 1 1 1 1 1 1 1 8.465999481316322e-09 1 1 1 1 0.0033029184686069035 0.0060621886336779413 0.0078013486415564152 1 1 1 1 1 1 1 0.0096174623787467911 1 1 0.011115849781234137 1 0.0099368468039781055 1 0.0089031673042017333 1 1 1 1 1 0.010658795281325954 1 1 1 1 1 1 1 1 1 1 1 1 1 1 1 1 1 1 1 1 0.0042294663301194711 1 1 1 0.008751009398724769 1 0.011432315423331816 0.0046666073905395466 0.0086560492165385083 1 1 1 1 1 0.0095709540263528188 1 1 1 1 1 1 1 1 1 1 1 1 1 1 1 1 1 1 1 1 1 1 1 1 1 1 0.0027995395574485406 1 1 0.0036501819388784435 1 1 1 1 1 1 1 1 0.0067114678874666172 1 0.010070236368983292 1 1 1 1 1 1 1 1 0.0072365024201024569 1 1 1 1 0.0049772980149117461 1 1 0.010007309101359019 1 1 0.022890217704173193 1 1 1 0.0075817245404368114 1 1 1 1 1 1 1 1 1 1 1 1 1 1 1 1 1 1 1 1 0.010051219573161976 1 1 1 1 1 1 0.010501530404593057 1 1 1 1 1 0.0079085162475383969 1 1 1 1 1 0.0066349801243918115 1 0.0086293572040473734 0.011278807315282973 1 1 1 1 1 1 1 1 1 1 1 1 0.0099351099087727022 1 1 1 1 0.0075012847169071088 1 0.009710600812940404 0.009591219215527514 1 1 1 0.0071085635852013362 1 1 1 1 1 1 1 1 1 1 1 1 1 1 1 1 1 1 1 1 1 1 0.0032723048176494379 1 0.018643878607827936 1 1 0.009876337757632029 1 1 0.0085509264605165922 1 1 0.016625421617759487 1 1 1 0.019094807309909416 0.0097998347343312333 1 1 1 1 1 1 1 0.010178682327547083 1 1 1 1 1 1 1 1 0.012899009980416485 1 1 1 1 1 1 1 0.017806331315182767 1 1 1 0.01372008655599199 1 0.010997990297999746 0.0095504936641595713 1 1 1 0.0098432227479114294 1 1 1 1 1 1 1 1 1 1 1 1 1 1 1 1 1 1 1 1 1 1 0.010498198121593694 1 1 0.0099762450253513112 1 1 1 0.0086106937527579384 1 1 1 1 1 1 1 0.0079746151781369106 0.0098700368632257101 1 1 0.0090082961160608353 1 1 1 1 1 1 1 1 1 1 1 1 1 1 1 1 1 1 1 1 1 1 1 1 1 1 1 1 1 1 1 1 1 1 1 0.006778304340958826 1 1 1 1 1 1 1 0.010042155696117952 1 1 0.0098560146177250479 1 1 0.0043719015986604598 1 1 1 1 1 1 1 1 1 1 1 1 1 1 1 1 1 1 1 0.007830401957740157 1 1 1 1 0.0056664529825758928 1 1 1 1 1 1 1 1 1 1 0.0093982055617658211 1 1 1 1 0.018114606929235694 1 1 1 1 0.0080912378088630957 0.0047355788610182192 1 0.023375365657709438 1 1 1 1 1 1 1 1 1 1 1 1 1 1 0.016569670036325083 1 1 1 1 1 1 1 1 1 0.010079690334289182 1 1 1 1 1 1 1 1 1 1 1 1 1 1 1 1 1 1 1 1 1 1 1 1 1 1 1 1 1 1 1 1 1 1 1 1 1 1 1 1 1 0.010364101850408 1 1 1 1 0.0058943559405489274 1 1 0.010334136767192841 1 1 1 1 1 1 0.0011505202506580346 0.019895489504697349 1 1 1 1 0.0099902944860187307 1 1 1 1 1 1 1 1 1 1 1 1 1 1 1 1 1 1 1 1 1 1 1 1 1 1 1 1 1 1 1 1 1 1 1 1 1 1 1 1 1 1 1 1 1 1 1 1 1 1 1 1 1 1 1 1 1 1 1 1 1 0.015198318096033191 1 1 1 1 1 0.011988876136385645 1 0.0089488738712079838 1 1 1 1 1 1 1 1 1 
</DataArray>
</CellData>
</Piece>
</UnstructuredGrid>
</VTKFile>
